<?xml version="1.0"?>
<VTKFile type="UnstructuredGrid" version="0.1" byte_order="LittleEndian">
<UnstructuredGrid>
<Piece NumberOfPoints="31898" NumberOfCells="11152">
<Points>
<DataArray type="Float64" NumberOfComponents="3" format="ascii">
-0.5 -0.5 0 -0.47620991077874902 -0.44978878706170539 0 -0.49999999999999473 -0.42132396840504388 0 -0.5 -0.5 0 -0.47160970827802529 -0.4793630013852106 0 -0.47620991077874902 -0.44978878706170539 0 -0.5 -0.5 0 -0.47160970827802529 -0.4793630013852106 0 -0.44860394795025399 -0.5 0 -0.47160970827802529 -0.4793630013852106 0 -0.44860394795025399 -0.5 0 -0.4490820238307246 -0.45820516232899983 0 -0.44860394795025399 -0.5 0 -0.4490820238307246 -0.45820516232899983 0 -0.42881687682924802 -0.47781464288736519 0 -0.4490820238307246 -0.45820516232899983 0 -0.45555437223955858 -0.42914059360647611 0 -0.4490820238307246 -0.45820516232899983 0 -0.45555437223955858 -0.42914059360647611 0 -0.43867285131603428 -0.4271457417558665 0 -0.4490820238307246 -0.45820516232899983 0 -0.43867285131603428 -0.4271457417558665 0 -0.4263356171060747 -0.44269880333887462 0 -0.47160970827802529 -0.4793630013852106 0 -0.4490820238307246 -0.45820516232899983 0 -0.47620991077874902 -0.44978878706170539 0 -0.4490820238307246 -0.45820516232899983 0 -0.47620991077874902 -0.44978878706170539 0 -0.45555437223955858 -0.42914059360647611 0 -0.47620991077874902 -0.44978878706170539 0 -0.48101336032419229 -0.41069999664450008 0 -0.45555437223955858 -0.42914059360647611 0 -0.47620991077874902 -0.44978878706170539 0 -0.49999999999999473 -0.42132396840504388 0 -0.48101336032419229 -0.41069999664450008 0 -0.49999999999999473 -0.42132396840504388 0 -0.48101336032419229 -0.41069999664450008 0 -0.5 -0.393886241813306 0 -0.49999999999999473 -0.42132396840504388 0 -0.48101336032419229 -0.41069999664450008 0 -0.5 -0.393886241813306 0 -0.47854472220918332 -0.38978458738689759 0 -0.48422759779560409 -0.37130120630367158 0 -0.5 -0.393886241813306 0 -0.5 -0.36644851522156802 0 -0.48422759779560409 -0.37130120630367158 0 -0.48101336032419229 -0.41069999664450008 0 -0.5 -0.393886241813306 0 -0.47854472220918332 -0.38978458738689759 0 -0.48101336032419229 -0.41069999664450008 0 -0.47854472220918332 -0.38978458738689759 0 -0.46202672064839212 -0.40007602488395211 0 -0.48101336032419229 -0.41069999664450008 0 -0.46202672064839212 -0.40007602488395211 0 -0.47854472220918332 -0.38978458738689759 0 -0.46725442735267431 -0.37660061361585562 0 -0.46202672064839212 -0.40007602488395211 0 -0.47854472220918332 -0.38978458738689759 0 -0.46725442735267431 -0.37660061361585562 0 -0.48422759779560409 -0.37130120630367158 0 -0.46725442735267431 -0.37660061361585562 0 -0.46202672064839212 -0.40007602488395211 0 -0.46725442735267431 -0.37660061361585562 0 -0.45645674801697989 -0.38644133236760531 0 -0.46202672064839212 -0.40007602488395211 0 -0.46725442735267431 -0.37660061361585562 0 -0.45645674801697989 -0.38644133236760531 0 -0.4540003998136638 -0.37455519391687309 0 -0.45645674801697989 -0.38644133236760531 0 -0.46202672064839212 -0.40007602488395211 0 -0.44257020456291563 -0.38918913383950271 0 -0.46202672064839212 -0.40007602488395211 0 -0.44257020456291563 -0.38918913383950271 0 -0.44727608925983742 -0.41095911152778891 0 -0.46202672064839212 -0.40007602488395211 0 -0.44257020456291563 -0.38918913383950271 0 -0.44257020456291563 -0.38918913383950271 0 -0.44727608925983742 -0.41095911152778891 0 -0.43479358559901082 -0.4041454901736512 0 -0.44257020456291563 -0.38918913383950271 0 -0.4540003998136638 -0.37455519391687309 0 -0.44172858264042247 -0.37082207246888088 0 -0.45645674801697989 -0.38644133236760531 0 -0.44257020456291563 -0.38918913383950271 0 -0.4540003998136638 -0.37455519391687309 0 -0.46202672064839212 -0.40007602488395211 0 -0.45555437223955858 -0.42914059360647611 0 -0.44727608925983742 -0.41095911152778891 0 -0.46202672064839212 -0.40007602488395211 0 -0.45555437223955858 -0.42914059360647611 0 -0.48101336032419229 -0.41069999664450008 0 -0.46202672064839212 -0.40007602488395211 0 -0.45555437223955858 -0.42914059360647611 0 -0.44727608925983742 -0.41095911152778891 0 -0.43867285131603428 -0.4271457417558665 0 -0.43676601469929588 -0.41441201227470881 0 -0.44727608925983742 -0.41095911152778891 0 -0.43676601469929588 -0.41441201227470881 0 -0.43479358559901082 -0.4041454901736512 0 -0.45555437223955858 -0.42914059360647611 0 -0.44727608925983742 -0.41095911152778891 0 -0.43867285131603428 -0.4271457417558665 0 -0.43867285131603428 -0.4271457417558665 0 -0.42681803064840879 -0.42717069814352421 0 -0.4263356171060747 -0.44269880333887462 0 -0.42681803064840879 -0.42717069814352421 0 -0.41531815884496182 -0.42985383783075998 0 -0.4263356171060747 -0.44269880333887462 0 -0.42681803064840879 -0.42717069814352421 0 -0.42624289495594048 -0.42089725947505818 0 -0.42083332353326591 -0.42146747131641099 0 -0.42681803064840879 -0.42717069814352421 0 -0.43096994786351572 -0.41951492446283251 0 -0.42624289495594048 -0.42089725947505818 0 -0.43867285131603428 -0.4271457417558665 0 -0.42681803064840879 -0.42717069814352421 0 -0.43096994786351572 -0.41951492446283251 0 -0.43867285131603428 -0.4271457417558665 0 -0.43676601469929588 -0.41441201227470881 0 -0.43096994786351572 -0.41951492446283251 0 -0.43676601469929588 -0.41441201227470881 0 -0.43096994786351572 -0.41951492446283251 0 -0.42907264086257813 -0.41311715872526122 0 -0.43676601469929588 -0.41441201227470881 0 -0.42907264086257813 -0.41311715872526122 0 -0.43479358559901082 -0.4041454901736512 0 -0.42907264086257813 -0.41311715872526122 0 -0.43479358559901082 -0.4041454901736512 0 -0.42460885511582858 -0.40417321677700252 0 -0.42907264086257813 -0.41311715872526122 0 -0.41997834854398469 -0.41180534796019508 0 -0.42907264086257813 -0.41311715872526122 0 -0.42635027777857132 -0.41543594397746519 0 -0.41997834854398469 -0.41180534796019508 0 -0.42907264086257813 -0.41311715872526122 0 -0.41997834854398469 -0.41180534796019508 0 -0.42460885511582858 -0.40417321677700252 0 -0.42635027777857132 -0.41543594397746519 0 -0.41997834854398469 -0.41180534796019508 0 -0.42635027777857132 -0.41543594397746519 0 -0.42083332353326591 -0.42146747131641099 0 -0.41997834854398469 -0.41180534796019508 0 -0.43096994786351572 -0.41951492446283251 0 -0.42624289495594048 -0.42089725947505818 0 -0.42635027777857132 -0.41543594397746519 0 -0.43096994786351572 -0.41951492446283251 0 -0.42907264086257813 -0.41311715872526122 0 -0.42635027777857132 -0.41543594397746519 0 -0.42624289495594048 -0.42089725947505818 0 -0.42635027777857132 -0.41543594397746519 0 -0.42083332353326591 -0.42146747131641099 0 -0.42083332353326591 -0.42146747131641099 0 -0.41997834854398469 -0.41180534796019508 0 -0.40992282953163789 -0.42011435591993562 0 -0.41997834854398469 -0.41180534796019508 0 -0.39756877647335259 -0.40857286797681719 0 -0.41997834854398469 -0.41180534796019508 0 -0.40992282953163789 -0.42011435591993562 0 -0.39756877647335259 -0.40857286797681719 0 -0.40992282953163789 -0.42011435591993562 0 -0.41531815884496182 -0.42985383783075998 0 -0.39591554026262499 -0.42887225451549271 0 -0.41531815884496182 -0.42985383783075998 0 -0.39591554026262499 -0.42887225451549271 0 -0.41160927495564159 -0.44339431233754628 0 -0.42083332353326591 -0.42146747131641099 0 -0.40992282953163789 -0.42011435591993562 0 -0.41531815884496182 -0.42985383783075998 0 -0.42681803064840879 -0.42717069814352421 0 -0.42083332353326591 -0.42146747131641099 0 -0.41531815884496182 -0.42985383783075998 0 -0.44257020456291563 -0.38918913383950271 0 -0.42311368847744002 -0.37830224279505142 0 -0.42594061475171041 -0.39368797999533162 0 -0.44257020456291563 -0.38918913383950271 0 -0.42311368847744002 -0.37830224279505142 0 -0.44172858264042247 -0.37082207246888088 0 -0.44257020456291563 -0.38918913383950271 0 -0.42311368847744002 -0.37830224279505142 0 -0.42311368847744002 -0.37830224279505142 0 -0.42594061475171041 -0.39368797999533162 0 -0.416587075656149 -0.38785930376960043 0 -0.44257020456291563 -0.38918913383950271 0 -0.42594061475171041 -0.39368797999533162 0 -0.43479358559901082 -0.4041454901736512 0 -0.42594061475171041 -0.39368797999533162 0 -0.43479358559901082 -0.4041454901736512 0 -0.42460885511582858 -0.40417321677700252 0 -0.41997834854398469 -0.41180534796019508 0 -0.41325908582185972 -0.39811010703057192 0 -0.39770572831670092 -0.39911486077581648 0 -0.41997834854398469 -0.41180534796019508 0 -0.39770572831670092 -0.39911486077581648 0 -0.42594061475171041 -0.39368797999533162 0 -0.42460885511582858 -0.40417321677700252 0 -0.41325908582185972 -0.39811010703057192 0 -0.41997834854398469 -0.41180534796019508 0 -0.42460885511582858 -0.40417321677700252 0 -0.41325908582185972 -0.39811010703057192 0 -0.42594061475171041 -0.39368797999533162 0 -0.41325908582185972 -0.39811010703057192 0 -0.416587075656149 -0.38785930376960043 0 -0.41325908582185972 -0.39811010703057192 0 -0.416587075656149 -0.38785930376960043 0 -0.40403491357358612 -0.38133688525744702 0 -0.42311368847744002 -0.37830224279505142 0 -0.40403491357358612 -0.38133688525744702 0 -0.40365717239196519 -0.36741535175059892 0 -0.42311368847744002 -0.37830224279505142 0 -0.416587075656149 -0.38785930376960043 0 -0.40403491357358612 -0.38133688525744702 0 -0.40403491357358612 -0.38133688525744702 0 -0.39190790742475001 -0.38540387676521748 0 -0.39770572831670092 -0.39911486077581648 0 -0.40403491357358612 -0.38133688525744702 0 -0.39190790742475001 -0.38540387676521748 0 -0.3904578797192948 -0.37473938743617019 0 -0.41325908582185972 -0.39811010703057192 0 -0.40403491357358612 -0.38133688525744702 0 -0.39770572831670092 -0.39911486077581648 0 -0.39770572831670092 -0.39911486077581648 0 -0.37543310808941849 -0.38642437359143528 0 -0.39770572831670092 -0.39911486077581648 0 -0.37515920440272033 -0.40534038799344108 0 -0.37543310808941849 -0.38642437359143528 0 -0.39770572831670092 -0.39911486077581648 0 -0.37515920440272033 -0.40534038799344108 0 -0.39756877647335259 -0.40857286797681719 0 -0.37515920440272033 -0.40534038799344108 0 -0.37543310808941849 -0.38642437359143528 0 -0.37543310808941849 -0.38642437359143528 0 -0.3904578797192948 -0.37473938743617019 0 -0.37568304780698558 -0.36916333065311507 0 -0.39190790742475001 -0.38540387676521748 0 -0.37543310808941849 -0.38642437359143528 0 -0.3904578797192948 -0.37473938743617019 0 -0.37543310808941849 -0.38642437359143528 0 -0.37568304780698558 -0.36916333065311507 0 -0.39190790742475001 -0.38540387676521748 0 -0.39770572831670092 -0.39911486077581648 0 -0.37543310808941849 -0.38642437359143528 0 -0.41997834854398469 -0.41180534796019508 0 -0.39770572831670092 -0.39911486077581648 0 -0.39756877647335259 -0.40857286797681719 0 -0.40992282953163789 -0.42011435591993562 0 -0.39591554026262499 -0.42887225451549271 0 -0.39756877647335259 -0.40857286797681719 0 -0.37515920440272033 -0.40534038799344108 0 -0.39591554026262499 -0.42887225451549271 0 -0.39756877647335259 -0.40857286797681719 0 -0.37515920440272033 -0.40534038799344108 0 -0.39756877647335259 -0.40857286797681719 0 -0.37515920440272033 -0.40534038799344108 0 -0.39591554026262499 -0.42887225451549271 0 -0.37472313619600889 -0.43545561783144832 0 -0.39591554026262499 -0.42887225451549271 0 -0.39301703415267508 -0.44654444244683272 0 -0.37472313619600889 -0.43545561783144832 0 -0.39301703415267508 -0.44654444244683272 0 -0.37428706798929601 -0.46557084766945539 0 -0.37472313619600889 -0.43545561783144832 0 -0.39591554026262499 -0.42887225451549271 0 -0.39301703415267508 -0.44654444244683272 0 -0.41160927495564159 -0.44339431233754628 0 -0.39301703415267508 -0.44654444244683272 0 -0.40396056051613372 -0.45751466911048011 0 -0.41160927495564159 -0.44339431233754628 0 -0.40396056051613372 -0.45751466911048011 0 -0.39245383412573559 -0.47875733455523922 0 -0.41207507163844148 -0.46917161410542801 0 -0.40396056051613372 -0.45751466911048011 0 -0.38912381425271458 -0.46154275838996711 0 -0.39245383412573559 -0.47875733455523922 0 -0.40396056051613372 -0.45751466911048011 0 -0.39245383412573559 -0.47875733455523922 0 -0.40396056051613372 -0.45751466911048011 0 -0.40649676728151513 -0.45682610390212369 0 -0.40396056051613372 -0.45751466911048011 0 -0.38912381425271458 -0.46154275838996711 0 -0.39301703415267508 -0.44654444244683272 0 -0.40396056051613372 -0.45751466911048011 0 -0.38912381425271458 -0.46154275838996711 0 -0.39301703415267508 -0.44654444244683272 0 -0.38912381425271458 -0.46154275838996711 0 -0.37428706798929601 -0.46557084766945539 0 -0.38912381425271458 -0.46154275838996711 0 -0.37428706798929601 -0.46557084766945539 0 -0.38912381425271458 -0.46154275838996711 0 -0.38378714202547332 -0.47159002408209011 0 -0.37428706798929601 -0.46557084766945539 0 -0.38378714202547332 -0.47159002408209011 0 -0.39245383412573559 -0.47875733455523922 0 -0.37411677223754131 -0.47733161267270968 0 -0.39245383412573559 -0.47875733455523922 0 -0.37240076261097882 -0.48974555046165519 0 -0.37411677223754131 -0.47733161267270968 0 -0.38378714202547332 -0.47159002408209011 0 -0.37411677223754131 -0.47733161267270968 0 -0.37428706798929601 -0.46557084766945539 0 -0.38912381425271458 -0.46154275838996711 0 -0.38378714202547332 -0.47159002408209011 0 -0.39245383412573559 -0.47875733455523922 0 -0.38094710773533791 -0.49999999999999839 0 -0.39245383412573559 -0.47875733455523922 0 -0.38094710773533791 -0.49999999999999839 0 -0.39245383412573559 -0.47875733455523922 0 -0.37240076261097882 -0.48974555046165519 0 -0.38094710773533791 -0.49999999999999839 0 -0.39245383412573559 -0.47875733455523922 0 -0.40997732063196057 -0.5 0 -0.39245383412573559 -0.47875733455523922 0 -0.41207507163844148 -0.46917161410542801 0 -0.40997732063196057 -0.5 0 -0.41207507163844148 -0.46917161410542801 0 -0.40997732063196057 -0.5 0 -0.42881687682924802 -0.47781464288736519 0 -0.44860394795025399 -0.5 0 -0.40997732063196057 -0.5 0 -0.42881687682924802 -0.47781464288736519 0 -0.41207507163844148 -0.46917161410542801 0 -0.42881687682924802 -0.47781464288736519 0 -0.42627766738448791 -0.46032764904509182 0 -0.4490820238307246 -0.45820516232899983 0 -0.42881687682924802 -0.47781464288736519 0 -0.42627766738448791 -0.46032764904509182 0 -0.4490820238307246 -0.45820516232899983 0 -0.42627766738448791 -0.46032764904509182 0 -0.4263356171060747 -0.44269880333887462 0 -0.42627766738448791 -0.46032764904509182 0 -0.4263356171060747 -0.44269880333887462 0 -0.41655419253802572 -0.45404861160063659 0 -0.4263356171060747 -0.44269880333887462 0 -0.41160927495564159 -0.44339431233754628 0 -0.41655419253802572 -0.45404861160063659 0 -0.41531815884496182 -0.42985383783075998 0 -0.4263356171060747 -0.44269880333887462 0 -0.41160927495564159 -0.44339431233754628 0 -0.40396056051613372 -0.45751466911048011 0 -0.41160927495564159 -0.44339431233754628 0 -0.40649676728151513 -0.45682610390212369 0 -0.41160927495564159 -0.44339431233754628 0 -0.40649676728151513 -0.45682610390212369 0 -0.41655419253802572 -0.45404861160063659 0 -0.40396056051613372 -0.45751466911048011 0 -0.41160927495564159 -0.44339431233754628 0 -0.41207507163844148 -0.46917161410542801 0 -0.40649676728151513 -0.45682610390212369 0 -0.41655419253802572 -0.45404861160063659 0 -0.40396056051613372 -0.45751466911048011 0 -0.41207507163844148 -0.46917161410542801 0 -0.40649676728151513 -0.45682610390212369 0 -0.41207507163844148 -0.46917161410542801 0 -0.42627766738448791 -0.46032764904509182 0 -0.41655419253802572 -0.45404861160063659 0 -0.45662330498375908 -0.25656877445722759 0 -0.43445882011373449 -0.25478651907497341 0 -0.45662330498375908 -0.25656877445722759 0 -0.43445882011373449 -0.25478651907497341 0 -0.45034617445999431 -0.24335722649563979 0 -0.44999384684511368 -0.2755750489792308 0 -0.45662330498375908 -0.25656877445722759 0 -0.43445882011373449 -0.25478651907497341 0 -0.44999384684511368 -0.2755750489792308 0 -0.43077531442077321 -0.27459050524281542 0 -0.43445882011373449 -0.25478651907497341 0 -0.44999384684511368 -0.2755750489792308 0 -0.441361257405879 -0.29303276451920029 0 -0.43077531442077321 -0.27459050524281542 0 -0.44999384684511368 -0.2755750489792308 0 -0.4670541169931961 -0.26846056693166809 0 -0.46910519348062618 -0.28320526693770848 0 -0.44999384684511368 -0.2755750489792308 0 -0.4670541169931961 -0.26846056693166809 0 -0.45662330498375908 -0.25656877445722759 0 -0.45662330498375908 -0.25656877445722759 0 -0.47878778985378329 -0.25835102983948688 0 -0.4670541169931961 -0.26846056693166809 0 -0.45662330498375908 -0.25656877445722759 0 -0.47878778985378329 -0.25835102983948688 0 -0.45662330498375908 -0.25656877445722759 0 -0.47878778985378329 -0.25835102983948688 0 -0.47142395938804471 -0.23802335247430181 0 -0.47878778985378329 -0.25835102983948688 0 -0.5 -0.25669760885461612 0 -0.48361763707807442 -0.27426406281091331 0 -0.47878778985378329 -0.25835102983948688 0 -0.5 -0.25669760885461612 0 -0.4875835208682564 -0.24248539692068891 0 -0.5 -0.25669760885461612 0 -0.48361763707807442 -0.27426406281091331 0 -0.5 -0.28413533544635422 0 -0.4670541169931961 -0.26846056693166809 0 -0.47878778985378329 -0.25835102983948688 0 -0.48361763707807442 -0.27426406281091331 0 -0.4670541169931961 -0.26846056693166809 0 -0.48361763707807442 -0.27426406281091331 0 -0.46910519348062618 -0.28320526693770848 0 -0.46910519348062618 -0.28320526693770848 0 -0.48580896399913942 -0.29193665231809679 0 -0.47164434439118558 -0.29859902487093259 0 -0.48361763707807442 -0.27426406281091331 0 -0.46910519348062618 -0.28320526693770848 0 -0.48580896399913942 -0.29193665231809679 0 -0.5 -0.28413533544635422 0 -0.48580896399913942 -0.29193665231809679 0 -0.5 -0.3115730620380921 0 -0.48361763707807442 -0.27426406281091331 0 -0.5 -0.28413533544635422 0 -0.48580896399913942 -0.29193665231809679 0 -0.48580896399913942 -0.29193665231809679 0 -0.5 -0.3115730620380921 0 -0.48293754746551898 -0.30617437981156609 0 -0.48293754746551898 -0.30617437981156609 0 -0.47164434439118558 -0.29859902487093259 0 -0.47203566342767839 -0.31514771464943409 0 -0.48580896399913942 -0.29193665231809679 0 -0.48293754746551898 -0.30617437981156609 0 -0.47164434439118558 -0.29859902487093259 0 -0.47164434439118558 -0.29859902487093259 0 -0.46096111539772322 -0.3069557537098867 0 -0.47203566342767839 -0.31514771464943409 0 -0.46096111539772322 -0.3069557537098867 0 -0.44739706002137658 -0.30395698434733032 0 -0.45229582611609759 -0.31444164243390338 0 -0.46096111539772322 -0.3069557537098867 0 -0.45682111422556548 -0.29317658806621089 0 -0.44739706002137658 -0.30395698434733032 0 -0.47164434439118558 -0.29859902487093259 0 -0.46096111539772322 -0.3069557537098867 0 -0.45682111422556548 -0.29317658806621089 0 -0.44999384684511368 -0.2755750489792308 0 -0.46910519348062618 -0.28320526693770848 0 -0.45682111422556548 -0.29317658806621089 0 -0.46910519348062618 -0.28320526693770848 0 -0.47164434439118558 -0.29859902487093259 0 -0.45682111422556548 -0.29317658806621089 0 -0.44999384684511368 -0.2755750489792308 0 -0.45682111422556548 -0.29317658806621089 0 -0.441361257405879 -0.29303276451920029 0 -0.45682111422556548 -0.29317658806621089 0 -0.441361257405879 -0.29303276451920029 0 -0.44739706002137658 -0.30395698434733032 0 -0.441361257405879 -0.29303276451920029 0 -0.44739706002137658 -0.30395698434733032 0 -0.43527018611072049 -0.30465000121327751 0 -0.44739706002137658 -0.30395698434733032 0 -0.44024276041750632 -0.31887045497680111 0 -0.43527018611072049 -0.30465000121327751 0 -0.44739706002137658 -0.30395698434733032 0 -0.45229582611609759 -0.31444164243390338 0 -0.44024276041750632 -0.31887045497680111 0 -0.44024276041750632 -0.31887045497680111 0 -0.45653421084860168 -0.32646185290925811 0 -0.44024276041750632 -0.31887045497680111 0 -0.43930980958642257 -0.33554338078202212 0 -0.45653421084860168 -0.32646185290925811 0 -0.45229582611609759 -0.31444164243390338 0 -0.44024276041750632 -0.31887045497680111 0 -0.45653421084860168 -0.32646185290925811 0 -0.43930980958642257 -0.33554338078202212 0 -0.44966367396753332 -0.33841986907325933 0 -0.46855294336124231 -0.32873531729210143 0 -0.43930980958642257 -0.33554338078202212 0 -0.4507851133594416 -0.34910720111649318 0 -0.43930980958642257 -0.33554338078202212 0 -0.44966367396753332 -0.33841986907325933 0 -0.4507851133594416 -0.34910720111649318 0 -0.44966367396753332 -0.33841986907325933 0 -0.46855294336124231 -0.32873531729210143 0 -0.46386644800117471 -0.33586508895417932 0 -0.43930980958642257 -0.33554338078202212 0 -0.46855294336124231 -0.32873531729210143 0 -0.43930980958642257 -0.33554338078202212 0 -0.46855294336124231 -0.32873531729210143 0 -0.45653421084860168 -0.32646185290925811 0 -0.44966367396753332 -0.33841986907325933 0 -0.4586808436472537 -0.3401528003513713 0 -0.45711636988675219 -0.34547487934353349 0 -0.44966367396753332 -0.33841986907325933 0 -0.4586808436472537 -0.3401528003513713 0 -0.46386644800117471 -0.33586508895417932 0 -0.4586808436472537 -0.3401528003513713 0 -0.46472493826860672 -0.34236766697450172 0 -0.45711636988675219 -0.34547487934353349 0 -0.4586808436472537 -0.3401528003513713 0 -0.46472493826860672 -0.34236766697450172 0 -0.46386644800117471 -0.33586508895417932 0 -0.46855294336124231 -0.32873531729210143 0 -0.46207595183026873 -0.31834845619891672 0 -0.47203566342767839 -0.31514771464943409 0 -0.46855294336124231 -0.32873531729210143 0 -0.45653421084860168 -0.32646185290925811 0 -0.46207595183026873 -0.31834845619891672 0 -0.46096111539772322 -0.3069557537098867 0 -0.45229582611609759 -0.31444164243390338 0 -0.46207595183026873 -0.31834845619891672 0 -0.45229582611609759 -0.31444164243390338 0 -0.45653421084860168 -0.32646185290925811 0 -0.46207595183026873 -0.31834845619891672 0 -0.46096111539772322 -0.3069557537098867 0 -0.46207595183026873 -0.31834845619891672 0 -0.47203566342767839 -0.31514771464943409 0 -0.48293754746551898 -0.30617437981156609 0 -0.47203566342767839 -0.31514771464943409 0 -0.47770984076123751 -0.32964979107966252 0 -0.48293754746551898 -0.30617437981156609 0 -0.47770984076123751 -0.32964979107966252 0 -0.48293754746551898 -0.30617437981156609 0 -0.48763303240419292 -0.31981883507337211 0 -0.47770984076123751 -0.32964979107966252 0 -0.46855294336124231 -0.32873531729210143 0 -0.47203566342767839 -0.31514771464943409 0 -0.47770984076123751 -0.32964979107966252 0 -0.5 -0.3115730620380921 0 -0.5 -0.33901078862982997 0 -0.49048543526404831 -0.32960291085151988 0 -0.5 -0.3115730620380921 0 -0.48763303240419292 -0.31981883507337211 0 -0.49048543526404831 -0.32960291085151988 0 -0.5 -0.3115730620380921 0 -0.48293754746551898 -0.30617437981156609 0 -0.48763303240419292 -0.31981883507337211 0 -0.48763303240419292 -0.31981883507337211 0 -0.49048543526404831 -0.32960291085151988 0 -0.47770984076123751 -0.32964979107966252 0 -0.49048543526404831 -0.32960291085151988 0 -0.47770984076123751 -0.32964979107966252 0 -0.48708430315481122 -0.3479620774366432 0 -0.5 -0.33901078862982997 0 -0.49048543526404831 -0.32960291085151988 0 -0.48708430315481122 -0.3479620774366432 0 -0.47770984076123751 -0.32964979107966252 0 -0.47248213405695583 -0.35312520234775913 0 -0.47770984076123751 -0.32964979107966252 0 -0.47248213405695583 -0.35312520234775913 0 -0.48708430315481122 -0.3479620774366432 0 -0.46472493826860672 -0.34236766697450172 0 -0.47770984076123751 -0.32964979107966252 0 -0.47248213405695583 -0.35312520234775913 0 -0.46855294336124231 -0.32873531729210143 0 -0.46386644800117471 -0.33586508895417932 0 -0.47770984076123751 -0.32964979107966252 0 -0.46472493826860672 -0.34236766697450172 0 -0.46386644800117471 -0.33586508895417932 0 -0.47770984076123751 -0.32964979107966252 0 -0.47248213405695583 -0.35312520234775913 0 -0.48708430315481122 -0.3479620774366432 0 -0.48422759779560409 -0.37130120630367158 0 -0.5 -0.33901078862982997 0 -0.48708430315481122 -0.3479620774366432 0 -0.5 -0.36644851522156802 0 -0.48708430315481122 -0.3479620774366432 0 -0.5 -0.36644851522156802 0 -0.48422759779560409 -0.37130120630367158 0 -0.46725442735267431 -0.37660061361585562 0 -0.47248213405695583 -0.35312520234775913 0 -0.48422759779560409 -0.37130120630367158 0 -0.46725442735267431 -0.37660061361585562 0 -0.47248213405695583 -0.35312520234775913 0 -0.46725442735267431 -0.37660061361585562 0 -0.4540003998136638 -0.37455519391687309 0 -0.46226041713245919 -0.36267102145096558 0 -0.46725442735267431 -0.37660061361585562 0 -0.47248213405695583 -0.35312520234775913 0 -0.46226041713245919 -0.36267102145096558 0 -0.4540003998136638 -0.37455519391687309 0 -0.46226041713245919 -0.36267102145096558 0 -0.45167034254705118 -0.36337553476545958 0 -0.47248213405695583 -0.35312520234775913 0 -0.46226041713245919 -0.36267102145096558 0 -0.46130034509645268 -0.35111989715704561 0 -0.46472493826860672 -0.34236766697450172 0 -0.47248213405695583 -0.35312520234775913 0 -0.46130034509645268 -0.35111989715704561 0 -0.46472493826860672 -0.34236766697450172 0 -0.46130034509645268 -0.35111989715704561 0 -0.45711636988675219 -0.34547487934353349 0 -0.46130034509645268 -0.35111989715704561 0 -0.45711636988675219 -0.34547487934353349 0 -0.4507851133594416 -0.34910720111649318 0 -0.46226041713245919 -0.36267102145096558 0 -0.4507851133594416 -0.34910720111649318 0 -0.45167034254705118 -0.36337553476545958 0 -0.46226041713245919 -0.36267102145096558 0 -0.46130034509645268 -0.35111989715704561 0 -0.4507851133594416 -0.34910720111649318 0 -0.46226041713245919 -0.36267102145096558 0 -0.4507851133594416 -0.34910720111649318 0 -0.4507851133594416 -0.34910720111649318 0 -0.44504098357239391 -0.35771747353496869 0 -0.45167034254705118 -0.36337553476545958 0 -0.44966367396753332 -0.33841986907325933 0 -0.45711636988675219 -0.34547487934353349 0 -0.4507851133594416 -0.34910720111649318 0 -0.4507851133594416 -0.34910720111649318 0 -0.44408457896710762 -0.34741130507322732 0 -0.44504098357239391 -0.35771747353496869 0 -0.43930980958642257 -0.33554338078202212 0 -0.4507851133594416 -0.34910720111649318 0 -0.44408457896710762 -0.34741130507322732 0 -0.44408457896710762 -0.34741130507322732 0 -0.43834809566141358 -0.35386966642967582 0 -0.4310745521241639 -0.35060051531725012 0 -0.44408457896710762 -0.34741130507322732 0 -0.43834809566141358 -0.35386966642967582 0 -0.44504098357239391 -0.35771747353496869 0 -0.43834809566141358 -0.35386966642967582 0 -0.44504098357239391 -0.35771747353496869 0 -0.43256408976529492 -0.36260533289695268 0 -0.44504098357239391 -0.35771747353496869 0 -0.44172858264042247 -0.37082207246888088 0 -0.43256408976529492 -0.36260533289695268 0 -0.4540003998136638 -0.37455519391687309 0 -0.44172858264042247 -0.37082207246888088 0 -0.45167034254705118 -0.36337553476545958 0 -0.44504098357239391 -0.35771747353496869 0 -0.44172858264042247 -0.37082207246888088 0 -0.45167034254705118 -0.36337553476545958 0 -0.42311368847744002 -0.37830224279505142 0 -0.44172858264042247 -0.37082207246888088 0 -0.43256408976529492 -0.36260533289695268 0 -0.42311368847744002 -0.37830224279505142 0 -0.43256408976529492 -0.36260533289695268 0 -0.41867380740831611 -0.36398836527224071 0 -0.43256408976529492 -0.36260533289695268 0 -0.42210656065146929 -0.35476551363046099 0 -0.41867380740831611 -0.36398836527224071 0 -0.44408457896710762 -0.34741130507322732 0 -0.4310745521241639 -0.35060051531725012 0 -0.42443636388738298 -0.3390060521705498 0 -0.43834809566141358 -0.35386966642967582 0 -0.43256408976529492 -0.36260533289695268 0 -0.4310745521241639 -0.35060051531725012 0 -0.4310745521241639 -0.35060051531725012 0 -0.42266042161335821 -0.34652378860874011 0 -0.42210656065146929 -0.35476551363046099 0 -0.4310745521241639 -0.35060051531725012 0 -0.42266042161335821 -0.34652378860874011 0 -0.42443636388738298 -0.3390060521705498 0 -0.43256408976529492 -0.36260533289695268 0 -0.4310745521241639 -0.35060051531725012 0 -0.42210656065146929 -0.35476551363046099 0 -0.42210656065146929 -0.35476551363046099 0 -0.41243440171204931 -0.35621682403100541 0 -0.41867380740831611 -0.36398836527224071 0 -0.41243440171204931 -0.35621682403100541 0 -0.40365717239196519 -0.36741535175059892 0 -0.40302160193259851 -0.3439916005776541 0 -0.42210656065146929 -0.35476551363046099 0 -0.41714587076776338 -0.34786779488983011 0 -0.41243440171204931 -0.35621682403100541 0 -0.42266042161335821 -0.34652378860874011 0 -0.42210656065146929 -0.35476551363046099 0 -0.41714587076776338 -0.34786779488983011 0 -0.42266042161335821 -0.34652378860874011 0 -0.41714587076776338 -0.34786779488983011 0 -0.41853876063601031 -0.34037906703560689 0 -0.41714587076776338 -0.34786779488983011 0 -0.41853876063601031 -0.34037906703560689 0 -0.41714587076776338 -0.34786779488983011 0 -0.41243440171204931 -0.35621682403100541 0 -0.40302160193259851 -0.3439916005776541 0 -0.41714587076776338 -0.34786779488983011 0 -0.40302160193259851 -0.3439916005776541 0 -0.41853876063601031 -0.34037906703560689 0 -0.42311368847744002 -0.37830224279505142 0 -0.41867380740831611 -0.36398836527224071 0 -0.40365717239196519 -0.36741535175059892 0 -0.42311368847744002 -0.37830224279505142 0 -0.40365717239196519 -0.36741535175059892 0 -0.41243440171204931 -0.35621682403100541 0 -0.41867380740831611 -0.36398836527224071 0 -0.40365717239196519 -0.36741535175059892 0 -0.40403491357358612 -0.38133688525744702 0 -0.40365717239196519 -0.36741535175059892 0 -0.40403491357358612 -0.38133688525744702 0 -0.40365717239196519 -0.36741535175059892 0 -0.3904578797192948 -0.37473938743617019 0 -0.40365717239196519 -0.36741535175059892 0 -0.38979507995825918 -0.35965881973269581 0 -0.40365717239196519 -0.36741535175059892 0 -0.3904578797192948 -0.37473938743617019 0 -0.38979507995825918 -0.35965881973269581 0 -0.3904578797192948 -0.37473938743617019 0 -0.38979507995825918 -0.35965881973269581 0 -0.37568304780698558 -0.36916333065311507 0 -0.37568304780698558 -0.36916333065311507 0 -0.37593298752455201 -0.35190228771479481 0 -0.38979507995825918 -0.35965881973269581 0 -0.37568304780698558 -0.36916333065311507 0 -0.37593298752455201 -0.35190228771479481 0 -0.38979507995825918 -0.35965881973269581 0 -0.37595629511297179 -0.35029264644438168 0 -0.40302160193259851 -0.3439916005776541 0 -0.37595629511297179 -0.35029264644438168 0 -0.40302160193259851 -0.3439916005776541 0 -0.38842354837557669 -0.33756560667471242 0 -0.37595629511297179 -0.35029264644438168 0 -0.40302160193259851 -0.3439916005776541 0 -0.37595629511297179 -0.35029264644438168 0 -0.37607676276689278 -0.3419730509543204 0 -0.37390838074359528 -0.35076941925389299 0 -0.37595629511297179 -0.35029264644438168 0 -0.37607676276689278 -0.3419730509543204 0 -0.37595629511297179 -0.35029264644438168 0 -0.37593298752455201 -0.35190228771479481 0 -0.37390838074359528 -0.35076941925389299 0 -0.37595629511297179 -0.35029264644438168 0 -0.37593298752455201 -0.35190228771479481 0 -0.38979507995825918 -0.35965881973269581 0 -0.37595629511297179 -0.35029264644438168 0 -0.37593298752455201 -0.35190228771479481 0 -0.38979507995825918 -0.35965881973269581 0 -0.37593298752455201 -0.35190228771479481 0 -0.40365717239196519 -0.36741535175059892 0 -0.40302160193259851 -0.3439916005776541 0 -0.40365717239196519 -0.36741535175059892 0 -0.38979507995825918 -0.35965881973269581 0 -0.40302160193259851 -0.3439916005776541 0 -0.40302160193259851 -0.3439916005776541 0 -0.40263324863316441 -0.32967896077653092 0 -0.40263324863316441 -0.32967896077653092 0 -0.38842354837557669 -0.33756560667471242 0 -0.38442983343225828 -0.32189177462067481 0 -0.40302160193259851 -0.3439916005776541 0 -0.40263324863316441 -0.32967896077653092 0 -0.38842354837557669 -0.33756560667471242 0 -0.37607676276689278 -0.3419730509543204 0 -0.37641717267996733 -0.3184640617331177 0 -0.38842354837557669 -0.33756560667471242 0 -0.37607676276689278 -0.3419730509543204 0 -0.38442983343225828 -0.32189177462067481 0 -0.37607676276689278 -0.3419730509543204 0 -0.38442983343225828 -0.32189177462067481 0 -0.37595629511297179 -0.35029264644438168 0 -0.38842354837557669 -0.33756560667471242 0 -0.37607676276689278 -0.3419730509543204 0 -0.37607676276689278 -0.3419730509543204 0 -0.37641717267996733 -0.3184640617331177 0 -0.38442983343225828 -0.32189177462067481 0 -0.37641717267996733 -0.3184640617331177 0 -0.38442983343225828 -0.32189177462067481 0 -0.3841914044669909 -0.30132118344037401 0 -0.37641717267996733 -0.3184640617331177 0 -0.38442983343225828 -0.32189177462067481 0 -0.40263324863316441 -0.32967896077653092 0 -0.38442983343225828 -0.32189177462067481 0 -0.40185461233875269 -0.30098256284660307 0 -0.40263324863316441 -0.32967896077653092 0 -0.38442983343225828 -0.32189177462067481 0 -0.40263324863316441 -0.32967896077653092 0 -0.40185461233875269 -0.30098256284660307 0 -0.40263324863316441 -0.32967896077653092 0 -0.41242695344044827 -0.31820451366256841 0 -0.40185461233875269 -0.30098256284660307 0 -0.41242695344044827 -0.31820451366256841 0 -0.41920998916455232 -0.33677027649670849 0 -0.42301959421646518 -0.31628833020920039 0 -0.41920998916455232 -0.33677027649670849 0 -0.42301959421646518 -0.31628833020920039 0 -0.41242695344044827 -0.31820451366256841 0 -0.42301959421646518 -0.31628833020920039 0 -0.41541732284930832 -0.30730243798379953 0 -0.40302160193259851 -0.3439916005776541 0 -0.41920998916455232 -0.33677027649670849 0 -0.41853876063601031 -0.34037906703560689 0 -0.40302160193259851 -0.3439916005776541 0 -0.40263324863316441 -0.32967896077653092 0 -0.41920998916455232 -0.33677027649670849 0 -0.40263324863316441 -0.32967896077653092 0 -0.41920998916455232 -0.33677027649670849 0 -0.40263324863316441 -0.32967896077653092 0 -0.41242695344044827 -0.31820451366256841 0 -0.41920998916455232 -0.33677027649670849 0 -0.40302160193259851 -0.3439916005776541 0 -0.41853876063601031 -0.34037906703560689 0 -0.41853876063601031 -0.34037906703560689 0 -0.42443636388738298 -0.3390060521705498 0 -0.41920998916455232 -0.33677027649670849 0 -0.42443636388738298 -0.3390060521705498 0 -0.41920998916455232 -0.33677027649670849 0 -0.41853876063601031 -0.34037906703560689 0 -0.42443636388738298 -0.3390060521705498 0 -0.41920998916455232 -0.33677027649670849 0 -0.41853876063601031 -0.34037906703560689 0 -0.43930980958642257 -0.33554338078202212 0 -0.44408457896710762 -0.34741130507322732 0 -0.42443636388738298 -0.3390060521705498 0 -0.43930980958642257 -0.33554338078202212 0 -0.42443636388738298 -0.3390060521705498 0 -0.42301959421646518 -0.31628833020920039 0 -0.41920998916455232 -0.33677027649670849 0 -0.42443636388738298 -0.3390060521705498 0 -0.42301959421646518 -0.31628833020920039 0 -0.44408457896710762 -0.34741130507322732 0 -0.42443636388738298 -0.3390060521705498 0 -0.42266042161335821 -0.34652378860874011 0 -0.41853876063601031 -0.34037906703560689 0 -0.42443636388738298 -0.3390060521705498 0 -0.43930980958642257 -0.33554338078202212 0 -0.42443636388738298 -0.3390060521705498 0 -0.43930980958642257 -0.33554338078202212 0 -0.42301959421646518 -0.31628833020920039 0 -0.44024276041750632 -0.31887045497680111 0 -0.42395130998641067 -0.31127905704434472 0 -0.44024276041750632 -0.31887045497680111 0 -0.43930980958642257 -0.33554338078202212 0 -0.42301959421646518 -0.31628833020920039 0 -0.44024276041750632 -0.31887045497680111 0 -0.42301959421646518 -0.31628833020920039 0 -0.42395130998641067 -0.31127905704434472 0 -0.42301959421646518 -0.31628833020920039 0 -0.42395130998641067 -0.31127905704434472 0 -0.42395130998641067 -0.31127905704434472 0 -0.42709180872781188 -0.29439449141065738 0 -0.44024276041750632 -0.31887045497680111 0 -0.42395130998641067 -0.31127905704434472 0 -0.43527018611072049 -0.30465000121327751 0 -0.42395130998641067 -0.31127905704434472 0 -0.42709180872781188 -0.29439449141065738 0 -0.41541732284930832 -0.30730243798379953 0 -0.42395130998641067 -0.31127905704434472 0 -0.43527018611072049 -0.30465000121327751 0 -0.42709180872781188 -0.29439449141065738 0 -0.441361257405879 -0.29303276451920029 0 -0.43527018611072049 -0.30465000121327751 0 -0.42709180872781188 -0.29439449141065738 0 -0.42709180872781188 -0.29439449141065738 0 -0.43077531442077321 -0.27459050524281542 0 -0.42709180872781188 -0.29439449141065738 0 -0.41684225135067149 -0.28376244362903152 0 -0.43077531442077321 -0.27459050524281542 0 -0.441361257405879 -0.29303276451920029 0 -0.42709180872781188 -0.29439449141065738 0 -0.441361257405879 -0.29303276451920029 0 -0.42709180872781188 -0.29439449141065738 0 -0.43077531442077321 -0.27459050524281542 0 -0.42709180872781188 -0.29439449141065738 0 -0.41684225135067149 -0.28376244362903152 0 -0.40618483967714292 -0.29638963380315841 0 -0.42709180872781188 -0.29439449141065738 0 -0.40618483967714292 -0.29638963380315841 0 -0.41684225135067149 -0.28376244362903152 0 -0.40690107601488551 -0.28490397733270861 0 -0.40618483967714292 -0.29638963380315841 0 -0.41541732284930832 -0.30730243798379953 0 -0.40185461233875269 -0.30098256284660307 0 -0.40618483967714292 -0.29638963380315841 0 -0.42709180872781188 -0.29439449141065738 0 -0.41541732284930832 -0.30730243798379953 0 -0.40618483967714292 -0.29638963380315841 0 -0.41541732284930832 -0.30730243798379953 0 -0.40618483967714292 -0.29638963380315841 0 -0.41242695344044827 -0.31820451366256841 0 -0.41541732284930832 -0.30730243798379953 0 -0.40185461233875269 -0.30098256284660307 0 -0.41541732284930832 -0.30730243798379953 0 -0.40185461233875269 -0.30098256284660307 0 -0.42301959421646518 -0.31628833020920039 0 -0.41541732284930832 -0.30730243798379953 0 -0.42395130998641067 -0.31127905704434472 0 -0.41541732284930832 -0.30730243798379953 0 -0.42301959421646518 -0.31628833020920039 0 -0.42395130998641067 -0.31127905704434472 0 -0.41541732284930832 -0.30730243798379953 0 -0.38442983343225828 -0.32189177462067481 0 -0.40185461233875269 -0.30098256284660307 0 -0.39448508010510541 -0.297525044214214 0 -0.40185461233875269 -0.30098256284660307 0 -0.40174149504185092 -0.29681366012781812 0 -0.40618483967714292 -0.29638963380315841 0 -0.40185461233875269 -0.30098256284660307 0 -0.40174149504185092 -0.29681366012781812 0 -0.40185461233875269 -0.30098256284660307 0 -0.39448508010510541 -0.297525044214214 0 -0.40174149504185092 -0.29681366012781812 0 -0.40185461233875269 -0.30098256284660307 0 -0.39448508010510541 -0.297525044214214 0 -0.39448508010510541 -0.297525044214214 0 -0.40174149504185092 -0.29681366012781812 0 -0.37641717267996733 -0.3184640617331177 0 -0.37669606201677502 -0.29920373422444158 0 -0.38442983343225828 -0.32189177462067481 0 -0.39448508010510541 -0.297525044214214 0 -0.38442983343225828 -0.32189177462067481 0 -0.39448508010510541 -0.297525044214214 0 -0.3841914044669909 -0.30132118344037401 0 -0.37641717267996733 -0.3184640617331177 0 -0.3841914044669909 -0.30132118344037401 0 -0.37669606201677502 -0.29920373422444158 0 -0.39448508010510541 -0.297525044214214 0 -0.3841914044669909 -0.30132118344037401 0 -0.37928718982873688 -0.29895646409505849 0 -0.39448508010510541 -0.297525044214214 0 -0.37928718982873688 -0.29895646409505849 0 -0.3841914044669909 -0.30132118344037401 0 -0.37928718982873688 -0.29895646409505849 0 -0.3841914044669909 -0.30132118344037401 0 -0.37928718982873688 -0.29895646409505849 0 -0.37669606201677502 -0.29920373422444158 0 -0.37928718982873688 -0.29895646409505849 0 -0.37669606201677502 -0.29920373422444158 0 -0.37671758341694961 -0.29771744858697219 0 -0.37928718982873688 -0.29895646409505849 0 -0.37671758341694961 -0.29771744858697219 0 -0.37928718982873688 -0.29895646409505849 0 -0.37669606201677502 -0.29920373422444158 0 -0.37669606201677502 -0.29920373422444158 0 -0.37671758341694961 -0.29771744858697219 0 -0.37671758341694961 -0.29771744858697219 0 -0.38607699004493318 -0.28757386461908069 0 -0.38483052758877101 -0.28123782127595193 0 -0.37671758341694961 -0.29771744858697219 0 -0.3770412393053626 -0.27536550612006683 0 -0.37671758341694961 -0.29771744858697219 0 -0.38483052758877101 -0.28123782127595193 0 -0.3770412393053626 -0.27536550612006683 0 -0.37928718982873688 -0.29895646409505849 0 -0.37671758341694961 -0.29771744858697219 0 -0.38467000758835601 -0.29297497791584359 0 -0.37671758341694961 -0.29771744858697219 0 -0.38467000758835601 -0.29297497791584359 0 -0.38607699004493318 -0.28757386461908069 0 -0.39448508010510541 -0.297525044214214 0 -0.37928718982873688 -0.29895646409505849 0 -0.38467000758835601 -0.29297497791584359 0 -0.39448508010510541 -0.297525044214214 0 -0.38467000758835601 -0.29297497791584359 0 -0.39448508010510541 -0.297525044214214 0 -0.38467000758835601 -0.29297497791584359 0 -0.39217701296355612 -0.28987936211692023 0 -0.38467000758835601 -0.29297497791584359 0 -0.38607699004493318 -0.28757386461908069 0 -0.39217701296355612 -0.28987936211692023 0 -0.38607699004493318 -0.28757386461908069 0 -0.39049541959166939 -0.28414526237041138 0 -0.39217701296355612 -0.28987936211692023 0 -0.39049541959166939 -0.28414526237041138 0 -0.39420405367365152 -0.27853706101481662 0 -0.38483052758877101 -0.28123782127595193 0 -0.38607699004493318 -0.28757386461908069 0 -0.39049541959166939 -0.28414526237041138 0 -0.38483052758877101 -0.28123782127595193 0 -0.39597078832761667 -0.28551153658085893 0 -0.40174149504185092 -0.29681366012781812 0 -0.40123596036735593 -0.27818233727432817 0 -0.39049541959166939 -0.28414526237041138 0 -0.39597078832761667 -0.28551153658085893 0 -0.39420405367365152 -0.27853706101481662 0 -0.40174149504185092 -0.29681366012781812 0 -0.40123596036735593 -0.27818233727432817 0 -0.40174149504185092 -0.29681366012781812 0 -0.40322207619149192 -0.29288764445213411 0 -0.40123596036735593 -0.27818233727432817 0 -0.39049541959166939 -0.28414526237041138 0 -0.39597078832761667 -0.28551153658085893 0 -0.39217701296355612 -0.28987936211692023 0 -0.39597078832761667 -0.28551153658085893 0 -0.39217701296355612 -0.28987936211692023 0 -0.40174149504185092 -0.29681366012781812 0 -0.39448508010510541 -0.297525044214214 0 -0.39217701296355612 -0.28987936211692023 0 -0.40174149504185092 -0.29681366012781812 0 -0.40690107601488551 -0.28490397733270861 0 -0.40322207619149192 -0.29288764445213411 0 -0.40618483967714292 -0.29638963380315841 0 -0.40174149504185092 -0.29681366012781812 0 -0.40322207619149192 -0.29288764445213411 0 -0.40618483967714292 -0.29638963380315841 0 -0.40174149504185092 -0.29681366012781812 0 -0.40618483967714292 -0.29638963380315841 0 -0.40322207619149192 -0.29288764445213411 0 -0.40618483967714292 -0.29638963380315841 0 -0.40690107601488551 -0.28490397733270861 0 -0.40322207619149192 -0.29288764445213411 0 -0.40123596036735593 -0.27818233727432817 0 -0.39420405367365152 -0.27853706101481662 0 -0.37710287173325818 -0.2711091198417086 0 -0.40073042569286338 -0.25955101442083811 0 -0.40123596036735593 -0.27818233727432817 0 -0.39420405367365152 -0.27853706101481662 0 -0.40073042569286338 -0.25955101442083811 0 -0.40123596036735593 -0.27818233727432817 0 -0.40073042569286338 -0.25955101442083811 0 -0.40123596036735593 -0.27818233727432817 0 -0.40073042569286338 -0.25955101442083811 0 -0.41341650638623911 -0.27076301679274262 0 -0.39597078832761667 -0.28551153658085893 0 -0.40123596036735593 -0.27818233727432817 0 -0.39420405367365152 -0.27853706101481662 0 -0.39420405367365152 -0.27853706101481662 0 -0.37710287173325818 -0.2711091198417086 0 -0.3770412393053626 -0.27536550612006683 0 -0.39420405367365152 -0.27853706101481662 0 -0.3770412393053626 -0.27536550612006683 0 -0.39420405367365152 -0.27853706101481662 0 -0.38483052758877101 -0.28123782127595193 0 -0.3770412393053626 -0.27536550612006683 0 -0.37710287173325818 -0.2711091198417086 0 -0.3770412393053626 -0.27536550612006683 0 -0.37710287173325818 -0.2711091198417086 0 -0.38543722149146659 -0.25821727905458303 0 -0.40073042569286338 -0.25955101442083811 0 -0.37710287173325818 -0.2711091198417086 0 -0.37747963509906429 -0.24508953120583671 0 -0.37710287173325818 -0.2711091198417086 0 -0.40073042569286338 -0.25955101442083811 0 -0.37710287173325818 -0.2711091198417086 0 -0.38543722149146659 -0.25821727905458303 0 -0.37747963509906429 -0.24508953120583671 0 -0.38543722149146659 -0.25821727905458303 0 -0.3938256931015453 -0.25037754026629511 0 -0.37747963509906429 -0.24508953120583671 0 -0.38543722149146659 -0.25821727905458303 0 -0.3938256931015453 -0.25037754026629511 0 -0.40073042569286338 -0.25955101442083811 0 -0.40073042569286338 -0.25955101442083811 0 -0.40282532782868952 -0.25224285689579767 0 -0.40022281387448849 -0.24084313907701979 0 -0.40073042569286338 -0.25955101442083811 0 -0.40022281387448849 -0.24084313907701979 0 -0.3938256931015453 -0.25037754026629511 0 -0.40073042569286338 -0.25955101442083811 0 -0.40022281387448849 -0.24084313907701979 0 -0.40073042569286338 -0.25955101442083811 0 -0.40282532782868952 -0.25224285689579767 0 -0.41385673751816382 -0.25312989710486528 0 -0.40073042569286338 -0.25955101442083811 0 -0.41385673751816382 -0.25312989710486528 0 -0.40073042569286338 -0.25955101442083811 0 -0.41385673751816382 -0.25312989710486528 0 -0.41341650638623911 -0.27076301679274262 0 -0.41385673751816382 -0.25312989710486528 0 -0.41341650638623911 -0.27076301679274262 0 -0.42312684460972783 -0.26331748455384929 0 -0.41385673751816382 -0.25312989710486528 0 -0.41679144862722167 -0.25169429778568547 0 -0.43445882011373449 -0.25478651907497341 0 -0.40282532782868952 -0.25224285689579767 0 -0.41385673751816382 -0.25312989710486528 0 -0.4086566941719203 -0.24778871483445111 0 -0.40282532782868952 -0.25224285689579767 0 -0.41385673751816382 -0.25312989710486528 0 -0.41385673751816382 -0.25312989710486528 0 -0.41679144862722167 -0.25169429778568547 0 -0.41627810448972868 -0.24641300060905449 0 -0.41385673751816382 -0.25312989710486528 0 -0.41679144862722167 -0.25169429778568547 0 -0.41684225135067149 -0.28376244362903152 0 -0.41341650638623911 -0.27076301679274262 0 -0.43077531442077321 -0.27459050524281542 0 -0.40690107601488551 -0.28490397733270861 0 -0.40123596036735593 -0.27818233727432817 0 -0.41341650638623911 -0.27076301679274262 0 -0.41684225135067149 -0.28376244362903152 0 -0.40690107601488551 -0.28490397733270861 0 -0.41341650638623911 -0.27076301679274262 0 -0.41341650638623911 -0.27076301679274262 0 -0.43077531442077321 -0.27459050524281542 0 -0.42312684460972783 -0.26331748455384929 0 -0.43077531442077321 -0.27459050524281542 0 -0.42312684460972783 -0.26331748455384929 0 -0.43445882011373449 -0.25478651907497341 0 -0.41385673751816382 -0.25312989710486528 0 -0.43445882011373449 -0.25478651907497341 0 -0.43077531442077321 -0.27459050524281542 0 -0.43445882011373449 -0.25478651907497341 0 -0.41385673751816382 -0.25312989710486528 0 -0.42312684460972783 -0.26331748455384929 0 -0.43445882011373449 -0.25478651907497341 0 -0.41679144862722167 -0.25169429778568547 0 -0.43445882011373449 -0.25478651907497341 0 -0.42335340856967768 -0.24893549408922019 0 -0.32580796388430833 -0.26195871891040218 0 -0.34139866608006603 -0.2687790352098644 0 -0.31202674084989918 -0.26335133138269068 0 -0.32580796388430833 -0.26195871891040218 0 -0.33345250408021371 -0.25331871279766999 0 -0.32023222063025569 -0.2489608815952247 0 -0.32580796388430833 -0.26195871891040218 0 -0.31664960680882542 -0.25714232151458272 0 -0.32023222063025569 -0.2489608815952247 0 -0.31664960680882542 -0.25714232151458272 0 -0.30853150187083839 -0.25429835417001312 0 -0.32023222063025569 -0.2489608815952247 0 -0.32580796388430833 -0.26195871891040218 0 -0.31664960680882542 -0.25714232151458272 0 -0.31202674084989918 -0.26335133138269068 0 -0.33223611708196649 -0.27626932861073827 0 -0.31972670239926188 -0.28454160199560091 0 -0.31187737399160442 -0.27618124236115132 0 -0.34139866608006603 -0.2687790352098644 0 -0.31202674084989918 -0.26335133138269068 0 -0.33223611708196649 -0.27626932861073827 0 -0.31202674084989918 -0.26335133138269068 0 -0.3062135479255173 -0.26372173898871692 0 -0.33223611708196649 -0.27626932861073827 0 -0.31187737399160442 -0.27618124236115132 0 -0.3062135479255173 -0.26372173898871692 0 -0.33260241140844943 -0.2743168067351805 0 -0.33223611708196649 -0.27626932861073827 0 -0.31202674084989918 -0.26335133138269068 0 -0.33223611708196649 -0.27626932861073827 0 -0.3062135479255173 -0.26372173898871692 0 -0.33260241140844943 -0.2743168067351805 0 -0.34139866608006603 -0.2687790352098644 0 -0.31202674084989918 -0.26335133138269068 0 -0.33223611708196649 -0.27626932861073827 0 -0.34139866608006603 -0.2687790352098644 0 -0.34951875912658742 -0.28460269103381453 0 -0.33223611708196649 -0.27626932861073827 0 -0.34951875912658742 -0.28460269103381453 0 -0.33260241140844943 -0.2743168067351805 0 -0.33223611708196649 -0.27626932861073827 0 -0.34139866608006603 -0.2687790352098644 0 -0.33260241140844943 -0.2743168067351805 0 -0.33223611708196649 -0.27626932861073827 0 -0.34139866608006603 -0.2687790352098644 0 -0.3363084638556994 -0.26041051377605268 0 -0.34457472137820933 -0.25758558818627408 0 -0.32580796388430833 -0.26195871891040218 0 -0.34139866608006603 -0.2687790352098644 0 -0.3363084638556994 -0.26041051377605268 0 -0.32580796388430833 -0.26195871891040218 0 -0.3363084638556994 -0.26041051377605268 0 -0.33345250408021371 -0.25331871279766999 0 -0.3363084638556994 -0.26041051377605268 0 -0.33345250408021371 -0.25331871279766999 0 -0.34457472137820933 -0.25758558818627408 0 -0.33345250408021371 -0.25331871279766999 0 -0.34457472137820933 -0.25758558818627408 0 -0.34395992200845399 -0.24382677409400949 0 -0.34139866608006603 -0.2687790352098644 0 -0.34457472137820933 -0.25758558818627408 0 -0.35733732661955131 -0.26288598862094092 0 -0.34457472137820933 -0.25758558818627408 0 -0.35872453044413888 -0.25078889886649508 0 -0.34395992200845399 -0.24382677409400949 0 -0.34457472137820933 -0.25758558818627408 0 -0.35733732661955131 -0.26288598862094092 0 -0.35872453044413888 -0.25078889886649508 0 -0.37710287173325818 -0.2711091198417086 0 -0.36828299104124951 -0.26081605551440462 0 -0.37747963509906429 -0.24508953120583671 0 -0.35872453044413888 -0.25078889886649508 0 -0.36828299104124951 -0.26081605551440462 0 -0.37747963509906429 -0.24508953120583671 0 -0.35733732661955131 -0.26288598862094092 0 -0.35872453044413888 -0.25078889886649508 0 -0.36828299104124951 -0.26081605551440462 0 -0.37077059131023282 -0.27420673903703829 0 -0.34951875912658742 -0.28460269103381453 0 -0.37710287173325818 -0.2711091198417086 0 -0.3770412393053626 -0.27536550612006683 0 -0.37077059131023282 -0.27420673903703829 0 -0.3770412393053626 -0.27536550612006683 0 -0.37077059131023282 -0.27420673903703829 0 -0.37710287173325818 -0.2711091198417086 0 -0.36828299104124951 -0.26081605551440462 0 -0.37077059131023282 -0.27420673903703829 0 -0.37710287173325818 -0.2711091198417086 0 -0.37077059131023282 -0.27420673903703829 0 -0.35733732661955131 -0.26288598862094092 0 -0.36828299104124951 -0.26081605551440462 0 -0.37077059131023282 -0.27420673903703829 0 -0.34139866608006603 -0.2687790352098644 0 -0.35733732661955131 -0.26288598862094092 0 -0.37077059131023282 -0.27420673903703829 0 -0.34139866608006603 -0.2687790352098644 0 -0.37077059131023282 -0.27420673903703829 0 -0.34951875912658742 -0.28460269103381453 0 -0.34139866608006603 -0.2687790352098644 0 -0.37077059131023282 -0.27420673903703829 0 -0.34951875912658742 -0.28460269103381453 0 -0.3581763596052473 -0.30097106086504849 0 -0.34010739644885768 -0.2892065328944351 0 -0.34951875912658742 -0.28460269103381453 0 -0.34010739644885768 -0.2892065328944351 0 -0.37671758341694961 -0.29771744858697219 0 -0.37077059131023282 -0.27420673903703829 0 -0.34951875912658742 -0.28460269103381453 0 -0.37671758341694961 -0.29771744858697219 0 -0.34951875912658742 -0.28460269103381453 0 -0.37671758341694961 -0.29771744858697219 0 -0.3770412393053626 -0.27536550612006683 0 -0.37077059131023282 -0.27420673903703829 0 -0.37671758341694961 -0.29771744858697219 0 -0.34951875912658742 -0.28460269103381453 0 -0.3581763596052473 -0.30097106086504849 0 -0.37669606201677502 -0.29920373422444158 0 -0.37671758341694961 -0.29771744858697219 0 -0.3581763596052473 -0.30097106086504849 0 -0.37641717267996733 -0.3184640617331177 0 -0.37669606201677502 -0.29920373422444158 0 -0.36799370156123501 -0.30592930732763762 0 -0.37641717267996733 -0.3184640617331177 0 -0.36799370156123501 -0.30592930732763762 0 -0.35803691493684492 -0.31060122461938489 0 -0.37669606201677502 -0.29920373422444158 0 -0.36799370156123501 -0.30592930732763762 0 -0.3581763596052473 -0.30097106086504849 0 -0.37669606201677502 -0.29920373422444158 0 -0.3581763596052473 -0.30097106086504849 0 -0.36799370156123501 -0.30592930732763762 0 -0.35803691493684492 -0.31060122461938489 0 -0.3581763596052473 -0.30097106086504849 0 -0.35803691493684492 -0.31060122461938489 0 -0.33965665719371979 -0.30273838750565862 0 -0.35803691493684492 -0.31060122461938489 0 -0.33965665719371979 -0.30273838750565862 0 -0.34514704515453298 -0.31300544250539297 0 -0.3581763596052473 -0.30097106086504849 0 -0.33965665719371979 -0.30273838750565862 0 -0.34010739644885768 -0.2892065328944351 0 -0.35803691493684492 -0.31060122461938489 0 -0.3581763596052473 -0.30097106086504849 0 -0.33965665719371979 -0.30273838750565862 0 -0.3581763596052473 -0.30097106086504849 0 -0.33965665719371979 -0.30273838750565862 0 -0.33676996251121621 -0.31158184422573892 0 -0.33965665719371979 -0.30273838750565862 0 -0.34514704515453298 -0.31300544250539297 0 -0.33676996251121621 -0.31158184422573892 0 -0.33965665719371979 -0.30273838750565862 0 -0.32704471803945162 -0.30394193902942662 0 -0.33676996251121621 -0.31158184422573892 0 -0.32594772137393307 -0.30978944971135602 0 -0.32704471803945162 -0.30394193902942662 0 -0.33965665719371979 -0.30273838750565862 0 -0.32704471803945162 -0.30394193902942662 0 -0.32819068517220462 -0.29783339261299951 0 -0.33965665719371979 -0.30273838750565862 0 -0.32704471803945162 -0.30394193902942662 0 -0.32819068517220462 -0.29783339261299951 0 -0.33965665719371979 -0.30273838750565862 0 -0.33223611708196649 -0.27626932861073827 0 -0.32819068517220462 -0.29783339261299951 0 -0.33223611708196649 -0.27626932861073827 0 -0.32819068517220462 -0.29783339261299951 0 -0.34010739644885768 -0.2892065328944351 0 -0.33223611708196649 -0.27626932861073827 0 -0.34951875912658742 -0.28460269103381453 0 -0.34010739644885768 -0.2892065328944351 0 -0.32819068517220462 -0.29783339261299951 0 -0.33965665719371979 -0.30273838750565862 0 -0.34010739644885768 -0.2892065328944351 0 -0.32819068517220462 -0.29783339261299951 0 -0.31972670239926188 -0.28454160199560091 0 -0.31332574866090718 -0.291474364566292 0 -0.32819068517220462 -0.29783339261299951 0 -0.31332574866090718 -0.291474364566292 0 -0.33223611708196649 -0.27626932861073827 0 -0.32819068517220462 -0.29783339261299951 0 -0.31972670239926188 -0.28454160199560091 0 -0.31972670239926188 -0.28454160199560091 0 -0.31332574866090718 -0.291474364566292 0 -0.30937392239009109 -0.28339120160471948 0 -0.31972670239926188 -0.28454160199560091 0 -0.30937392239009109 -0.28339120160471948 0 -0.31187737399160442 -0.27618124236115132 0 -0.31992409361072222 -0.30462145692723192 0 -0.32594772137393307 -0.30978944971135602 0 -0.31307430431717392 -0.31869978567557272 0 -0.31992409361072222 -0.30462145692723192 0 -0.32594772137393307 -0.30978944971135602 0 -0.32594772137393307 -0.30978944971135602 0 -0.32704471803945162 -0.30394193902942662 0 -0.31992409361072222 -0.30462145692723192 0 -0.32594772137393307 -0.30978944971135602 0 -0.32704471803945162 -0.30394193902942662 0 -0.32819068517220462 -0.29783339261299951 0 -0.31332574866090718 -0.291474364566292 0 -0.31992409361072222 -0.30462145692723192 0 -0.32819068517220462 -0.29783339261299951 0 -0.32704471803945162 -0.30394193902942662 0 -0.32819068517220462 -0.29783339261299951 0 -0.31992409361072222 -0.30462145692723192 0 -0.32704471803945162 -0.30394193902942662 0 -0.31992409361072222 -0.30462145692723192 0 -0.32704471803945162 -0.30394193902942662 0 -0.32594772137393307 -0.30978944971135602 0 -0.31307430431717392 -0.31869978567557272 0 -0.32184288384298337 -0.33167017375041419 0 -0.32594772137393307 -0.30978944971135602 0 -0.32184288384298337 -0.33167017375041419 0 -0.32184288384298337 -0.33167017375041419 0 -0.31773804631203251 -0.35355089778947202 0 -0.32184288384298337 -0.33167017375041419 0 -0.34475024534571441 -0.34586667392980902 0 -0.31773804631203251 -0.35355089778947202 0 -0.32184288384298337 -0.33167017375041419 0 -0.34612464597635118 -0.32710031367078812 0 -0.34475024534571441 -0.34586667392980902 0 -0.33676996251121621 -0.31158184422573892 0 -0.32594772137393307 -0.30978944971135602 0 -0.34612464597635118 -0.32710031367078812 0 -0.32594772137393307 -0.30978944971135602 0 -0.34612464597635118 -0.32710031367078812 0 -0.32594772137393307 -0.30978944971135602 0 -0.32184288384298337 -0.33167017375041419 0 -0.34612464597635118 -0.32710031367078812 0 -0.33676996251121621 -0.31158184422573892 0 -0.34514704515453298 -0.31300544250539297 0 -0.34612464597635118 -0.32710031367078812 0 -0.35803691493684492 -0.31060122461938489 0 -0.34514704515453298 -0.31300544250539297 0 -0.34612464597635118 -0.32710031367078812 0 -0.35803691493684492 -0.31060122461938489 0 -0.34612464597635118 -0.32710031367078812 0 -0.35600230731325749 -0.33324145173106873 0 -0.37641717267996733 -0.3184640617331177 0 -0.35803691493684492 -0.31060122461938489 0 -0.37641717267996733 -0.3184640617331177 0 -0.35803691493684492 -0.31060122461938489 0 -0.36719759625642318 -0.33008752154143739 0 -0.35803691493684492 -0.31060122461938489 0 -0.36719759625642318 -0.33008752154143739 0 -0.35600230731325749 -0.33324145173106873 0 -0.37607676276689278 -0.3419730509543204 0 -0.37641717267996733 -0.3184640617331177 0 -0.36719759625642318 -0.33008752154143739 0 -0.37607676276689278 -0.3419730509543204 0 -0.3688763256213185 -0.34309961767568647 0 -0.36719759625642318 -0.33008752154143739 0 -0.36719759625642318 -0.33008752154143739 0 -0.36118874601324108 -0.3436521492952741 0 -0.35600230731325749 -0.33324145173106873 0 -0.3688763256213185 -0.34309961767568647 0 -0.36719759625642318 -0.33008752154143739 0 -0.36118874601324108 -0.3436521492952741 0 -0.34612464597635118 -0.32710031367078812 0 -0.35600230731325749 -0.33324145173106873 0 -0.34475024534571441 -0.34586667392980902 0 -0.36118874601324108 -0.3436521492952741 0 -0.35600230731325749 -0.33324145173106873 0 -0.34475024534571441 -0.34586667392980902 0 -0.36118874601324108 -0.3436521492952741 0 -0.34475024534571441 -0.34586667392980902 0 -0.35925477447714671 -0.35134479444962452 0 -0.34475024534571441 -0.34586667392980902 0 -0.35480891830463612 -0.3592101017575729 0 -0.33937201587241012 -0.36587749477948078 0 -0.34475024534571441 -0.34586667392980902 0 -0.35480891830463612 -0.3592101017575729 0 -0.35925477447714671 -0.35134479444962452 0 -0.36118874601324108 -0.3436521492952741 0 -0.37225797237559449 -0.35115364910559932 0 -0.36118874601324108 -0.3436521492952741 0 -0.35925477447714671 -0.35134479444962452 0 -0.36985982957495511 -0.35171195823109852 0 -0.37568304780698558 -0.36916333065311507 0 -0.37593298752455201 -0.35190228771479481 0 -0.37225797237559449 -0.35115364910559932 0 -0.35480891830463612 -0.3592101017575729 0 -0.35925477447714671 -0.35134479444962452 0 -0.36985982957495511 -0.35171195823109852 0 -0.37607676276689278 -0.3419730509543204 0 -0.3688763256213185 -0.34309961767568647 0 -0.37225797237559449 -0.35115364910559932 0 -0.37607676276689278 -0.3419730509543204 0 -0.37225797237559449 -0.35115364910559932 0 -0.37607676276689278 -0.3419730509543204 0 -0.37390838074359528 -0.35076941925389299 0 -0.37225797237559449 -0.35115364910559932 0 -0.37593298752455201 -0.35190228771479481 0 -0.37390838074359528 -0.35076941925389299 0 -0.37225797237559449 -0.35115364910559932 0 -0.3688763256213185 -0.34309961767568647 0 -0.36118874601324108 -0.3436521492952741 0 -0.37225797237559449 -0.35115364910559932 0 -0.37593298752455201 -0.35190228771479481 0 -0.37390838074359528 -0.35076941925389299 0 -0.36118874601324108 -0.3436521492952741 0 -0.36985982957495511 -0.35171195823109852 0 -0.37225797237559449 -0.35115364910559932 0 -0.37595629511297179 -0.35029264644438168 0 -0.37390838074359528 -0.35076941925389299 0 -0.37390838074359528 -0.35076941925389299 0 -0.37225797237559449 -0.35115364910559932 0 -0.36985982957495511 -0.35171195823109852 0 -0.37225797237559449 -0.35115364910559932 0 -0.37568304780698558 -0.36916333065311507 0 -0.37225797237559449 -0.35115364910559932 0 -0.36100598543278789 -0.37820409176948921 0 -0.35480891830463612 -0.3592101017575729 0 -0.36985982957495511 -0.35171195823109852 0 -0.36100598543278789 -0.37820409176948921 0 -0.36985982957495511 -0.35171195823109852 0 -0.37225797237559449 -0.35115364910559932 0 -0.36100598543278789 -0.37820409176948921 0 -0.37225797237559449 -0.35115364910559932 0 -0.36100598543278789 -0.37820409176948921 0 -0.33937201587241012 -0.36587749477948078 0 -0.36100598543278789 -0.37820409176948921 0 -0.35480891830463612 -0.3592101017575729 0 -0.33937201587241012 -0.36587749477948078 0 -0.36100598543278789 -0.37820409176948921 0 -0.33937201587241012 -0.36587749477948078 0 -0.31773804631203251 -0.35355089778947202 0 -0.33937201587241012 -0.36587749477948078 0 -0.31773804631203251 -0.35355089778947202 0 -0.32803705280137402 -0.37447550275240871 0 -0.34475024534571441 -0.34586667392980902 0 -0.33937201587241012 -0.36587749477948078 0 -0.31773804631203251 -0.35355089778947202 0 -0.31773804631203251 -0.35355089778947202 0 -0.31381007312398762 -0.37448885129246268 0 -0.31773804631203251 -0.35355089778947202 0 -0.31381007312398762 -0.37448885129246268 0 -0.32803705280137402 -0.37447550275240871 0 -0.31381007312398762 -0.37448885129246268 0 -0.29871455833571747 -0.36148408621311728 0 -0.29196992941862432 -0.3825632544476108 0 -0.31773804631203251 -0.35355089778947202 0 -0.31381007312398762 -0.37448885129246268 0 -0.29871455833571747 -0.36148408621311728 0 -0.31773804631203251 -0.35355089778947202 0 -0.29871455833571747 -0.36148408621311728 0 -0.29282778547957722 -0.33935753649529382 0 -0.31773804631203251 -0.35355089778947202 0 -0.29282778547957722 -0.33935753649529382 0 -0.29871455833571747 -0.36148408621311728 0 -0.27675503022224163 -0.36681377825091099 0 -0.29282778547957722 -0.33935753649529382 0 -0.29871455833571747 -0.36148408621311728 0 -0.27675503022224163 -0.36681377825091099 0 -0.29196992941862432 -0.3825632544476108 0 -0.27675503022224163 -0.36681377825091099 0 -0.25757508569408222 -0.36424633604315798 0 -0.26546808025963542 -0.34847395767735678 0 -0.27675503022224163 -0.36681377825091099 0 -0.25757508569408222 -0.36424633604315798 0 -0.25812358553267323 -0.37605355791306738 0 -0.25757508569408222 -0.36424633604315798 0 -0.24839247009954951 -0.37292447016044328 0 -0.24532753696728959 -0.36501789644951049 0 -0.25757508569408222 -0.36424633604315798 0 -0.25812358553267323 -0.37605355791306738 0 -0.24839247009954951 -0.37292447016044328 0 -0.25757508569408222 -0.36424633604315798 0 -0.26546808025963542 -0.34847395767735678 0 -0.24650166737573331 -0.3569693529562265 0 -0.26546808025963542 -0.34847395767735678 0 -0.24650166737573331 -0.3569693529562265 0 -0.24881121389389799 -0.33838995723746451 0 -0.27675503022224163 -0.36681377825091099 0 -0.26546808025963542 -0.34847395767735678 0 -0.29282778547957722 -0.33935753649529382 0 -0.26791752464712137 -0.32516417520111718 0 -0.27544300416693679 -0.31995488319631832 0 -0.29282778547957722 -0.33935753649529382 0 -0.26546808025963542 -0.34847395767735678 0 -0.26791752464712137 -0.32516417520111718 0 -0.29282778547957722 -0.33935753649529382 0 -0.26791752464712137 -0.32516417520111718 0 -0.29282778547957722 -0.33935753649529382 0 -0.26791752464712137 -0.32516417520111718 0 -0.24881121389389799 -0.33838995723746451 0 -0.26546808025963542 -0.34847395767735678 0 -0.26791752464712137 -0.32516417520111718 0 -0.24881121389389799 -0.33838995723746451 0 -0.26791752464712137 -0.32516417520111718 0 -0.24881121389389799 -0.33838995723746451 0 -0.2441082332202735 -0.32380704628422963 0 -0.26791752464712137 -0.32516417520111718 0 -0.2444966906846206 -0.31181945912301329 0 -0.26791752464712137 -0.32516417520111718 0 -0.26963915832665503 -0.30942012505775762 0 -0.2444966906846206 -0.31181945912301329 0 -0.26791752464712137 -0.32516417520111718 0 -0.2441082332202735 -0.32380704628422963 0 -0.2444966906846206 -0.31181945912301329 0 -0.26791752464712137 -0.32516417520111718 0 -0.27544300416693679 -0.31995488319631832 0 -0.26963915832665503 -0.30942012505775762 0 -0.26791752464712137 -0.32516417520111718 0 -0.27544300416693679 -0.31995488319631832 0 -0.27544300416693679 -0.31995488319631832 0 -0.29403167998309421 -0.32125824908992018 0 -0.29478162596868879 -0.30702079099249591 0 -0.27544300416693679 -0.31995488319631832 0 -0.29403167998309421 -0.32125824908992018 0 -0.29282778547957722 -0.33935753649529382 0 -0.31307430431717392 -0.31869978567557272 0 -0.32184288384298337 -0.33167017375041419 0 -0.29282778547957722 -0.33935753649529382 0 -0.32184288384298337 -0.33167017375041419 0 -0.31773804631203251 -0.35355089778947202 0 -0.29282778547957722 -0.33935753649529382 0 -0.31307430431717392 -0.31869978567557272 0 -0.29403167998309421 -0.32125824908992018 0 -0.29282778547957722 -0.33935753649529382 0 -0.31307430431717392 -0.31869978567557272 0 -0.29403167998309421 -0.32125824908992018 0 -0.29478162596868879 -0.30702079099249591 0 -0.31992409361072222 -0.30462145692723192 0 -0.29478162596868879 -0.30702079099249591 0 -0.31992409361072222 -0.30462145692723192 0 -0.31307430431717392 -0.31869978567557272 0 -0.29478162596868879 -0.30702079099249591 0 -0.31992409361072222 -0.30462145692723192 0 -0.30687808727867438 -0.29770175581860719 0 -0.29478162596868879 -0.30702079099249591 0 -0.30687808727867438 -0.29770175581860719 0 -0.29813438661480679 -0.29530641477552327 0 -0.29478162596868879 -0.30702079099249591 0 -0.31992409361072222 -0.30462145692723192 0 -0.2984608121496099 -0.28511533651958437 0 -0.31992409361072222 -0.30462145692723192 0 -0.30687808727867438 -0.29770175581860719 0 -0.2984608121496099 -0.28511533651958437 0 -0.31332574866090718 -0.291474364566292 0 -0.31992409361072222 -0.30462145692723192 0 -0.2984608121496099 -0.28511533651958437 0 -0.31332574866090718 -0.291474364566292 0 -0.30937392239009109 -0.28339120160471948 0 -0.2984608121496099 -0.28511533651958437 0 -0.31332574866090718 -0.291474364566292 0 -0.2984608121496099 -0.28511533651958437 0 -0.30937392239009109 -0.28339120160471948 0 -0.2984608121496099 -0.28511533651958437 0 -0.30347897474907187 -0.279643462580969 0 -0.30687808727867438 -0.29770175581860719 0 -0.29951482580247829 -0.29240083595456018 0 -0.29813438661480679 -0.29530641477552327 0 -0.30687808727867438 -0.29770175581860719 0 -0.2984608121496099 -0.28511533651958437 0 -0.29951482580247829 -0.29240083595456018 0 -0.29951482580247829 -0.29240083595456018 0 -0.29813438661480679 -0.29530641477552327 0 -0.29499124589990039 -0.29073588210889412 0 -0.2984608121496099 -0.28511533651958437 0 -0.29951482580247829 -0.29240083595456018 0 -0.29499124589990039 -0.29073588210889412 0 -0.29499124589990039 -0.29073588210889412 0 -0.29148170063899659 -0.29460773718781319 0 -0.28586576089235322 -0.28577101837165192 0 -0.29813438661480679 -0.29530641477552327 0 -0.29499124589990039 -0.29073588210889412 0 -0.29148170063899659 -0.29460773718781319 0 -0.2984608121496099 -0.28511533651958437 0 -0.29499124589990039 -0.29073588210889412 0 -0.28586576089235322 -0.28577101837165192 0 -0.29148170063899659 -0.29460773718781319 0 -0.28586576089235322 -0.28577101837165192 0 -0.2798353156189245 -0.29508903771003908 0 -0.29148170063899659 -0.29460773718781319 0 -0.29478162596868879 -0.30702079099249591 0 -0.2798353156189245 -0.29508903771003908 0 -0.29478162596868879 -0.30702079099249591 0 -0.26963915832665503 -0.30942012505775762 0 -0.2798353156189245 -0.29508903771003908 0 -0.29478162596868879 -0.30702079099249591 0 -0.26963915832665503 -0.30942012505775762 0 -0.29813438661480679 -0.29530641477552327 0 -0.29148170063899659 -0.29460773718781319 0 -0.29478162596868879 -0.30702079099249591 0 -0.27544300416693679 -0.31995488319631832 0 -0.29478162596868879 -0.30702079099249591 0 -0.26963915832665503 -0.30942012505775762 0 -0.26963915832665503 -0.30942012505775762 0 -0.26057201890547982 -0.29344093798311832 0 -0.2798353156189245 -0.29508903771003908 0 -0.26963915832665503 -0.30942012505775762 0 -0.2444966906846206 -0.31181945912301329 0 -0.26963915832665503 -0.30942012505775762 0 -0.26057201890547982 -0.29344093798311832 0 -0.2444966906846206 -0.31181945912301329 0 -0.26057201890547982 -0.29344093798311832 0 -0.27108878797196961 -0.28331686931735522 0 -0.25298377122075039 -0.27518622721876451 0 -0.26057201890547982 -0.29344093798311832 0 -0.25298377122075039 -0.27518622721876451 0 -0.2435111179254994 -0.29490773243705071 0 -0.26057201890547982 -0.29344093798311832 0 -0.27108878797196961 -0.28331686931735522 0 -0.2798353156189245 -0.29508903771003908 0 -0.28586576089235322 -0.28577101837165192 0 -0.27108878797196961 -0.28331686931735522 0 -0.2798353156189245 -0.29508903771003908 0 -0.27108878797196961 -0.28331686931735522 0 -0.27618707322233982 -0.26709712530320262 0 -0.25298377122075039 -0.27518622721876451 0 -0.28586576089235322 -0.28577101837165192 0 -0.27108878797196961 -0.28331686931735522 0 -0.27618707322233982 -0.26709712530320262 0 -0.27618707322233982 -0.26709712530320262 0 -0.25431856302814809 -0.24833495949118861 0 -0.27618707322233982 -0.26709712530320262 0 -0.25298377122075039 -0.27518622721876451 0 -0.25431856302814809 -0.24833495949118861 0 -0.27618707322233982 -0.26709712530320262 0 -0.27309361240676189 -0.24179026653703889 0 -0.25431856302814809 -0.24833495949118861 0 -0.27618707322233982 -0.26709712530320262 0 -0.2907170577323625 -0.25177677077710309 0 -0.27309361240676189 -0.24179026653703889 0 -0.27618707322233982 -0.26709712530320262 0 -0.2907170577323625 -0.25177677077710309 0 -0.29477899871119112 -0.26293378760569941 0 -0.2984608121496099 -0.28511533651958437 0 -0.28586576089235322 -0.28577101837165192 0 -0.27618707322233982 -0.26709712530320262 0 -0.2984608121496099 -0.28511533651958437 0 -0.27618707322233982 -0.26709712530320262 0 -0.27618707322233982 -0.26709712530320262 0 -0.29477899871119112 -0.26293378760569941 0 -0.29948479845841441 -0.27338487519771032 0 -0.2984608121496099 -0.28511533651958437 0 -0.27618707322233982 -0.26709712530320262 0 -0.29948479845841441 -0.27338487519771032 0 -0.29477899871119112 -0.26293378760569941 0 -0.29948479845841441 -0.27338487519771032 0 -0.30156079933714469 -0.26765617134954151 0 -0.30156079933714469 -0.26765617134954151 0 -0.30403476516136241 -0.27459464834518948 0 -0.30588444940973558 -0.27063474712059482 0 -0.29948479845841441 -0.27338487519771032 0 -0.30156079933714469 -0.26765617134954151 0 -0.30403476516136241 -0.27459464834518948 0 -0.30156079933714469 -0.26765617134954151 0 -0.30588444940973558 -0.27063474712059482 0 -0.3062135479255173 -0.26372173898871692 0 -0.2984608121496099 -0.28511533651958437 0 -0.29948479845841441 -0.27338487519771032 0 -0.30347897474907187 -0.279643462580969 0 -0.29948479845841441 -0.27338487519771032 0 -0.30403476516136241 -0.27459464834518948 0 -0.30347897474907187 -0.279643462580969 0 -0.30937392239009109 -0.28339120160471948 0 -0.30347897474907187 -0.279643462580969 0 -0.31187737399160442 -0.27618124236115132 0 -0.30403476516136241 -0.27459464834518948 0 -0.30347897474907187 -0.279643462580969 0 -0.31187737399160442 -0.27618124236115132 0 -0.30403476516136241 -0.27459464834518948 0 -0.31187737399160442 -0.27618124236115132 0 -0.30588444940973558 -0.27063474712059482 0 -0.31187737399160442 -0.27618124236115132 0 -0.30588444940973558 -0.27063474712059482 0 -0.3062135479255173 -0.26372173898871692 0 -0.31664960680882542 -0.25714232151458272 0 -0.31202674084989918 -0.26335133138269068 0 -0.30853150187083839 -0.25429835417001312 0 -0.2907170577323625 -0.25177677077710309 0 -0.29477899871119112 -0.26293378760569941 0 -0.30853150187083839 -0.25429835417001312 0 -0.31202674084989918 -0.26335133138269068 0 -0.3062135479255173 -0.26372173898871692 0 -0.30853150187083839 -0.25429835417001312 0 -0.29477899871119112 -0.26293378760569941 0 -0.30156079933714469 -0.26765617134954151 0 -0.3062135479255173 -0.26372173898871692 0 -0.29477899871119112 -0.26293378760569941 0 -0.3062135479255173 -0.26372173898871692 0 -0.30853150187083839 -0.25429835417001312 0 -0.33709504481289931 -0.46474263175187808 0 -0.33075086723682939 -0.45093918684289991 0 -0.35302422329502631 -0.44785824460859458 0 -0.33709504481289931 -0.46474263175187808 0 -0.33075086723682939 -0.45093918684289991 0 -0.32054712240525829 -0.47546959342145068 0 -0.33075086723682939 -0.45093918684289991 0 -0.34095461206840061 -0.42640878026434909 0 -0.33075086723682939 -0.45093918684289991 0 -0.35302422329502631 -0.44785824460859458 0 -0.34095461206840061 -0.42640878026434909 0 -0.33075086723682939 -0.45093918684289991 0 -0.32054706720266329 -0.44859283512714471 0 -0.3206124180200437 -0.43193612962395289 0 -0.33075086723682939 -0.45093918684289991 0 -0.32054706720266329 -0.44859283512714471 0 -0.31571728338184601 -0.45752087103574601 0 -0.32054706720266329 -0.44859283512714471 0 -0.31571728338184601 -0.45752087103574601 0 -0.30706080135445341 -0.45057148265483188 0 -0.33075086723682939 -0.45093918684289991 0 -0.32054712240525829 -0.47546959342145068 0 -0.33075086723682939 -0.45093918684289991 0 -0.31571728338184601 -0.45752087103574601 0 -0.32054712240525829 -0.47546959342145068 0 -0.32054712240525829 -0.47546959342145068 0 -0.32750579650535672 -0.48798687004089669 0 -0.32933965142182292 -0.47777380670114528 0 -0.32054712240525829 -0.47546959342145068 0 -0.31034337757368669 -0.50000000000000133 0 -0.32750579650535672 -0.48798687004089669 0 -0.33387795429423722 -0.5 0 -0.31034337757368669 -0.50000000000000133 0 -0.32054712240525829 -0.47546959342145068 0 -0.32750579650535672 -0.48798687004089669 0 -0.31034337757368669 -0.50000000000000133 0 -0.32750579650535672 -0.48798687004089669 0 -0.34342087683177741 -0.48669095008188618 0 -0.33387795429423722 -0.5 0 -0.33709504481289931 -0.46474263175187808 0 -0.32933965142182292 -0.47777380670114528 0 -0.35181335970555933 -0.47167232718529989 0 -0.34342087683177741 -0.48669095008188618 0 -0.32933965142182292 -0.47777380670114528 0 -0.35181335970555933 -0.47167232718529989 0 -0.32750579650535672 -0.48798687004089669 0 -0.34342087683177741 -0.48669095008188618 0 -0.32933965142182292 -0.47777380670114528 0 -0.33709504481289931 -0.46474263175187808 0 -0.32054712240525829 -0.47546959342145068 0 -0.32933965142182292 -0.47777380670114528 0 -0.32933965142182292 -0.47777380670114528 0 -0.35181335970555933 -0.47167232718529989 0 -0.34342087683177741 -0.48669095008188618 0 -0.35181335970555933 -0.47167232718529989 0 -0.35979455825166368 -0.48519290092039941 0 -0.34342087683177741 -0.48669095008188618 0 -0.35741253101478748 -0.5 0 -0.35979455825166368 -0.48519290092039941 0 -0.34342087683177741 -0.48669095008188618 0 -0.33387795429423722 -0.5 0 -0.35741253101478748 -0.5 0 -0.38094710773533791 -0.49999999999999839 0 -0.35741253101478748 -0.5 0 -0.37240076261097882 -0.48974555046165519 0 -0.35741253101478748 -0.5 0 -0.35979455825166368 -0.48519290092039941 0 -0.37240076261097882 -0.48974555046165519 0 -0.35181335970555933 -0.47167232718529989 0 -0.35979455825166368 -0.48519290092039941 0 -0.37411677223754131 -0.47733161267270968 0 -0.35181335970555933 -0.47167232718529989 0 -0.37411677223754131 -0.47733161267270968 0 -0.37428706798929601 -0.46557084766945539 0 -0.35979455825166368 -0.48519290092039941 0 -0.37240076261097882 -0.48974555046165519 0 -0.37411677223754131 -0.47733161267270968 0 -0.37411677223754131 -0.47733161267270968 0 -0.37428706798929601 -0.46557084766945539 0 -0.35181335970555933 -0.47167232718529989 0 -0.37428706798929601 -0.46557084766945539 0 -0.35302422329502631 -0.44785824460859458 0 -0.35181335970555933 -0.47167232718529989 0 -0.37428706798929601 -0.46557084766945539 0 -0.33709504481289931 -0.46474263175187808 0 -0.35181335970555933 -0.47167232718529989 0 -0.35302422329502631 -0.44785824460859458 0 -0.37428706798929601 -0.46557084766945539 0 -0.35302422329502631 -0.44785824460859458 0 -0.37472313619600889 -0.43545561783144832 0 -0.37428706798929601 -0.46557084766945539 0 -0.37472313619600889 -0.43545561783144832 0 -0.35302422329502631 -0.44785824460859458 0 -0.37472313619600889 -0.43545561783144832 0 -0.36076670325611282 -0.42019275678090617 0 -0.37515920440272033 -0.40534038799344108 0 -0.37472313619600889 -0.43545561783144832 0 -0.36076670325611282 -0.42019275678090617 0 -0.37515920440272033 -0.40534038799344108 0 -0.36076670325611282 -0.42019275678090617 0 -0.35115835689997099 -0.40187837368579798 0 -0.37515920440272033 -0.40534038799344108 0 -0.37472313619600889 -0.43545561783144832 0 -0.36076670325611282 -0.42019275678090617 0 -0.35115835689997099 -0.40187837368579798 0 -0.34095461206840061 -0.42640878026434909 0 -0.34815033243380111 -0.40144447968524521 0 -0.35115835689997099 -0.40187837368579798 0 -0.34095461206840061 -0.42640878026434909 0 -0.35115835689997099 -0.40187837368579798 0 -0.34095461206840061 -0.42640878026434909 0 -0.35302422329502631 -0.44785824460859458 0 -0.36076670325611282 -0.42019275678090617 0 -0.34095461206840061 -0.42640878026434909 0 -0.37543310808941849 -0.38642437359143528 0 -0.36100598543278789 -0.37820409176948921 0 -0.35115835689997099 -0.40187837368579798 0 -0.37543310808941849 -0.38642437359143528 0 -0.37568304780698558 -0.36916333065311507 0 -0.36100598543278789 -0.37820409176948921 0 -0.37543310808941849 -0.38642437359143528 0 -0.36100598543278789 -0.37820409176948921 0 -0.37515920440272033 -0.40534038799344108 0 -0.37543310808941849 -0.38642437359143528 0 -0.35115835689997099 -0.40187837368579798 0 -0.37515920440272033 -0.40534038799344108 0 -0.35115835689997099 -0.40187837368579798 0 -0.35115835689997099 -0.40187837368579798 0 -0.34646966066369161 -0.38533898881774881 0 -0.34316085436749 -0.39382471367395527 0 -0.34815033243380111 -0.40144447968524521 0 -0.35115835689997099 -0.40187837368579798 0 -0.34316085436749 -0.39382471367395527 0 -0.34815033243380111 -0.40144447968524521 0 -0.35115835689997099 -0.40187837368579798 0 -0.33937201587241012 -0.36587749477948078 0 -0.36100598543278789 -0.37820409176948921 0 -0.34646966066369161 -0.38533898881774881 0 -0.36100598543278789 -0.37820409176948921 0 -0.35115835689997099 -0.40187837368579798 0 -0.36100598543278789 -0.37820409176948921 0 -0.35115835689997099 -0.40187837368579798 0 -0.34646966066369161 -0.38533898881774881 0 -0.33937201587241012 -0.36587749477948078 0 -0.32803705280137402 -0.37447550275240871 0 -0.34646966066369161 -0.38533898881774881 0 -0.32803705280137402 -0.37447550275240871 0 -0.34646966066369161 -0.38533898881774881 0 -0.32931529664348408 -0.38869437358142001 0 -0.34646966066369161 -0.38533898881774881 0 -0.32931529664348408 -0.38869437358142001 0 -0.34316085436749 -0.39382471367395527 0 -0.34815033243380111 -0.40144447968524521 0 -0.33486919938690762 -0.39884665705885908 0 -0.32944617452305069 -0.41182817437998842 0 -0.32931529664348408 -0.38869437358142001 0 -0.34316085436749 -0.39382471367395527 0 -0.33486919938690762 -0.39884665705885908 0 -0.32931529664348408 -0.38869437358142001 0 -0.33486919938690762 -0.39884665705885908 0 -0.32365381597648563 -0.39942827076698811 0 -0.34815033243380111 -0.40144447968524521 0 -0.34316085436749 -0.39382471367395527 0 -0.33486919938690762 -0.39884665705885908 0 -0.33486919938690762 -0.39884665705885908 0 -0.32365381597648563 -0.39942827076698811 0 -0.32944617452305069 -0.41182817437998842 0 -0.32931529664348408 -0.38869437358142001 0 -0.32365381597648563 -0.39942827076698811 0 -0.30988209993594379 -0.39542680479545339 0 -0.32365381597648563 -0.39942827076698811 0 -0.30595412674790001 -0.41636475829844438 0 -0.30988209993594379 -0.39542680479545339 0 -0.31381007312398762 -0.37448885129246268 0 -0.32931529664348408 -0.38869437358142001 0 -0.30988209993594379 -0.39542680479545339 0 -0.31381007312398762 -0.37448885129246268 0 -0.32803705280137402 -0.37447550275240871 0 -0.32931529664348408 -0.38869437358142001 0 -0.34095461206840061 -0.42640878026434909 0 -0.32944617452305069 -0.41182817437998842 0 -0.3206124180200437 -0.43193612962395289 0 -0.33075086723682939 -0.45093918684289991 0 -0.34095461206840061 -0.42640878026434909 0 -0.3206124180200437 -0.43193612962395289 0 -0.34815033243380111 -0.40144447968524521 0 -0.34095461206840061 -0.42640878026434909 0 -0.32944617452305069 -0.41182817437998842 0 -0.32944617452305069 -0.41182817437998842 0 -0.3206124180200437 -0.43193612962395289 0 -0.30595412674790001 -0.41636475829844438 0 -0.32365381597648563 -0.39942827076698811 0 -0.32944617452305069 -0.41182817437998842 0 -0.30595412674790001 -0.41636475829844438 0 -0.3206124180200437 -0.43193612962395289 0 -0.30595412674790001 -0.41636475829844438 0 -0.29602166034141808 -0.43748304283089118 0 -0.30595412674790001 -0.41636475829844438 0 -0.28680587137917263 -0.41476105187328532 0 -0.29502227998321778 -0.40112933436643161 0 -0.30595412674790001 -0.41636475829844438 0 -0.28680587137917263 -0.41476105187328532 0 -0.29602166034141808 -0.43748304283089118 0 -0.28680587137917263 -0.41476105187328532 0 -0.29602166034141808 -0.43748304283089118 0 -0.27149625348017281 -0.42637325053463759 0 -0.29602166034141808 -0.43748304283089118 0 -0.27149625348017281 -0.42637325053463759 0 -0.29602166034141808 -0.43748304283089118 0 -0.27149625348017281 -0.42637325053463759 0 -0.27906578537949278 -0.44687665772048962 0 -0.31381007312398762 -0.37448885129246268 0 -0.30988209993594379 -0.39542680479545339 0 -0.31381007312398762 -0.37448885129246268 0 -0.30988209993594379 -0.39542680479545339 0 -0.29196992941862432 -0.3825632544476108 0 -0.30595412674790001 -0.41636475829844438 0 -0.30988209993594379 -0.39542680479545339 0 -0.30595412674790001 -0.41636475829844438 0 -0.30988209993594379 -0.39542680479545339 0 -0.29502227998321778 -0.40112933436643161 0 -0.30988209993594379 -0.39542680479545339 0 -0.29502227998321778 -0.40112933436643161 0 -0.29196992941862432 -0.3825632544476108 0 -0.28680587137917263 -0.41476105187328532 0 -0.29502227998321778 -0.40112933436643161 0 -0.2806661672136338 -0.39648987600255969 0 -0.29502227998321778 -0.40112933436643161 0 -0.29196992941862432 -0.3825632544476108 0 -0.2806661672136338 -0.39648987600255969 0 -0.27675503022224163 -0.36681377825091099 0 -0.29196992941862432 -0.3825632544476108 0 -0.26924588117792803 -0.38334910629271668 0 -0.29196992941862432 -0.3825632544476108 0 -0.26924588117792803 -0.38334910629271668 0 -0.2806661672136338 -0.39648987600255969 0 -0.27675503022224163 -0.36681377825091099 0 -0.26924588117792803 -0.38334910629271668 0 -0.25812358553267323 -0.37605355791306738 0 -0.28680587137917263 -0.41476105187328532 0 -0.2806661672136338 -0.39648987600255969 0 -0.26326431180229581 -0.40282557300305732 0 -0.26924588117792803 -0.38334910629271668 0 -0.2806661672136338 -0.39648987600255969 0 -0.26326431180229581 -0.40282557300305732 0 -0.26326431180229581 -0.40282557300305732 0 -0.2504897110532438 -0.38524934403489181 0 -0.24394706363899241 -0.39877073912243299 0 -0.26326431180229581 -0.40282557300305732 0 -0.24697084661892749 -0.41526345823838401 0 -0.24394706363899241 -0.39877073912243299 0 -0.26924588117792803 -0.38334910629271668 0 -0.26326431180229581 -0.40282557300305732 0 -0.2504897110532438 -0.38524934403489181 0 -0.26924588117792803 -0.38334910629271668 0 -0.2504897110532438 -0.38524934403489181 0 -0.25812358553267323 -0.37605355791306738 0 -0.2504897110532438 -0.38524934403489181 0 -0.25812358553267323 -0.37605355791306738 0 -0.24839247009954951 -0.37292447016044328 0 -0.28680587137917263 -0.41476105187328532 0 -0.26326431180229581 -0.40282557300305732 0 -0.27149625348017281 -0.42637325053463759 0 -0.27149625348017281 -0.42637325053463759 0 -0.24697084661892749 -0.41526345823838401 0 -0.26326431180229581 -0.40282557300305732 0 -0.27149625348017281 -0.42637325053463759 0 -0.24697084661892749 -0.41526345823838401 0 -0.27149625348017281 -0.42637325053463759 0 -0.25687425522332558 -0.44642006451091643 0 -0.24697084661892749 -0.41526345823838401 0 -0.25687425522332558 -0.44642006451091643 0 -0.27607931301277078 -0.46657199895299017 0 -0.25409384940020791 -0.47271975939701871 0 -0.25687425522332558 -0.44642006451091643 0 -0.27607931301277078 -0.46657199895299017 0 -0.27906578537949278 -0.44687665772048962 0 -0.27149625348017281 -0.42637325053463759 0 -0.25687425522332558 -0.44642006451091643 0 -0.27906578537949278 -0.44687665772048962 0 -0.29602166034141808 -0.43748304283089118 0 -0.27906578537949278 -0.44687665772048962 0 -0.29968055871002541 -0.46203125713240301 0 -0.27607931301277078 -0.46657199895299017 0 -0.27906578537949278 -0.44687665772048962 0 -0.29968055871002541 -0.46203125713240301 0 -0.31571728338184601 -0.45752087103574601 0 -0.29968055871002541 -0.46203125713240301 0 -0.30706080135445341 -0.45057148265483188 0 -0.31571728338184601 -0.45752087103574601 0 -0.32054712240525829 -0.47546959342145068 0 -0.29968055871002541 -0.46203125713240301 0 -0.32054706720266329 -0.44859283512714471 0 -0.29602166034141808 -0.43748304283089118 0 -0.32054706720266329 -0.44859283512714471 0 -0.3206124180200437 -0.43193612962395289 0 -0.29602166034141808 -0.43748304283089118 0 -0.32054706720266329 -0.44859283512714471 0 -0.29602166034141808 -0.43748304283089118 0 -0.30706080135445341 -0.45057148265483188 0 -0.29602166034141808 -0.43748304283089118 0 -0.29968055871002541 -0.46203125713240301 0 -0.30706080135445341 -0.45057148265483188 0 -0.32054712240525829 -0.47546959342145068 0 -0.31034337757368669 -0.50000000000000133 0 -0.2941570887960146 -0.48201569375099518 0 -0.32054712240525829 -0.47546959342145068 0 -0.29968055871002541 -0.46203125713240301 0 -0.2941570887960146 -0.48201569375099518 0 -0.27607931301277078 -0.46657199895299017 0 -0.29968055871002541 -0.46203125713240301 0 -0.2941570887960146 -0.48201569375099518 0 -0.2941570887960146 -0.48201569375099518 0 -0.28248249767631262 -0.5 0 -0.27039562620846602 -0.48462576079096858 0 -0.31034337757368669 -0.50000000000000133 0 -0.2941570887960146 -0.48201569375099518 0 -0.28248249767631262 -0.5 0 -0.28248249767631262 -0.5 0 -0.27039562620846602 -0.48462576079096858 0 -0.25462161777893849 -0.5 0 -0.27607931301277078 -0.46657199895299017 0 -0.2941570887960146 -0.48201569375099518 0 -0.27039562620846602 -0.48462576079096858 0 -0.27607931301277078 -0.46657199895299017 0 -0.27039562620846602 -0.48462576079096858 0 -0.25409384940020791 -0.47271975939701871 0 -0.27039562620846602 -0.48462576079096858 0 -0.25409384940020791 -0.47271975939701871 0 -0.25462161777893849 -0.5 0 -0.25462161777893849 -0.5 0 -0.23155232774708009 -0.47932355884050398 0 -0.22676073788156451 -0.5 0 -0.25409384940020791 -0.47271975939701871 0 -0.25462161777893849 -0.5 0 -0.23155232774708009 -0.47932355884050398 0 -0.25409384940020791 -0.47271975939701871 0 -0.23155232774708009 -0.47932355884050398 0 -0.2350399564306665 -0.45937717328673289 0 -0.23155232774708009 -0.47932355884050398 0 -0.2350399564306665 -0.45937717328673289 0 -0.2080224731694312 -0.47403962225972662 0 -0.23155232774708009 -0.47932355884050398 0 -0.22676073788156451 -0.5 0 -0.2080224731694312 -0.47403962225972662 0 -0.25687425522332558 -0.44642006451091643 0 -0.2350399564306665 -0.45937717328673289 0 -0.23180750449586429 -0.4343742486430574 0 -0.25687425522332558 -0.44642006451091643 0 -0.25409384940020791 -0.47271975939701871 0 -0.2350399564306665 -0.45937717328673289 0 -0.2350399564306665 -0.45937717328673289 0 -0.21590660946663959 -0.44883644739355771 0 -0.2080224731694312 -0.47403962225972662 0 -0.2350399564306665 -0.45937717328673289 0 -0.21590660946663959 -0.44883644739355771 0 -0.23180750449586429 -0.4343742486430574 0 -0.21590660946663959 -0.44883644739355771 0 -0.1943898331460783 -0.4473597119794826 0 -0.20910912931781811 -0.42543372189632289 0 -0.21590660946663959 -0.44883644739355771 0 -0.1943898331460783 -0.4473597119794826 0 -0.2080224731694312 -0.47403962225972662 0 -0.1943898331460783 -0.4473597119794826 0 -0.2080224731694312 -0.47403962225972662 0 -0.17967053697433849 -0.46928570206264231 0 -0.22676073788156451 -0.5 0 -0.2080224731694312 -0.47403962225972662 0 -0.19889985798419041 -0.5 0 -0.2080224731694312 -0.47403962225972662 0 -0.1821948971586228 -0.48648437486529872 0 -0.17967053697433849 -0.46928570206264231 0 -0.2080224731694312 -0.47403962225972662 0 -0.19889985798419041 -0.5 0 -0.1821948971586228 -0.48648437486529872 0 -0.19889985798419041 -0.5 0 -0.1821948971586228 -0.48648437486529872 0 -0.17103897808681609 -0.49999999999999778 0 -0.1821948971586228 -0.48648437486529872 0 -0.17103897808681609 -0.49999999999999778 0 -0.16495124080259491 -0.49121169214579941 0 -0.17103897808681609 -0.49999999999999778 0 -0.16495124080259491 -0.49121169214579941 0 -0.17103897808681609 -0.49999999999999778 0 -0.16495124080259491 -0.49121169214579941 0 -0.15905149781887321 -0.49999999999999961 0 -0.16495124080259491 -0.49121169214579941 0 -0.15905149781887321 -0.49999999999999961 0 -0.1545750311736096 -0.49062041690426861 0 -0.16495124080259491 -0.49121169214579941 0 -0.15905149781887321 -0.49999999999999961 0 -0.16495124080259491 -0.49121169214579941 0 -0.16530166315622061 -0.47155300009798301 0 -0.17967053697433849 -0.46928570206264231 0 -0.16495124080259491 -0.49121169214579941 0 -0.16530166315622061 -0.47155300009798301 0 -0.15083103946930049 -0.47082765280793248 0 -0.16495124080259491 -0.49121169214579941 0 -0.1545750311736096 -0.49062041690426861 0 -0.15083103946930049 -0.47082765280793248 0 -0.16495124080259491 -0.49121169214579941 0 -0.15083103946930049 -0.47082765280793248 0 -0.16495124080259491 -0.49121169214579941 0 -0.17967053697433849 -0.46928570206264231 0 -0.1821948971586228 -0.48648437486529872 0 -0.16495124080259491 -0.49121169214579941 0 -0.17967053697433849 -0.46928570206264231 0 -0.1943898331460783 -0.4473597119794826 0 -0.17967053697433849 -0.46928570206264231 0 -0.1943898331460783 -0.4473597119794826 0 -0.17967053697433849 -0.46928570206264231 0 -0.1657538353786501 -0.45488695337555668 0 -0.1943898331460783 -0.4473597119794826 0 -0.1657538353786501 -0.45488695337555668 0 -0.1755027511393909 -0.43471579892562301 0 -0.1657538353786501 -0.45488695337555668 0 -0.15761868306950341 -0.43586407366366631 0 -0.1755027511393909 -0.43471579892562301 0 -0.16530166315622061 -0.47155300009798301 0 -0.1657538353786501 -0.45488695337555668 0 -0.15083103946930049 -0.47082765280793248 0 -0.16530166315622061 -0.47155300009798301 0 -0.17967053697433849 -0.46928570206264231 0 -0.1657538353786501 -0.45488695337555668 0 -0.13671083813600751 -0.45044361347006462 0 -0.15083103946930049 -0.47082765280793248 0 -0.13671083813600751 -0.45044361347006462 0 -0.13441782301728619 -0.47175980973682791 0 -0.15083103946930049 -0.47082765280793248 0 -0.1657538353786501 -0.45488695337555668 0 -0.13671083813600751 -0.45044361347006462 0 -0.15083103946930049 -0.47082765280793248 0 -0.13671083813600751 -0.45044361347006462 0 -0.13816776916695811 -0.432543871779144 0 -0.15761868306950341 -0.43586407366366631 0 -0.1657538353786501 -0.45488695337555668 0 -0.13671083813600751 -0.45044361347006462 0 -0.15761868306950341 -0.43586407366366631 0 -0.13671083813600751 -0.45044361347006462 0 -0.13816776916695811 -0.432543871779144 0 -0.1225906368027144 -0.43005957413219659 0 -0.13671083813600751 -0.45044361347006462 0 -0.1225906368027144 -0.43005957413219659 0 -0.13671083813600751 -0.45044361347006462 0 -0.13441782301728619 -0.47175980973682791 0 -0.1201929706126502 -0.46127799294672761 0 -0.13441782301728619 -0.47175980973682791 0 -0.12605423818426559 -0.48707922202292669 0 -0.14429533434837091 -0.48908967660720287 0 -0.13441782301728619 -0.47175980973682791 0 -0.12605423818426559 -0.48707922202292669 0 -0.1201929706126502 -0.46127799294672761 0 -0.1295391708778694 -0.5 0 -0.12605423818426559 -0.48707922202292669 0 -0.14429533434837091 -0.48908967660720287 0 -0.15905149781887321 -0.49999999999999961 0 -0.1295391708778694 -0.5 0 -0.14429533434837091 -0.48908967660720287 0 -0.15905149781887321 -0.49999999999999961 0 -0.14429533434837091 -0.48908967660720287 0 -0.1545750311736096 -0.49062041690426861 0 -0.14429533434837091 -0.48908967660720287 0 -0.1545750311736096 -0.49062041690426861 0 -0.15083103946930049 -0.47082765280793248 0 -0.13441782301728619 -0.47175980973682791 0 -0.14429533434837091 -0.48908967660720287 0 -0.15083103946930049 -0.47082765280793248 0 -0.15345949684661231 -0.4053237642064671 0 -0.15136585988972451 -0.39002590355483568 0 -0.13982663417143551 -0.39933000433158738 0 -0.15136585988972451 -0.39002590355483568 0 -0.1368738238800834 -0.3880397179408614 0 -0.13982663417143551 -0.39933000433158738 0 -0.15345949684661231 -0.4053237642064671 0 -0.13982663417143551 -0.39933000433158738 0 -0.1398029654186671 -0.41064466143528439 0 -0.15136585988972451 -0.39002590355483568 0 -0.1368738238800834 -0.3880397179408614 0 -0.13959568407155781 -0.37291875636350952 0 -0.15136585988972451 -0.39002590355483568 0 -0.15951650330528561 -0.37856285477961621 0 -0.13959568407155781 -0.37291875636350952 0 -0.1368738238800834 -0.3880397179408614 0 -0.12625141541498519 -0.38197991289387551 0 -0.13959568407155781 -0.37291875636350952 0 -0.1368738238800834 -0.3880397179408614 0 -0.12625141541498519 -0.38197991289387551 0 -0.1273295258527142 -0.39594401256049883 0 -0.1368738238800834 -0.3880397179408614 0 -0.1273295258527142 -0.39594401256049883 0 -0.13982663417143551 -0.39933000433158738 0 -0.13982663417143551 -0.39933000433158738 0 -0.1295768038857959 -0.40463739140698729 0 -0.1398029654186671 -0.41064466143528439 0 -0.1273295258527142 -0.39594401256049883 0 -0.13982663417143551 -0.39933000433158738 0 -0.1295768038857959 -0.40463739140698729 0 -0.1273295258527142 -0.39594401256049883 0 -0.1295768038857959 -0.40463739140698729 0 -0.1219584454402414 -0.40406961642135292 0 -0.1295768038857959 -0.40463739140698729 0 -0.1296119374269841 -0.41417592727859581 0 -0.1225700411049412 -0.40994677461386392 0 -0.1296119374269841 -0.41417592727859581 0 -0.12315425937001 -0.41747458531602638 0 -0.1225700411049412 -0.40994677461386392 0 -0.1296119374269841 -0.41417592727859581 0 -0.13713184062407599 -0.42036644340313623 0 -0.12908399078123631 -0.42243277819987513 0 -0.1296119374269841 -0.41417592727859581 0 -0.12908399078123631 -0.42243277819987513 0 -0.12315425937001 -0.41747458531602638 0 -0.1296119374269841 -0.41417592727859581 0 -0.13713184062407599 -0.42036644340313623 0 -0.1398029654186671 -0.41064466143528439 0 -0.1295768038857959 -0.40463739140698729 0 -0.1296119374269841 -0.41417592727859581 0 -0.1398029654186671 -0.41064466143528439 0 -0.12908399078123631 -0.42243277819987513 0 -0.13816776916695811 -0.432543871779144 0 -0.1225906368027144 -0.43005957413219659 0 -0.13713184062407599 -0.42036644340313623 0 -0.12908399078123631 -0.42243277819987513 0 -0.13816776916695811 -0.432543871779144 0 -0.13816776916695811 -0.432543871779144 0 -0.14921107955709881 -0.42003443798493328 0 -0.15761868306950341 -0.43586407366366631 0 -0.13713184062407599 -0.42036644340313623 0 -0.13816776916695811 -0.432543871779144 0 -0.14921107955709881 -0.42003443798493328 0 -0.15345949684661231 -0.4053237642064671 0 -0.1398029654186671 -0.41064466143528439 0 -0.14921107955709881 -0.42003443798493328 0 -0.13713184062407599 -0.42036644340313623 0 -0.1398029654186671 -0.41064466143528439 0 -0.14921107955709881 -0.42003443798493328 0 -0.15345949684661231 -0.4053237642064671 0 -0.14921107955709881 -0.42003443798493328 0 -0.17009787391258249 -0.41611158199907422 0 -0.14921107955709881 -0.42003443798493328 0 -0.17009787391258249 -0.41611158199907422 0 -0.15761868306950341 -0.43586407366366631 0 -0.17009787391258249 -0.41611158199907422 0 -0.15761868306950341 -0.43586407366366631 0 -0.1755027511393909 -0.43471579892562301 0 -0.1943898331460783 -0.4473597119794826 0 -0.1755027511393909 -0.43471579892562301 0 -0.18951413900105801 -0.42212105940109063 0 -0.17009787391258249 -0.41611158199907422 0 -0.1755027511393909 -0.43471579892562301 0 -0.18951413900105801 -0.42212105940109063 0 -0.17009787391258249 -0.41611158199907422 0 -0.18562609472684241 -0.40161550393767448 0 -0.18951413900105801 -0.42212105940109063 0 -0.18562609472684241 -0.40161550393767448 0 -0.16863204450281991 -0.39380366607865908 0 -0.18254917963999329 -0.38971973427100182 0 -0.17009787391258249 -0.41611158199907422 0 -0.18562609472684241 -0.40161550393767448 0 -0.16863204450281991 -0.39380366607865908 0 -0.18562609472684241 -0.40161550393767448 0 -0.18254917963999329 -0.38971973427100182 0 -0.19364364155811911 -0.391297223908462 0 -0.15345949684661231 -0.4053237642064671 0 -0.17009787391258249 -0.41611158199907422 0 -0.16863204450281991 -0.39380366607865908 0 -0.15345949684661231 -0.4053237642064671 0 -0.15136585988972451 -0.39002590355483568 0 -0.16863204450281991 -0.39380366607865908 0 -0.15951650330528561 -0.37856285477961621 0 -0.17625218554490921 -0.38180729220612769 0 -0.1663610822414904 -0.3702523776444529 0 -0.16863204450281991 -0.39380366607865908 0 -0.15951650330528561 -0.37856285477961621 0 -0.17625218554490921 -0.38180729220612769 0 -0.15136585988972451 -0.39002590355483568 0 -0.16863204450281991 -0.39380366607865908 0 -0.15951650330528561 -0.37856285477961621 0 -0.17625218554490921 -0.38180729220612769 0 -0.1663610822414904 -0.3702523776444529 0 -0.18579747934449059 -0.37379744869579251 0 -0.16863204450281991 -0.39380366607865908 0 -0.17625218554490921 -0.38180729220612769 0 -0.18254917963999329 -0.38971973427100182 0 -0.17625218554490921 -0.38180729220612769 0 -0.18254917963999329 -0.38971973427100182 0 -0.18859193186727599 -0.38007498522408562 0 -0.17625218554490921 -0.38180729220612769 0 -0.18859193186727599 -0.38007498522408562 0 -0.18579747934449059 -0.37379744869579251 0 -0.18859193186727599 -0.38007498522408562 0 -0.2014200033848125 -0.37119512976538899 0 -0.18859193186727599 -0.38007498522408562 0 -0.2014200033848125 -0.37119512976538899 0 -0.18579747934449059 -0.37379744869579251 0 -0.18859193186727599 -0.38007498522408562 0 -0.1989719328316337 -0.38216032023399737 0 -0.2014200033848125 -0.37119512976538899 0 -0.1989719328316337 -0.38216032023399737 0 -0.20694960464083431 -0.38128159833907621 0 -0.2014200033848125 -0.37119512976538899 0 -0.1989719328316337 -0.38216032023399737 0 -0.19364364155811911 -0.391297223908462 0 -0.20620014074293039 -0.39180645285032889 0 -0.18859193186727599 -0.38007498522408562 0 -0.1989719328316337 -0.38216032023399737 0 -0.19364364155811911 -0.391297223908462 0 -0.18254917963999329 -0.38971973427100182 0 -0.18859193186727599 -0.38007498522408562 0 -0.19364364155811911 -0.391297223908462 0 -0.18562609472684241 -0.40161550393767448 0 -0.19364364155811911 -0.391297223908462 0 -0.20208872018367391 -0.4070926974887904 0 -0.19364364155811911 -0.391297223908462 0 -0.20620014074293039 -0.39180645285032889 0 -0.20208872018367391 -0.4070926974887904 0 -0.20620014074293039 -0.39180645285032889 0 -0.21479853281951461 -0.38638530273916921 0 -0.22382842548955789 -0.4035077318131633 0 -0.20620014074293039 -0.39180645285032889 0 -0.20208872018367391 -0.4070926974887904 0 -0.22382842548955789 -0.4035077318131633 0 -0.21479853281951461 -0.38638530273916921 0 -0.20694960464083431 -0.38128159833907621 0 -0.21335741342528061 -0.3748607861064962 0 -0.21479853281951461 -0.38638530273916921 0 -0.22412886374227589 -0.38235217247817599 0 -0.21335741342528061 -0.3748607861064962 0 -0.20694960464083431 -0.38128159833907621 0 -0.2014200033848125 -0.37119512976538899 0 -0.21335741342528061 -0.3748607861064962 0 -0.20620014074293039 -0.39180645285032889 0 -0.21479853281951461 -0.38638530273916921 0 -0.20694960464083431 -0.38128159833907621 0 -0.1989719328316337 -0.38216032023399737 0 -0.20620014074293039 -0.39180645285032889 0 -0.20694960464083431 -0.38128159833907621 0 -0.1943898331460783 -0.4473597119794826 0 -0.20910912931781811 -0.42543372189632289 0 -0.1943898331460783 -0.4473597119794826 0 -0.18951413900105801 -0.42212105940109063 0 -0.20910912931781811 -0.42543372189632289 0 -0.18951413900105801 -0.42212105940109063 0 -0.20208872018367391 -0.4070926974887904 0 -0.20910912931781811 -0.42543372189632289 0 -0.18562609472684241 -0.40161550393767448 0 -0.18951413900105801 -0.42212105940109063 0 -0.20208872018367391 -0.4070926974887904 0 -0.20208872018367391 -0.4070926974887904 0 -0.20910912931781811 -0.42543372189632289 0 -0.22382842548955789 -0.4035077318131633 0 -0.20910912931781811 -0.42543372189632289 0 -0.22382842548955789 -0.4035077318131633 0 -0.21590660946663959 -0.44883644739355771 0 -0.20910912931781811 -0.42543372189632289 0 -0.23180750449586429 -0.4343742486430574 0 -0.20910912931781811 -0.42543372189632289 0 -0.23180750449586429 -0.4343742486430574 0 -0.22382842548955789 -0.4035077318131633 0 -0.23180750449586429 -0.4343742486430574 0 -0.24697084661892749 -0.41526345823838401 0 -0.22382842548955789 -0.4035077318131633 0 -0.25687425522332558 -0.44642006451091643 0 -0.23180750449586429 -0.4343742486430574 0 -0.24697084661892749 -0.41526345823838401 0 -0.22412886374227589 -0.38235217247817599 0 -0.2351820232309369 -0.38700758852266848 0 -0.22952037500089251 -0.37311519752493849 0 -0.22412886374227589 -0.38235217247817599 0 -0.22186900287429051 -0.37074082218821958 0 -0.21335741342528061 -0.3748607861064962 0 -0.22412886374227589 -0.38235217247817599 0 -0.22952037500089251 -0.37311519752493849 0 -0.22186900287429051 -0.37074082218821958 0 -0.22382842548955789 -0.4035077318131633 0 -0.24394706363899241 -0.39877073912243299 0 -0.2351820232309369 -0.38700758852266848 0 -0.21479853281951461 -0.38638530273916921 0 -0.22412886374227589 -0.38235217247817599 0 -0.22382842548955789 -0.4035077318131633 0 -0.22412886374227589 -0.38235217247817599 0 -0.22382842548955789 -0.4035077318131633 0 -0.2351820232309369 -0.38700758852266848 0 -0.24697084661892749 -0.41526345823838401 0 -0.22382842548955789 -0.4035077318131633 0 -0.24394706363899241 -0.39877073912243299 0 -0.2504897110532438 -0.38524934403489181 0 -0.24394706363899241 -0.39877073912243299 0 -0.2351820232309369 -0.38700758852266848 0 -0.2504897110532438 -0.38524934403489181 0 -0.2351820232309369 -0.38700758852266848 0 -0.24036284435674521 -0.37772398595485779 0 -0.2351820232309369 -0.38700758852266848 0 -0.24036284435674521 -0.37772398595485779 0 -0.22952037500089251 -0.37311519752493849 0 -0.2504897110532438 -0.38524934403489181 0 -0.24036284435674521 -0.37772398595485779 0 -0.24839247009954951 -0.37292447016044328 0 -0.24839247009954951 -0.37292447016044328 0 -0.24532753696728959 -0.36501789644951049 0 -0.23861636880082099 -0.36955921174380651 0 -0.24036284435674521 -0.37772398595485779 0 -0.24839247009954951 -0.37292447016044328 0 -0.23861636880082099 -0.36955921174380651 0 -0.25757508569408222 -0.36424633604315798 0 -0.24532753696728959 -0.36501789644951049 0 -0.24650166737573331 -0.3569693529562265 0 -0.24532753696728959 -0.36501789644951049 0 -0.24234943749700691 -0.36154613291017651 0 -0.24650166737573331 -0.3569693529562265 0 -0.24532753696728959 -0.36501789644951049 0 -0.24234943749700691 -0.36154613291017651 0 -0.23928568589256061 -0.36455139619594779 0 -0.24234943749700691 -0.36154613291017651 0 -0.23928568589256061 -0.36455139619594779 0 -0.23696933381926599 -0.3585493042599866 0 -0.24532753696728959 -0.36501789644951049 0 -0.23928568589256061 -0.36455139619594779 0 -0.23861636880082099 -0.36955921174380651 0 -0.23928568589256061 -0.36455139619594779 0 -0.23861636880082099 -0.36955921174380651 0 -0.23345080570298909 -0.36409891217005902 0 -0.23928568589256061 -0.36455139619594779 0 -0.23345080570298909 -0.36409891217005902 0 -0.23696933381926599 -0.3585493042599866 0 -0.24036284435674521 -0.37772398595485779 0 -0.23861636880082099 -0.36955921174380651 0 -0.22952037500089251 -0.37311519752493849 0 -0.23345080570298909 -0.36409891217005902 0 -0.22186900287429051 -0.37074082218821958 0 -0.21424807490234879 -0.36231527430669241 0 -0.22952037500089251 -0.37311519752493849 0 -0.23345080570298909 -0.36409891217005902 0 -0.22186900287429051 -0.37074082218821958 0 -0.23696933381926599 -0.3585493042599866 0 -0.21424807490234879 -0.36231527430669241 0 -0.23861636880082099 -0.36955921174380651 0 -0.22952037500089251 -0.37311519752493849 0 -0.23345080570298909 -0.36409891217005902 0 -0.23345080570298909 -0.36409891217005902 0 -0.23696933381926599 -0.3585493042599866 0 -0.21424807490234879 -0.36231527430669241 0 -0.22913587473404851 -0.35200963246311751 0 -0.2097464541822805 -0.33582260124732738 0 -0.22913587473404851 -0.35200963246311751 0 -0.23696933381926599 -0.3585493042599866 0 -0.21424807490234879 -0.36231527430669241 0 -0.22913587473404851 -0.35200963246311751 0 -0.21998707993494029 -0.33959044394559312 0 -0.22913587473404851 -0.35200963246311751 0 -0.21424807490234879 -0.36231527430669241 0 -0.22913587473404851 -0.35200963246311751 0 -0.23696933381926599 -0.3585493042599866 0 -0.22913587473404851 -0.35200963246311751 0 -0.24881121389389799 -0.33838995723746451 0 -0.22913587473404851 -0.35200963246311751 0 -0.23696933381926599 -0.3585493042599866 0 -0.24650166737573331 -0.3569693529562265 0 -0.22913587473404851 -0.35200963246311751 0 -0.24650166737573331 -0.3569693529562265 0 -0.24881121389389799 -0.33838995723746451 0 -0.23696933381926599 -0.3585493042599866 0 -0.24650166737573331 -0.3569693529562265 0 -0.24234943749700691 -0.36154613291017651 0 -0.23696933381926599 -0.3585493042599866 0 -0.24650166737573331 -0.3569693529562265 0 -0.22913587473404851 -0.35200963246311751 0 -0.24881121389389799 -0.33838995723746451 0 -0.2325545649384867 -0.33453283978227571 0 -0.24881121389389799 -0.33838995723746451 0 -0.2441082332202735 -0.32380704628422963 0 -0.2325545649384867 -0.33453283978227571 0 -0.23613058105125781 -0.31890710479075163 0 -0.2279063026952847 -0.3135077128279592 0 -0.2444966906846206 -0.31181945912301329 0 -0.2441082332202735 -0.32380704628422963 0 -0.23498207165859719 -0.32537142019391418 0 -0.23613058105125781 -0.31890710479075163 0 -0.2441082332202735 -0.32380704628422963 0 -0.23498207165859719 -0.32537142019391418 0 -0.2325545649384867 -0.33453283978227571 0 -0.2441082332202735 -0.32380704628422963 0 -0.23613058105125781 -0.31890710479075163 0 -0.2444966906846206 -0.31181945912301329 0 -0.2279063026952847 -0.3135077128279592 0 -0.2193464910840433 -0.31976030368968739 0 -0.21134622408423179 -0.310554889255794 0 -0.23613058105125781 -0.31890710479075163 0 -0.2279063026952847 -0.3135077128279592 0 -0.22829430606921119 -0.32293804105388452 0 -0.23498207165859719 -0.32537142019391418 0 -0.22829430606921119 -0.32293804105388452 0 -0.2325545649384867 -0.33453283978227571 0 -0.23498207165859719 -0.32537142019391418 0 -0.23613058105125781 -0.31890710479075163 0 -0.22829430606921119 -0.32293804105388452 0 -0.22829430606921119 -0.32293804105388452 0 -0.2193464910840433 -0.31976030368968739 0 -0.22209033975117781 -0.32887735541776358 0 -0.2279063026952847 -0.3135077128279592 0 -0.22829430606921119 -0.32293804105388452 0 -0.2193464910840433 -0.31976030368968739 0 -0.22913587473404851 -0.35200963246311751 0 -0.2325545649384867 -0.33453283978227571 0 -0.21998707993494029 -0.33959044394559312 0 -0.22913587473404851 -0.35200963246311751 0 -0.21998707993494029 -0.33959044394559312 0 -0.2097464541822805 -0.33582260124732738 0 -0.22829430606921119 -0.32293804105388452 0 -0.2325545649384867 -0.33453283978227571 0 -0.22209033975117781 -0.32887735541776358 0 -0.2325545649384867 -0.33453283978227571 0 -0.22209033975117781 -0.32887735541776358 0 -0.21998707993494029 -0.33959044394559312 0 -0.21998707993494029 -0.33959044394559312 0 -0.21026925672920721 -0.32756514861737779 0 -0.22209033975117781 -0.32887735541776358 0 -0.21998707993494029 -0.33959044394559312 0 -0.21026925672920721 -0.32756514861737779 0 -0.21998707993494029 -0.33959044394559312 0 -0.2097464541822805 -0.33582260124732738 0 -0.21026925672920721 -0.32756514861737779 0 -0.2097464541822805 -0.33582260124732738 0 -0.21026925672920721 -0.32756514861737779 0 -0.21026925672920721 -0.32756514861737779 0 -0.21134622408423179 -0.310554889255794 0 -0.19267178705524021 -0.30578920503631912 0 -0.21026925672920721 -0.32756514861737779 0 -0.21134622408423179 -0.310554889255794 0 -0.2097464541822805 -0.33582260124732738 0 -0.21026925672920721 -0.32756514861737779 0 -0.19254159852174429 -0.31996122112867409 0 -0.2193464910840433 -0.31976030368968739 0 -0.21026925672920721 -0.32756514861737779 0 -0.21134622408423179 -0.310554889255794 0 -0.2193464910840433 -0.31976030368968739 0 -0.22209033975117781 -0.32887735541776358 0 -0.21026925672920721 -0.32756514861737779 0 -0.2097464541822805 -0.33582260124732738 0 -0.1943588054861482 -0.32297640251143073 0 -0.19254159852174429 -0.31996122112867409 0 -0.21026925672920721 -0.32756514861737779 0 -0.19267178705524021 -0.30578920503631912 0 -0.21026925672920721 -0.32756514861737779 0 -0.19254159852174429 -0.31996122112867409 0 -0.19267178705524021 -0.30578920503631912 0 -0.2097464541822805 -0.33582260124732738 0 -0.19254159852174429 -0.31996122112867409 0 -0.1943588054861482 -0.32297640251143073 0 -0.18737083868624629 -0.33075534874643497 0 -0.18479650728396149 -0.32227615663527998 0 -0.1943588054861482 -0.32297640251143073 0 -0.19254159852174429 -0.31996122112867409 0 -0.1789711567900161 -0.3101302037755338 0 -0.2097464541822805 -0.33582260124732738 0 -0.19466829689393059 -0.33824472710720138 0 -0.19565175395430129 -0.3512554891803924 0 -0.2097464541822805 -0.33582260124732738 0 -0.1943588054861482 -0.32297640251143073 0 -0.19466829689393059 -0.33824472710720138 0 -0.2097464541822805 -0.33582260124732738 0 -0.1943588054861482 -0.32297640251143073 0 -0.1943588054861482 -0.32297640251143073 0 -0.19466829689393059 -0.33824472710720138 0 -0.18737083868624629 -0.33075534874643497 0 -0.19466829689393059 -0.33824472710720138 0 -0.18164424501215659 -0.34621916084723381 0 -0.18737083868624629 -0.33075534874643497 0 -0.19466829689393059 -0.33824472710720138 0 -0.19565175395430129 -0.3512554891803924 0 -0.18164424501215659 -0.34621916084723381 0 -0.20800359978069241 -0.36335027445133922 0 -0.18480326185087809 -0.36719565018674682 0 -0.19565175395430129 -0.3512554891803924 0 -0.20800359978069241 -0.36335027445133922 0 -0.18480326185087809 -0.36719565018674682 0 -0.2014200033848125 -0.37119512976538899 0 -0.18480326185087809 -0.36719565018674682 0 -0.18579747934449059 -0.37379744869579251 0 -0.2014200033848125 -0.37119512976538899 0 -0.20800359978069241 -0.36335027445133922 0 -0.18480326185087809 -0.36719565018674682 0 -0.2014200033848125 -0.37119512976538899 0 -0.20800359978069241 -0.36335027445133922 0 -0.20803809997708481 -0.36661394692190907 0 -0.20800359978069241 -0.36335027445133922 0 -0.20803809997708481 -0.36661394692190907 0 -0.21424807490234879 -0.36231527430669241 0 -0.20800359978069241 -0.36335027445133922 0 -0.20803809997708481 -0.36661394692190907 0 -0.2014200033848125 -0.37119512976538899 0 -0.20803809997708481 -0.36661394692190907 0 -0.21335741342528061 -0.3748607861064962 0 -0.2014200033848125 -0.37119512976538899 0 -0.20803809997708481 -0.36661394692190907 0 -0.20803809997708481 -0.36661394692190907 0 -0.21335741342528061 -0.3748607861064962 0 -0.21424807490234879 -0.36231527430669241 0 -0.22186900287429051 -0.37074082218821958 0 -0.21335741342528061 -0.3748607861064962 0 -0.21424807490234879 -0.36231527430669241 0 -0.20800359978069241 -0.36335027445133922 0 -0.21424807490234879 -0.36231527430669241 0 -0.20803809997708481 -0.36661394692190907 0 -0.21424807490234879 -0.36231527430669241 0 -0.2097464541822805 -0.33582260124732738 0 -0.19565175395430129 -0.3512554891803924 0 -0.20800359978069241 -0.36335027445133922 0 -0.2097464541822805 -0.33582260124732738 0 -0.20800359978069241 -0.36335027445133922 0 -0.2097464541822805 -0.33582260124732738 0 -0.20800359978069241 -0.36335027445133922 0 -0.21424807490234879 -0.36231527430669241 0 -0.22913587473404851 -0.35200963246311751 0 -0.2097464541822805 -0.33582260124732738 0 -0.21424807490234879 -0.36231527430669241 0 -0.2335542019388327 -0.26090262277066528 0 -0.21472073189145299 -0.25725591714607071 0 -0.22837296648480071 -0.23789375384220129 0 -0.2335542019388327 -0.26090262277066528 0 -0.21357196166535461 -0.27540027352014051 0 -0.21472073189145299 -0.25725591714607071 0 -0.25298377122075039 -0.27518622721876451 0 -0.2335542019388327 -0.26090262277066528 0 -0.25431856302814809 -0.24833495949118861 0 -0.25298377122075039 -0.27518622721876451 0 -0.2335542019388327 -0.26090262277066528 0 -0.23093648268818689 -0.28342115129973 0 -0.2335542019388327 -0.26090262277066528 0 -0.23093648268818689 -0.28342115129973 0 -0.21357196166535461 -0.27540027352014051 0 -0.23093648268818689 -0.28342115129973 0 -0.21242319143925911 -0.29354462989421048 0 -0.21357196166535461 -0.27540027352014051 0 -0.23093648268818689 -0.28342115129973 0 -0.2435111179254994 -0.29490773243705071 0 -0.2284599410619414 -0.30268204450860919 0 -0.23093648268818689 -0.28342115129973 0 -0.2284599410619414 -0.30268204450860919 0 -0.21242319143925911 -0.29354462989421048 0 -0.25298377122075039 -0.27518622721876451 0 -0.23093648268818689 -0.28342115129973 0 -0.2435111179254994 -0.29490773243705071 0 -0.2444966906846206 -0.31181945912301329 0 -0.2284599410619414 -0.30268204450860919 0 -0.2435111179254994 -0.29490773243705071 0 -0.2444966906846206 -0.31181945912301329 0 -0.2284599410619414 -0.30268204450860919 0 -0.26057201890547982 -0.29344093798311832 0 -0.2435111179254994 -0.29490773243705071 0 -0.2444966906846206 -0.31181945912301329 0 -0.2279063026952847 -0.3135077128279592 0 -0.2444966906846206 -0.31181945912301329 0 -0.2284599410619414 -0.30268204450860919 0 -0.2284599410619414 -0.30268204450860919 0 -0.21242319143925911 -0.29354462989421048 0 -0.2279063026952847 -0.3135077128279592 0 -0.2284599410619414 -0.30268204450860919 0 -0.21134622408423179 -0.310554889255794 0 -0.2284599410619414 -0.30268204450860919 0 -0.21134622408423179 -0.310554889255794 0 -0.21242319143925911 -0.29354462989421048 0 -0.21134622408423179 -0.310554889255794 0 -0.19267178705524021 -0.30578920503631912 0 -0.21242319143925911 -0.29354462989421048 0 -0.21134622408423179 -0.310554889255794 0 -0.21242319143925911 -0.29354462989421048 0 -0.19267178705524021 -0.30578920503631912 0 -0.19410774352861071 -0.2831088592208712 0 -0.21242319143925911 -0.29354462989421048 0 -0.19410774352861071 -0.2831088592208712 0 -0.21242319143925911 -0.29354462989421048 0 -0.21357196166535461 -0.27540027352014051 0 -0.19410774352861071 -0.2831088592208712 0 -0.21242319143925911 -0.29354462989421048 0 -0.21242319143925911 -0.29354462989421048 0 -0.21357196166535461 -0.27540027352014051 0 -0.21357196166535461 -0.27540027352014051 0 -0.21472073189145299 -0.25725591714607071 0 -0.19410774352861071 -0.2831088592208712 0 -0.21357196166535461 -0.27540027352014051 0 -0.1965391795889786 -0.26204425282134669 0 -0.19410774352861071 -0.2831088592208712 0 -0.1965391795889786 -0.26204425282134669 0 -0.17579229561796161 -0.27267308854753308 0 -0.1965391795889786 -0.26204425282134669 0 -0.20565562739327201 -0.24334207984173631 0 -0.18863044441395099 -0.24733650333174401 0 -0.1965391795889786 -0.26204425282134669 0 -0.18340152769721799 -0.25642831405215172 0 -0.18863044441395099 -0.24733650333174401 0 -0.1965391795889786 -0.26204425282134669 0 -0.21472073189145299 -0.25725591714607071 0 -0.20565562739327201 -0.24334207984173631 0 -0.21357196166535461 -0.27540027352014051 0 -0.1965391795889786 -0.26204425282134669 0 -0.21472073189145299 -0.25725591714607071 0 -0.15747684770731041 -0.26223731787419863 0 -0.16344648285301799 -0.25937253054906129 0 -0.17579229561796161 -0.27267308854753308 0 -0.1593809120407062 -0.25278805690175971 0 -0.16344648285301799 -0.25937253054906129 0 -0.1534429259631987 -0.25724555178864622 0 -0.1593809120407062 -0.25278805690175971 0 -0.16344648285301799 -0.25937253054906129 0 -0.16709258238786229 -0.25188408856254202 0 -0.1593809120407062 -0.25278805690175971 0 -0.16709258238786229 -0.25188408856254202 0 -0.1601832428566283 -0.24550858739866141 0 -0.15747684770731041 -0.26223731787419863 0 -0.16344648285301799 -0.25937253054906129 0 -0.1534429259631987 -0.25724555178864622 0 -0.16344648285301799 -0.25937253054906129 0 -0.1534429259631987 -0.25724555178864622 0 -0.16344648285301799 -0.25937253054906129 0 -0.17379217291466831 -0.25992581321180469 0 -0.17579229561796161 -0.27267308854753308 0 -0.16344648285301799 -0.25937253054906129 0 -0.16709258238786229 -0.25188408856254202 0 -0.17379217291466831 -0.25992581321180469 0 -0.16709258238786229 -0.25188408856254202 0 -0.17679077873490559 -0.25046109420941731 0 -0.17379217291466831 -0.25992581321180469 0 -0.1965391795889786 -0.26204425282134669 0 -0.18340152769721799 -0.25642831405215172 0 -0.17579229561796161 -0.27267308854753308 0 -0.17679077873490559 -0.25046109420941731 0 -0.18340152769721799 -0.25642831405215172 0 -0.17379217291466831 -0.25992581321180469 0 -0.18340152769721799 -0.25642831405215172 0 -0.17379217291466831 -0.25992581321180469 0 -0.17579229561796161 -0.27267308854753308 0 -0.17679077873490559 -0.25046109420941731 0 -0.18340152769721799 -0.25642831405215172 0 -0.18863044441395099 -0.24733650333174401 0 -0.19410774352861071 -0.2831088592208712 0 -0.17579229561796161 -0.27267308854753308 0 -0.17507431738127369 -0.28401326145526029 0 -0.19410774352861071 -0.2831088592208712 0 -0.17579229561796161 -0.27267308854753308 0 -0.15747684770731041 -0.26223731787419863 0 -0.17507431738127369 -0.28401326145526029 0 -0.15747684770731041 -0.26223731787419863 0 -0.17579229561796161 -0.27267308854753308 0 -0.15747684770731041 -0.26223731787419863 0 -0.17579229561796161 -0.27267308854753308 0 -0.17507431738127369 -0.28401326145526029 0 -0.15747684770731041 -0.26223731787419863 0 -0.1596399504195592 -0.27820623095404468 0 -0.17507431738127369 -0.28401326145526029 0 -0.1596399504195592 -0.27820623095404468 0 -0.1624028041075358 -0.29248408411088062 0 -0.1494793968803598 -0.28070198605355251 0 -0.1624028041075358 -0.29248408411088062 0 -0.15973767967650701 -0.30493196891575292 0 -0.15108397830665751 -0.29236825921418419 0 -0.1624028041075358 -0.29248408411088062 0 -0.17507431738127369 -0.28401326145526029 0 -0.17391538329452061 -0.29489800819007239 0 -0.1596399504195592 -0.27820623095404468 0 -0.1624028041075358 -0.29248408411088062 0 -0.17507431738127369 -0.28401326145526029 0 -0.19267178705524021 -0.30578920503631912 0 -0.19410774352861071 -0.2831088592208712 0 -0.17507431738127369 -0.28401326145526029 0 -0.19267178705524021 -0.30578920503631912 0 -0.17507431738127369 -0.28401326145526029 0 -0.17391538329452061 -0.29489800819007239 0 -0.19267178705524021 -0.30578920503631912 0 -0.17507431738127369 -0.28401326145526029 0 -0.17391538329452061 -0.29489800819007239 0 -0.17532621133471249 -0.30426618216820789 0 -0.19254159852174429 -0.31996122112867409 0 -0.19267178705524021 -0.30578920503631912 0 -0.17532621133471249 -0.30426618216820789 0 -0.19267178705524021 -0.30578920503631912 0 -0.17391538329452061 -0.29489800819007239 0 -0.17532621133471249 -0.30426618216820789 0 -0.19254159852174429 -0.31996122112867409 0 -0.17532621133471249 -0.30426618216820789 0 -0.1789711567900161 -0.3101302037755338 0 -0.19254159852174429 -0.31996122112867409 0 -0.17532621133471249 -0.30426618216820789 0 -0.17532621133471249 -0.30426618216820789 0 -0.15973767967650701 -0.30493196891575292 0 -0.16582550601247259 -0.31644195918285489 0 -0.1624028041075358 -0.29248408411088062 0 -0.17532621133471249 -0.30426618216820789 0 -0.15973767967650701 -0.30493196891575292 0 -0.1624028041075358 -0.29248408411088062 0 -0.17532621133471249 -0.30426618216820789 0 -0.1624028041075358 -0.29248408411088062 0 -0.17391538329452061 -0.29489800819007239 0 -0.17532621133471249 -0.30426618216820789 0 -0.144593184228827 -0.30237793828586917 0 -0.15261731536399281 -0.31699983390472031 0 -0.1327552185807534 -0.31482398186879779 0 -0.15973767967650701 -0.30493196891575292 0 -0.144593184228827 -0.30237793828586917 0 -0.15261731536399281 -0.31699983390472031 0 -0.15973767967650701 -0.30493196891575292 0 -0.144593184228827 -0.30237793828586917 0 -0.15108397830665751 -0.29236825921418419 0 -0.144593184228827 -0.30237793828586917 0 -0.1304175251842298 -0.30012492429455973 0 -0.1327552185807534 -0.31482398186879779 0 -0.1304175251842298 -0.30012492429455973 0 -0.1327552185807534 -0.31482398186879779 0 -0.11567190875339491 -0.3081878681979589 0 -0.1304175251842298 -0.30012492429455973 0 -0.13697378053928061 -0.28594316463020741 0 -0.11725087491461519 -0.29108504565108578 0 -0.144593184228827 -0.30237793828586917 0 -0.1304175251842298 -0.30012492429455973 0 -0.13697378053928061 -0.28594316463020741 0 -0.13697378053928061 -0.28594316463020741 0 -0.15108397830665751 -0.29236825921418419 0 -0.1494793968803598 -0.28070198605355251 0 -0.144593184228827 -0.30237793828586917 0 -0.13697378053928061 -0.28594316463020741 0 -0.15108397830665751 -0.29236825921418419 0 -0.1624028041075358 -0.29248408411088062 0 -0.15108397830665751 -0.29236825921418419 0 -0.1494793968803598 -0.28070198605355251 0 -0.1624028041075358 -0.29248408411088062 0 -0.1494793968803598 -0.28070198605355251 0 -0.15747684770731041 -0.26223731787419863 0 -0.1596399504195592 -0.27820623095404468 0 -0.1503927610565664 -0.27179087804580171 0 -0.1596399504195592 -0.27820623095404468 0 -0.1494793968803598 -0.28070198605355251 0 -0.1503927610565664 -0.27179087804580171 0 -0.15747684770731041 -0.26223731787419863 0 -0.1503927610565664 -0.27179087804580171 0 -0.1469785187108 -0.2635474229235048 0 -0.1503927610565664 -0.27179087804580171 0 -0.13966748117377659 -0.26847157538705668 0 -0.1469785187108 -0.2635474229235048 0 -0.1503927610565664 -0.27179087804580171 0 -0.14153524490660671 -0.2763029116229278 0 -0.13966748117377659 -0.26847157538705668 0 -0.1494793968803598 -0.28070198605355251 0 -0.1503927610565664 -0.27179087804580171 0 -0.14153524490660671 -0.2763029116229278 0 -0.13697378053928061 -0.28594316463020741 0 -0.1494793968803598 -0.28070198605355251 0 -0.14153524490660671 -0.2763029116229278 0 -0.13697378053928061 -0.28594316463020741 0 -0.14153524490660671 -0.2763029116229278 0 -0.13219795163187159 -0.27110871778552531 0 -0.13697378053928061 -0.28594316463020741 0 -0.1173011125765811 -0.2721428964285707 0 -0.13697378053928061 -0.28594316463020741 0 -0.13219795163187159 -0.27110871778552531 0 -0.1173011125765811 -0.2721428964285707 0 -0.13219795163187159 -0.27110871778552531 0 -0.1333337708168415 -0.26377523499205202 0 -0.12600056203783161 -0.26301541000095829 0 -0.13219795163187159 -0.27110871778552531 0 -0.12600056203783161 -0.26301541000095829 0 -0.1173011125765811 -0.2721428964285707 0 -0.13219795163187159 -0.27110871778552531 0 -0.13966748117377659 -0.26847157538705668 0 -0.1333337708168415 -0.26377523499205202 0 -0.14153524490660671 -0.2763029116229278 0 -0.13219795163187159 -0.27110871778552531 0 -0.13966748117377659 -0.26847157538705668 0 -0.13966748117377659 -0.26847157538705668 0 -0.13807993829988649 -0.25979154560904222 0 -0.1333337708168415 -0.26377523499205202 0 -0.13807993829988649 -0.25979154560904222 0 -0.1333337708168415 -0.26377523499205202 0 -0.13072292094084129 -0.25648892617767749 0 -0.12600056203783161 -0.26301541000095829 0 -0.13072292094084129 -0.25648892617767749 0 -0.1187556211832122 -0.25814451816493872 0 -0.1333337708168415 -0.26377523499205202 0 -0.12600056203783161 -0.26301541000095829 0 -0.13072292094084129 -0.25648892617767749 0 -0.13072292094084129 -0.25648892617767749 0 -0.13218950310710981 -0.25272660122947088 0 -0.1187556211832122 -0.25814451816493872 0 -0.13072292094084129 -0.25648892617767749 0 -0.13218950310710981 -0.25272660122947088 0 -0.13218950310710981 -0.25272660122947088 0 -0.1459019403517107 -0.25564217047089421 0 -0.13375162957080131 -0.24871916986845621 0 -0.13218950310710981 -0.25272660122947088 0 -0.1459019403517107 -0.25564217047089421 0 -0.13218950310710981 -0.25272660122947088 0 -0.13375162957080131 -0.24871916986845621 0 -0.1459019403517107 -0.25564217047089421 0 -0.13375162957080131 -0.24871916986845621 0 -0.13807993829988649 -0.25979154560904222 0 -0.13218950310710981 -0.25272660122947088 0 -0.1459019403517107 -0.25564217047089421 0 -0.13807993829988649 -0.25979154560904222 0 -0.13072292094084129 -0.25648892617767749 0 -0.13218950310710981 -0.25272660122947088 0 -0.1459019403517107 -0.25564217047089421 0 -0.1534429259631987 -0.25724555178864622 0 -0.1378886282313006 -0.2381062402767252 0 -0.13966748117377659 -0.26847157538705668 0 -0.13807993829988649 -0.25979154560904222 0 -0.1469785187108 -0.2635474229235048 0 -0.13807993829988649 -0.25979154560904222 0 -0.1459019403517107 -0.25564217047089421 0 -0.1469785187108 -0.2635474229235048 0 -0.15747684770731041 -0.26223731787419863 0 -0.1459019403517107 -0.25564217047089421 0 -0.1534429259631987 -0.25724555178864622 0 -0.15747684770731041 -0.26223731787419863 0 -0.1459019403517107 -0.25564217047089421 0 -0.1469785187108 -0.2635474229235048 0 -0.15747684770731041 -0.26223731787419863 0 -0.1459019403517107 -0.25564217047089421 0 -0.15747684770731041 -0.26223731787419863 0 -0.1534429259631987 -0.25724555178864622 0 -0.1593809120407062 -0.25278805690175971 0 -0.1534429259631987 -0.25724555178864622 0 -0.15289321433053751 -0.246830478479277 0 -0.1459019403517107 -0.25564217047089421 0 -0.1534429259631987 -0.25724555178864622 0 -0.17143624801538501 -0.35840063883308271 0 -0.1580141783998408 -0.34710035810185619 0 -0.15489216358121211 -0.36256913283011211 0 -0.17143624801538501 -0.35840063883308271 0 -0.1580141783998408 -0.34710035810185619 0 -0.18164424501215659 -0.34621916084723381 0 -0.17143624801538501 -0.35840063883308271 0 -0.1663610822414904 -0.3702523776444529 0 -0.15489216358121211 -0.36256913283011211 0 -0.15951650330528561 -0.37856285477961621 0 -0.1663610822414904 -0.3702523776444529 0 -0.15489216358121211 -0.36256913283011211 0 -0.17143624801538501 -0.35840063883308271 0 -0.1663610822414904 -0.3702523776444529 0 -0.18480326185087809 -0.36719565018674682 0 -0.1663610822414904 -0.3702523776444529 0 -0.18480326185087809 -0.36719565018674682 0 -0.1663610822414904 -0.3702523776444529 0 -0.18480326185087809 -0.36719565018674682 0 -0.18579747934449059 -0.37379744869579251 0 -0.18480326185087809 -0.36719565018674682 0 -0.18579747934449059 -0.37379744869579251 0 -0.18480326185087809 -0.36719565018674682 0 -0.18164424501215659 -0.34621916084723381 0 -0.19565175395430129 -0.3512554891803924 0 -0.18480326185087809 -0.36719565018674682 0 -0.18164424501215659 -0.34621916084723381 0 -0.17143624801538501 -0.35840063883308271 0 -0.18480326185087809 -0.36719565018674682 0 -0.18164424501215659 -0.34621916084723381 0 -0.18164424501215659 -0.34621916084723381 0 -0.17848522817343529 -0.32524267150772068 0 -0.1629610955137164 -0.33076913941787212 0 -0.18164424501215659 -0.34621916084723381 0 -0.17848522817343529 -0.32524267150772068 0 -0.18164424501215659 -0.34621916084723381 0 -0.18737083868624629 -0.33075534874643497 0 -0.17848522817343529 -0.32524267150772068 0 -0.17532621133471249 -0.30426618216820789 0 -0.17848522817343529 -0.32524267150772068 0 -0.17532621133471249 -0.30426618216820789 0 -0.1789711567900161 -0.3101302037755338 0 -0.17848522817343529 -0.32524267150772068 0 -0.17532621133471249 -0.30426618216820789 0 -0.17848522817343529 -0.32524267150772068 0 -0.16582550601247259 -0.31644195918285489 0 -0.1943588054861482 -0.32297640251143073 0 -0.1789711567900161 -0.3101302037755338 0 -0.18479650728396149 -0.32227615663527998 0 -0.1789711567900161 -0.3101302037755338 0 -0.18479650728396149 -0.32227615663527998 0 -0.17848522817343529 -0.32524267150772068 0 -0.1943588054861482 -0.32297640251143073 0 -0.1789711567900161 -0.3101302037755338 0 -0.18737083868624629 -0.33075534874643497 0 -0.18479650728396149 -0.32227615663527998 0 -0.17848522817343529 -0.32524267150772068 0 -0.17848522817343529 -0.32524267150772068 0 -0.16582550601247259 -0.31644195918285489 0 -0.1629610955137164 -0.33076913941787212 0 -0.16582550601247259 -0.31644195918285489 0 -0.1629610955137164 -0.33076913941787212 0 -0.15261731536399281 -0.31699983390472031 0 -0.15973767967650701 -0.30493196891575292 0 -0.16582550601247259 -0.31644195918285489 0 -0.15261731536399281 -0.31699983390472031 0 -0.1580141783998408 -0.34710035810185619 0 -0.18164424501215659 -0.34621916084723381 0 -0.1629610955137164 -0.33076913941787212 0 -0.1580141783998408 -0.34710035810185619 0 -0.1629610955137164 -0.33076913941787212 0 -0.14559484309128301 -0.3331209990743299 0 -0.14559484309128301 -0.3331209990743299 0 -0.15261731536399281 -0.31699983390472031 0 -0.1327552185807534 -0.31482398186879779 0 -0.1629610955137164 -0.33076913941787212 0 -0.14559484309128301 -0.3331209990743299 0 -0.15261731536399281 -0.31699983390472031 0 -0.14559484309128301 -0.3331209990743299 0 -0.1327552185807534 -0.31482398186879779 0 -0.12678352480283511 -0.3369129194106073 0 -0.14559484309128301 -0.3331209990743299 0 -0.12678352480283511 -0.3369129194106073 0 -0.14043772588655989 -0.35211976174212622 0 -0.12678352480283511 -0.3369129194106073 0 -0.14043772588655989 -0.35211976174212622 0 -0.1203130985899742 -0.35955571918490481 0 -0.1580141783998408 -0.34710035810185619 0 -0.14043772588655989 -0.35211976174212622 0 -0.15489216358121211 -0.36256913283011211 0 -0.1580141783998408 -0.34710035810185619 0 -0.14559484309128301 -0.3331209990743299 0 -0.14043772588655989 -0.35211976174212622 0 -0.14043772588655989 -0.35211976174212622 0 -0.15489216358121211 -0.36256913283011211 0 -0.13959568407155781 -0.37291875636350952 0 -0.15951650330528561 -0.37856285477961621 0 -0.15489216358121211 -0.36256913283011211 0 -0.13959568407155781 -0.37291875636350952 0 -0.12625141541498519 -0.38197991289387551 0 -0.13959568407155781 -0.37291875636350952 0 -0.1203130985899742 -0.35955571918490481 0 -0.14043772588655989 -0.35211976174212622 0 -0.13959568407155781 -0.37291875636350952 0 -0.1203130985899742 -0.35955571918490481 0 -0.1203130985899742 -0.35955571918490481 0 -0.11384267237711319 -0.38219851895920232 0 -0.1203130985899742 -0.35955571918490481 0 -0.10849363524981311 -0.36442991456039969 0 -0.11384267237711319 -0.38219851895920232 0 -0.12625141541498519 -0.38197991289387551 0 -0.1203130985899742 -0.35955571918490481 0 -0.11384267237711319 -0.38219851895920232 0 -0.10849363524981311 -0.36442991456039969 0 -0.096157591159299352 -0.35547454281719221 0 -0.10176491866177829 -0.38015793077534599 0 -0.096157591159299352 -0.35547454281719221 0 -0.10176491866177829 -0.38015793077534599 0 -0.096157591159299352 -0.35547454281719221 0 -0.10176491866177829 -0.38015793077534599 0 -0.085276019388031976 -0.37619188405436782 0 -0.096157591159299352 -0.35547454281719221 0 -0.10964553082547281 -0.34513317088572909 0 -0.090550263656820479 -0.33079115485903843 0 -0.10849363524981311 -0.36442991456039969 0 -0.096157591159299352 -0.35547454281719221 0 -0.10964553082547281 -0.34513317088572909 0 -0.1203130985899742 -0.35955571918490481 0 -0.10849363524981311 -0.36442991456039969 0 -0.10964553082547281 -0.34513317088572909 0 -0.12678352480283511 -0.3369129194106073 0 -0.1203130985899742 -0.35955571918490481 0 -0.10964553082547281 -0.34513317088572909 0 -0.12678352480283511 -0.3369129194106073 0 -0.1203130985899742 -0.35955571918490481 0 -0.12678352480283511 -0.3369129194106073 0 -0.10964553082547281 -0.34513317088572909 0 -0.1112875311940303 -0.32576775904759792 0 -0.1327552185807534 -0.31482398186879779 0 -0.12678352480283511 -0.3369129194106073 0 -0.1112875311940303 -0.32576775904759792 0 -0.1327552185807534 -0.31482398186879779 0 -0.1112875311940303 -0.32576775904759792 0 -0.11567190875339491 -0.3081878681979589 0 -0.1112875311940303 -0.32576775904759792 0 -0.1011365257202933 -0.31403431577096802 0 -0.11567190875339491 -0.3081878681979589 0 -0.1112875311940303 -0.32576775904759792 0 -0.1011365257202933 -0.31403431577096802 0 -0.090550263656820479 -0.33079115485903843 0 -0.10964553082547281 -0.34513317088572909 0 -0.1112875311940303 -0.32576775904759792 0 -0.090550263656820479 -0.33079115485903843 0 -0.096157591159299352 -0.35547454281719221 0 -0.090550263656820479 -0.33079115485903843 0 -0.096157591159299352 -0.35547454281719221 0 -0.090550263656820479 -0.33079115485903843 0 -0.073144777225565616 -0.33606175945158517 0 -0.090550263656820479 -0.33079115485903843 0 -0.084942936154341619 -0.30610776690088481 0 -0.090550263656820479 -0.33079115485903843 0 -0.073144777225565616 -0.33606175945158517 0 -0.084942936154341619 -0.30610776690088481 0 -0.1011365257202933 -0.31403431577096802 0 -0.090550263656820479 -0.33079115485903843 0 -0.084942936154341619 -0.30610776690088481 0 -0.073144777225565616 -0.33606175945158517 0 -0.084942936154341619 -0.30610776690088481 0 -0.060613113796085999 -0.32288269869712272 0 -0.073144777225565616 -0.33606175945158517 0 -0.076755031766953086 -0.35884624094615858 0 -0.063306301319701316 -0.35299520754669739 0 -0.076755031766953086 -0.35884624094615858 0 -0.063306301319701316 -0.35299520754669739 0 -0.065890469742167113 -0.37350781086095058 0 -0.076755031766953086 -0.35884624094615858 0 -0.065890469742167113 -0.37350781086095058 0 -0.085276019388031976 -0.37619188405436782 0 -0.096157591159299352 -0.35547454281719221 0 -0.076755031766953086 -0.35884624094615858 0 -0.085276019388031976 -0.37619188405436782 0 -0.096157591159299352 -0.35547454281719221 0 -0.073144777225565616 -0.33606175945158517 0 -0.076755031766953086 -0.35884624094615858 0 -0.097628444613881649 -0.25834262822693399 0 -0.1173011125765811 -0.2721428964285707 0 -0.097628444613881649 -0.25834262822693399 0 -0.1187556211832122 -0.25814451816493872 0 -0.1098930818979398 -0.24798588601512411 0 -0.13218950310710981 -0.25272660122947088 0 -0.1187556211832122 -0.25814451816493872 0 -0.1098930818979398 -0.24798588601512411 0 -0.097628444613881649 -0.25834262822693399 0 -0.1187556211832122 -0.25814451816493872 0 -0.1173011125765811 -0.2721428964285707 0 -0.13218950310710981 -0.25272660122947088 0 -0.1098930818979398 -0.24798588601512411 0 -0.12600056203783161 -0.26301541000095829 0 -0.1187556211832122 -0.25814451816493872 0 -0.1173011125765811 -0.2721428964285707 0 -0.097628444613881649 -0.25834262822693399 0 -0.1173011125765811 -0.2721428964285707 0 -0.090762408808148426 -0.27102181932101072 0 -0.1173011125765811 -0.2721428964285707 0 -0.096655829275762523 -0.28444542957314378 0 -0.090762408808148426 -0.27102181932101072 0 -0.096655829275762523 -0.28444542957314378 0 -0.10322998884287909 -0.29931702984935987 0 -0.084942936154341619 -0.30610776690088481 0 -0.096655829275762523 -0.28444542957314378 0 -0.11725087491461519 -0.29108504565108578 0 -0.10322998884287909 -0.29931702984935987 0 -0.13697378053928061 -0.28594316463020741 0 -0.1173011125765811 -0.2721428964285707 0 -0.11725087491461519 -0.29108504565108578 0 -0.1173011125765811 -0.2721428964285707 0 -0.096655829275762523 -0.28444542957314378 0 -0.11725087491461519 -0.29108504565108578 0 -0.11725087491461519 -0.29108504565108578 0 -0.11567190875339491 -0.3081878681979589 0 -0.10322998884287909 -0.29931702984935987 0 -0.1304175251842298 -0.30012492429455973 0 -0.11725087491461519 -0.29108504565108578 0 -0.11567190875339491 -0.3081878681979589 0 -0.1011365257202933 -0.31403431577096802 0 -0.10322998884287909 -0.29931702984935987 0 -0.084942936154341619 -0.30610776690088481 0 -0.1011365257202933 -0.31403431577096802 0 -0.11567190875339491 -0.3081878681979589 0 -0.10322998884287909 -0.29931702984935987 0 -0.084942936154341619 -0.30610776690088481 0 -0.066237696895848033 -0.30175990202967712 0 -0.078368201618682937 -0.28822753231137022 0 -0.084942936154341619 -0.30610776690088481 0 -0.066237696895848033 -0.30175990202967712 0 -0.060613113796085999 -0.32288269869712272 0 -0.066237696895848033 -0.30175990202967712 0 -0.078368201618682937 -0.28822753231137022 0 -0.057136779716869042 -0.28712205926022771 0 -0.078368201618682937 -0.28822753231137022 0 -0.072744725061100565 -0.27289296274949931 0 -0.057136779716869042 -0.28712205926022771 0 -0.096655829275762523 -0.28444542957314378 0 -0.084942936154341619 -0.30610776690088481 0 -0.078368201618682937 -0.28822753231137022 0 -0.096655829275762523 -0.28444542957314378 0 -0.078368201618682937 -0.28822753231137022 0 -0.090762408808148426 -0.27102181932101072 0 -0.078368201618682937 -0.28822753231137022 0 -0.090762408808148426 -0.27102181932101072 0 -0.072744725061100565 -0.27289296274949931 0 -0.090762408808148426 -0.27102181932101072 0 -0.072744725061100565 -0.27289296274949931 0 -0.081281336266817772 -0.26097832242812891 0 -0.072744725061100565 -0.27289296274949931 0 -0.067161912638977472 -0.25903173736147111 0 -0.055745381016590281 -0.2682223094504298 0 -0.072744725061100565 -0.27289296274949931 0 -0.067161912638977472 -0.25903173736147111 0 -0.081281336266817772 -0.26097832242812891 0 -0.067161912638977472 -0.25903173736147111 0 -0.081281336266817772 -0.26097832242812891 0 -0.077955776651182085 -0.24454236002529731 0 -0.067161912638977472 -0.25903173736147111 0 -0.056939497423126581 -0.24878681181634871 0 -0.077955776651182085 -0.24454236002529731 0 -0.097628444613881649 -0.25834262822693399 0 -0.081281336266817772 -0.26097832242812891 0 -0.077955776651182085 -0.24454236002529731 0 -0.097628444613881649 -0.25834262822693399 0 -0.090762408808148426 -0.27102181932101072 0 -0.081281336266817772 -0.26097832242812891 0 -0.097628444613881649 -0.25834262822693399 0 -0.077955776651182085 -0.24454236002529731 0 -0.025857267464119819 -0.25506418495113531 0 -0.050191684441297867 -0.2485850187836515 0 -0.034199021844566052 -0.25740496373097072 0 -0.056939497423126581 -0.24878681181634871 0 -0.034199021844566052 -0.25740496373097072 0 -0.041398382443623198 -0.25192549838374201 0 -0.056939497423126581 -0.24878681181634871 0 -0.041398382443623198 -0.25192549838374201 0 -0.025857267464119819 -0.25506418495113531 0 -0.050191684441297867 -0.2485850187836515 0 -0.034199021844566052 -0.25740496373097072 0 -0.048255079716108998 -0.25800015923011232 0 -0.056939497423126581 -0.24878681181634871 0 -0.034199021844566052 -0.25740496373097072 0 -0.041398382443623198 -0.25192549838374201 0 -0.025857267464119819 -0.25506418495113531 0 -0.041398382443623198 -0.25192549838374201 0 -0.025857267464119819 -0.25506418495113531 0 -0.034199021844566052 -0.25740496373097072 0 -0.037307574571523318 -0.26201401924185519 0 -0.024854767991187229 -0.26705994663832661 0 -0.037307574571523318 -0.26201401924185519 0 -0.048255079716108998 -0.25800015923011232 0 -0.046606779304586107 -0.26584835010199509 0 -0.034199021844566052 -0.25740496373097072 0 -0.037307574571523318 -0.26201401924185519 0 -0.048255079716108998 -0.25800015923011232 0 -0.05702546769870083 -0.25851025446459042 0 -0.048255079716108998 -0.25800015923011232 0 -0.056939497423126581 -0.24878681181634871 0 -0.041398382443623198 -0.25192549838374201 0 -0.056939497423126581 -0.24878681181634871 0 -0.067161912638977472 -0.25903173736147111 0 -0.05702546769870083 -0.25851025446459042 0 -0.056939497423126581 -0.24878681181634871 0 -0.067161912638977472 -0.25903173736147111 0 -0.05702546769870083 -0.25851025446459042 0 -0.055745381016590281 -0.2682223094504298 0 -0.05702546769870083 -0.25851025446459042 0 -0.048255079716108998 -0.25800015923011232 0 -0.055745381016590281 -0.2682223094504298 0 -0.048255079716108998 -0.25800015923011232 0 -0.055745381016590281 -0.2682223094504298 0 -0.046606779304586107 -0.26584835010199509 0 -0.055745381016590281 -0.2682223094504298 0 -0.045119081914121867 -0.27515691248558288 0 -0.046606779304586107 -0.26584835010199509 0 -0.055745381016590281 -0.2682223094504298 0 -0.045119081914121867 -0.27515691248558288 0 -0.057136779716869042 -0.28712205926022771 0 -0.072744725061100565 -0.27289296274949931 0 -0.055745381016590281 -0.2682223094504298 0 -0.057136779716869042 -0.28712205926022771 0 -0.037307574571523318 -0.26201401924185519 0 -0.034478529498429812 -0.28951379058442123 0 -0.037307574571523318 -0.26201401924185519 0 -0.034478529498429812 -0.28951379058442123 0 -0.024854767991187229 -0.26705994663832661 0 -0.037307574571523318 -0.26201401924185519 0 -0.045119081914121867 -0.27515691248558288 0 -0.034478529498429812 -0.28951379058442123 0 -0.037307574571523318 -0.26201401924185519 0 -0.045119081914121867 -0.27515691248558288 0 -0.046606779304586107 -0.26584835010199509 0 -0.045119081914121867 -0.27515691248558288 0 -0.034478529498429812 -0.28951379058442123 0 -0.057136779716869042 -0.28712205926022771 0 -0.034478529498429812 -0.28951379058442123 0 -0.057136779716869042 -0.28712205926022771 0 -0.05012745319326059 -0.30445945297878008 0 -0.066237696895848033 -0.30175990202967712 0 -0.05012745319326059 -0.30445945297878008 0 -0.060613113796085999 -0.32288269869712272 0 -0.066237696895848033 -0.30175990202967712 0 -0.057136779716869042 -0.28712205926022771 0 -0.05012745319326059 -0.30445945297878008 0 -0.034478529498429812 -0.28951379058442123 0 -0.05012745319326059 -0.30445945297878008 0 -0.031649484425336299 -0.31701356192698721 0 -0.034478529498429812 -0.28951379058442123 0 -0.031649484425336299 -0.31701356192698721 0 -0.034478529498429812 -0.28951379058442123 0 -0.020284114256294641 -0.29759304008048471 0 -0.031649484425336299 -0.31701356192698721 0 -0.020284114256294641 -0.29759304008048471 0 -0.01007927323019326 -0.3103345258507364 0 -0.031649484425336299 -0.31701356192698721 0 -0.020284114256294641 -0.29759304008048471 0 -0.01007927323019326 -0.3103345258507364 0 -0.0080748459131490501 -0.2914060437848453 0 -0.01007927323019326 -0.3103345258507364 0 -0.0080748459131490501 -0.2914060437848453 0 0.0017563221397047381 -0.2997067901486577 0 -0.020284114256294641 -0.29759304008048471 0 -0.0080748459131490501 -0.2914060437848453 0 -0.017138438214364771 -0.27969727825543328 0 -0.0080748459131490501 -0.2914060437848453 0 -0.002848760243290064 -0.27761611820401882 0 0.0066437179820165657 -0.2861171845936395 0 -0.0080748459131490501 -0.2914060437848453 0 -0.017138438214364771 -0.27969727825543328 0 -0.002848760243290064 -0.27761611820401882 0 -0.034478529498429812 -0.28951379058442123 0 -0.020284114256294641 -0.29759304008048471 0 -0.017138438214364771 -0.27969727825543328 0 -0.034478529498429812 -0.28951379058442123 0 -0.024854767991187229 -0.26705994663832661 0 -0.017138438214364771 -0.27969727825543328 0 -0.024854767991187229 -0.26705994663832661 0 -0.01588915841142927 -0.27169793716392882 0 -0.01145854626600548 -0.26602311564559261 0 -0.024854767991187229 -0.26705994663832661 0 -0.01588915841142927 -0.27169793716392882 0 -0.017138438214364771 -0.27969727825543328 0 -0.017138438214364771 -0.27969727825543328 0 -0.011833725783772399 -0.27375861231724341 0 -0.002848760243290064 -0.27761611820401882 0 -0.01145854626600548 -0.26602311564559261 0 0.01128192931255503 -0.27464126756021451 0 -0.002848760243290064 -0.27761611820401882 0 -0.01145854626600548 -0.26602311564559261 0 0.01128192931255503 -0.27464126756021451 0 -0.01588915841142927 -0.27169793716392882 0 -0.017138438214364771 -0.27969727825543328 0 -0.011833725783772399 -0.27375861231724341 0 -0.011833725783772399 -0.27375861231724341 0 -0.002848760243290064 -0.27761611820401882 0 -0.01145854626600548 -0.26602311564559261 0 -0.01588915841142927 -0.27169793716392882 0 -0.011833725783772399 -0.27375861231724341 0 -0.01145854626600548 -0.26602311564559261 0 -0.01269776775011346 -0.25850600500130039 0 -0.0051360078472848583 -0.25701396995817721 0 0.0057158633005241696 -0.26337829885565528 0 -0.01145854626600548 -0.26602311564559261 0 -0.01269776775011346 -0.25850600500130039 0 0.0057158633005241696 -0.26337829885565528 0 -0.01269776775011346 -0.25850600500130039 0 0.0057158633005241696 -0.26337829885565528 0 -0.0009620894167222515 -0.25496392916579452 0 -0.0051360078472848583 -0.25701396995817721 0 0.0057158633005241696 -0.26337829885565528 0 -0.0071971320314794382 -0.2528457057960789 0 -0.01082738352359053 -0.24876902592697839 0 -0.0029313858115674811 -0.24854412401401971 0 -0.0009620894167222515 -0.25496392916579452 0 -0.0071971320314794382 -0.2528457057960789 0 -0.0029313858115674811 -0.24854412401401971 0 -0.0009620894167222515 -0.25496392916579452 0 -0.0051360078472848583 -0.25701396995817721 0 -0.0071971320314794382 -0.2528457057960789 0 -0.0051360078472848583 -0.25701396995817721 0 -0.0071971320314794382 -0.2528457057960789 0 -0.0094143843739788544 -0.25459574361389747 0 -0.0071971320314794382 -0.2528457057960789 0 -0.0094143843739788544 -0.25459574361389747 0 -0.01082738352359053 -0.24876902592697839 0 -0.01269776775011346 -0.25850600500130039 0 -0.0094143843739788544 -0.25459574361389747 0 -0.01082738352359053 -0.24876902592697839 0 -0.01269776775011346 -0.25850600500130039 0 -0.0051360078472848583 -0.25701396995817721 0 -0.0094143843739788544 -0.25459574361389747 0 -0.01269776775011346 -0.25850600500130039 0 -0.025857267464119819 -0.25506418495113531 0 -0.034199021844566052 -0.25740496373097072 0 -0.01145854626600548 -0.26602311564559261 0 -0.025857267464119819 -0.25506418495113531 0 -0.01269776775011346 -0.25850600500130039 0 -0.025857267464119819 -0.25506418495113531 0 -0.02368513365757598 -0.23851275990414511 0 -0.034199021844566052 -0.25740496373097072 0 -0.024854767991187229 -0.26705994663832661 0 -0.01145854626600548 -0.26602311564559261 0 -0.034199021844566052 -0.25740496373097072 0 -0.01145854626600548 -0.26602311564559261 0 -0.01145854626600548 -0.26602311564559261 0 -0.01269776775011346 -0.25850600500130039 0 -0.025857267464119819 -0.25506418495113531 0 -0.046940286889098168 -0.35955036210978841 0 -0.050269733973634309 -0.3392354021108881 0 -0.02882043935224279 -0.34451333326955308 0 -0.046940286889098168 -0.35955036210978841 0 -0.02882043935224279 -0.34451333326955308 0 -0.026419717968229769 -0.36867473508972981 0 -0.046940286889098168 -0.35955036210978841 0 -0.026419717968229769 -0.36867473508972981 0 -0.046935058978613817 -0.3783756837809118 0 -0.065890469742167113 -0.37350781086095058 0 -0.046940286889098168 -0.35955036210978841 0 -0.046935058978613817 -0.3783756837809118 0 -0.063306301319701316 -0.35299520754669739 0 -0.065890469742167113 -0.37350781086095058 0 -0.046940286889098168 -0.35955036210978841 0 -0.063306301319701316 -0.35299520754669739 0 -0.046940286889098168 -0.35955036210978841 0 -0.050269733973634309 -0.3392354021108881 0 -0.073144777225565616 -0.33606175945158517 0 -0.063306301319701316 -0.35299520754669739 0 -0.050269733973634309 -0.3392354021108881 0 -0.073144777225565616 -0.33606175945158517 0 -0.050269733973634309 -0.3392354021108881 0 -0.060613113796085999 -0.32288269869712272 0 -0.050269733973634309 -0.3392354021108881 0 -0.060613113796085999 -0.32288269869712272 0 -0.031649484425336299 -0.31701356192698721 0 -0.05012745319326059 -0.30445945297878008 0 -0.060613113796085999 -0.32288269869712272 0 -0.031649484425336299 -0.31701356192698721 0 -0.050269733973634309 -0.3392354021108881 0 -0.031649484425336299 -0.31701356192698721 0 -0.02882043935224279 -0.34451333326955308 0 -0.031649484425336299 -0.31701356192698721 0 -0.02882043935224279 -0.34451333326955308 0 -0.031649484425336299 -0.31701356192698721 0 -0.0038616663111063101 -0.33241552487502413 0 -0.02882043935224279 -0.34451333326955308 0 -0.01007927323019326 -0.3103345258507364 0 -0.031649484425336299 -0.31701356192698721 0 -0.0038616663111063101 -0.33241552487502413 0 -0.01007927323019326 -0.3103345258507364 0 -0.0038616663111063101 -0.33241552487502413 0 0.0094652366165251054 -0.31053241408104548 0 -0.0038616663111063101 -0.33241552487502413 0 -0.0043130761299947744 -0.35643483176966217 0 -0.02882043935224279 -0.34451333326955308 0 -0.0043130761299947744 -0.35643483176966217 0 -0.02882043935224279 -0.34451333326955308 0 -0.026419717968229769 -0.36867473508972981 0 -0.0043130761299947744 -0.35643483176966217 0 -0.026419717968229769 -0.36867473508972981 0 -0.0064694903547723136 -0.38059021958606692 0 -0.0064694903547723136 -0.38059021958606692 0 -0.0080625817845775948 -0.40608726553411861 0 -0.026496984295852101 -0.39226102623928111 0 -0.0064694903547723136 -0.38059021958606692 0 -0.0080625817845775948 -0.40608726553411861 0 0.009690974369139977 -0.39295199195252922 0 -0.0080625817845775948 -0.40608726553411861 0 -0.026496984295852101 -0.39226102623928111 0 -0.029852467816379728 -0.41236872525256307 0 -0.026419717968229769 -0.36867473508972981 0 -0.0064694903547723136 -0.38059021958606692 0 -0.026496984295852101 -0.39226102623928111 0 -0.026496984295852101 -0.39226102623928111 0 -0.048213792324517578 -0.39768762776665978 0 -0.046935058978613817 -0.3783756837809118 0 -0.026419717968229769 -0.36867473508972981 0 -0.026496984295852101 -0.39226102623928111 0 -0.046935058978613817 -0.3783756837809118 0 -0.026496984295852101 -0.39226102623928111 0 -0.048213792324517578 -0.39768762776665978 0 -0.029852467816379728 -0.41236872525256307 0 -0.048213792324517578 -0.39768762776665978 0 -0.065379196062645584 -0.39052657147488062 0 -0.06528413140028641 -0.40548789039177052 0 -0.048213792324517578 -0.39768762776665978 0 -0.046935058978613817 -0.3783756837809118 0 -0.065379196062645584 -0.39052657147488062 0 -0.065890469742167113 -0.37350781086095058 0 -0.046935058978613817 -0.3783756837809118 0 -0.065379196062645584 -0.39052657147488062 0 -0.052630130657334448 -0.42871109396582502 0 -0.036803499053157718 -0.43392585985635063 0 -0.055908543568221357 -0.44353945242809251 0 -0.052630130657334448 -0.42871109396582502 0 -0.048282499091199083 -0.41684649723306111 0 -0.065713266975248902 -0.42040157794015642 0 -0.052630130657334448 -0.42871109396582502 0 -0.055908543568221357 -0.44353945242809251 0 -0.077753046024815156 -0.43509142098737241 0 -0.048282499091199083 -0.41684649723306111 0 -0.06528413140028641 -0.40548789039177052 0 -0.065713266975248902 -0.42040157794015642 0 -0.048213792324517578 -0.39768762776665978 0 -0.048282499091199083 -0.41684649723306111 0 -0.06528413140028641 -0.40548789039177052 0 -0.048213792324517578 -0.39768762776665978 0 -0.048282499091199083 -0.41684649723306111 0 -0.029852467816379728 -0.41236872525256307 0 -0.048282499091199083 -0.41684649723306111 0 -0.036803499053157718 -0.43392585985635063 0 -0.029852467816379728 -0.41236872525256307 0 -0.052630130657334448 -0.42871109396582502 0 -0.048282499091199083 -0.41684649723306111 0 -0.036803499053157718 -0.43392585985635063 0 -0.036803499053157718 -0.43392585985635063 0 -0.01686747062211669 -0.42668809062348251 0 -0.022482277956740859 -0.44034230556013138 0 -0.036803499053157718 -0.43392585985635063 0 -0.01686747062211669 -0.42668809062348251 0 -0.029852467816379728 -0.41236872525256307 0 -0.0080625817845775948 -0.40608726553411861 0 -0.01686747062211669 -0.42668809062348251 0 -0.029852467816379728 -0.41236872525256307 0 -0.0080625817845775948 -0.40608726553411861 0 -0.01686747062211669 -0.42668809062348251 0 0.01224976062295041 -0.42183763890738629 0 -0.01686747062211669 -0.42668809062348251 0 -0.008216644178786571 -0.4466179140804285 0 0.01224976062295041 -0.42183763890738629 0 -0.008216644178786571 -0.4466179140804285 0 -0.0021957942935651631 -0.46571035637089769 0 -0.016151777162071251 -0.46269316979172348 0 -0.0021957942935651631 -0.46571035637089769 0 -0.016151777162071251 -0.46269316979172348 0 -0.01292321871024151 -0.47600360382280887 0 -0.008216644178786571 -0.4466179140804285 0 -0.016151777162071251 -0.46269316979172348 0 -0.028753682251359231 -0.45370767630375852 0 -0.016151777162071251 -0.46269316979172348 0 -0.030722049445265721 -0.46513815794063051 0 -0.025757536927686689 -0.47561542944709773 0 -0.016151777162071251 -0.46269316979172348 0 -0.030722049445265721 -0.46513815794063051 0 -0.028753682251359231 -0.45370767630375852 0 -0.036803499053157718 -0.43392585985635063 0 -0.028753682251359231 -0.45370767630375852 0 -0.022482277956740859 -0.44034230556013138 0 -0.01686747062211669 -0.42668809062348251 0 -0.008216644178786571 -0.4466179140804285 0 -0.022482277956740859 -0.44034230556013138 0 -0.008216644178786571 -0.4466179140804285 0 -0.028753682251359231 -0.45370767630375852 0 -0.022482277956740859 -0.44034230556013138 0 -0.011489863113854141 -0.5 0 -0.010144146689038991 -0.48941639725935437 0 0.012735562036971701 -0.48508522326900949 0 -0.010144146689038991 -0.48941639725935437 0 -0.00065605929082254884 -0.47874224407546379 0 -0.01292321871024151 -0.47600360382280887 0 -0.010144146689038991 -0.48941639725935437 0 -0.01292321871024151 -0.47600360382280887 0 -0.022633997898264431 -0.48384402599231691 0 -0.0021957942935651631 -0.46571035637089769 0 -0.00065605929082254884 -0.47874224407546379 0 -0.01292321871024151 -0.47600360382280887 0 -0.016151777162071251 -0.46269316979172348 0 -0.01292321871024151 -0.47600360382280887 0 -0.025757536927686689 -0.47561542944709773 0 -0.025757536927686689 -0.47561542944709773 0 -0.022633997898264431 -0.48384402599231691 0 -0.032724513000240443 -0.48384135401243772 0 -0.01292321871024151 -0.47600360382280887 0 -0.025757536927686689 -0.47561542944709773 0 -0.022633997898264431 -0.48384402599231691 0 -0.011489863113854141 -0.5 0 -0.010144146689038991 -0.48941639725935437 0 -0.033023855415049652 -0.49374757124969931 0 -0.010144146689038991 -0.48941639725935437 0 -0.022633997898264431 -0.48384402599231691 0 -0.033023855415049652 -0.49374757124969931 0 -0.011489863113854141 -0.5 0 -0.041002190054857779 -0.5 0 -0.033023855415049652 -0.49374757124969931 0 -0.010144146689038991 -0.48941639725935437 0 -0.033023855415049652 -0.49374757124969931 0 -0.022633997898264431 -0.48384402599231691 0 -0.033023855415049652 -0.49374757124969931 0 -0.032724513000240443 -0.48384135401243772 0 -0.041002190054857779 -0.5 0 -0.040644419244316249 -0.48874723383863622 0 -0.055758353525359711 -0.48944453406372251 0 -0.041002190054857779 -0.5 0 -0.033023855415049652 -0.49374757124969931 0 -0.040644419244316249 -0.48874723383863622 0 -0.033023855415049652 -0.49374757124969931 0 -0.040644419244316249 -0.48874723383863622 0 -0.032724513000240443 -0.48384135401243772 0 -0.040644419244316249 -0.48874723383863622 0 -0.040713184226073652 -0.47670270986732172 0 -0.055758353525359711 -0.48944453406372251 0 -0.040644419244316249 -0.48874723383863622 0 -0.040713184226073652 -0.47670270986732172 0 -0.032724513000240443 -0.48384135401243772 0 -0.025757536927686689 -0.47561542944709773 0 -0.040713184226073652 -0.47670270986732172 0 -0.032724513000240443 -0.48384135401243772 0 -0.030722049445265721 -0.46513815794063051 0 -0.025757536927686689 -0.47561542944709773 0 -0.040713184226073652 -0.47670270986732172 0 -0.040713184226073652 -0.47670270986732172 0 -0.05604151524233808 -0.47085547185542692 0 -0.042137987481662489 -0.46199998676314519 0 -0.040713184226073652 -0.47670270986732172 0 -0.05604151524233808 -0.47085547185542692 0 -0.055758353525359711 -0.48944453406372251 0 -0.05604151524233808 -0.47085547185542692 0 -0.055758353525359711 -0.48944453406372251 0 -0.068357021366280857 -0.47830767763467641 0 -0.041002190054857779 -0.5 0 -0.055758353525359711 -0.48944453406372251 0 -0.070514516995861642 -0.5 0 -0.036803499053157718 -0.43392585985635063 0 -0.028753682251359231 -0.45370767630375852 0 -0.042591220718736618 -0.44931976272637059 0 -0.036803499053157718 -0.43392585985635063 0 -0.042591220718736618 -0.44931976272637059 0 -0.055908543568221357 -0.44353945242809251 0 -0.028753682251359231 -0.45370767630375852 0 -0.042591220718736618 -0.44931976272637059 0 -0.042137987481662489 -0.46199998676314519 0 -0.030722049445265721 -0.46513815794063051 0 -0.028753682251359231 -0.45370767630375852 0 -0.042137987481662489 -0.46199998676314519 0 -0.030722049445265721 -0.46513815794063051 0 -0.040713184226073652 -0.47670270986732172 0 -0.042137987481662489 -0.46199998676314519 0 -0.042591220718736618 -0.44931976272637059 0 -0.042137987481662489 -0.46199998676314519 0 -0.054601469153056192 -0.45704509188174619 0 -0.05604151524233808 -0.47085547185542692 0 -0.054601469153056192 -0.45704509188174619 0 -0.071896784036839162 -0.45711427830285839 0 -0.05604151524233808 -0.47085547185542692 0 -0.042137987481662489 -0.46199998676314519 0 -0.054601469153056192 -0.45704509188174619 0 -0.054601469153056192 -0.45704509188174619 0 -0.055908543568221357 -0.44353945242809251 0 -0.071896784036839162 -0.45711427830285839 0 -0.042591220718736618 -0.44931976272637059 0 -0.054601469153056192 -0.45704509188174619 0 -0.055908543568221357 -0.44353945242809251 0 -0.055908543568221357 -0.44353945242809251 0 -0.071896784036839162 -0.45711427830285839 0 -0.077753046024815156 -0.43509142098737241 0 -0.071896784036839162 -0.45711427830285839 0 -0.087573937031005744 -0.47412410395137422 0 -0.093954286744555499 -0.45179652052777369 0 -0.087573937031005744 -0.47412410395137422 0 -0.093954286744555499 -0.45179652052777369 0 -0.071896784036839162 -0.45711427830285839 0 -0.093954286744555499 -0.45179652052777369 0 -0.077753046024815156 -0.43509142098737241 0 -0.093954286744555499 -0.45179652052777369 0 -0.10033463645810529 -0.42946893710417328 0 -0.077753046024815156 -0.43509142098737241 0 -0.055758353525359711 -0.48944453406372251 0 -0.070514516995861642 -0.5 0 -0.068357021366280857 -0.47830767763467641 0 -0.05604151524233808 -0.47085547185542692 0 -0.071896784036839162 -0.45711427830285839 0 -0.068357021366280857 -0.47830767763467641 0 -0.071896784036839162 -0.45711427830285839 0 -0.068357021366280857 -0.47830767763467641 0 -0.087573937031005744 -0.47412410395137422 0 -0.070514516995861642 -0.5 0 -0.068357021366280857 -0.47830767763467641 0 -0.087573937031005744 -0.47412410395137422 0 -0.070514516995861642 -0.5 0 -0.087573937031005744 -0.47412410395137422 0 -0.10002684393686551 -0.5 0 -0.087573937031005744 -0.47412410395137422 0 -0.10002684393686551 -0.5 0 -0.10780494223314389 -0.47765854937150709 0 -0.087573937031005744 -0.47412410395137422 0 -0.10780494223314389 -0.47765854937150709 0 -0.1029954147344513 -0.46359439800738522 0 -0.12605423818426559 -0.48707922202292669 0 -0.10780494223314389 -0.47765854937150709 0 -0.1201929706126502 -0.46127799294672761 0 -0.12605423818426559 -0.48707922202292669 0 -0.1201929706126502 -0.46127799294672761 0 -0.12605423818426559 -0.48707922202292669 0 -0.10002684393686551 -0.5 0 -0.10780494223314389 -0.47765854937150709 0 -0.1295391708778694 -0.5 0 -0.12605423818426559 -0.48707922202292669 0 -0.10002684393686551 -0.5 0 -0.093954286744555499 -0.45179652052777369 0 -0.10033463645810529 -0.42946893710417328 0 -0.10636180231815941 -0.44832292249131772 0 -0.11433170304103479 -0.43547676387052858 0 -0.10033463645810529 -0.42946893710417328 0 -0.10636180231815941 -0.44832292249131772 0 -0.093954286744555499 -0.45179652052777369 0 -0.10033463645810529 -0.42946893710417328 0 -0.087573937031005744 -0.47412410395137422 0 -0.093954286744555499 -0.45179652052777369 0 -0.1029954147344513 -0.46359439800738522 0 -0.10636180231815941 -0.44832292249131772 0 -0.093954286744555499 -0.45179652052777369 0 -0.1029954147344513 -0.46359439800738522 0 -0.10780494223314389 -0.47765854937150709 0 -0.1029954147344513 -0.46359439800738522 0 -0.1201929706126502 -0.46127799294672761 0 -0.10636180231815941 -0.44832292249131772 0 -0.1029954147344513 -0.46359439800738522 0 -0.1201929706126502 -0.46127799294672761 0 -0.13671083813600751 -0.45044361347006462 0 -0.1201929706126502 -0.46127799294672761 0 -0.11433170304103479 -0.43547676387052858 0 -0.10636180231815941 -0.44832292249131772 0 -0.1201929706126502 -0.46127799294672761 0 -0.11433170304103479 -0.43547676387052858 0 -0.13671083813600751 -0.45044361347006462 0 -0.1225906368027144 -0.43005957413219659 0 -0.11433170304103479 -0.43547676387052858 0 -0.1201929706126502 -0.46127799294672761 0 -0.11433170304103479 -0.43547676387052858 0 -0.1225906368027144 -0.43005957413219659 0 -0.11433170304103479 -0.43547676387052858 0 -0.10847043546942051 -0.40967553479432928 0 -0.11433170304103479 -0.43547676387052858 0 -0.10847043546942051 -0.40967553479432928 0 -0.12908399078123631 -0.42243277819987513 0 -0.1225906368027144 -0.43005957413219659 0 -0.12315425937001 -0.41747458531602638 0 -0.11433170304103479 -0.43547676387052858 0 -0.10033463645810529 -0.42946893710417328 0 -0.10847043546942051 -0.40967553479432928 0 -0.10033463645810529 -0.42946893710417328 0 -0.094107383989168333 -0.41562629379671062 0 -0.1067149861716557 -0.40714135368057303 0 -0.10033463645810529 -0.42946893710417328 0 -0.1067149861716557 -0.40714135368057303 0 -0.10847043546942051 -0.40967553479432928 0 -0.10033463645810529 -0.42946893710417328 0 -0.1067149861716557 -0.40714135368057303 0 -0.094107383989168333 -0.41562629379671062 0 -0.1067149861716557 -0.40714135368057303 0 -0.093615658715422545 -0.40476526464288082 0 -0.10847043546942051 -0.40967553479432928 0 -0.1105756132387118 -0.40676785322215941 0 -0.1073722461642546 -0.40484131873350049 0 -0.10847043546942051 -0.40967553479432928 0 -0.1073722461642546 -0.40484131873350049 0 -0.1067149861716557 -0.40714135368057303 0 -0.10847043546942051 -0.40967553479432928 0 -0.1073722461642546 -0.40484131873350049 0 -0.1067149861716557 -0.40714135368057303 0 -0.10847043546942051 -0.40967553479432928 0 -0.1225906368027144 -0.43005957413219659 0 -0.1163272184937543 -0.41351727508190028 0 -0.12315425937001 -0.41747458531602638 0 -0.10847043546942051 -0.40967553479432928 0 -0.1125412123036873 -0.40894162881917728 0 -0.1163272184937543 -0.41351727508190028 0 -0.1125412123036873 -0.40894162881917728 0 -0.1105756132387118 -0.40676785322215941 0 -0.1147915820128618 -0.40580585217832088 0 -0.1225906368027144 -0.43005957413219659 0 -0.10847043546942051 -0.40967553479432928 0 -0.1163272184937543 -0.41351727508190028 0 -0.10847043546942051 -0.40967553479432928 0 -0.1125412123036873 -0.40894162881917728 0 -0.1105756132387118 -0.40676785322215941 0 -0.1225906368027144 -0.43005957413219659 0 -0.10847043546942051 -0.40967553479432928 0 -0.1125412123036873 -0.40894162881917728 0 -0.1163272184937543 -0.41351727508190028 0 -0.1147915820128618 -0.40580585217832088 0 -0.1225700411049412 -0.40994677461386392 0 -0.1219584454402414 -0.40406961642135292 0 -0.1147915820128618 -0.40580585217832088 0 -0.1163272184937543 -0.41351727508190028 0 -0.1225700411049412 -0.40994677461386392 0 -0.1147915820128618 -0.40580585217832088 0 -0.1163272184937543 -0.41351727508190028 0 -0.12315425937001 -0.41747458531602638 0 -0.1225700411049412 -0.40994677461386392 0 -0.1273295258527142 -0.39594401256049883 0 -0.1219584454402414 -0.40406961642135292 0 -0.1190781430676657 -0.39944145851713192 0 -0.11305295545189779 -0.39895005080087959 0 -0.11384267237711319 -0.38219851895920232 0 -0.1073722461642546 -0.40484131873350049 0 -0.1295768038857959 -0.40463739140698729 0 -0.1225700411049412 -0.40994677461386392 0 -0.1219584454402414 -0.40406961642135292 0 -0.1182582065806136 -0.392437760624607 0 -0.11305295545189779 -0.39895005080087959 0 -0.11384267237711319 -0.38219851895920232 0 -0.11384267237711319 -0.38219851895920232 0 -0.1073722461642546 -0.40484131873350049 0 -0.1219584454402414 -0.40406961642135292 0 -0.1190781430676657 -0.39944145851713192 0 -0.1147915820128618 -0.40580585217832088 0 -0.1273295258527142 -0.39594401256049883 0 -0.1190781430676657 -0.39944145851713192 0 -0.1182582065806136 -0.392437760624607 0 -0.1190781430676657 -0.39944145851713192 0 -0.1182582065806136 -0.392437760624607 0 -0.11305295545189779 -0.39895005080087959 0 -0.1105756132387118 -0.40676785322215941 0 -0.1114480992169309 -0.40409126873371493 0 -0.1073722461642546 -0.40484131873350049 0 -0.1105756132387118 -0.40676785322215941 0 -0.1114480992169309 -0.40409126873371493 0 -0.1147915820128618 -0.40580585217832088 0 -0.11305295545189779 -0.39895005080087959 0 -0.1114480992169309 -0.40409126873371493 0 -0.1147915820128618 -0.40580585217832088 0 -0.11305295545189779 -0.39895005080087959 0 -0.1114480992169309 -0.40409126873371493 0 -0.1073722461642546 -0.40484131873350049 0 -0.1190781430676657 -0.39944145851713192 0 -0.11305295545189779 -0.39895005080087959 0 -0.1147915820128618 -0.40580585217832088 0 -0.12625141541498519 -0.38197991289387551 0 -0.1182582065806136 -0.392437760624607 0 -0.11384267237711319 -0.38219851895920232 0 -0.12625141541498519 -0.38197991289387551 0 -0.1273295258527142 -0.39594401256049883 0 -0.1182582065806136 -0.392437760624607 0 -0.11384267237711319 -0.38219851895920232 0 -0.10176491866177829 -0.38015793077534599 0 -0.1073722461642546 -0.40484131873350049 0 -0.10176491866177829 -0.38015793077534599 0 -0.095995502779844255 -0.39166661886747001 0 -0.085276019388031976 -0.37619188405436782 0 -0.10849363524981311 -0.36442991456039969 0 -0.11384267237711319 -0.38219851895920232 0 -0.10176491866177829 -0.38015793077534599 0 -0.10176491866177829 -0.38015793077534599 0 -0.1073722461642546 -0.40484131873350049 0 -0.095995502779844255 -0.39166661886747001 0 -0.10176491866177829 -0.38015793077534599 0 -0.1073722461642546 -0.40484131873350049 0 -0.1067149861716557 -0.40714135368057303 0 -0.1073722461642546 -0.40484131873350049 0 -0.095995502779844255 -0.39166661886747001 0 -0.1067149861716557 -0.40714135368057303 0 -0.1073722461642546 -0.40484131873350049 0 -0.1067149861716557 -0.40714135368057303 0 -0.095995502779844255 -0.39166661886747001 0 -0.1067149861716557 -0.40714135368057303 0 -0.095995502779844255 -0.39166661886747001 0 -0.093615658715422545 -0.40476526464288082 0 -0.093615658715422545 -0.40476526464288082 0 -0.081664681120336771 -0.39582842074610342 0 -0.082451352827770552 -0.41163664718976212 0 -0.095995502779844255 -0.39166661886747001 0 -0.093615658715422545 -0.40476526464288082 0 -0.081664681120336771 -0.39582842074610342 0 -0.095995502779844255 -0.39166661886747001 0 -0.081664681120336771 -0.39582842074610342 0 -0.085276019388031976 -0.37619188405436782 0 -0.081664681120336771 -0.39582842074610342 0 -0.085276019388031976 -0.37619188405436782 0 -0.074552591578295357 -0.38401367178407558 0 -0.095995502779844255 -0.39166661886747001 0 -0.085276019388031976 -0.37619188405436782 0 -0.081664681120336771 -0.39582842074610342 0 -0.065379196062645584 -0.39052657147488062 0 -0.074552591578295357 -0.38401367178407558 0 -0.065890469742167113 -0.37350781086095058 0 -0.085276019388031976 -0.37619188405436782 0 -0.074552591578295357 -0.38401367178407558 0 -0.065890469742167113 -0.37350781086095058 0 -0.065379196062645584 -0.39052657147488062 0 -0.074552591578295357 -0.38401367178407558 0 -0.081664681120336771 -0.39582842074610342 0 -0.06528413140028641 -0.40548789039177052 0 -0.082451352827770552 -0.41163664718976212 0 -0.081664681120336771 -0.39582842074610342 0 -0.065379196062645584 -0.39052657147488062 0 -0.06528413140028641 -0.40548789039177052 0 -0.065713266975248902 -0.42040157794015642 0 -0.085028608260126398 -0.42320905853578622 0 -0.082451352827770552 -0.41163664718976212 0 -0.06528413140028641 -0.40548789039177052 0 -0.065713266975248902 -0.42040157794015642 0 -0.082451352827770552 -0.41163664718976212 0 -0.065713266975248902 -0.42040157794015642 0 -0.077753046024815156 -0.43509142098737241 0 -0.085028608260126398 -0.42320905853578622 0 -0.052630130657334448 -0.42871109396582502 0 -0.065713266975248902 -0.42040157794015642 0 -0.077753046024815156 -0.43509142098737241 0 -0.10033463645810529 -0.42946893710417328 0 -0.077753046024815156 -0.43509142098737241 0 -0.085028608260126398 -0.42320905853578622 0 -0.10033463645810529 -0.42946893710417328 0 -0.094107383989168333 -0.41562629379671062 0 -0.085028608260126398 -0.42320905853578622 0 -0.094107383989168333 -0.41562629379671062 0 -0.085028608260126398 -0.42320905853578622 0 -0.082451352827770552 -0.41163664718976212 0 -0.094107383989168333 -0.41562629379671062 0 -0.093615658715422545 -0.40476526464288082 0 -0.082451352827770552 -0.41163664718976212 0 -0.080832567710134945 -0.085265223789800185 0 -0.09573268077664969 -0.090624673380050064 0 -0.094924188455715333 -0.074372309221374736 0 -0.080832567710134945 -0.085265223789800185 0 -0.0944050220014645 -0.1050702242089397 0 -0.09573268077664969 -0.090624673380050064 0 -0.094924188455715333 -0.074372309221374736 0 -0.077079431972146645 -0.050953682142663811 0 -0.080832567710134945 -0.085265223789800185 0 -0.077460787511610923 -0.070469280456870842 0 -0.094924188455715333 -0.074372309221374736 0 -0.077460787511610923 -0.070469280456870842 0 -0.094924188455715333 -0.074372309221374736 0 -0.078535685693175539 -0.061573663464548622 0 -0.080832567710134945 -0.085265223789800185 0 -0.072736864716213656 -0.076885636419884412 0 -0.077460787511610923 -0.070469280456870842 0 -0.072736864716213656 -0.076885636419884412 0 -0.077460787511610923 -0.070469280456870842 0 -0.067174029152377468 -0.071022972744677337 0 -0.077460787511610923 -0.070469280456870842 0 -0.067174029152377468 -0.071022972744677337 0 -0.070308423821052124 -0.061023041189074957 0 -0.077460787511610923 -0.070469280456870842 0 -0.078535685693175539 -0.061573663464548622 0 -0.070308423821052124 -0.061023041189074957 0 -0.067174029152377468 -0.071022972744677337 0 -0.070308423821052124 -0.061023041189074957 0 -0.060830035872249492 -0.064558057335980773 0 -0.072736864716213656 -0.076885636419884412 0 -0.067174029152377468 -0.071022972744677337 0 -0.063732237529271596 -0.080733089011810297 0 -0.067174029152377468 -0.071022972744677337 0 -0.063732237529271596 -0.080733089011810297 0 -0.058000192015007383 -0.073011667883306972 0 -0.080832567710134945 -0.085265223789800185 0 -0.063732237529271596 -0.080733089011810297 0 -0.066023591375222151 -0.09957098179305135 0 -0.080832567710134945 -0.085265223789800185 0 -0.072736864716213656 -0.076885636419884412 0 -0.063732237529271596 -0.080733089011810297 0 -0.066023591375222151 -0.09957098179305135 0 -0.069466171350113709 -0.1135628440840601 0 -0.0944050220014645 -0.1050702242089397 0 -0.066023591375222151 -0.09957098179305135 0 -0.069466171350113709 -0.1135628440840601 0 -0.054384952187449757 -0.110609208962567 0 -0.077516787342341589 -0.1242022911324857 0 -0.069466171350113709 -0.1135628440840601 0 -0.059238207921678762 -0.13024384051707169 0 -0.077516787342341589 -0.1242022911324857 0 -0.093262550211769629 -0.1231040070079162 0 -0.0944050220014645 -0.1050702242089397 0 -0.077516787342341589 -0.1242022911324857 0 -0.069466171350113709 -0.1135628440840601 0 -0.0944050220014645 -0.1050702242089397 0 -0.066023591375222151 -0.09957098179305135 0 -0.0944050220014645 -0.1050702242089397 0 -0.080832567710134945 -0.085265223789800185 0 -0.066023591375222151 -0.09957098179305135 0 -0.0944050220014645 -0.1050702242089397 0 -0.0944050220014645 -0.1050702242089397 0 -0.1071147179002416 -0.1244919901550422 0 -0.11276894493928399 -0.097790936300085646 0 -0.0944050220014645 -0.1050702242089397 0 -0.11276894493928399 -0.097790936300085646 0 -0.09573268077664969 -0.090624673380050064 0 -0.093262550211769629 -0.1231040070079162 0 -0.0944050220014645 -0.1050702242089397 0 -0.1071147179002416 -0.1244919901550422 0 -0.1071147179002416 -0.1244919901550422 0 -0.11276894493928399 -0.097790936300085646 0 -0.1306137014228527 -0.1212095633787966 0 -0.11276894493928399 -0.097790936300085646 0 -0.1306137014228527 -0.1212095633787966 0 -0.112702195828283 -0.076339248342475546 0 -0.13438499311011279 -0.096174695905308166 0 -0.11276894493928399 -0.097790936300085646 0 -0.112702195828283 -0.076339248342475546 0 -0.13438499311011279 -0.096174695905308166 0 -0.11276894493928399 -0.097790936300085646 0 -0.094924188455715333 -0.074372309221374736 0 -0.112702195828283 -0.076339248342475546 0 -0.11276894493928399 -0.097790936300085646 0 -0.094924188455715333 -0.074372309221374736 0 -0.11276894493928399 -0.097790936300085646 0 -0.09573268077664969 -0.090624673380050064 0 -0.094924188455715333 -0.074372309221374736 0 -0.094924188455715333 -0.074372309221374736 0 -0.1026030192468113 -0.064894788769428779 0 -0.112702195828283 -0.076339248342475546 0 -0.094924188455715333 -0.074372309221374736 0 -0.1026030192468113 -0.064894788769428779 0 -0.090333769324138391 -0.059362086744932152 0 -0.1026030192468113 -0.064894788769428779 0 -0.112702195828283 -0.076339248342475546 0 -0.1158705629695205 -0.060236298698018297 0 -0.112702195828283 -0.076339248342475546 0 -0.1158705629695205 -0.060236298698018297 0 -0.13497135686491851 -0.078315161523928284 0 -0.1158705629695205 -0.060236298698018297 0 -0.1150956899200111 -0.045830426672337207 0 -0.1070798181065768 -0.041876824406217303 0 -0.1158705629695205 -0.060236298698018297 0 -0.1150956899200111 -0.045830426672337207 0 -0.12809376798702951 -0.047905065599393698 0 -0.1163329610324388 -0.034474533447810513 0 -0.12530131535501859 -0.034952786400489197 0 -0.12809376798702951 -0.047905065599393698 0 -0.11023593420079281 -0.033339602888773932 0 -0.1150956899200111 -0.045830426672337207 0 -0.12809376798702951 -0.047905065599393698 0 -0.11023593420079281 -0.033339602888773932 0 -0.1163329610324388 -0.034474533447810513 0 -0.12809376798702951 -0.047905065599393698 0 -0.11023593420079281 -0.033339602888773932 0 -0.12809376798702951 -0.047905065599393698 0 -0.1163329610324388 -0.034474533447810513 0 -0.1221370268088495 -0.025998648103035 0 -0.12530131535501859 -0.034952786400489197 0 -0.11023593420079281 -0.033339602888773932 0 -0.1150956899200111 -0.045830426672337207 0 -0.1070798181065768 -0.041876824406217303 0 -0.11023593420079281 -0.033339602888773932 0 -0.1163329610324388 -0.034474533447810513 0 -0.097427134368436918 -0.027820357899848831 0 -0.11023593420079281 -0.033339602888773932 0 -0.1070798181065768 -0.041876824406217303 0 -0.097427134368436918 -0.027820357899848831 0 -0.1070798181065768 -0.041876824406217303 0 -0.096769769074122519 -0.04215743587210824 0 -0.097427134368436918 -0.027820357899848831 0 -0.1158705629695205 -0.060236298698018297 0 -0.1070798181065768 -0.041876824406217303 0 -0.096769769074122519 -0.04215743587210824 0 -0.1026030192468113 -0.064894788769428779 0 -0.1158705629695205 -0.060236298698018297 0 -0.099264754381345577 -0.055060356505970513 0 -0.1158705629695205 -0.060236298698018297 0 -0.096769769074122519 -0.04215743587210824 0 -0.099264754381345577 -0.055060356505970513 0 -0.096769769074122519 -0.04215743587210824 0 -0.099264754381345577 -0.055060356505970513 0 -0.090746651292135133 -0.048651172445365112 0 -0.1158705629695205 -0.060236298698018297 0 -0.096769769074122519 -0.04215743587210824 0 -0.1026030192468113 -0.064894788769428779 0 -0.099264754381345577 -0.055060356505970513 0 -0.090333769324138391 -0.059362086744932152 0 -0.1029392013539359 -0.0085751277431150782 0 -0.12735709500343681 0.004015926865657337 0 -0.1236693299605585 -0.0137973575501921 0 -0.1110604598185659 -0.0207882196779367 0 -0.1029392013539359 -0.0085751277431150782 0 -0.1236693299605585 -0.0137973575501921 0 -0.1029392013539359 -0.0085751277431150782 0 -0.12735709500343681 0.004015926865657337 0 -0.1236693299605585 -0.0137973575501921 0 -0.1110604598185659 -0.0207882196779367 0 -0.1221370268088495 -0.025998648103035 0 -0.1163329610324388 -0.034474533447810513 0 -0.1221370268088495 -0.025998648103035 0 -0.11173939550707281 -0.027270439782157759 0 -0.1110604598185659 -0.0207882196779367 0 -0.1221370268088495 -0.025998648103035 0 -0.11173939550707281 -0.027270439782157759 0 -0.1163329610324388 -0.034474533447810513 0 -0.097427134368436918 -0.027820357899848831 0 -0.1110604598185659 -0.0207882196779367 0 -0.097427134368436918 -0.027820357899848831 0 -0.1029392013539359 -0.0085751277431150782 0 -0.1163329610324388 -0.034474533447810513 0 -0.11173939550707281 -0.027270439782157759 0 -0.097427134368436918 -0.027820357899848831 0 -0.1110604598185659 -0.0207882196779367 0 -0.11173939550707281 -0.027270439782157759 0 -0.097427134368436918 -0.027820357899848831 0 -0.1029392013539359 -0.0085751277431150782 0 -0.086097875964997059 -0.0058870606910941042 0 -0.078521307704434995 -0.021166182351887271 0 -0.1029392013539359 -0.0085751277431150782 0 -0.078521307704434995 -0.021166182351887271 0 -0.1029392013539359 -0.0085751277431150782 0 -0.086097875964997059 -0.0058870606910941042 0 -0.091682611010439896 0.0063963380850077774 0 -0.086097875964997059 -0.0058870606910941042 0 -0.073830544796709738 -0.0078542708917730738 0 -0.078933949510919491 0.00072378658541613432 0 -0.086097875964997059 -0.0058870606910941042 0 -0.078521307704434995 -0.021166182351887271 0 -0.073830544796709738 -0.0078542708917730738 0 -0.097427134368436918 -0.027820357899848831 0 -0.078521307704434995 -0.021166182351887271 0 -0.097427134368436918 -0.027820357899848831 0 -0.078521307704434995 -0.021166182351887271 0 -0.077668975178724509 -0.024078573046198169 0 -0.097427134368436918 -0.027820357899848831 0 -0.1029392013539359 -0.0085751277431150782 0 -0.078521307704434995 -0.021166182351887271 0 -0.078521307704434995 -0.021166182351887271 0 -0.055132092173872667 -0.033226800447327051 0 -0.05822397002114936 -0.01402224463886402 0 -0.078521307704434995 -0.021166182351887271 0 -0.055132092173872667 -0.033226800447327051 0 -0.077668975178724509 -0.024078573046198169 0 -0.075465350998538308 -0.032772608828030472 0 -0.055132092173872667 -0.033226800447327051 0 -0.078521307704434995 -0.021166182351887271 0 -0.077668975178724509 -0.024078573046198169 0 -0.055132092173872667 -0.033226800447327051 0 -0.078521307704434995 -0.021166182351887271 0 -0.05822397002114936 -0.01402224463886402 0 -0.078521307704434995 -0.021166182351887271 0 -0.073830544796709738 -0.0078542708917730738 0 -0.05822397002114936 -0.01402224463886402 0 -0.073830544796709738 -0.0078542708917730738 0 -0.05822397002114936 -0.01402224463886402 0 -0.068462160169621672 0.0025537029525893409 0 -0.073830544796709738 -0.0078542708917730738 0 -0.078933949510919491 0.00072378658541613432 0 -0.068462160169621672 0.0025537029525893409 0 -0.094924188455715333 -0.074372309221374736 0 -0.090333769324138391 -0.059362086744932152 0 -0.077079431972146645 -0.050953682142663811 0 -0.094924188455715333 -0.074372309221374736 0 -0.078535685693175539 -0.061573663464548622 0 -0.077079431972146645 -0.050953682142663811 0 -0.084868245962835154 -0.053326759561897898 0 -0.090333769324138391 -0.059362086744932152 0 -0.077079431972146645 -0.050953682142663811 0 -0.084868245962835154 -0.053326759561897898 0 -0.080876314157704687 -0.04955372347343575 0 -0.082849096915408454 -0.045583035938281863 0 -0.080876314157704687 -0.04955372347343575 0 -0.078708481780428496 -0.048351416250899462 0 -0.082849096915408454 -0.045583035938281863 0 -0.080876314157704687 -0.04955372347343575 0 -0.078708481780428496 -0.048351416250899462 0 -0.077079431972146645 -0.050953682142663811 0 -0.084868245962835154 -0.053326759561897898 0 -0.080876314157704687 -0.04955372347343575 0 -0.077079431972146645 -0.050953682142663811 0 -0.084868245962835154 -0.053326759561897898 0 -0.090746651292135133 -0.048651172445365112 0 -0.082849096915408454 -0.045583035938281863 0 -0.084868245962835154 -0.053326759561897898 0 -0.090333769324138391 -0.059362086744932152 0 -0.090746651292135133 -0.048651172445365112 0 -0.099264754381345577 -0.055060356505970513 0 -0.090333769324138391 -0.059362086744932152 0 -0.090746651292135133 -0.048651172445365112 0 -0.096769769074122519 -0.04215743587210824 0 -0.088481073739883592 -0.043344290748051233 0 -0.083558777677868248 -0.036985518736449702 0 -0.096769769074122519 -0.04215743587210824 0 -0.097427134368436918 -0.027820357899848831 0 -0.077668975178724509 -0.024078573046198169 0 -0.096769769074122519 -0.04215743587210824 0 -0.077668975178724509 -0.024078573046198169 0 -0.083558777677868248 -0.036985518736449702 0 -0.096769769074122519 -0.04215743587210824 0 -0.077668975178724509 -0.024078573046198169 0 -0.090746651292135133 -0.048651172445365112 0 -0.088481073739883592 -0.043344290748051233 0 -0.082849096915408454 -0.045583035938281863 0 -0.096769769074122519 -0.04215743587210824 0 -0.090746651292135133 -0.048651172445365112 0 -0.088481073739883592 -0.043344290748051233 0 -0.077668975178724509 -0.024078573046198169 0 -0.083558777677868248 -0.036985518736449702 0 -0.075465350998538308 -0.032772608828030472 0 -0.083558777677868248 -0.036985518736449702 0 -0.082849096915408454 -0.045583035938281863 0 -0.075062618692292638 -0.040325846155841297 0 -0.088481073739883592 -0.043344290748051233 0 -0.083558777677868248 -0.036985518736449702 0 -0.082849096915408454 -0.045583035938281863 0 -0.082849096915408454 -0.045583035938281863 0 -0.078067002861142085 -0.04575568247049161 0 -0.075062618692292638 -0.040325846155841297 0 -0.078708481780428496 -0.048351416250899462 0 -0.082849096915408454 -0.045583035938281863 0 -0.078067002861142085 -0.04575568247049161 0 -0.075647814056438792 -0.048762431536943832 0 -0.055132092173872667 -0.033226800447327051 0 -0.078067002861142085 -0.04575568247049161 0 -0.075062618692292638 -0.040325846155841297 0 -0.075647814056438792 -0.048762431536943832 0 -0.075062618692292638 -0.040325846155841297 0 -0.075465350998538308 -0.032772608828030472 0 -0.055132092173872667 -0.033226800447327051 0 -0.075647814056438792 -0.048762431536943832 0 -0.061428605263776047 -0.046553119166432878 0 -0.055132092173872667 -0.033226800447327051 0 -0.075062618692292638 -0.040325846155841297 0 -0.075647814056438792 -0.048762431536943832 0 -0.055132092173872667 -0.033226800447327051 0 -0.083558777677868248 -0.036985518736449702 0 -0.075062618692292638 -0.040325846155841297 0 -0.075465350998538308 -0.032772608828030472 0 -0.065722760200719738 -0.052253177456942877 0 -0.075647814056438792 -0.048762431536943832 0 -0.061428605263776047 -0.046553119166432878 0 -0.065722760200719738 -0.052253177456942877 0 -0.07269306068786438 -0.052406879740114577 0 -0.069833853901725543 -0.055329661047837618 0 -0.065722760200719738 -0.052253177456942877 0 -0.07269306068786438 -0.052406879740114577 0 -0.075647814056438792 -0.048762431536943832 0 -0.07269306068786438 -0.052406879740114577 0 -0.073703714626092445 -0.056102563442451223 0 -0.069833853901725543 -0.055329661047837618 0 -0.07269306068786438 -0.052406879740114577 0 -0.077079431972146645 -0.050953682142663811 0 -0.073703714626092445 -0.056102563442451223 0 -0.078708481780428496 -0.048351416250899462 0 -0.077079431972146645 -0.050953682142663811 0 -0.075647814056438792 -0.048762431536943832 0 -0.07269306068786438 -0.052406879740114577 0 -0.077079431972146645 -0.050953682142663811 0 -0.075647814056438792 -0.048762431536943832 0 -0.078708481780428496 -0.048351416250899462 0 -0.078067002861142085 -0.04575568247049161 0 -0.075647814056438792 -0.048762431536943832 0 -0.078535685693175539 -0.061573663464548622 0 -0.073703714626092445 -0.056102563442451223 0 -0.070308423821052124 -0.061023041189074957 0 -0.078535685693175539 -0.061573663464548622 0 -0.077079431972146645 -0.050953682142663811 0 -0.073703714626092445 -0.056102563442451223 0 -0.073703714626092445 -0.056102563442451223 0 -0.070308423821052124 -0.061023041189074957 0 -0.069833853901725543 -0.055329661047837618 0 -0.070308423821052124 -0.061023041189074957 0 -0.064391701294429504 -0.057679717025484439 0 -0.060830035872249492 -0.064558057335980773 0 -0.070308423821052124 -0.061023041189074957 0 -0.069833853901725543 -0.055329661047837618 0 -0.064391701294429504 -0.057679717025484439 0 -0.065722760200719738 -0.052253177456942877 0 -0.069833853901725543 -0.055329661047837618 0 -0.064391701294429504 -0.057679717025484439 0 -0.064391701294429504 -0.057679717025484439 0 -0.055978059279945473 -0.056388284161067823 0 -0.060830035872249492 -0.064558057335980773 0 -0.065722760200719738 -0.052253177456942877 0 -0.064391701294429504 -0.057679717025484439 0 -0.055978059279945473 -0.056388284161067823 0 -0.055978059279945473 -0.056388284161067823 0 -0.041230103293456458 -0.058058117591144771 0 -0.049479852383656611 -0.067543566470139038 0 -0.055978059279945473 -0.056388284161067823 0 -0.049741921456861897 -0.048697412542500033 0 -0.041230103293456458 -0.058058117591144771 0 -0.055978059279945473 -0.056388284161067823 0 -0.049741921456861897 -0.048697412542500033 0 -0.061428605263776047 -0.046553119166432878 0 -0.065722760200719738 -0.052253177456942877 0 -0.055978059279945473 -0.056388284161067823 0 -0.061428605263776047 -0.046553119166432878 0 -0.049741921456861897 -0.048697412542500033 0 -0.061428605263776047 -0.046553119166432878 0 -0.055132092173872667 -0.033226800447327051 0 -0.049741921456861897 -0.048697412542500033 0 -0.055132092173872667 -0.033226800447327051 0 -0.032367863380537598 -0.044965144957206583 0 -0.055132092173872667 -0.033226800447327051 0 -0.032367863380537598 -0.044965144957206583 0 -0.055132092173872667 -0.033226800447327051 0 -0.032367863380537598 -0.044965144957206583 0 -0.031233838643279398 -0.031193199633022049 0 -0.049741921456861897 -0.048697412542500033 0 -0.032367863380537598 -0.044965144957206583 0 -0.041230103293456458 -0.058058117591144771 0 -0.032367863380537598 -0.044965144957206583 0 -0.041230103293456458 -0.058058117591144771 0 -0.026902341230915561 -0.060374551747501753 0 -0.05822397002114936 -0.01402224463886402 0 -0.057836245250817257 0.0062936453779614283 0 -0.044352522143416888 0.0050416822031405977 0 -0.05822397002114936 -0.01402224463886402 0 -0.037926632337863607 -0.0068783069258408786 0 -0.05822397002114936 -0.01402224463886402 0 -0.068462160169621672 0.0025537029525893409 0 -0.057836245250817257 0.0062936453779614283 0 -0.055132092173872667 -0.033226800447327051 0 -0.05822397002114936 -0.01402224463886402 0 -0.036243114184870161 -0.018923029155399909 0 -0.055132092173872667 -0.033226800447327051 0 -0.036243114184870161 -0.018923029155399909 0 -0.031233838643279398 -0.031193199633022049 0 -0.055132092173872667 -0.033226800447327051 0 -0.036243114184870161 -0.018923029155399909 0 -0.05822397002114936 -0.01402224463886402 0 -0.036243114184870161 -0.018923029155399909 0 -0.037926632337863607 -0.0068783069258408786 0 -0.05822397002114936 -0.01402224463886402 0 -0.037926632337863607 -0.0068783069258408786 0 -0.044352522143416888 0.0050416822031405977 0 -0.036243114184870161 -0.018923029155399909 0 -0.037926632337863607 -0.0068783069258408786 0 -0.029121832422534862 -0.0067169982391169078 0 -0.037926632337863607 -0.0068783069258408786 0 -0.029539197120254941 -0.00051038393964639519 0 -0.029121832422534862 -0.0067169982391169078 0 -0.037926632337863607 -0.0068783069258408786 0 -0.029539197120254941 -0.00051038393964639519 0 -0.03614709390981162 0.0015378833132510439 0 -0.037926632337863607 -0.0068783069258408786 0 -0.03614709390981162 0.0015378833132510439 0 -0.044352522143416888 0.0050416822031405977 0 -0.036243114184870161 -0.018923029155399909 0 -0.017354136195868258 -0.0046192578634720229 0 -0.01819617019275287 -0.0061732580868559192 0 -0.036243114184870161 -0.018923029155399909 0 -0.017354136195868258 -0.0046192578634720229 0 -0.029121832422534862 -0.0067169982391169078 0 -0.036243114184870161 -0.018923029155399909 0 -0.01819617019275287 -0.0061732580868559192 0 -0.019637671972121611 -0.02148729346067638 0 -0.036243114184870161 -0.018923029155399909 0 -0.017354136195868258 -0.0046192578634720229 0 -0.017354136195868258 -0.0046192578634720229 0 -0.01819617019275287 -0.0061732580868559192 0 -0.013500839782477779 -0.0058155532537883976 0 -0.017354136195868258 -0.0046192578634720229 0 -0.01819617019275287 -0.0061732580868559192 0 -0.017354136195868258 -0.0046192578634720229 0 -0.024546082273817361 -0.00265401331122534 0 -0.02112675760807068 0.0030512678310729521 0 -0.024546082273817361 -0.00265401331122534 0 -0.029539197120254941 -0.00051038393964639519 0 -0.02112675760807068 0.0030512678310729521 0 -0.017354136195868258 -0.0046192578634720229 0 -0.024546082273817361 -0.00265401331122534 0 -0.029121832422534862 -0.0067169982391169078 0 -0.024546082273817361 -0.00265401331122534 0 -0.029539197120254941 -0.00051038393964639519 0 -0.029121832422534862 -0.0067169982391169078 0 -0.01819617019275287 -0.0061732580868559192 0 -0.019637671972121611 -0.02148729346067638 0 -0.011008321991883009 -0.01057962122923565 0 -0.036243114184870161 -0.018923029155399909 0 -0.019637671972121611 -0.02148729346067638 0 -0.031233838643279398 -0.031193199633022049 0 -0.019637671972121611 -0.02148729346067638 0 -0.031233838643279398 -0.031193199633022049 0 -0.016064986363794779 -0.036441041599790329 0 -0.0077215053668332834 -0.022860670268973711 0 -0.00118246574067416 -0.01324232368796026 0 0.0015263381015913891 -0.033415212413580753 0 -0.0077215053668332834 -0.022860670268973711 0 -0.016064986363794779 -0.036441041599790329 0 0.0015263381015913891 -0.033415212413580753 0 -0.019637671972121611 -0.02148729346067638 0 -0.0077215053668332834 -0.022860670268973711 0 -0.016064986363794779 -0.036441041599790329 0 -0.019637671972121611 -0.02148729346067638 0 -0.0077215053668332834 -0.022860670268973711 0 -0.011008321991883009 -0.01057962122923565 0 -0.011008321991883009 -0.01057962122923565 0 -0.00118246574067416 -0.01324232368796026 0 -0.0072764121498596901 -0.0036325873431357339 0 -0.0077215053668332834 -0.022860670268973711 0 -0.011008321991883009 -0.01057962122923565 0 -0.00118246574067416 -0.01324232368796026 0 -0.00118246574067416 -0.01324232368796026 0 -0.0072764121498596901 -0.0036325873431357339 0 0.0012074066645448821 -0.00065723147797176382 0 -0.0072764121498596901 -0.0036325873431357339 0 -0.013500839782477779 -0.0058155532537883976 0 -0.013607688627124061 -0.00178224205395049 0 -0.011008321991883009 -0.01057962122923565 0 -0.0072764121498596901 -0.0036325873431357339 0 -0.013500839782477779 -0.0058155532537883976 0 -0.01819617019275287 -0.0061732580868559192 0 -0.011008321991883009 -0.01057962122923565 0 -0.013500839782477779 -0.0058155532537883976 0 -0.017354136195868258 -0.0046192578634720229 0 -0.013500839782477779 -0.0058155532537883976 0 -0.013607688627124061 -0.00178224205395049 0 -0.017354136195868258 -0.0046192578634720229 0 -0.013607688627124061 -0.00178224205395049 0 -0.032367863380537598 -0.044965144957206583 0 -0.0096036345872028556 -0.056703489467087059 0 -0.032367863380537598 -0.044965144957206583 0 -0.026902341230915561 -0.060374551747501753 0 -0.0096036345872028556 -0.056703489467087059 0 -0.032367863380537598 -0.044965144957206583 0 -0.031233838643279398 -0.031193199633022049 0 -0.016064986363794779 -0.036441041599790329 0 -0.032367863380537598 -0.044965144957206583 0 -0.016064986363794779 -0.036441041599790329 0 -0.0096036345872028556 -0.056703489467087059 0 -0.0096036345872028556 -0.056703489467087059 0 0.0015263381015913891 -0.033415212413580753 0 -0.016064986363794779 -0.036441041599790329 0 -0.0096036345872028556 -0.056703489467087059 0 0.0015263381015913891 -0.033415212413580753 0 -0.0096036345872028556 -0.056703489467087059 0 0.0015263381015913891 -0.033415212413580753 0 0.007298405735321048 -0.051477207310420908 0 -0.0096036345872028556 -0.056703489467087059 0 0.0052181775422467033 -0.064346337314722044 0 -0.0096036345872028556 -0.056703489467087059 0 -0.0043762627118289626 -0.071729097412358583 0 0.0052181775422467033 -0.064346337314722044 0 -0.0043762627118289626 -0.071729097412358583 0 -0.0092607301227374331 -0.088572496961274561 0 -0.01646375475339092 -0.071057556949349329 0 -0.0096036345872028556 -0.056703489467087059 0 -0.01646375475339092 -0.071057556949349329 0 -0.0096036345872028556 -0.056703489467087059 0 -0.0043762627118289626 -0.071729097412358583 0 -0.01646375475339092 -0.071057556949349329 0 -0.0092607301227374331 -0.088572496961274561 0 -0.00044729776891663488 -0.1011528385718463 0 0.0042106568376920582 -0.081118225430045127 0 -0.0043762627118289626 -0.071729097412358583 0 -0.0092607301227374331 -0.088572496961274561 0 0.0042106568376920582 -0.081118225430045127 0 -0.0092607301227374331 -0.088572496961274561 0 -0.037642160748979789 -0.094071739377162955 0 -0.0092607301227374331 -0.088572496961274561 0 -0.023323874919582349 -0.085411624431610003 0 -0.01646375475339092 -0.071057556949349329 0 -0.0092607301227374331 -0.088572496961274561 0 -0.023323874919582349 -0.085411624431610003 0 -0.037642160748979789 -0.094071739377162955 0 -0.023323874919582349 -0.085411624431610003 0 -0.01646375475339092 -0.071057556949349329 0 -0.023323874919582349 -0.085411624431610003 0 -0.01646375475339092 -0.071057556949349329 0 -0.034846350139989962 -0.07108844977272101 0 -0.026902341230915561 -0.060374551747501753 0 -0.01646375475339092 -0.071057556949349329 0 -0.034846350139989962 -0.07108844977272101 0 -0.026902341230915561 -0.060374551747501753 0 -0.0096036345872028556 -0.056703489467087059 0 -0.01646375475339092 -0.071057556949349329 0 -0.041230103293456458 -0.058058117591144771 0 -0.026902341230915561 -0.060374551747501753 0 -0.034846350139989962 -0.07108844977272101 0 -0.041230103293456458 -0.058058117591144771 0 -0.034846350139989962 -0.07108844977272101 0 -0.049479852383656611 -0.067543566470139038 0 -0.034846350139989962 -0.07108844977272101 0 -0.048784805137481749 -0.081200653853927454 0 -0.049479852383656611 -0.067543566470139038 0 -0.023323874919582349 -0.085411624431610003 0 -0.034846350139989962 -0.07108844977272101 0 -0.036149297736508462 -0.082943116858855345 0 -0.023323874919582349 -0.085411624431610003 0 -0.036149297736508462 -0.082943116858855345 0 -0.037642160748979789 -0.094071739377162955 0 -0.036149297736508462 -0.082943116858855345 0 -0.048784805137481749 -0.081200653853927454 0 -0.037642160748979789 -0.094071739377162955 0 -0.034846350139989962 -0.07108844977272101 0 -0.036149297736508462 -0.082943116858855345 0 -0.048784805137481749 -0.081200653853927454 0 -0.063732237529271596 -0.080733089011810297 0 -0.066023591375222151 -0.09957098179305135 0 -0.048784805137481749 -0.081200653853927454 0 -0.066023591375222151 -0.09957098179305135 0 -0.048784805137481749 -0.081200653853927454 0 -0.037642160748979789 -0.094071739377162955 0 -0.063732237529271596 -0.080733089011810297 0 -0.048784805137481749 -0.081200653853927454 0 -0.058000192015007383 -0.073011667883306972 0 -0.055978059279945473 -0.056388284161067823 0 -0.060830035872249492 -0.064558057335980773 0 -0.049479852383656611 -0.067543566470139038 0 -0.058000192015007383 -0.073011667883306972 0 -0.060830035872249492 -0.064558057335980773 0 -0.049479852383656611 -0.067543566470139038 0 -0.067174029152377468 -0.071022972744677337 0 -0.058000192015007383 -0.073011667883306972 0 -0.060830035872249492 -0.064558057335980773 0 -0.048784805137481749 -0.081200653853927454 0 -0.058000192015007383 -0.073011667883306972 0 -0.049479852383656611 -0.067543566470139038 0 -0.069466171350113709 -0.1135628440840601 0 -0.054384952187449757 -0.110609208962567 0 -0.059238207921678762 -0.13024384051707169 0 -0.054384952187449757 -0.110609208962567 0 -0.059238207921678762 -0.13024384051707169 0 -0.032945469352336033 -0.1293562392835419 0 -0.066023591375222151 -0.09957098179305135 0 -0.054384952187449757 -0.110609208962567 0 -0.037642160748979789 -0.094071739377162955 0 -0.066023591375222151 -0.09957098179305135 0 -0.037642160748979789 -0.094071739377162955 0 -0.054384952187449757 -0.110609208962567 0 -0.037642160748979789 -0.094071739377162955 0 -0.035661083064217503 -0.11124856921529409 0 -0.054384952187449757 -0.110609208962567 0 -0.032945469352336033 -0.1293562392835419 0 -0.054384952187449757 -0.110609208962567 0 -0.035661083064217503 -0.11124856921529409 0 -0.032945469352336033 -0.1293562392835419 0 -0.01767174996810443 -0.1109570892379047 0 -0.012892303975098539 -0.12786221844410239 0 -0.032945469352336033 -0.1293562392835419 0 -0.035661083064217503 -0.11124856921529409 0 -0.01767174996810443 -0.1109570892379047 0 -0.032945469352336033 -0.1293562392835419 0 -0.0092607301227374331 -0.088572496961274561 0 -0.037642160748979789 -0.094071739377162955 0 -0.01767174996810443 -0.1109570892379047 0 -0.037642160748979789 -0.094071739377162955 0 -0.035661083064217503 -0.11124856921529409 0 -0.01767174996810443 -0.1109570892379047 0 -0.01767174996810443 -0.1109570892379047 0 -0.00044729776891663488 -0.1011528385718463 0 0.005085065621477718 -0.1151057880332567 0 -0.0092607301227374331 -0.088572496961274561 0 -0.01767174996810443 -0.1109570892379047 0 -0.00044729776891663488 -0.1011528385718463 0 -0.01767174996810443 -0.1109570892379047 0 -0.012892303975098539 -0.12786221844410239 0 0.005085065621477718 -0.1151057880332567 0 -0.012892303975098539 -0.12786221844410239 0 0.0027021066240326768 -0.1317064378292063 0 0.005085065621477718 -0.1151057880332567 0 -0.011505986517222349 -0.14810326960451681 0 -0.033736789854580403 -0.16402697950055581 0 -0.032945469352336033 -0.1293562392835419 0 -0.012892303975098539 -0.12786221844410239 0 -0.011505986517222349 -0.14810326960451681 0 0.0027021066240326768 -0.1317064378292063 0 -0.011505986517222349 -0.14810326960451681 0 -0.032945469352336033 -0.1293562392835419 0 -0.012892303975098539 -0.12786221844410239 0 -0.011505986517222349 -0.14810326960451681 0 -0.032945469352336033 -0.1293562392835419 0 -0.011505986517222349 -0.14810326960451681 0 0.009933496317892726 -0.16685029992549011 0 -0.011505986517222349 -0.14810326960451681 0 -0.0085976242789068957 -0.177408956520272 0 0.009933496317892726 -0.16685029992549011 0 -0.0085976242789068957 -0.177408956520272 0 -0.003739977245034012 -0.19168309442994089 0 -0.02712874487570623 -0.18796761311505439 0 -0.0085976242789068957 -0.177408956520272 0 -0.003739977245034012 -0.19168309442994089 0 0.0034571977838801569 -0.17702496179755631 0 -0.0085976242789068957 -0.177408956520272 0 -0.02712874487570623 -0.18796761311505439 0 -0.0085976242789068957 -0.177408956520272 0 -0.033736789854580403 -0.16402697950055581 0 -0.02712874487570623 -0.18796761311505439 0 -0.011505986517222349 -0.14810326960451681 0 -0.0085976242789068957 -0.177408956520272 0 -0.033736789854580403 -0.16402697950055581 0 -0.033736789854580403 -0.16402697950055581 0 -0.041678182321736049 -0.18065303021324261 0 -0.02712874487570623 -0.18796761311505439 0 -0.033736789854580403 -0.16402697950055581 0 -0.041678182321736049 -0.18065303021324261 0 -0.060187329084152079 -0.17209125852752319 0 -0.041678182321736049 -0.18065303021324261 0 -0.060187329084152079 -0.17209125852752319 0 -0.045659865472505487 -0.198526269709837 0 -0.060187329084152079 -0.17209125852752319 0 -0.045659865472505487 -0.198526269709837 0 -0.033736789854580403 -0.16402697950055581 0 -0.060187329084152079 -0.17209125852752319 0 -0.051699405537506939 -0.14899167338562519 0 -0.060187329084152079 -0.17209125852752319 0 -0.051699405537506939 -0.14899167338562519 0 -0.072389231474787458 -0.1492400490994332 0 -0.051699405537506939 -0.14899167338562519 0 -0.059238207921678762 -0.13024384051707169 0 -0.072389231474787458 -0.1492400490994332 0 -0.033736789854580403 -0.16402697950055581 0 -0.051699405537506939 -0.14899167338562519 0 -0.032945469352336033 -0.1293562392835419 0 -0.051699405537506939 -0.14899167338562519 0 -0.059238207921678762 -0.13024384051707169 0 -0.032945469352336033 -0.1293562392835419 0 -0.025857267464119819 -0.25506418495113531 0 -0.02368513365757598 -0.23851275990414511 0 -0.036167443228362108 -0.24337299090061551 0 -0.01269776775011346 -0.25850600500130039 0 -0.02368513365757598 -0.23851275990414511 0 -0.01269776775011346 -0.25850600500130039 0 -0.02368513365757598 -0.23851275990414511 0 -0.01082738352359053 -0.24876902592697839 0 -0.02368513365757598 -0.23851275990414511 0 -0.0067432183097289999 -0.239968376336817 0 -0.0090267388034834407 -0.23007068799598671 0 -0.02368513365757598 -0.23851275990414511 0 -0.01082738352359053 -0.24876902592697839 0 -0.0067432183097289999 -0.239968376336817 0 -0.01082738352359053 -0.24876902592697839 0 -0.0029313858115674811 -0.24854412401401971 0 -0.0067432183097289999 -0.239968376336817 0 -0.0029313858115674811 -0.24854412401401971 0 -0.0067432183097289999 -0.239968376336817 0 0.0026199421412959989 -0.2430643023623929 0 -0.0067432183097289999 -0.239968376336817 0 0.0026199421412959989 -0.2430643023623929 0 0.0017465435191736189 -0.23378549097037141 0 -0.0067432183097289999 -0.239968376336817 0 -0.0090267388034834407 -0.23007068799598671 0 0.0017465435191736189 -0.23378549097037141 0 -0.0090267388034834407 -0.23007068799598671 0 -0.00080535468136348092 -0.21995366459000901 0 -0.01839049427805331 -0.2195873775130934 0 -0.0090267388034834407 -0.23007068799598671 0 -0.00080535468136348092 -0.21995366459000901 0 0.0017465435191736189 -0.23378549097037141 0 -0.02368513365757598 -0.23851275990414511 0 -0.0090267388034834407 -0.23007068799598671 0 -0.01839049427805331 -0.2195873775130934 0 -0.02368513365757598 -0.23851275990414511 0 -0.01839049427805331 -0.2195873775130934 0 -0.034672499565036527 -0.2185195148069887 0 -0.02368513365757598 -0.23851275990414511 0 -0.034672499565036527 -0.2185195148069887 0 -0.01839049427805331 -0.2195873775130934 0 -0.027127261386640289 -0.20489204062456881 0 -0.034672499565036527 -0.2185195148069887 0 -0.01839049427805331 -0.2195873775130934 0 -0.027127261386640289 -0.20489204062456881 0 -0.01084996336714465 -0.20584666152463099 0 -0.00080535468136348092 -0.21995366459000901 0 -0.01839049427805331 -0.2195873775130934 0 -0.01084996336714465 -0.20584666152463099 0 -0.00080535468136348092 -0.21995366459000901 0 -0.01084996336714465 -0.20584666152463099 0 0.01016515501406726 -0.20926501301563591 0 -0.01084996336714465 -0.20584666152463099 0 -0.003739977245034012 -0.19168309442994089 0 0.01016515501406726 -0.20926501301563591 0 -0.01084996336714465 -0.20584666152463099 0 -0.003739977245034012 -0.19168309442994089 0 -0.02712874487570623 -0.18796761311505439 0 -0.027127261386640289 -0.20489204062456881 0 -0.01084996336714465 -0.20584666152463099 0 -0.02712874487570623 -0.18796761311505439 0 -0.041678182321736049 -0.18065303021324261 0 -0.02712874487570623 -0.18796761311505439 0 -0.045659865472505487 -0.198526269709837 0 -0.02712874487570623 -0.18796761311505439 0 -0.045659865472505487 -0.198526269709837 0 -0.027127261386640289 -0.20489204062456881 0 -0.02712874487570623 -0.18796761311505439 0 -0.045659865472505487 -0.198526269709837 0 -0.045659865472505487 -0.198526269709837 0 -0.067682806497079445 -0.21107449474949169 0 -0.062708331551170268 -0.19442045911658551 0 -0.060187329084152079 -0.17209125852752319 0 -0.045659865472505487 -0.198526269709837 0 -0.062708331551170268 -0.19442045911658551 0 -0.045659865472505487 -0.198526269709837 0 -0.067682806497079445 -0.21107449474949169 0 -0.045659865472505487 -0.198526269709837 0 -0.054546183461555722 -0.22015285450131489 0 -0.067682806497079445 -0.21107449474949169 0 -0.045659865472505487 -0.198526269709837 0 -0.034672499565036527 -0.2185195148069887 0 -0.054546183461555722 -0.22015285450131489 0 -0.045659865472505487 -0.198526269709837 0 -0.034672499565036527 -0.2185195148069887 0 -0.027127261386640289 -0.20489204062456881 0 -0.045659865472505487 -0.198526269709837 0 -0.034672499565036527 -0.2185195148069887 0 -0.034672499565036527 -0.2185195148069887 0 -0.044145410485190079 -0.23242073182379891 0 -0.054546183461555722 -0.22015285450131489 0 -0.02368513365757598 -0.23851275990414511 0 -0.034672499565036527 -0.2185195148069887 0 -0.044145410485190079 -0.23242073182379891 0 -0.044145410485190079 -0.23242073182379891 0 -0.054546183461555722 -0.22015285450131489 0 -0.061280333386656921 -0.23284462843810469 0 -0.061280333386656921 -0.23284462843810469 0 -0.050191684441297867 -0.2485850187836515 0 -0.071591358857016049 -0.2429226102204386 0 -0.050191684441297867 -0.2485850187836515 0 -0.071591358857016049 -0.2429226102204386 0 -0.056939497423126581 -0.24878681181634871 0 -0.050191684441297867 -0.2485850187836515 0 -0.071591358857016049 -0.2429226102204386 0 -0.044145410485190079 -0.23242073182379891 0 -0.061280333386656921 -0.23284462843810469 0 -0.050191684441297867 -0.2485850187836515 0 -0.041398382443623198 -0.25192549838374201 0 -0.056939497423126581 -0.24878681181634871 0 -0.050191684441297867 -0.2485850187836515 0 -0.044145410485190079 -0.23242073182379891 0 -0.050191684441297867 -0.2485850187836515 0 -0.036167443228362108 -0.24337299090061551 0 -0.02368513365757598 -0.23851275990414511 0 -0.044145410485190079 -0.23242073182379891 0 -0.036167443228362108 -0.24337299090061551 0 -0.025857267464119819 -0.25506418495113531 0 -0.050191684441297867 -0.2485850187836515 0 -0.036167443228362108 -0.24337299090061551 0 -0.097628444613881649 -0.25834262822693399 0 -0.087470553331264578 -0.24262075389877999 0 -0.077955776651182085 -0.24454236002529731 0 -0.087470553331264578 -0.24262075389877999 0 -0.087928467376508473 -0.23859976953689591 0 -0.1005617376665941 -0.23997685579502359 0 -0.087928467376508473 -0.23859976953689591 0 -0.07453604668454375 -0.2421434382925548 0 -0.07383618536286593 -0.22753148747966839 0 -0.087928467376508473 -0.23859976953689591 0 -0.07453604668454375 -0.2421434382925548 0 -0.087928467376508473 -0.23859976953689591 0 -0.077955776651182085 -0.24454236002529731 0 -0.07453604668454375 -0.2421434382925548 0 -0.087470553331264578 -0.24262075389877999 0 -0.087928467376508473 -0.23859976953689591 0 -0.077955776651182085 -0.24454236002529731 0 -0.087470553331264578 -0.24262075389877999 0 -0.077955776651182085 -0.24454236002529731 0 -0.056939497423126581 -0.24878681181634871 0 -0.077955776651182085 -0.24454236002529731 0 -0.071591358857016049 -0.2429226102204386 0 -0.056939497423126581 -0.24878681181634871 0 -0.077955776651182085 -0.24454236002529731 0 -0.077955776651182085 -0.24454236002529731 0 -0.071591358857016049 -0.2429226102204386 0 -0.07453604668454375 -0.2421434382925548 0 -0.077955776651182085 -0.24454236002529731 0 -0.07453604668454375 -0.2421434382925548 0 -0.071591358857016049 -0.2429226102204386 0 -0.07453604668454375 -0.2421434382925548 0 -0.056939497423126581 -0.24878681181634871 0 -0.071591358857016049 -0.2429226102204386 0 -0.061280333386656921 -0.23284462843810469 0 -0.071591358857016049 -0.2429226102204386 0 -0.07453604668454375 -0.2421434382925548 0 -0.061280333386656921 -0.23284462843810469 0 -0.07453604668454375 -0.2421434382925548 0 -0.07383618536286593 -0.22753148747966839 0 -0.089705747521653334 -0.22362271978914661 0 -0.067682806497079445 -0.21107449474949169 0 -0.054546183461555722 -0.22015285450131489 0 -0.061280333386656921 -0.23284462843810469 0 -0.07383618536286593 -0.22753148747966839 0 -0.054546183461555722 -0.22015285450131489 0 -0.07383618536286593 -0.22753148747966839 0 -0.067682806497079445 -0.21107449474949169 0 -0.061280333386656921 -0.23284462843810469 0 -0.07453604668454375 -0.2421434382925548 0 -0.07383618536286593 -0.22753148747966839 0 -0.087928467376508473 -0.23859976953689591 0 -0.07383618536286593 -0.22753148747966839 0 -0.089705747521653334 -0.22362271978914661 0 -0.087928467376508473 -0.23859976953689591 0 -0.089705747521653334 -0.22362271978914661 0 -0.1005617376665941 -0.23997685579502359 0 -0.089705747521653334 -0.22362271978914661 0 -0.067682806497079445 -0.21107449474949169 0 -0.089705747521653334 -0.22362271978914661 0 -0.084027466008495671 -0.20735524824550181 0 -0.09921486728828334 -0.20109800384388701 0 -0.089705747521653334 -0.22362271978914661 0 -0.084027466008495671 -0.20735524824550181 0 -0.067682806497079445 -0.21107449474949169 0 -0.084027466008495671 -0.20735524824550181 0 -0.067682806497079445 -0.21107449474949169 0 -0.079506442726966622 -0.19362577459948219 0 -0.067682806497079445 -0.21107449474949169 0 -0.062708331551170268 -0.19442045911658551 0 -0.079506442726966622 -0.19362577459948219 0 -0.079506442726966622 -0.19362577459948219 0 -0.09921486728828334 -0.20109800384388701 0 -0.089369030920126963 -0.1732707743578942 0 -0.084027466008495671 -0.20735524824550181 0 -0.079506442726966622 -0.19362577459948219 0 -0.09921486728828334 -0.20109800384388701 0 -0.09921486728828334 -0.20109800384388701 0 -0.1156293974943295 -0.1822747327150937 0 -0.1210853022939376 -0.205467400633562 0 -0.1156293974943295 -0.1822747327150937 0 -0.13505851963374399 -0.18906788910329131 0 -0.09921486728828334 -0.20109800384388701 0 -0.1210853022939376 -0.205467400633562 0 -0.1156293974943295 -0.1822747327150937 0 -0.1210853022939376 -0.205467400633562 0 -0.10755849924533691 -0.2178899443088799 0 -0.11989889803527461 -0.22145143588075511 0 -0.1210853022939376 -0.205467400633562 0 -0.11989889803527461 -0.22145143588075511 0 -0.13086176299679239 -0.21746526838305219 0 -0.089705747521653334 -0.22362271978914661 0 -0.09921486728828334 -0.20109800384388701 0 -0.10755849924533691 -0.2178899443088799 0 -0.09921486728828334 -0.20109800384388701 0 -0.1210853022939376 -0.205467400633562 0 -0.10755849924533691 -0.2178899443088799 0 -0.089705747521653334 -0.22362271978914661 0 -0.11172868854622731 -0.23617094482880149 0 -0.1005617376665941 -0.23997685579502359 0 -0.089705747521653334 -0.22362271978914661 0 -0.11172868854622731 -0.23617094482880149 0 -0.089705747521653334 -0.22362271978914661 0 -0.10755849924533691 -0.2178899443088799 0 -0.11172868854622731 -0.23617094482880149 0 -0.11989889803527461 -0.22145143588075511 0 -0.11172868854622731 -0.23617094482880149 0 -0.127825895831608 -0.22987551408160201 0 -0.10755849924533691 -0.2178899443088799 0 -0.11989889803527461 -0.22145143588075511 0 -0.11172868854622731 -0.23617094482880149 0 -0.13218950310710981 -0.25272660122947088 0 -0.1218823470606431 -0.24640061544388489 0 -0.1098930818979398 -0.24798588601512411 0 -0.11172868854622731 -0.23617094482880149 0 -0.13375162957080131 -0.24871916986845621 0 -0.11172868854622731 -0.23617094482880149 0 -0.1218823470606431 -0.24640061544388489 0 -0.13375162957080131 -0.24871916986845621 0 -0.11172868854622731 -0.23617094482880149 0 -0.13375162957080131 -0.24871916986845621 0 -0.127825895831608 -0.22987551408160201 0 -0.11172868854622731 -0.23617094482880149 0 -0.1218823470606431 -0.24640061544388489 0 -0.1098930818979398 -0.24798588601512411 0 -0.097628444613881649 -0.25834262822693399 0 -0.087470553331264578 -0.24262075389877999 0 -0.1098930818979398 -0.24798588601512411 0 -0.087470553331264578 -0.24262075389877999 0 -0.1098930818979398 -0.24798588601512411 0 -0.1005617376665941 -0.23997685579502359 0 -0.087470553331264578 -0.24262075389877999 0 -0.1098930818979398 -0.24798588601512411 0 -0.11172868854622731 -0.23617094482880149 0 -0.1098930818979398 -0.24798588601512411 0 -0.1005617376665941 -0.23997685579502359 0 -0.087470553331264578 -0.24262075389877999 0 -0.1005617376665941 -0.23997685579502359 0 -0.072389231474787458 -0.1492400490994332 0 -0.089369030920126963 -0.1732707743578942 0 -0.096011965921864201 -0.14265464397282879 0 -0.077516787342341589 -0.1242022911324857 0 -0.093262550211769629 -0.1231040070079162 0 -0.096011965921864201 -0.14265464397282879 0 -0.077516787342341589 -0.1242022911324857 0 -0.072389231474787458 -0.1492400490994332 0 -0.096011965921864201 -0.14265464397282879 0 -0.077516787342341589 -0.1242022911324857 0 -0.059238207921678762 -0.13024384051707169 0 -0.072389231474787458 -0.1492400490994332 0 -0.060187329084152079 -0.17209125852752319 0 -0.072389231474787458 -0.1492400490994332 0 -0.089369030920126963 -0.1732707743578942 0 -0.060187329084152079 -0.17209125852752319 0 -0.079506442726966622 -0.19362577459948219 0 -0.089369030920126963 -0.1732707743578942 0 -0.060187329084152079 -0.17209125852752319 0 -0.062708331551170268 -0.19442045911658551 0 -0.079506442726966622 -0.19362577459948219 0 -0.089369030920126963 -0.1732707743578942 0 -0.1107512355661594 -0.16096683979900789 0 -0.096011965921864201 -0.14265464397282879 0 -0.09921486728828334 -0.20109800384388701 0 -0.089369030920126963 -0.1732707743578942 0 -0.1156293974943295 -0.1822747327150937 0 -0.089369030920126963 -0.1732707743578942 0 -0.1156293974943295 -0.1822747327150937 0 -0.1107512355661594 -0.16096683979900789 0 -0.1156293974943295 -0.1822747327150937 0 -0.13204392770037571 -0.1634514615863005 0 -0.1156293974943295 -0.1822747327150937 0 -0.1107512355661594 -0.16096683979900789 0 -0.13204392770037571 -0.1634514615863005 0 -0.1107512355661594 -0.16096683979900789 0 -0.12070185579410091 -0.1431825863629223 0 -0.13204392770037571 -0.1634514615863005 0 -0.1107512355661594 -0.16096683979900789 0 -0.12070185579410091 -0.1431825863629223 0 -0.096011965921864201 -0.14265464397282879 0 -0.1071147179002416 -0.1244919901550422 0 -0.12070185579410091 -0.1431825863629223 0 -0.096011965921864201 -0.14265464397282879 0 -0.093262550211769629 -0.1231040070079162 0 -0.1071147179002416 -0.1244919901550422 0 -0.096011965921864201 -0.14265464397282879 0 -0.1071147179002416 -0.1244919901550422 0 -0.12070185579410091 -0.1431825863629223 0 -0.1306137014228527 -0.1212095633787966 0 -0.12070185579410091 -0.1431825863629223 0 -0.14845845790642179 -0.14462819045750719 0 -0.1306137014228527 -0.1212095633787966 0 -0.14845845790642179 -0.14462819045750719 0 -0.1306137014228527 -0.1212095633787966 0 -0.15036797716661271 -0.14243845987679379 0 -0.14845845790642179 -0.14462819045750719 0 -0.1306137014228527 -0.1212095633787966 0 -0.15406265534163929 -0.1294064941378926 0 -0.15036797716661271 -0.14243845987679379 0 -0.1306137014228527 -0.1212095633787966 0 -0.15406265534163929 -0.1294064941378926 0 -0.15036797716661271 -0.14243845987679379 0 -0.1564494690737798 -0.13971242061594299 0 -0.1543278084257422 -0.1453912472931165 0 -0.14845845790642179 -0.14462819045750719 0 -0.15894149653025619 -0.15184230729274609 0 -0.15519343748037609 -0.14309809199123349 0 -0.15036797716661271 -0.14243845987679379 0 -0.1564494690737798 -0.13971242061594299 0 -0.1543278084257422 -0.1453912472931165 0 -0.15519343748037609 -0.14309809199123349 0 -0.15036797716661271 -0.14243845987679379 0 -0.1543278084257422 -0.1453912472931165 0 -0.15036797716661271 -0.14243845987679379 0 -0.14845845790642179 -0.14462819045750719 0 -0.15036797716661271 -0.14243845987679379 0 -0.14845845790642179 -0.14462819045750719 0 -0.12070185579410091 -0.1431825863629223 0 -0.14845845790642179 -0.14462819045750719 0 -0.13204392770037571 -0.1634514615863005 0 -0.14845845790642179 -0.14462819045750719 0 -0.13204392770037571 -0.1634514615863005 0 -0.13204392770037571 -0.1634514615863005 0 -0.1475860696211248 -0.17640031700015249 0 -0.13505851963374399 -0.18906788910329131 0 -0.1156293974943295 -0.1822747327150937 0 -0.13204392770037571 -0.1634514615863005 0 -0.13505851963374399 -0.18906788910329131 0 -0.1475860696211248 -0.17640031700015249 0 -0.1655722477793394 -0.1670875310098065 0 -0.15496537504316019 -0.19429807729602311 0 -0.1475860696211248 -0.17640031700015249 0 -0.13505851963374399 -0.18906788910329131 0 -0.15496537504316019 -0.19429807729602311 0 -0.1475860696211248 -0.17640031700015249 0 -0.14862352044039201 -0.16347018067920821 0 -0.1655722477793394 -0.1670875310098065 0 -0.14845845790642179 -0.14462819045750719 0 -0.13204392770037571 -0.1634514615863005 0 -0.14862352044039201 -0.16347018067920821 0 -0.14845845790642179 -0.14462819045750719 0 -0.14862352044039201 -0.16347018067920821 0 -0.1655722477793394 -0.1670875310098065 0 -0.13204392770037571 -0.1634514615863005 0 -0.1475860696211248 -0.17640031700015249 0 -0.14862352044039201 -0.16347018067920821 0 -0.1655722477793394 -0.1670875310098065 0 -0.1716614177265566 -0.15146656102038991 0 -0.1655722477793394 -0.1670875310098065 0 -0.15894149653025619 -0.15184230729274609 0 -0.1716614177265566 -0.15146656102038991 0 -0.1655722477793394 -0.1670875310098065 0 -0.17557921295501691 -0.18022020591375351 0 -0.1689483943248192 -0.19264195369377959 0 -0.1655722477793394 -0.1670875310098065 0 -0.15496537504316019 -0.19429807729602311 0 -0.1689483943248192 -0.19264195369377959 0 -0.1655722477793394 -0.1670875310098065 0 -0.15496537504316019 -0.19429807729602311 0 -0.1655722477793394 -0.1670875310098065 0 -0.17557921295501691 -0.18022020591375351 0 -0.17557921295501691 -0.18022020591375351 0 -0.18239484980351819 -0.16464781923938721 0 -0.1907059301477185 -0.18468107337543721 0 -0.1655722477793394 -0.1670875310098065 0 -0.17557921295501691 -0.18022020591375351 0 -0.18239484980351819 -0.16464781923938721 0 -0.1655722477793394 -0.1670875310098065 0 -0.18239484980351819 -0.16464781923938721 0 -0.1716614177265566 -0.15146656102038991 0 -0.18239484980351819 -0.16464781923938721 0 -0.1716614177265566 -0.15146656102038991 0 -0.1894311146879058 -0.1465309504005988 0 -0.17775058767377289 -0.13584559103097291 0 -0.1716614177265566 -0.15146656102038991 0 -0.1894311146879058 -0.1465309504005988 0 -0.17775058767377289 -0.13584559103097291 0 -0.1716614177265566 -0.15146656102038991 0 -0.17775058767377289 -0.13584559103097291 0 -0.1894311146879058 -0.1465309504005988 0 -0.17775058767377289 -0.13584559103097291 0 -0.19823449762692411 -0.13229999761030051 0 -0.18534812722118199 -0.1163550958908785 0 -0.17775058767377289 -0.13584559103097291 0 -0.18534812722118199 -0.1163550958908785 0 -0.15406265534163929 -0.1294064941378926 0 -0.16394560233522651 -0.1386698702264933 0 -0.15606779039194271 -0.1160101434681408 0 -0.17775058767377289 -0.13584559103097291 0 -0.16394560233522651 -0.1386698702264933 0 -0.15606779039194271 -0.1160101434681408 0 -0.17775058767377289 -0.13584559103097291 0 -0.15606779039194271 -0.1160101434681408 0 -0.15406265534163929 -0.1294064941378926 0 -0.16394560233522651 -0.1386698702264933 0 -0.1564494690737798 -0.13971242061594299 0 -0.16394560233522651 -0.1386698702264933 0 -0.1564494690737798 -0.13971242061594299 0 -0.15962849525536979 -0.1448502401790808 0 -0.14845845790642179 -0.14462819045750719 0 -0.1655722477793394 -0.1670875310098065 0 -0.14845845790642179 -0.14462819045750719 0 -0.1655722477793394 -0.1670875310098065 0 -0.15894149653025619 -0.15184230729274609 0 -0.15519343748037609 -0.14309809199123349 0 -0.1564494690737798 -0.13971242061594299 0 -0.15962849525536979 -0.1448502401790808 0 -0.1543278084257422 -0.1453912472931165 0 -0.15519343748037609 -0.14309809199123349 0 -0.15962849525536979 -0.1448502401790808 0 -0.1543278084257422 -0.1453912472931165 0 -0.15962849525536979 -0.1448502401790808 0 -0.15894149653025619 -0.15184230729274609 0 -0.15962849525536979 -0.1448502401790808 0 -0.15894149653025619 -0.15184230729274609 0 -0.1716614177265566 -0.15146656102038991 0 -0.17775058767377289 -0.13584559103097291 0 -0.16394560233522651 -0.1386698702264933 0 -0.1716614177265566 -0.15146656102038991 0 -0.16394560233522651 -0.1386698702264933 0 -0.15962849525536979 -0.1448502401790808 0 -0.1716614177265566 -0.15146656102038991 0 -0.1534429259631987 -0.25724555178864622 0 -0.15289321433053751 -0.246830478479277 0 -0.1378886282313006 -0.2381062402767252 0 -0.1534429259631987 -0.25724555178864622 0 -0.1378886282313006 -0.2381062402767252 0 -0.15348527020851541 -0.23913552791147211 0 -0.1378886282313006 -0.2381062402767252 0 -0.15430752157141919 -0.22794821467022949 0 -0.15289321433053751 -0.246830478479277 0 -0.15348527020851541 -0.23913552791147211 0 -0.1601832428566283 -0.24550858739866141 0 -0.15289321433053751 -0.246830478479277 0 -0.15348527020851541 -0.23913552791147211 0 -0.1378886282313006 -0.2381062402767252 0 -0.1459019403517107 -0.25564217047089421 0 -0.13375162957080131 -0.24871916986845621 0 -0.1378886282313006 -0.2381062402767252 0 -0.13375162957080131 -0.24871916986845621 0 -0.1378886282313006 -0.2381062402767252 0 -0.127825895831608 -0.22987551408160201 0 -0.13375162957080131 -0.24871916986845621 0 -0.1378886282313006 -0.2381062402767252 0 -0.13218950310710981 -0.25272660122947088 0 -0.1218823470606431 -0.24640061544388489 0 -0.13375162957080131 -0.24871916986845621 0 -0.127825895831608 -0.22987551408160201 0 -0.14435850230698141 -0.22150862358223991 0 -0.13086176299679239 -0.21746526838305219 0 -0.1378886282313006 -0.2381062402767252 0 -0.127825895831608 -0.22987551408160201 0 -0.14435850230698141 -0.22150862358223991 0 -0.11989889803527461 -0.22145143588075511 0 -0.127825895831608 -0.22987551408160201 0 -0.13086176299679239 -0.21746526838305219 0 -0.1378886282313006 -0.2381062402767252 0 -0.14435850230698141 -0.22150862358223991 0 -0.14435850230698141 -0.22150862358223991 0 -0.15430752157141919 -0.22794821467022949 0 -0.16410544360365359 -0.21493654602220469 0 -0.1378886282313006 -0.2381062402767252 0 -0.14435850230698141 -0.22150862358223991 0 -0.15430752157141919 -0.22794821467022949 0 -0.14435850230698141 -0.22150862358223991 0 -0.15496537504316019 -0.19429807729602311 0 -0.14435850230698141 -0.22150862358223991 0 -0.1373527607074172 -0.20563907323320921 0 -0.15496537504316019 -0.19429807729602311 0 -0.14435850230698141 -0.22150862358223991 0 -0.15496537504316019 -0.19429807729602311 0 -0.16410544360365359 -0.21493654602220469 0 -0.14435850230698141 -0.22150862358223991 0 -0.1373527607074172 -0.20563907323320921 0 -0.13086176299679239 -0.21746526838305219 0 -0.1210853022939376 -0.205467400633562 0 -0.1373527607074172 -0.20563907323320921 0 -0.13086176299679239 -0.21746526838305219 0 -0.1210853022939376 -0.205467400633562 0 -0.1373527607074172 -0.20563907323320921 0 -0.13505851963374399 -0.18906788910329131 0 -0.1373527607074172 -0.20563907323320921 0 -0.13505851963374399 -0.18906788910329131 0 -0.15496537504316019 -0.19429807729602311 0 -0.1689483943248192 -0.19264195369377959 0 -0.17994482166635981 -0.2014366202218163 0 -0.16410544360365359 -0.21493654602220469 0 -0.15496537504316019 -0.19429807729602311 0 -0.1689483943248192 -0.19264195369377959 0 -0.16410544360365359 -0.21493654602220469 0 -0.17557921295501691 -0.18022020591375351 0 -0.1689483943248192 -0.19264195369377959 0 -0.17994482166635981 -0.2014366202218163 0 -0.17557921295501691 -0.18022020591375351 0 -0.17994482166635981 -0.2014366202218163 0 -0.1907059301477185 -0.18468107337543721 0 -0.17994482166635981 -0.2014366202218163 0 -0.1784102433228649 -0.21681777692650089 0 -0.16410544360365359 -0.21493654602220469 0 -0.17994482166635981 -0.2014366202218163 0 -0.18904495760185211 -0.20873870471059999 0 -0.19252771524915421 -0.19930647688205899 0 -0.17994482166635981 -0.2014366202218163 0 -0.1784102433228649 -0.21681777692650089 0 -0.18904495760185211 -0.20873870471059999 0 -0.1784102433228649 -0.21681777692650089 0 -0.19175951728552271 -0.21959172261586679 0 -0.18904495760185211 -0.20873870471059999 0 -0.15430752157141919 -0.22794821467022949 0 -0.16410544360365359 -0.21493654602220469 0 -0.16877954452522659 -0.2255120540677526 0 -0.15430752157141919 -0.22794821467022949 0 -0.16877954452522659 -0.2255120540677526 0 -0.16324537569009509 -0.2357306359809743 0 -0.15348527020851541 -0.23913552791147211 0 -0.15430752157141919 -0.22794821467022949 0 -0.16324537569009509 -0.2357306359809743 0 -0.16877954452522659 -0.2255120540677526 0 -0.17781387366555559 -0.23090770197000129 0 -0.16324537569009509 -0.2357306359809743 0 -0.1784102433228649 -0.21681777692650089 0 -0.16410544360365359 -0.21493654602220469 0 -0.16877954452522659 -0.2255120540677526 0 -0.1784102433228649 -0.21681777692650089 0 -0.16877954452522659 -0.2255120540677526 0 -0.17781387366555559 -0.23090770197000129 0 -0.1784102433228649 -0.21681777692650089 0 -0.17781387366555559 -0.23090770197000129 0 -0.19175951728552271 -0.21959172261586679 0 -0.17781387366555559 -0.23090770197000129 0 -0.1805311654956796 -0.2411950136452527 0 -0.19410287643929239 -0.23312434657521411 0 -0.17781387366555559 -0.23090770197000129 0 -0.1805311654956796 -0.2411950136452527 0 -0.16955513552828311 -0.24305067226283769 0 -0.17679077873490559 -0.25046109420941731 0 -0.1805311654956796 -0.2411950136452527 0 -0.18863044441395099 -0.24733650333174401 0 -0.17679077873490559 -0.25046109420941731 0 -0.1805311654956796 -0.2411950136452527 0 -0.16955513552828311 -0.24305067226283769 0 -0.16709258238786229 -0.25188408856254202 0 -0.17679077873490559 -0.25046109420941731 0 -0.16955513552828311 -0.24305067226283769 0 -0.16709258238786229 -0.25188408856254202 0 -0.16955513552828311 -0.24305067226283769 0 -0.1601832428566283 -0.24550858739866141 0 -0.17781387366555559 -0.23090770197000129 0 -0.16955513552828311 -0.24305067226283769 0 -0.16324537569009509 -0.2357306359809743 0 -0.16955513552828311 -0.24305067226283769 0 -0.16324537569009509 -0.2357306359809743 0 -0.1601832428566283 -0.24550858739866141 0 -0.15348527020851541 -0.23913552791147211 0 -0.16324537569009509 -0.2357306359809743 0 -0.1601832428566283 -0.24550858739866141 0 -0.1593809120407062 -0.25278805690175971 0 -0.15289321433053751 -0.246830478479277 0 -0.1601832428566283 -0.24550858739866141 0 -0.20565562739327201 -0.24334207984173631 0 -0.19410287643929239 -0.23312434657521411 0 -0.21201774175915139 -0.2290986139018284 0 -0.21472073189145299 -0.25725591714607071 0 -0.20565562739327201 -0.24334207984173631 0 -0.22837296648480071 -0.23789375384220129 0 -0.20565562739327201 -0.24334207984173631 0 -0.21201774175915139 -0.2290986139018284 0 -0.22837296648480071 -0.23789375384220129 0 -0.20565562739327201 -0.24334207984173631 0 -0.18863044441395099 -0.24733650333174401 0 -0.19410287643929239 -0.23312434657521411 0 -0.1805311654956796 -0.2411950136452527 0 -0.18863044441395099 -0.24733650333174401 0 -0.19410287643929239 -0.23312434657521411 0 -0.17781387366555559 -0.23090770197000129 0 -0.19410287643929239 -0.23312434657521411 0 -0.19175951728552271 -0.21959172261586679 0 -0.19410287643929239 -0.23312434657521411 0 -0.19175951728552271 -0.21959172261586679 0 -0.20443040571370949 -0.21985141578154491 0 -0.21201774175915139 -0.2290986139018284 0 -0.20443040571370949 -0.21985141578154491 0 -0.22630383013383959 -0.21240708539258099 0 -0.19410287643929239 -0.23312434657521411 0 -0.21201774175915139 -0.2290986139018284 0 -0.20443040571370949 -0.21985141578154491 0 -0.20157622681128409 -0.2075672839719423 0 -0.21557055542943429 -0.1904257004922347 0 -0.22630383013383959 -0.21240708539258099 0 -0.20157622681128409 -0.2075672839719423 0 -0.22630383013383959 -0.21240708539258099 0 -0.20443040571370949 -0.21985141578154491 0 -0.20157622681128409 -0.2075672839719423 0 -0.22630383013383959 -0.21240708539258099 0 -0.19175951728552271 -0.21959172261586679 0 -0.20443040571370949 -0.21985141578154491 0 -0.20157622681128409 -0.2075672839719423 0 -0.19175951728552271 -0.21959172261586679 0 -0.20157622681128409 -0.2075672839719423 0 -0.19175951728552271 -0.21959172261586679 0 -0.18904495760185211 -0.20873870471059999 0 -0.20157622681128409 -0.2075672839719423 0 -0.18904495760185211 -0.20873870471059999 0 -0.20157622681128409 -0.2075672839719423 0 -0.19252771524915421 -0.19930647688205899 0 -0.17994482166635981 -0.2014366202218163 0 -0.19252771524915421 -0.19930647688205899 0 -0.1907059301477185 -0.18468107337543721 0 -0.20157622681128409 -0.2075672839719423 0 -0.19252771524915421 -0.19930647688205899 0 -0.20187756758401409 -0.19506767240709361 0 -0.19252771524915421 -0.19930647688205899 0 -0.20187756758401409 -0.19506767240709361 0 -0.1907059301477185 -0.18468107337543721 0 -0.20157622681128409 -0.2075672839719423 0 -0.21557055542943429 -0.1904257004922347 0 -0.20187756758401409 -0.19506767240709361 0 -0.21557055542943429 -0.1904257004922347 0 -0.2038146335316797 -0.1820121315948606 0 -0.20157622681128409 -0.2075672839719423 0 -0.20187756758401409 -0.19506767240709361 0 -0.21557055542943429 -0.1904257004922347 0 -0.21557055542943429 -0.1904257004922347 0 -0.23533053747689989 -0.1962925907305976 0 -0.22630383013383959 -0.21240708539258099 0 -0.23533053747689989 -0.1962925907305976 0 -0.25103143345639523 -0.21724688681321891 0 -0.25418198431724581 -0.18809916394242601 0 -0.22630383013383959 -0.21240708539258099 0 -0.25103143345639523 -0.21724688681321891 0 -0.23533053747689989 -0.1962925907305976 0 -0.22630383013383959 -0.21240708539258099 0 -0.25103143345639523 -0.21724688681321891 0 -0.21201774175915139 -0.2290986139018284 0 -0.22630383013383959 -0.21240708539258099 0 -0.22837296648480071 -0.23789375384220129 0 -0.22630383013383959 -0.21240708539258099 0 -0.22837296648480071 -0.23789375384220129 0 -0.25103143345639523 -0.21724688681321891 0 -0.22837296648480071 -0.23789375384220129 0 -0.25431856302814809 -0.24833495949118861 0 -0.25103143345639523 -0.21724688681321891 0 -0.2335542019388327 -0.26090262277066528 0 -0.22837296648480071 -0.23789375384220129 0 -0.25431856302814809 -0.24833495949118861 0 -0.20708483324238849 -0.15128624944667929 0 -0.22647357207813959 -0.15205360930679629 0 -0.2195633859389316 -0.1340578990397249 0 -0.20708483324238849 -0.15128624944667929 0 -0.19823449762692411 -0.13229999761030051 0 -0.2195633859389316 -0.1340578990397249 0 -0.19823449762692411 -0.13229999761030051 0 -0.2195633859389316 -0.1340578990397249 0 -0.21022893699736381 -0.1097241998529486 0 -0.17775058767377289 -0.13584559103097291 0 -0.19823449762692411 -0.13229999761030051 0 -0.1894311146879058 -0.1465309504005988 0 -0.20708483324238849 -0.15128624944667929 0 -0.1894311146879058 -0.1465309504005988 0 -0.19351686899232889 -0.15854259719770419 0 -0.20708483324238849 -0.15128624944667929 0 -0.19823449762692411 -0.13229999761030051 0 -0.1894311146879058 -0.1465309504005988 0 -0.20708483324238849 -0.15128624944667929 0 -0.19351686899232889 -0.15854259719770419 0 -0.19880271024428661 -0.17007658736909009 0 -0.18239484980351819 -0.16464781923938721 0 -0.1894311146879058 -0.1465309504005988 0 -0.19351686899232889 -0.15854259719770419 0 -0.18239484980351819 -0.16464781923938721 0 -0.19351686899232889 -0.15854259719770419 0 -0.19880271024428661 -0.17007658736909009 0 -0.18239484980351819 -0.16464781923938721 0 -0.19880271024428661 -0.17007658736909009 0 -0.1907059301477185 -0.18468107337543721 0 -0.19880271024428661 -0.17007658736909009 0 -0.1907059301477185 -0.18468107337543721 0 -0.2038146335316797 -0.1820121315948606 0 -0.20187756758401409 -0.19506767240709361 0 -0.1907059301477185 -0.18468107337543721 0 -0.2038146335316797 -0.1820121315948606 0 -0.21557055542943429 -0.1904257004922347 0 -0.2038146335316797 -0.1820121315948606 0 -0.21355186476225221 -0.16985639920369799 0 -0.19880271024428661 -0.17007658736909009 0 -0.2038146335316797 -0.1820121315948606 0 -0.21355186476225221 -0.16985639920369799 0 -0.20708483324238849 -0.15128624944667929 0 -0.21355186476225221 -0.16985639920369799 0 -0.22647357207813959 -0.15205360930679629 0 -0.20708483324238849 -0.15128624944667929 0 -0.19880271024428661 -0.17007658736909009 0 -0.21355186476225221 -0.16985639920369799 0 -0.22956488404758479 -0.1732841170125273 0 -0.2435592126657353 -0.1561425335328199 0 -0.22647357207813959 -0.15205360930679629 0 -0.21355186476225221 -0.16985639920369799 0 -0.22956488404758479 -0.1732841170125273 0 -0.22647357207813959 -0.15205360930679629 0 -0.21557055542943429 -0.1904257004922347 0 -0.21355186476225221 -0.16985639920369799 0 -0.22956488404758479 -0.1732841170125273 0 -0.21557055542943429 -0.1904257004922347 0 -0.22956488404758479 -0.1732841170125273 0 -0.21557055542943429 -0.1904257004922347 0 -0.23533053747689989 -0.1962925907305976 0 -0.22956488404758479 -0.1732841170125273 0 -0.23533053747689989 -0.1962925907305976 0 -0.22956488404758479 -0.1732841170125273 0 -0.25418198431724581 -0.18809916394242601 0 -0.22956488404758479 -0.1732841170125273 0 -0.25418198431724581 -0.18809916394242601 0 -0.2565438833259911 -0.1687602707777138 0 -0.22956488404758479 -0.1732841170125273 0 -0.2435592126657353 -0.1561425335328199 0 -0.22956488404758479 -0.1732841170125273 0 -0.2435592126657353 -0.1561425335328199 0 -0.2565438833259911 -0.1687602707777138 0 -0.2435592126657353 -0.1561425335328199 0 -0.22647357207813959 -0.15205360930679629 0 -0.2432602079730701 -0.13485583854350039 0 -0.22647357207813959 -0.15205360930679629 0 -0.2195633859389316 -0.1340578990397249 0 -0.2432602079730701 -0.13485583854350039 0 -0.2195633859389316 -0.1340578990397249 0 -0.2432602079730701 -0.13485583854350039 0 -0.23065476516460279 -0.11957242830579699 0 -0.2432602079730701 -0.13485583854350039 0 -0.2499653418643101 -0.1102460646797562 0 -0.23065476516460279 -0.11957242830579699 0 -0.2499653418643101 -0.1102460646797562 0 -0.2308399038819596 -0.1034577205422559 0 -0.23065476516460279 -0.11957242830579699 0 -0.2308399038819596 -0.1034577205422559 0 -0.25308440776240432 -0.086371671251396109 0 -0.2499653418643101 -0.1102460646797562 0 -0.2308399038819596 -0.1034577205422559 0 -0.25308440776240432 -0.086371671251396109 0 -0.2308399038819596 -0.1034577205422559 0 -0.21022893699736381 -0.1097241998529486 0 -0.21520721362926831 -0.098298511723915558 0 -0.2308399038819596 -0.1034577205422559 0 -0.22013457808717909 -0.089221868029860679 0 -0.21520721362926831 -0.098298511723915558 0 -0.2308399038819596 -0.1034577205422559 0 -0.23065476516460279 -0.11957242830579699 0 -0.21022893699736381 -0.1097241998529486 0 -0.2195633859389316 -0.1340578990397249 0 -0.23065476516460279 -0.11957242830579699 0 -0.21022893699736381 -0.1097241998529486 0 -0.2335598957907816 -0.079883889973887123 0 -0.24475965461883589 -0.059498385283178377 0 -0.2582325144520296 -0.070050845257802419 0 -0.2335598957907816 -0.079883889973887123 0 -0.2582325144520296 -0.070050845257802419 0 -0.25308440776240432 -0.086371671251396109 0 -0.2308399038819596 -0.1034577205422559 0 -0.2335598957907816 -0.079883889973887123 0 -0.25308440776240432 -0.086371671251396109 0 -0.2308399038819596 -0.1034577205422559 0 -0.22013457808717909 -0.089221868029860679 0 -0.2335598957907816 -0.079883889973887123 0 -0.22013457808717909 -0.089221868029860679 0 -0.2335598957907816 -0.079883889973887123 0 -0.21963876375789801 -0.077814354495200549 0 -0.2335598957907816 -0.079883889973887123 0 -0.21595644614104051 -0.065738508165203102 0 -0.24475965461883589 -0.059498385283178377 0 -0.21595644614104051 -0.065738508165203102 0 -0.24475965461883589 -0.059498385283178377 0 -0.2335598957907816 -0.079883889973887123 0 -0.21963876375789801 -0.077814354495200549 0 -0.21595644614104051 -0.065738508165203102 0 -0.20438945881064449 -0.068244458930106389 0 -0.21100771399754009 -0.086966924160961745 0 -0.21595644614104051 -0.065738508165203102 0 -0.21100771399754009 -0.086966924160961745 0 -0.20438945881064449 -0.068244458930106389 0 -0.21595644614104051 -0.065738508165203102 0 -0.21100771399754009 -0.086966924160961745 0 -0.21963876375789801 -0.077814354495200549 0 -0.21595644614104051 -0.065738508165203102 0 -0.21100771399754009 -0.086966924160961745 0 -0.20438945881064449 -0.068244458930106389 0 -0.21595644614104051 -0.065738508165203102 0 -0.20438945881064449 -0.068244458930106389 0 -0.21595644614104051 -0.065738508165203102 0 -0.20711132549122371 -0.057203435059411119 0 -0.20438945881064449 -0.068244458930106389 0 -0.21100771399754009 -0.086966924160961745 0 -0.19851231957361129 -0.085310821531315487 0 -0.22013457808717909 -0.089221868029860679 0 -0.21963876375789801 -0.077814354495200549 0 -0.21100771399754009 -0.086966924160961745 0 -0.22013457808717909 -0.089221868029860679 0 -0.21100771399754009 -0.086966924160961745 0 -0.21520721362926831 -0.098298511723915558 0 -0.21100771399754009 -0.086966924160961745 0 -0.19851231957361129 -0.085310821531315487 0 -0.20550431009004061 -0.095676697317907802 0 -0.21100771399754009 -0.086966924160961745 0 -0.21520721362926831 -0.098298511723915558 0 -0.20550431009004061 -0.095676697317907802 0 -0.19851231957361129 -0.085310821531315487 0 -0.18118326058104209 -0.08825419183970401 0 -0.18409944718507371 -0.07264022497537044 0 -0.19851231957361129 -0.085310821531315487 0 -0.19294566676858971 -0.096864600750783431 0 -0.18118326058104209 -0.08825419183970401 0 -0.19851231957361129 -0.085310821531315487 0 -0.20550431009004061 -0.095676697317907802 0 -0.19294566676858971 -0.096864600750783431 0 -0.20438945881064449 -0.068244458930106389 0 -0.19851231957361129 -0.085310821531315487 0 -0.18409944718507371 -0.07264022497537044 0 -0.20438945881064449 -0.068244458930106389 0 -0.18409944718507371 -0.07264022497537044 0 -0.18769526278089041 -0.057829612445021099 0 -0.20438945881064449 -0.068244458930106389 0 -0.18409944718507371 -0.07264022497537044 0 -0.21022893699736381 -0.1097241998529486 0 -0.21520721362926831 -0.098298511723915558 0 -0.20550431009004061 -0.095676697317907802 0 -0.21022893699736381 -0.1097241998529486 0 -0.20550431009004061 -0.095676697317907802 0 -0.19294566676858971 -0.096864600750783431 0 -0.19294566676858971 -0.096864600750783431 0 -0.18534812722118199 -0.1163550958908785 0 -0.21022893699736381 -0.1097241998529486 0 -0.19294566676858971 -0.096864600750783431 0 -0.18534812722118199 -0.1163550958908785 0 -0.19823449762692411 -0.13229999761030051 0 -0.21022893699736381 -0.1097241998529486 0 -0.18534812722118199 -0.1163550958908785 0 -0.18534812722118199 -0.1163550958908785 0 -0.17423934197139679 -0.1017815859784342 0 -0.15606779039194271 -0.1160101434681408 0 -0.17775058767377289 -0.13584559103097291 0 -0.18534812722118199 -0.1163550958908785 0 -0.15606779039194271 -0.1160101434681408 0 -0.16057304666404501 -0.10079887419961479 0 -0.17423934197139679 -0.1017815859784342 0 -0.15606779039194271 -0.1160101434681408 0 -0.16057304666404501 -0.10079887419961479 0 -0.16746185343044401 -0.091445336260546128 0 -0.1570966781871318 -0.090327755750333361 0 -0.16057304666404501 -0.10079887419961479 0 -0.17423934197139679 -0.1017815859784342 0 -0.16746185343044401 -0.091445336260546128 0 -0.17423934197139679 -0.1017815859784342 0 -0.18118326058104209 -0.08825419183970401 0 -0.16746185343044401 -0.091445336260546128 0 -0.19294566676858971 -0.096864600750783431 0 -0.18534812722118199 -0.1163550958908785 0 -0.17423934197139679 -0.1017815859784342 0 -0.19294566676858971 -0.096864600750783431 0 -0.17423934197139679 -0.1017815859784342 0 -0.18118326058104209 -0.08825419183970401 0 -0.18118326058104209 -0.08825419183970401 0 -0.18409944718507371 -0.07264022497537044 0 -0.16915717098214109 -0.081397787743409861 0 -0.18118326058104209 -0.08825419183970401 0 -0.16746185343044401 -0.091445336260546128 0 -0.16915717098214109 -0.081397787743409861 0 -0.18409944718507371 -0.07264022497537044 0 -0.1702117591297739 -0.06777753321031553 0 -0.16380943555950259 -0.077035991020633382 0 -0.18409944718507371 -0.07264022497537044 0 -0.16380943555950259 -0.077035991020633382 0 -0.16915717098214109 -0.081397787743409861 0 -0.18409944718507371 -0.07264022497537044 0 -0.17187825396406881 -0.057945450019426657 0 -0.18769526278089041 -0.057829612445021099 0 -0.18409944718507371 -0.07264022497537044 0 -0.16380943555950259 -0.077035991020633382 0 -0.18409944718507371 -0.07264022497537044 0 -0.1702117591297739 -0.06777753321031553 0 -0.17187825396406881 -0.057945450019426657 0 -0.16380943555950259 -0.077035991020633382 0 -0.16105989981045041 -0.063488466825831633 0 -0.14595160177326619 -0.062470528310013429 0 -0.1702117591297739 -0.06777753321031553 0 -0.16105989981045041 -0.063488466825831633 0 -0.17187825396406881 -0.057945450019426657 0 -0.1702117591297739 -0.06777753321031553 0 -0.16380943555950259 -0.077035991020633382 0 -0.16105989981045041 -0.063488466825831633 0 -0.16380943555950259 -0.077035991020633382 0 -0.16109871639751261 -0.084134952385501949 0 -0.14796844382834351 -0.080467891152587012 0 -0.16746185343044401 -0.091445336260546128 0 -0.16915717098214109 -0.081397787743409861 0 -0.16109871639751261 -0.084134952385501949 0 -0.16380943555950259 -0.077035991020633382 0 -0.16915717098214109 -0.081397787743409861 0 -0.16109871639751261 -0.084134952385501949 0 -0.16380943555950259 -0.077035991020633382 0 -0.16915717098214109 -0.081397787743409861 0 -0.16746185343044401 -0.091445336260546128 0 -0.16109871639751261 -0.084134952385501949 0 -0.1570966781871318 -0.090327755750333361 0 -0.16380943555950259 -0.077035991020633382 0 -0.14796844382834351 -0.080467891152587012 0 -0.14796844382834351 -0.080467891152587012 0 -0.13497135686491851 -0.078315161523928284 0 -0.1484932433812913 -0.094043062253026791 0 -0.1570966781871318 -0.090327755750333361 0 -0.14796844382834351 -0.080467891152587012 0 -0.1484932433812913 -0.094043062253026791 0 -0.16109871639751261 -0.084134952385501949 0 -0.1570966781871318 -0.090327755750333361 0 -0.14796844382834351 -0.080467891152587012 0 -0.16380943555950259 -0.077035991020633382 0 -0.14796844382834351 -0.080467891152587012 0 -0.14595160177326619 -0.062470528310013429 0 -0.16380943555950259 -0.077035991020633382 0 -0.14595160177326619 -0.062470528310013429 0 -0.14796844382834351 -0.080467891152587012 0 -0.13497135686491851 -0.078315161523928284 0 -0.14595160177326619 -0.062470528310013429 0 -0.1158705629695205 -0.060236298698018297 0 -0.13497135686491851 -0.078315161523928284 0 -0.1158705629695205 -0.060236298698018297 0 -0.13497135686491851 -0.078315161523928284 0 -0.13122182239868371 -0.062231763532838429 0 -0.13497135686491851 -0.078315161523928284 0 -0.13122182239868371 -0.062231763532838429 0 -0.14595160177326619 -0.062470528310013429 0 -0.112702195828283 -0.076339248342475546 0 -0.13497135686491851 -0.078315161523928284 0 -0.13438499311011279 -0.096174695905308166 0 -0.13497135686491851 -0.078315161523928284 0 -0.13438499311011279 -0.096174695905308166 0 -0.1484932433812913 -0.094043062253026791 0 -0.11276894493928399 -0.097790936300085646 0 -0.13438499311011279 -0.096174695905308166 0 -0.1306137014228527 -0.1212095633787966 0 -0.13438499311011279 -0.096174695905308166 0 -0.1306137014228527 -0.1212095633787966 0 -0.15606779039194271 -0.1160101434681408 0 -0.15406265534163929 -0.1294064941378926 0 -0.1306137014228527 -0.1212095633787966 0 -0.15606779039194271 -0.1160101434681408 0 -0.13438499311011279 -0.096174695905308166 0 -0.15606779039194271 -0.1160101434681408 0 -0.1484932433812913 -0.094043062253026791 0 -0.16057304666404501 -0.10079887419961479 0 -0.15606779039194271 -0.1160101434681408 0 -0.1484932433812913 -0.094043062253026791 0 -0.13438499311011279 -0.096174695905308166 0 -0.15606779039194271 -0.1160101434681408 0 -0.16057304666404501 -0.10079887419961479 0 -0.1570966781871318 -0.090327755750333361 0 -0.1484932433812913 -0.094043062253026791 0 -0.14513665439653431 -0.02122229521611602 0 -0.15148395360685291 -0.031475856168514699 0 -0.16129500549156001 -0.024264335985147129 0 -0.14513665439653431 -0.02122229521611602 0 -0.1346415055917565 -0.031432898451717602 0 -0.15148395360685291 -0.031475856168514699 0 -0.14513665439653431 -0.02122229521611602 0 -0.15327979458335059 -0.01391829646419882 0 -0.16129500549156001 -0.024264335985147129 0 -0.1412848112475209 -0.008091449167619497 0 -0.15773416148281841 -0.0035868741371463562 0 -0.14801408494475049 0.0031182785745780331 0 -0.15327979458335059 -0.01391829646419882 0 -0.1412848112475209 -0.008091449167619497 0 -0.15773416148281841 -0.0035868741371463562 0 -0.14513665439653431 -0.02122229521611602 0 -0.15327979458335059 -0.01391829646419882 0 -0.1412848112475209 -0.008091449167619497 0 -0.1236693299605585 -0.0137973575501921 0 -0.1412848112475209 -0.008091449167619497 0 -0.12735709500343681 0.004015926865657337 0 -0.1412848112475209 -0.008091449167619497 0 -0.12735709500343681 0.004015926865657337 0 -0.14801408494475049 0.0031182785745780331 0 -0.1236693299605585 -0.0137973575501921 0 -0.1412848112475209 -0.008091449167619497 0 -0.13426109495296229 -0.02049569832685658 0 -0.1236693299605585 -0.0137973575501921 0 -0.1221370268088495 -0.025998648103035 0 -0.13426109495296229 -0.02049569832685658 0 -0.14513665439653431 -0.02122229521611602 0 -0.1412848112475209 -0.008091449167619497 0 -0.13426109495296229 -0.02049569832685658 0 -0.14513665439653431 -0.02122229521611602 0 -0.13426109495296229 -0.02049569832685658 0 -0.1346415055917565 -0.031432898451717602 0 -0.1221370268088495 -0.025998648103035 0 -0.12530131535501859 -0.034952786400489197 0 -0.1346415055917565 -0.031432898451717602 0 -0.1221370268088495 -0.025998648103035 0 -0.13426109495296229 -0.02049569832685658 0 -0.1346415055917565 -0.031432898451717602 0 -0.12530131535501859 -0.034952786400489197 0 -0.1346415055917565 -0.031432898451717602 0 -0.12809376798702951 -0.047905065599393698 0 -0.1346415055917565 -0.031432898451717602 0 -0.12809376798702951 -0.047905065599393698 0 -0.14629371500633531 -0.042796653234188263 0 -0.12809376798702951 -0.047905065599393698 0 -0.14595160177326619 -0.062470528310013429 0 -0.12809376798702951 -0.047905065599393698 0 -0.14595160177326619 -0.062470528310013429 0 -0.14629371500633531 -0.042796653234188263 0 -0.13122182239868371 -0.062231763532838429 0 -0.12809376798702951 -0.047905065599393698 0 -0.14595160177326619 -0.062470528310013429 0 -0.1158705629695205 -0.060236298698018297 0 -0.13122182239868371 -0.062231763532838429 0 -0.12809376798702951 -0.047905065599393698 0 -0.14595160177326619 -0.062470528310013429 0 -0.14629371500633531 -0.042796653234188263 0 -0.15696853651444401 -0.052603520026387289 0 -0.16105989981045041 -0.063488466825831633 0 -0.14595160177326619 -0.062470528310013429 0 -0.15696853651444401 -0.052603520026387289 0 -0.15148395360685291 -0.031475856168514699 0 -0.14629371500633531 -0.042796653234188263 0 -0.16402488563849801 -0.041062174760887443 0 -0.1346415055917565 -0.031432898451717602 0 -0.15148395360685291 -0.031475856168514699 0 -0.14629371500633531 -0.042796653234188263 0 -0.14629371500633531 -0.042796653234188263 0 -0.16402488563849801 -0.041062174760887443 0 -0.15696853651444401 -0.052603520026387289 0 -0.15148395360685291 -0.031475856168514699 0 -0.16402488563849801 -0.041062174760887443 0 -0.16129500549156001 -0.024264335985147129 0 -0.16402488563849801 -0.041062174760887443 0 -0.17409393016306191 -0.030370879776367592 0 -0.16129500549156001 -0.024264335985147129 0 -0.16402488563849801 -0.041062174760887443 0 -0.15696853651444401 -0.052603520026387289 0 -0.17187825396406881 -0.057945450019426657 0 -0.16105989981045041 -0.063488466825831633 0 -0.15696853651444401 -0.052603520026387289 0 -0.17187825396406881 -0.057945450019426657 0 -0.16402488563849801 -0.041062174760887443 0 -0.17187825396406881 -0.057945450019426657 0 -0.18133558272394029 -0.043618149437272283 0 -0.17187825396406881 -0.057945450019426657 0 -0.18133558272394029 -0.043618149437272283 0 -0.18769526278089041 -0.057829612445021099 0 -0.18133558272394029 -0.043618149437272283 0 -0.17409393016306191 -0.030370879776367592 0 -0.18915768363079971 -0.025155098795753519 0 -0.16402488563849801 -0.041062174760887443 0 -0.18133558272394029 -0.043618149437272283 0 -0.17409393016306191 -0.030370879776367592 0 -0.17409393016306191 -0.030370879776367592 0 -0.17549551533112251 -0.014893414490097231 0 -0.18915768363079971 -0.025155098795753519 0 -0.16129500549156001 -0.024264335985147129 0 -0.16350931143073591 -0.01273440345064396 0 -0.17549551533112251 -0.014893414490097231 0 -0.17409393016306191 -0.030370879776367592 0 -0.16129500549156001 -0.024264335985147129 0 -0.17549551533112251 -0.014893414490097231 0 -0.15327979458335059 -0.01391829646419882 0 -0.16129500549156001 -0.024264335985147129 0 -0.16350931143073591 -0.01273440345064396 0 -0.15773416148281841 -0.0035868741371463562 0 -0.16716832075785379 -0.0032078365625175 0 -0.1619193683370386 0.0066468078375689294 0 -0.15773416148281841 -0.0035868741371463562 0 -0.16350931143073591 -0.01273440345064396 0 -0.16716832075785379 -0.0032078365625175 0 -0.15327979458335059 -0.01391829646419882 0 -0.15773416148281841 -0.0035868741371463562 0 -0.16350931143073591 -0.01273440345064396 0 -0.16350931143073591 -0.01273440345064396 0 -0.16716832075785379 -0.0032078365625175 0 -0.17549551533112251 -0.014893414490097231 0 -0.17549551533112251 -0.014893414490097231 0 -0.18154179604087481 -0.0036104187285780349 0 -0.18915768363079971 -0.025155098795753519 0 -0.18154179604087481 -0.0036104187285780349 0 -0.18915768363079971 -0.025155098795753519 0 -0.17549551533112251 -0.014893414490097231 0 -0.17584419881677341 0.0071523107965592754 0 -0.17549551533112251 -0.014893414490097231 0 -0.18154179604087481 -0.0036104187285780349 0 -0.17584419881677341 0.0071523107965592754 0 -0.16716832075785379 -0.0032078365625175 0 -0.17549551533112251 -0.014893414490097231 0 -0.17584419881677341 0.0071523107965592754 0 -0.18154179604087481 -0.0036104187285780349 0 -0.19066530249761049 -0.0041303576494283751 0 -0.18915768363079971 -0.025155098795753519 0 -0.18154179604087481 -0.0036104187285780349 0 -0.19066530249761049 -0.0041303576494283751 0 -0.18717715497560061 0.0062623078557712403 0 -0.19066530249761049 -0.0041303576494283751 0 -0.1989264366345522 -0.0080023544535597537 0 -0.18915768363079971 -0.025155098795753519 0 -0.19066530249761049 -0.0041303576494283751 0 -0.1989264366345522 -0.0080023544535597537 0 -0.1965234412062255 0.0098537758749781944 0 -0.1989264366345522 -0.0080023544535597537 0 -0.2007918169376324 -0.0191738513677071 0 -0.20680177871376751 -0.0119671669755851 0 -0.18915768363079971 -0.025155098795753519 0 -0.2007918169376324 -0.0191738513677071 0 -0.21013076049929519 -0.028334228638799381 0 -0.1989264366345522 -0.0080023544535597537 0 -0.18915768363079971 -0.025155098795753519 0 -0.2007918169376324 -0.0191738513677071 0 -0.2007918169376324 -0.0191738513677071 0 -0.21013076049929519 -0.028334228638799381 0 -0.20680177871376751 -0.0119671669755851 0 -0.21013076049929519 -0.028334228638799381 0 -0.21702438745170211 -0.0043907958627755336 0 -0.21921501925093501 -0.017985606360015789 0 -0.21013076049929519 -0.028334228638799381 0 -0.21702438745170211 -0.0043907958627755336 0 -0.21013076049929519 -0.028334228638799381 0 -0.22271521407306469 -0.037269361340154371 0 -0.21921501925093501 -0.017985606360015789 0 -0.21013076049929519 -0.028334228638799381 0 -0.21702438745170211 -0.0043907958627755336 0 -0.20680177871376751 -0.0119671669755851 0 -0.1989264366345522 -0.0080023544535597537 0 -0.20680177871376751 -0.0119671669755851 0 -0.20713549204565579 6.5395444916274768e-05 0 -0.21702438745170211 -0.0043907958627755336 0 -0.20680177871376751 -0.0119671669755851 0 -0.20713549204565579 6.5395444916274768e-05 0 -0.20438945881064449 -0.068244458930106389 0 -0.1967735712207245 -0.046699778862929052 0 -0.20438945881064449 -0.068244458930106389 0 -0.18769526278089041 -0.057829612445021099 0 -0.1967735712207245 -0.046699778862929052 0 -0.20438945881064449 -0.068244458930106389 0 -0.1967735712207245 -0.046699778862929052 0 -0.20711132549122371 -0.057203435059411119 0 -0.18133558272394029 -0.043618149437272283 0 -0.18769526278089041 -0.057829612445021099 0 -0.1967735712207245 -0.046699778862929052 0 -0.18133558272394029 -0.043618149437272283 0 -0.18915768363079971 -0.025155098795753519 0 -0.1967735712207245 -0.046699778862929052 0 -0.18915768363079971 -0.025155098795753519 0 -0.1967735712207245 -0.046699778862929052 0 -0.18915768363079971 -0.025155098795753519 0 -0.21013076049929519 -0.028334228638799381 0 -0.1967735712207245 -0.046699778862929052 0 -0.21013076049929519 -0.028334228638799381 0 -0.21132582579248671 -0.048130994279405613 0 -0.22271521407306469 -0.037269361340154371 0 -0.21013076049929519 -0.028334228638799381 0 -0.1967735712207245 -0.046699778862929052 0 -0.21132582579248671 -0.048130994279405613 0 -0.21595644614104051 -0.065738508165203102 0 -0.21132582579248671 -0.048130994279405613 0 -0.22271521407306469 -0.037269361340154371 0 -0.21595644614104051 -0.065738508165203102 0 -0.21132582579248671 -0.048130994279405613 0 -0.20711132549122371 -0.057203435059411119 0 -0.1967735712207245 -0.046699778862929052 0 -0.21132582579248671 -0.048130994279405613 0 -0.20711132549122371 -0.057203435059411119 0 -0.21595644614104051 -0.065738508165203102 0 -0.2284172135094342 -0.053659916570315727 0 -0.24475965461883589 -0.059498385283178377 0 -0.21595644614104051 -0.065738508165203102 0 -0.2284172135094342 -0.053659916570315727 0 -0.22271521407306469 -0.037269361340154371 0 -0.21595644614104051 -0.065738508165203102 0 -0.22271521407306469 -0.037269361340154371 0 -0.2284172135094342 -0.053659916570315727 0 -0.22271521407306469 -0.037269361340154371 0 -0.23903543051913109 -0.043198085603962481 0 -0.22271521407306469 -0.037269361340154371 0 -0.23903543051913109 -0.043198085603962481 0 -0.24161885061771041 -0.026720350447010301 0 -0.23903543051913109 -0.043198085603962481 0 -0.24161885061771041 -0.026720350447010301 0 -0.25766621977661042 -0.038842414379153638 0 -0.23903543051913109 -0.043198085603962481 0 -0.24475965461883589 -0.059498385283178377 0 -0.25766621977661042 -0.038842414379153638 0 -0.2284172135094342 -0.053659916570315727 0 -0.23903543051913109 -0.043198085603962481 0 -0.24475965461883589 -0.059498385283178377 0 -0.22947398200509031 -0.0088002145151058891 0 -0.22867745033346079 0.0038692188645070222 0 -0.2401015516947359 0.00075261550232862703 0 -0.21702438745170211 -0.0043907958627755336 0 -0.22947398200509031 -0.0088002145151058891 0 -0.22867745033346079 0.0038692188645070222 0 -0.21702438745170211 -0.0043907958627755336 0 -0.22947398200509031 -0.0088002145151058891 0 -0.21921501925093501 -0.017985606360015789 0 -0.22271521407306469 -0.037269361340154371 0 -0.22947398200509031 -0.0088002145151058891 0 -0.21921501925093501 -0.017985606360015789 0 -0.22271521407306469 -0.037269361340154371 0 -0.22947398200509031 -0.0088002145151058891 0 -0.22271521407306469 -0.037269361340154371 0 -0.22947398200509031 -0.0088002145151058891 0 -0.24161885061771041 -0.026720350447010301 0 -0.22947398200509031 -0.0088002145151058891 0 -0.24161885061771041 -0.026720350447010301 0 -0.2437457614006571 -0.011962382738850049 0 -0.24161885061771041 -0.026720350447010301 0 -0.2437457614006571 -0.011962382738850049 0 -0.2598032925822476 -0.0188915667982569 0 -0.22947398200509031 -0.0088002145151058891 0 -0.2437457614006571 -0.011962382738850049 0 -0.2401015516947359 0.00075261550232862703 0 -0.2437457614006571 -0.011962382738850049 0 -0.25267499080189931 -0.0034516002120552492 0 -0.2401015516947359 0.00075261550232862703 0 -0.25267499080189931 -0.0034516002120552492 0 -0.2598032925822476 -0.0188915667982569 0 -0.26909988492935111 -0.0018655285383734981 0 -0.2437457614006571 -0.011962382738850049 0 -0.25267499080189931 -0.0034516002120552492 0 -0.2598032925822476 -0.0188915667982569 0 -0.2598032925822476 -0.0188915667982569 0 -0.27267419604841259 -0.026924212746328481 0 -0.25766621977661042 -0.038842414379153638 0 -0.24161885061771041 -0.026720350447010301 0 -0.2598032925822476 -0.0188915667982569 0 -0.25766621977661042 -0.038842414379153638 0 -0.2598032925822476 -0.0188915667982569 0 -0.27267419604841259 -0.026924212746328481 0 -0.27804425228895369 -0.016131696666228459 0 -0.27267419604841259 -0.026924212746328481 0 -0.27804425228895369 -0.016131696666228459 0 -0.28378415359151371 -0.031280105512012511 0 -0.27804425228895369 -0.016131696666228459 0 -0.26909988492935111 -0.0018655285383734981 0 -0.2917254884257266 -0.0017566381736345419 0 -0.2598032925822476 -0.0188915667982569 0 -0.27804425228895369 -0.016131696666228459 0 -0.26909988492935111 -0.0018655285383734981 0 -0.27804425228895369 -0.016131696666228459 0 -0.2917254884257266 -0.0017566381736345419 0 -0.2928870998243559 -0.020527937726781 0 -0.27804425228895369 -0.016131696666228459 0 -0.2928870998243559 -0.020527937726781 0 -0.28378415359151371 -0.031280105512012511 0 -0.2928870998243559 -0.020527937726781 0 -0.29943422057661201 -0.032203920876667472 0 -0.28378415359151371 -0.031280105512012511 0 -0.2928870998243559 -0.020527937726781 0 -0.31144738423897378 -0.02126732740536201 0 -0.29943422057661201 -0.032203920876667472 0 -0.31144738423897378 -0.02126732740536201 0 -0.31110423911055801 -0.035316851109560482 0 -0.29943422057661201 -0.032203920876667472 0 -0.2917254884257266 -0.0017566381736345419 0 -0.31144738423897378 -0.02126732740536201 0 -0.31177688145040278 0.0050359958776742568 0 -0.2917254884257266 -0.0017566381736345419 0 -0.2928870998243559 -0.020527937726781 0 -0.31144738423897378 -0.02126732740536201 0 -0.2917254884257266 -0.0017566381736345419 0 -0.31144738423897378 -0.02126732740536201 0 -0.30323190850646392 -0.052883144282766713 0 -0.3023660715744253 -0.047018139519123002 0 -0.29757341552329353 -0.05219957266967655 0 -0.29931176789370939 -0.061629941742321552 0 -0.30659897303184058 -0.057135789817405573 0 -0.30728911182784302 -0.064893595009923935 0 -0.30323190850646392 -0.052883144282766713 0 -0.29931176789370939 -0.061629941742321552 0 -0.30659897303184058 -0.057135789817405573 0 -0.30323190850646392 -0.052883144282766713 0 -0.29757341552329353 -0.05219957266967655 0 -0.29931176789370939 -0.061629941742321552 0 -0.30659897303184058 -0.057135789817405573 0 -0.30728911182784302 -0.064893595009923935 0 -0.31405483352543062 -0.056831087900065053 0 -0.30323190850646392 -0.052883144282766713 0 -0.3023660715744253 -0.047018139519123002 0 -0.31025625293594222 -0.050033124508212908 0 -0.30659897303184058 -0.057135789817405573 0 -0.31025625293594222 -0.050033124508212908 0 -0.31405483352543062 -0.056831087900065053 0 -0.30323190850646392 -0.052883144282766713 0 -0.30659897303184058 -0.057135789817405573 0 -0.31025625293594222 -0.050033124508212908 0 -0.3023660715744253 -0.047018139519123002 0 -0.31110423911055801 -0.035316851109560482 0 -0.29943422057661201 -0.032203920876667472 0 -0.3023660715744253 -0.047018139519123002 0 -0.29943422057661201 -0.032203920876667472 0 -0.29166722635019171 -0.038853801873014321 0 -0.29943422057661201 -0.032203920876667472 0 -0.29166722635019171 -0.038853801873014321 0 -0.28378415359151371 -0.031280105512012511 0 -0.3023660715744253 -0.047018139519123002 0 -0.29166722635019171 -0.038853801873014321 0 -0.28390051605192418 -0.042754285685484159 0 -0.29166722635019171 -0.038853801873014321 0 -0.28378415359151371 -0.031280105512012511 0 -0.28390051605192418 -0.042754285685484159 0 -0.3023660715744253 -0.047018139519123002 0 -0.28390051605192418 -0.042754285685484159 0 -0.27356286309663053 -0.053258262401150697 0 -0.3023660715744253 -0.047018139519123002 0 -0.27356286309663053 -0.053258262401150697 0 -0.29757341552329353 -0.05219957266967655 0 -0.27356286309663053 -0.053258262401150697 0 -0.27532891164284878 -0.069285621960536392 0 -0.29757341552329353 -0.05219957266967655 0 -0.27532891164284878 -0.069285621960536392 0 -0.3023660715744253 -0.047018139519123002 0 -0.29757341552329353 -0.05219957266967655 0 -0.27356286309663053 -0.053258262401150697 0 -0.29757341552329353 -0.05219957266967655 0 -0.29931176789370939 -0.061629941742321552 0 -0.27532891164284878 -0.069285621960536392 0 -0.27267419604841259 -0.026924212746328481 0 -0.27375437843427658 -0.039043607324579933 0 -0.25766621977661042 -0.038842414379153638 0 -0.27356286309663053 -0.053258262401150697 0 -0.27375437843427658 -0.039043607324579933 0 -0.25766621977661042 -0.038842414379153638 0 -0.28378415359151371 -0.031280105512012511 0 -0.28390051605192418 -0.042754285685484159 0 -0.27375437843427658 -0.039043607324579933 0 -0.27267419604841259 -0.026924212746328481 0 -0.28378415359151371 -0.031280105512012511 0 -0.27375437843427658 -0.039043607324579933 0 -0.28390051605192418 -0.042754285685484159 0 -0.27356286309663053 -0.053258262401150697 0 -0.27375437843427658 -0.039043607324579933 0 -0.24475965461883589 -0.059498385283178377 0 -0.27356286309663053 -0.053258262401150697 0 -0.2582325144520296 -0.070050845257802419 0 -0.24475965461883589 -0.059498385283178377 0 -0.27356286309663053 -0.053258262401150697 0 -0.24475965461883589 -0.059498385283178377 0 -0.27356286309663053 -0.053258262401150697 0 -0.25766621977661042 -0.038842414379153638 0 -0.2582325144520296 -0.070050845257802419 0 -0.25308440776240432 -0.086371671251396109 0 -0.27532891164284878 -0.069285621960536392 0 -0.25308440776240432 -0.086371671251396109 0 -0.27532891164284878 -0.069285621960536392 0 -0.25308440776240432 -0.086371671251396109 0 -0.27361062541114611 -0.085405998149086934 0 -0.26907394573302829 -0.10103393024372311 0 -0.27361062541114611 -0.085405998149086934 0 -0.26907394573302829 -0.10103393024372311 0 -0.28494676303449051 -0.09097811142482605 0 -0.25308440776240432 -0.086371671251396109 0 -0.27361062541114611 -0.085405998149086934 0 -0.27532891164284878 -0.069285621960536392 0 -0.27356286309663053 -0.053258262401150697 0 -0.2582325144520296 -0.070050845257802419 0 -0.27532891164284878 -0.069285621960536392 0 -0.27361062541114611 -0.085405998149086934 0 -0.27532891164284878 -0.069285621960536392 0 -0.28561909888295839 -0.079360655864953042 0 -0.2432602079730701 -0.13485583854350039 0 -0.2499653418643101 -0.1102460646797562 0 -0.26490928006600228 -0.12397715003998409 0 -0.2499653418643101 -0.1102460646797562 0 -0.26490928006600228 -0.12397715003998409 0 -0.26907394573302829 -0.10103393024372311 0 -0.2499653418643101 -0.1102460646797562 0 -0.25308440776240432 -0.086371671251396109 0 -0.26907394573302829 -0.10103393024372311 0 -0.26907394573302829 -0.10103393024372311 0 -0.28789548083438649 -0.11161882002010511 0 -0.28494676303449051 -0.09097811142482605 0 -0.26490928006600228 -0.12397715003998409 0 -0.28789548083438649 -0.11161882002010511 0 -0.28428672055728371 -0.13281235115180859 0 -0.26490928006600228 -0.12397715003998409 0 -0.26907394573302829 -0.10103393024372311 0 -0.28789548083438649 -0.11161882002010511 0 -0.28789548083438649 -0.11161882002010511 0 -0.28428672055728371 -0.13281235115180859 0 -0.30877835781368662 -0.12931532841693749 0 -0.28789548083438649 -0.11161882002010511 0 -0.29765529442092259 -0.094840601490837839 0 -0.28494676303449051 -0.09097811142482605 0 -0.30761934067920371 -0.1042503242997595 0 -0.29765529442092259 -0.094840601490837839 0 -0.30832877355579341 -0.086934752854072747 0 -0.30761934067920371 -0.1042503242997595 0 -0.30832877355579341 -0.086934752854072747 0 -0.31968159473222052 -0.091584555267719248 0 -0.28789548083438649 -0.11161882002010511 0 -0.30761934067920371 -0.1042503242997595 0 -0.29765529442092259 -0.094840601490837839 0 -0.28789548083438649 -0.11161882002010511 0 -0.30761934067920371 -0.1042503242997595 0 -0.30877835781368662 -0.12931532841693749 0 -0.29931176789370939 -0.061629941742321552 0 -0.27532891164284878 -0.069285621960536392 0 -0.29568251685582603 -0.071589435967753134 0 -0.27532891164284878 -0.069285621960536392 0 -0.29568251685582603 -0.071589435967753134 0 -0.28561909888295839 -0.079360655864953042 0 -0.29568251685582603 -0.071589435967753134 0 -0.28561909888295839 -0.079360655864953042 0 -0.29849490204505058 -0.081938345925378783 0 -0.27361062541114611 -0.085405998149086934 0 -0.28561909888295839 -0.079360655864953042 0 -0.28494676303449051 -0.09097811142482605 0 -0.29765529442092259 -0.094840601490837839 0 -0.28494676303449051 -0.09097811142482605 0 -0.29849490204505058 -0.081938345925378783 0 -0.28561909888295839 -0.079360655864953042 0 -0.28494676303449051 -0.09097811142482605 0 -0.29849490204505058 -0.081938345925378783 0 -0.29849490204505058 -0.081938345925378783 0 -0.30832877355579341 -0.086934752854072747 0 -0.3066986514807607 -0.074546990101646726 0 -0.29765529442092259 -0.094840601490837839 0 -0.29849490204505058 -0.081938345925378783 0 -0.30832877355579341 -0.086934752854072747 0 -0.30832877355579341 -0.086934752854072747 0 -0.3066986514807607 -0.074546990101646726 0 -0.31636087034116728 -0.076704125898778439 0 -0.3066986514807607 -0.074546990101646726 0 -0.31411021802290889 -0.069356746280106005 0 -0.31636087034116728 -0.076704125898778439 0 -0.29568251685582603 -0.071589435967753134 0 -0.29849490204505058 -0.081938345925378783 0 -0.3066986514807607 -0.074546990101646726 0 -0.29568251685582603 -0.071589435967753134 0 -0.3066986514807607 -0.074546990101646726 0 -0.30728911182784302 -0.064893595009923935 0 -0.29931176789370939 -0.061629941742321552 0 -0.29568251685582603 -0.071589435967753134 0 -0.30728911182784302 -0.064893595009923935 0 -0.3066986514807607 -0.074546990101646726 0 -0.30728911182784302 -0.064893595009923935 0 -0.31411021802290889 -0.069356746280106005 0 -0.30728911182784302 -0.064893595009923935 0 -0.31630436981946819 -0.062936971351065629 0 -0.31411021802290889 -0.069356746280106005 0 -0.31630436981946819 -0.062936971351065629 0 -0.31411021802290889 -0.069356746280106005 0 -0.32389808664530562 -0.067702049039115322 0 -0.31630436981946819 -0.062936971351065629 0 -0.32389808664530562 -0.067702049039115322 0 -0.32481687078849097 -0.058022226865728103 0 -0.32389808664530562 -0.067702049039115322 0 -0.3259684841043719 -0.075020057435826168 0 -0.31636087034116728 -0.076704125898778439 0 -0.31411021802290889 -0.069356746280106005 0 -0.32389808664530562 -0.067702049039115322 0 -0.31636087034116728 -0.076704125898778439 0 -0.30832877355579341 -0.086934752854072747 0 -0.32608803180755441 -0.084321365842938284 0 -0.30832877355579341 -0.086934752854072747 0 -0.31968159473222052 -0.091584555267719248 0 -0.32608803180755441 -0.084321365842938284 0 -0.30832877355579341 -0.086934752854072747 0 -0.31636087034116728 -0.076704125898778439 0 -0.32608803180755441 -0.084321365842938284 0 -0.31968159473222052 -0.091584555267719248 0 -0.32608803180755441 -0.084321365842938284 0 -0.3259684841043719 -0.075020057435826168 0 -0.31636087034116728 -0.076704125898778439 0 -0.32608803180755441 -0.084321365842938284 0 -0.31968159473222052 -0.091584555267719248 0 -0.32608803180755441 -0.084321365842938284 0 -0.34030971713070318 -0.087052614945596102 0 -0.32608803180755441 -0.084321365842938284 0 -0.34030971713070318 -0.087052614945596102 0 -0.34745734249292459 -0.081176736816750444 0 -0.32608803180755441 -0.084321365842938284 0 -0.33752694762346008 -0.07135268896247253 0 -0.34745734249292459 -0.081176736816750444 0 -0.32608803180755441 -0.084321365842938284 0 -0.34745734249292459 -0.081176736816750444 0 -0.33752694762346008 -0.07135268896247253 0 -0.3489658634393657 -0.058384012082006782 0 -0.33645864726091979 -0.05858208772264157 0 -0.33752694762346008 -0.07135268896247253 0 -0.3489658634393657 -0.058384012082006782 0 -0.32389808664530562 -0.067702049039115322 0 -0.33752694762346008 -0.07135268896247253 0 -0.33645864726091979 -0.05858208772264157 0 -0.3259684841043719 -0.075020057435826168 0 -0.32608803180755441 -0.084321365842938284 0 -0.33752694762346008 -0.07135268896247253 0 -0.32608803180755441 -0.084321365842938284 0 -0.33752694762346008 -0.07135268896247253 0 -0.32389808664530562 -0.067702049039115322 0 -0.3259684841043719 -0.075020057435826168 0 -0.33752694762346008 -0.07135268896247253 0 -0.32454403747219479 -0.1081839716812668 0 -0.30877835781368662 -0.12931532841693749 0 -0.30761934067920371 -0.1042503242997595 0 -0.32454403747219479 -0.1081839716812668 0 -0.30877835781368662 -0.12931532841693749 0 -0.32454403747219479 -0.1081839716812668 0 -0.33570809008837621 -0.11845594114356341 0 -0.30877835781368662 -0.12931532841693749 0 -0.30761934067920371 -0.1042503242997595 0 -0.31968159473222052 -0.091584555267719248 0 -0.32454403747219479 -0.1081839716812668 0 -0.34030971713070318 -0.087052614945596102 0 -0.32454403747219479 -0.1081839716812668 0 -0.34278855512837281 -0.1049294584887832 0 -0.31968159473222052 -0.091584555267719248 0 -0.34030971713070318 -0.087052614945596102 0 -0.32454403747219479 -0.1081839716812668 0 -0.34030971713070318 -0.087052614945596102 0 -0.32454403747219479 -0.1081839716812668 0 -0.32454403747219479 -0.1081839716812668 0 -0.34278855512837281 -0.1049294584887832 0 -0.33570809008837621 -0.11845594114356341 0 -0.33570809008837621 -0.11845594114356341 0 -0.35404294059136687 -0.1217835462641018 0 -0.33688620478323589 -0.13358080389391511 0 -0.34278855512837281 -0.1049294584887832 0 -0.35404294059136687 -0.1217835462641018 0 -0.35932798989652742 -0.1047455147758234 0 -0.34278855512837281 -0.1049294584887832 0 -0.33570809008837621 -0.11845594114356341 0 -0.35404294059136687 -0.1217835462641018 0 -0.34278855512837281 -0.1049294584887832 0 -0.35932798989652742 -0.1047455147758234 0 -0.35079718399447979 -0.093651592615473511 0 -0.34030971713070318 -0.087052614945596102 0 -0.34278855512837281 -0.1049294584887832 0 -0.35079718399447979 -0.093651592615473511 0 -0.35932798989652742 -0.1047455147758234 0 -0.35079718399447979 -0.093651592615473511 0 -0.36132419909701757 -0.091459041133748031 0 -0.35932798989652742 -0.1047455147758234 0 -0.37367929427193591 -0.1014825750548952 0 -0.37212838853434238 -0.11808059788504249 0 -0.35932798989652742 -0.1047455147758234 0 -0.37367929427193591 -0.1014825750548952 0 -0.36132419909701757 -0.091459041133748031 0 -0.35404294059136687 -0.1217835462641018 0 -0.37212838853434238 -0.11808059788504249 0 -0.37028068739271691 -0.13083580994494901 0 -0.35404294059136687 -0.1217835462641018 0 -0.35932798989652742 -0.1047455147758234 0 -0.37212838853434238 -0.11808059788504249 0 -0.35069420168351129 -0.07223638641294812 0 -0.34745734249292459 -0.081176736816750444 0 -0.36882665317829499 -0.078032107790563188 0 -0.36882665317829499 -0.078032107790563188 0 -0.3489658634393657 -0.058384012082006782 0 -0.35069420168351129 -0.07223638641294812 0 -0.36882665317829499 -0.078032107790563188 0 -0.3489658634393657 -0.058384012082006782 0 -0.33752694762346008 -0.07135268896247253 0 -0.35069420168351129 -0.07223638641294812 0 -0.3489658634393657 -0.058384012082006782 0 -0.33752694762346008 -0.07135268896247253 0 -0.35069420168351129 -0.07223638641294812 0 -0.34745734249292459 -0.081176736816750444 0 -0.34745734249292459 -0.081176736816750444 0 -0.36882665317829499 -0.078032107790563188 0 -0.34745734249292459 -0.081176736816750444 0 -0.36132419909701757 -0.091459041133748031 0 -0.36882665317829499 -0.078032107790563188 0 -0.34030971713070318 -0.087052614945596102 0 -0.34745734249292459 -0.081176736816750444 0 -0.35079718399447979 -0.093651592615473511 0 -0.34745734249292459 -0.081176736816750444 0 -0.35079718399447979 -0.093651592615473511 0 -0.36132419909701757 -0.091459041133748031 0 -0.37367929427193591 -0.1014825750548952 0 -0.36132419909701757 -0.091459041133748031 0 -0.36882665317829499 -0.078032107790563188 0 -0.36882665317829499 -0.078032107790563188 0 -0.36862349457690058 -0.057461967220355487 0 -0.3489658634393657 -0.058384012082006782 0 -0.36882665317829499 -0.078032107790563188 0 -0.36862349457690058 -0.057461967220355487 0 -0.37947166312044489 -0.067272628224985004 0 -0.36862349457690058 -0.057461967220355487 0 -0.3489658634393657 -0.058384012082006782 0 -0.36066681755822472 -0.045118253717945672 0 -0.36862349457690058 -0.057461967220355487 0 -0.37355784227175309 -0.045246792894939887 0 -0.3815482533063424 -0.052412606119804542 0 -0.36862349457690058 -0.057461967220355487 0 -0.36066681755822472 -0.045118253717945672 0 -0.37355784227175309 -0.045246792894939887 0 -0.3489658634393657 -0.058384012082006782 0 -0.36066681755822472 -0.045118253717945672 0 -0.3489658634393657 -0.058384012082006782 0 -0.34511111307690212 -0.046137334811030092 0 -0.36066681755822472 -0.045118253717945672 0 -0.35304062521722218 -0.036039659744318157 0 -0.3553139768507978 -0.023567241021099371 0 -0.33371347875736079 -0.040226824134751989 0 -0.34511111307690212 -0.046137334811030092 0 -0.35304062521722218 -0.036039659744318157 0 -0.33371347875736079 -0.040226824134751989 0 -0.34511111307690212 -0.046137334811030092 0 -0.35304062521722218 -0.036039659744318157 0 -0.36066681755822472 -0.045118253717945672 0 -0.36066681755822472 -0.045118253717945672 0 -0.37236777167708351 -0.031852495353884333 0 -0.35304062521722218 -0.036039659744318157 0 -0.37236777167708351 -0.031852495353884333 0 -0.35304062521722218 -0.036039659744318157 0 -0.36066681755822472 -0.045118253717945672 0 -0.37236777167708351 -0.031852495353884333 0 -0.36066681755822472 -0.045118253717945672 0 -0.37355784227175309 -0.045246792894939887 0 -0.37236777167708351 -0.031852495353884333 0 -0.37236777167708351 -0.031852495353884333 0 -0.3739022591900184 -0.02415390189740213 0 -0.36770044175442279 -0.02036669541201027 0 -0.37236777167708351 -0.031852495353884333 0 -0.36770044175442279 -0.02036669541201027 0 -0.3553139768507978 -0.023567241021099371 0 -0.36770044175442279 -0.02036669541201027 0 -0.35847393927256738 -0.010652033510738681 0 -0.38297625517291389 -0.017448943304264108 0 -0.35304062521722218 -0.036039659744318157 0 -0.37236777167708351 -0.031852495353884333 0 -0.3553139768507978 -0.023567241021099371 0 -0.3739022591900184 -0.02415390189740213 0 -0.36770044175442279 -0.02036669541201027 0 -0.38297625517291389 -0.017448943304264108 0 -0.36770044175442279 -0.02036669541201027 0 -0.35847393927256738 -0.010652033510738681 0 -0.3553139768507978 -0.023567241021099371 0 -0.35847393927256738 -0.010652033510738681 0 -0.38297625517291389 -0.017448943304264108 0 -0.37278444596104371 -0.0079457960458173115 0 -0.35847393927256738 -0.010652033510738681 0 -0.38297625517291389 -0.017448943304264108 0 -0.37474494217865062 -0.0022388935110706832 0 -0.37278444596104371 -0.0079457960458173115 0 -0.36307869926690151 -0.00068504054922277494 0 -0.37278444596104371 -0.0079457960458173115 0 -0.36307869926690151 -0.00068504054922277494 0 -0.35847393927256738 -0.010652033510738681 0 -0.36307869926690151 -0.00068504054922277494 0 -0.34718119132474479 -0.01384164818341615 0 -0.36064890389212972 0.0125435277679194 0 -0.36307869926690151 -0.00068504054922277494 0 -0.35847393927256738 -0.010652033510738681 0 -0.34718119132474479 -0.01384164818341615 0 -0.34718119132474479 -0.01384164818341615 0 -0.36064890389212972 0.0125435277679194 0 -0.34718119132474479 -0.01384164818341615 0 -0.3553139768507978 -0.023567241021099371 0 -0.33371347875736079 -0.040226824134751989 0 -0.35847393927256738 -0.010652033510738681 0 -0.34718119132474479 -0.01384164818341615 0 -0.3553139768507978 -0.023567241021099371 0 -0.34718119132474479 -0.01384164818341615 0 -0.33035884889608558 -0.02420969997450095 0 -0.33371347875736079 -0.040226824134751989 0 -0.34718119132474479 -0.01384164818341615 0 -0.33371347875736079 -0.040226824134751989 0 -0.34718119132474479 -0.01384164818341615 0 -0.32828291010712762 -0.0049346835118845543 0 -0.34055428987364128 0.0059527955302196532 0 -0.34718119132474479 -0.01384164818341615 0 -0.33035884889608558 -0.02420969997450095 0 -0.32828291010712762 -0.0049346835118845543 0 -0.31144738423897378 -0.02126732740536201 0 -0.32828291010712762 -0.0049346835118845543 0 -0.31177688145040278 0.0050359958776742568 0 -0.31144738423897378 -0.02126732740536201 0 -0.33116928005221918 -0.040778016637091109 0 -0.31144738423897378 -0.02126732740536201 0 -0.33035884889608558 -0.02420969997450095 0 -0.32828291010712762 -0.0049346835118845543 0 -0.31144738423897378 -0.02126732740536201 0 -0.33035884889608558 -0.02420969997450095 0 -0.33116928005221918 -0.040778016637091109 0 -0.3023660715744253 -0.047018139519123002 0 -0.31110423911055801 -0.035316851109560482 0 -0.33116928005221918 -0.040778016637091109 0 -0.3023660715744253 -0.047018139519123002 0 -0.31025625293594222 -0.050033124508212908 0 -0.33116928005221918 -0.040778016637091109 0 -0.3023660715744253 -0.047018139519123002 0 -0.33116928005221918 -0.040778016637091109 0 -0.31144738423897378 -0.02126732740536201 0 -0.31110423911055801 -0.035316851109560482 0 -0.33116928005221918 -0.040778016637091109 0 -0.31025625293594222 -0.050033124508212908 0 -0.31770057673851387 -0.05020147555903863 0 -0.33116928005221918 -0.040778016637091109 0 -0.31025625293594222 -0.050033124508212908 0 -0.31770057673851387 -0.05020147555903863 0 -0.31405483352543062 -0.056831087900065053 0 -0.31770057673851387 -0.05020147555903863 0 -0.31405483352543062 -0.056831087900065053 0 -0.31936567051967829 -0.054711673150449433 0 -0.31630436981946819 -0.062936971351065629 0 -0.31936567051967829 -0.054711673150449433 0 -0.32481687078849097 -0.058022226865728103 0 -0.30728911182784302 -0.064893595009923935 0 -0.31630436981946819 -0.062936971351065629 0 -0.31405483352543062 -0.056831087900065053 0 -0.31630436981946819 -0.062936971351065629 0 -0.31405483352543062 -0.056831087900065053 0 -0.31936567051967829 -0.054711673150449433 0 -0.31770057673851387 -0.05020147555903863 0 -0.32448711316898249 -0.050622394842538963 0 -0.33116928005221918 -0.040778016637091109 0 -0.31936567051967829 -0.054711673150449433 0 -0.32481687078849097 -0.058022226865728103 0 -0.32448711316898249 -0.050622394842538963 0 -0.31770057673851387 -0.05020147555903863 0 -0.31936567051967829 -0.054711673150449433 0 -0.32448711316898249 -0.050622394842538963 0 -0.32481687078849097 -0.058022226865728103 0 -0.32770904195502032 -0.053173566283506987 0 -0.32448711316898249 -0.050622394842538963 0 -0.32770904195502032 -0.053173566283506987 0 -0.32448711316898249 -0.050622394842538963 0 -0.32972533979495861 -0.048040159006195682 0 -0.3489658634393657 -0.058384012082006782 0 -0.34511111307690212 -0.046137334811030092 0 -0.3326728772282519 -0.042265511425067279 0 -0.32972533979495861 -0.048040159006195682 0 -0.33645864726091979 -0.05858208772264157 0 -0.3326728772282519 -0.042265511425067279 0 -0.3489658634393657 -0.058384012082006782 0 -0.3326728772282519 -0.042265511425067279 0 -0.32770904195502032 -0.053173566283506987 0 -0.32972533979495861 -0.048040159006195682 0 -0.33645864726091979 -0.05858208772264157 0 -0.3489658634393657 -0.058384012082006782 0 -0.33645864726091979 -0.05858208772264157 0 -0.3326728772282519 -0.042265511425067279 0 -0.32389808664530562 -0.067702049039115322 0 -0.32481687078849097 -0.058022226865728103 0 -0.33645864726091979 -0.05858208772264157 0 -0.32481687078849097 -0.058022226865728103 0 -0.32770904195502032 -0.053173566283506987 0 -0.33645864726091979 -0.05858208772264157 0 -0.34511111307690212 -0.046137334811030092 0 -0.33371347875736079 -0.040226824134751989 0 -0.3326728772282519 -0.042265511425067279 0 -0.33035884889608558 -0.02420969997450095 0 -0.33116928005221918 -0.040778016637091109 0 -0.33371347875736079 -0.040226824134751989 0 -0.35304062521722218 -0.036039659744318157 0 -0.33371347875736079 -0.040226824134751989 0 -0.32448711316898249 -0.050622394842538963 0 -0.32972533979495861 -0.048040159006195682 0 -0.33116928005221918 -0.040778016637091109 0 -0.33116928005221918 -0.040778016637091109 0 -0.3326728772282519 -0.042265511425067279 0 -0.32972533979495861 -0.048040159006195682 0 -0.3326728772282519 -0.042265511425067279 0 -0.32972533979495861 -0.048040159006195682 0 -0.33116928005221918 -0.040778016637091109 0 -0.3326728772282519 -0.042265511425067279 0 -0.33116928005221918 -0.040778016637091109 0 -0.33371347875736079 -0.040226824134751989 0 -0.33116928005221918 -0.040778016637091109 0 -0.33371347875736079 -0.040226824134751989 0 -0.3326728772282519 -0.042265511425067279 0 -0.33371347875736079 -0.040226824134751989 0 -0.3326728772282519 -0.042265511425067279 0 -0.2907170577323625 -0.25177677077710309 0 -0.30853150187083839 -0.25429835417001312 0 -0.30748271917561598 -0.2431056607245809 0 -0.30748271917561598 -0.2431056607245809 0 -0.3004866401015065 -0.2269264896544945 0 -0.32066485276457768 -0.2334308190911655 0 -0.2907170577323625 -0.25177677077710309 0 -0.30748271917561598 -0.2431056607245809 0 -0.3004866401015065 -0.2269264896544945 0 -0.30853150187083839 -0.25429835417001312 0 -0.30748271917561598 -0.2431056607245809 0 -0.32023222063025569 -0.2489608815952247 0 -0.3004866401015065 -0.2269264896544945 0 -0.27575903677895092 -0.22208668823385669 0 -0.3004866401015065 -0.2269264896544945 0 -0.27309361240676189 -0.24179026653703889 0 -0.27575903677895092 -0.22208668823385669 0 -0.3004866401015065 -0.2269264896544945 0 -0.27575903677895092 -0.22208668823385669 0 -0.29482007196541532 -0.2089319155152673 0 -0.2907170577323625 -0.25177677077710309 0 -0.3004866401015065 -0.2269264896544945 0 -0.27309361240676189 -0.24179026653703889 0 -0.27309361240676189 -0.24179026653703889 0 -0.25431856302814809 -0.24833495949118861 0 -0.25103143345639523 -0.21724688681321891 0 -0.27575903677895092 -0.22208668823385669 0 -0.25103143345639523 -0.21724688681321891 0 -0.27309361240676189 -0.24179026653703889 0 -0.27575903677895092 -0.22208668823385669 0 -0.25103143345639523 -0.21724688681321891 0 -0.27575903677895092 -0.22208668823385669 0 -0.25103143345639523 -0.21724688681321891 0 -0.27708552823660842 -0.19790031786117671 0 -0.25103143345639523 -0.21724688681321891 0 -0.25418198431724581 -0.18809916394242601 0 -0.27708552823660842 -0.19790031786117671 0 -0.27708552823660842 -0.19790031786117671 0 -0.29482007196541532 -0.2089319155152673 0 -0.30195969341908391 -0.19078830755985379 0 -0.29482007196541532 -0.2089319155152673 0 -0.30195969341908391 -0.19078830755985379 0 -0.32674672588845421 -0.2120308859258328 0 -0.3004866401015065 -0.2269264896544945 0 -0.29482007196541532 -0.2089319155152673 0 -0.32674672588845421 -0.2120308859258328 0 -0.27575903677895092 -0.22208668823385669 0 -0.27708552823660842 -0.19790031786117671 0 -0.29482007196541532 -0.2089319155152673 0 -0.30195969341908391 -0.19078830755985379 0 -0.30674796742087651 -0.1684647150882764 0 -0.32123008678095788 -0.18729232698745699 0 -0.30674796742087651 -0.1684647150882764 0 -0.2930126781551784 -0.15044668515260809 0 -0.3206808779707625 -0.15110047818677941 0 -0.27724699849667023 -0.17157804188827869 0 -0.2930126781551784 -0.15044668515260809 0 -0.30674796742087651 -0.1684647150882764 0 -0.27724699849667023 -0.17157804188827869 0 -0.2930126781551784 -0.15044668515260809 0 -0.27708552823660842 -0.19790031786117671 0 -0.30195969341908391 -0.19078830755985379 0 -0.27724699849667023 -0.17157804188827869 0 -0.30195969341908391 -0.19078830755985379 0 -0.30674796742087651 -0.1684647150882764 0 -0.27724699849667023 -0.17157804188827869 0 -0.25418198431724581 -0.18809916394242601 0 -0.27708552823660842 -0.19790031786117671 0 -0.27724699849667023 -0.17157804188827869 0 -0.25418198431724581 -0.18809916394242601 0 -0.2565438833259911 -0.1687602707777138 0 -0.27724699849667023 -0.17157804188827869 0 -0.2435592126657353 -0.1561425335328199 0 -0.2565438833259911 -0.1687602707777138 0 -0.26683780591716472 -0.14870377212940841 0 -0.27724699849667023 -0.17157804188827869 0 -0.26683780591716472 -0.14870377212940841 0 -0.2930126781551784 -0.15044668515260809 0 -0.2565438833259911 -0.1687602707777138 0 -0.27724699849667023 -0.17157804188827869 0 -0.26683780591716472 -0.14870377212940841 0 -0.2435592126657353 -0.1561425335328199 0 -0.2432602079730701 -0.13485583854350039 0 -0.26683780591716472 -0.14870377212940841 0 -0.2432602079730701 -0.13485583854350039 0 -0.26490928006600228 -0.12397715003998409 0 -0.26683780591716472 -0.14870377212940841 0 -0.26490928006600228 -0.12397715003998409 0 -0.26683780591716472 -0.14870377212940841 0 -0.28428672055728371 -0.13281235115180859 0 -0.28428672055728371 -0.13281235115180859 0 -0.2930126781551784 -0.15044668515260809 0 -0.30877835781368662 -0.12931532841693749 0 -0.26683780591716472 -0.14870377212940841 0 -0.28428672055728371 -0.13281235115180859 0 -0.2930126781551784 -0.15044668515260809 0 -0.2930126781551784 -0.15044668515260809 0 -0.30877835781368662 -0.12931532841693749 0 -0.3206808779707625 -0.15110047818677941 0 -0.2930126781551784 -0.15044668515260809 0 -0.30877835781368662 -0.12931532841693749 0 -0.33570809008837621 -0.11845594114356341 0 -0.30877835781368662 -0.12931532841693749 0 -0.33688620478323589 -0.13358080389391511 0 -0.30877835781368662 -0.12931532841693749 0 -0.3206808779707625 -0.15110047818677941 0 -0.33688620478323589 -0.13358080389391511 0 -0.3206808779707625 -0.15110047818677941 0 -0.33688620478323589 -0.13358080389391511 0 -0.34399943231138669 -0.15408109000358611 0 -0.33688620478323589 -0.13358080389391511 0 -0.35929992868189681 -0.1386942596847188 0 -0.35404294059136687 -0.1217835462641018 0 -0.33688620478323589 -0.13358080389391511 0 -0.35929992868189681 -0.1386942596847188 0 -0.35404294059136687 -0.1217835462641018 0 -0.35929992868189681 -0.1386942596847188 0 -0.37028068739271691 -0.13083580994494901 0 -0.35929992868189681 -0.1386942596847188 0 -0.37028068739271691 -0.13083580994494901 0 -0.3804539816512269 -0.14482329966991631 0 -0.35929992868189681 -0.1386942596847188 0 -0.3804539816512269 -0.14482329966991631 0 -0.35929992868189681 -0.1386942596847188 0 -0.3655172116091886 -0.15688196674787641 0 -0.3804539816512269 -0.14482329966991631 0 -0.3655172116091886 -0.15688196674787641 0 -0.3804539816512269 -0.14482329966991631 0 -0.3655172116091886 -0.15688196674787641 0 -0.37839901512320262 -0.15996290040625341 0 -0.3804539816512269 -0.14482329966991631 0 -0.33688620478323589 -0.13358080389391511 0 -0.35929992868189681 -0.1386942596847188 0 -0.34399943231138669 -0.15408109000358611 0 -0.35929992868189681 -0.1386942596847188 0 -0.34399943231138669 -0.15408109000358611 0 -0.3655172116091886 -0.15688196674787641 0 -0.34399943231138669 -0.15408109000358611 0 -0.35323542112630057 -0.1671812377988513 0 -0.3655172116091886 -0.15688196674787641 0 -0.3655172116091886 -0.15688196674787641 0 -0.37378547386561772 -0.17392500984250869 0 -0.37839901512320262 -0.15996290040625341 0 -0.35323542112630057 -0.1671812377988513 0 -0.3655172116091886 -0.15688196674787641 0 -0.37378547386561772 -0.17392500984250869 0 -0.37378547386561772 -0.17392500984250869 0 -0.35240556330307887 -0.18479875362473361 0 -0.36895563931783232 -0.19259611207654981 0 -0.35323542112630057 -0.1671812377988513 0 -0.37378547386561772 -0.17392500984250869 0 -0.35240556330307887 -0.18479875362473361 0 -0.35323542112630057 -0.1671812377988513 0 -0.35240556330307887 -0.18479875362473361 0 -0.33400288196205857 -0.17193246321376471 0 -0.35240556330307887 -0.18479875362473361 0 -0.33400288196205857 -0.17193246321376471 0 -0.33669316521431608 -0.19324526314955739 0 -0.33400288196205857 -0.17193246321376471 0 -0.32123008678095788 -0.18729232698745699 0 -0.33669316521431608 -0.19324526314955739 0 -0.3206808779707625 -0.15110047818677941 0 -0.34399943231138669 -0.15408109000358611 0 -0.33400288196205857 -0.17193246321376471 0 -0.34399943231138669 -0.15408109000358611 0 -0.35323542112630057 -0.1671812377988513 0 -0.33400288196205857 -0.17193246321376471 0 -0.30674796742087651 -0.1684647150882764 0 -0.3206808779707625 -0.15110047818677941 0 -0.33400288196205857 -0.17193246321376471 0 -0.30674796742087651 -0.1684647150882764 0 -0.33400288196205857 -0.17193246321376471 0 -0.32123008678095788 -0.18729232698745699 0 -0.30195969341908391 -0.19078830755985379 0 -0.32123008678095788 -0.18729232698745699 0 -0.32674672588845421 -0.2120308859258328 0 -0.32674672588845421 -0.2120308859258328 0 -0.35024140450074381 -0.20994798342056251 0 -0.32674672588845421 -0.2120308859258328 0 -0.33669316521431608 -0.19324526314955739 0 -0.35024140450074381 -0.20994798342056251 0 -0.32674672588845421 -0.2120308859258328 0 -0.35024140450074381 -0.20994798342056251 0 -0.3377174746324717 -0.2284461722996495 0 -0.32123008678095788 -0.18729232698745699 0 -0.32674672588845421 -0.2120308859258328 0 -0.33669316521431608 -0.19324526314955739 0 -0.35240556330307887 -0.18479875362473361 0 -0.36895563931783232 -0.19259611207654981 0 -0.35024140450074381 -0.20994798342056251 0 -0.35240556330307887 -0.18479875362473361 0 -0.33669316521431608 -0.19324526314955739 0 -0.35024140450074381 -0.20994798342056251 0 -0.36895563931783232 -0.19259611207654981 0 -0.37373608311303341 -0.20786508091529229 0 -0.35024140450074381 -0.20994798342056251 0 -0.37373608311303341 -0.20786508091529229 0 -0.35024140450074381 -0.20994798342056251 0 -0.37373608311303341 -0.20786508091529229 0 -0.35024140450074381 -0.20994798342056251 0 -0.36602803805366552 -0.21914337572849349 0 -0.37373608311303341 -0.20786508091529229 0 -0.36602803805366552 -0.21914337572849349 0 -0.37785639846487218 -0.21906994256996459 0 -0.35024140450074381 -0.20994798342056251 0 -0.357966965356528 -0.23170644806675769 0 -0.3377174746324717 -0.2284461722996495 0 -0.35024140450074381 -0.20994798342056251 0 -0.357966965356528 -0.23170644806675769 0 -0.36602803805366552 -0.21914337572849349 0 -0.357966965356528 -0.23170644806675769 0 -0.36602803805366552 -0.21914337572849349 0 -0.36983275924353248 -0.22875232439276311 0 -0.36602803805366552 -0.21914337572849349 0 -0.36983275924353248 -0.22875232439276311 0 -0.37785639846487218 -0.21906994256996459 0 -0.357966965356528 -0.23170644806675769 0 -0.36983275924353248 -0.22875232439276311 0 -0.37747963509906429 -0.24508953120583671 0 -0.35872453044413888 -0.25078889886649508 0 -0.357966965356528 -0.23170644806675769 0 -0.37747963509906429 -0.24508953120583671 0 -0.357966965356528 -0.23170644806675769 0 -0.34395992200845399 -0.24382677409400949 0 -0.3377174746324717 -0.2284461722996495 0 -0.35872453044413888 -0.25078889886649508 0 -0.357966965356528 -0.23170644806675769 0 -0.34395992200845399 -0.24382677409400949 0 -0.33345250408021371 -0.25331871279766999 0 -0.34395992200845399 -0.24382677409400949 0 -0.33132333615916232 -0.2411148243472106 0 -0.33345250408021371 -0.25331871279766999 0 -0.33132333615916232 -0.2411148243472106 0 -0.32023222063025569 -0.2489608815952247 0 -0.34395992200845399 -0.24382677409400949 0 -0.33132333615916232 -0.2411148243472106 0 -0.3377174746324717 -0.2284461722996495 0 -0.32674672588845421 -0.2120308859258328 0 -0.3377174746324717 -0.2284461722996495 0 -0.32066485276457768 -0.2334308190911655 0 -0.33132333615916232 -0.2411148243472106 0 -0.3377174746324717 -0.2284461722996495 0 -0.32066485276457768 -0.2334308190911655 0 -0.3004866401015065 -0.2269264896544945 0 -0.32674672588845421 -0.2120308859258328 0 -0.32066485276457768 -0.2334308190911655 0 -0.30748271917561598 -0.2431056607245809 0 -0.32066485276457768 -0.2334308190911655 0 -0.32023222063025569 -0.2489608815952247 0 -0.33132333615916232 -0.2411148243472106 0 -0.32066485276457768 -0.2334308190911655 0 -0.32023222063025569 -0.2489608815952247 0 -0.43445882011373449 -0.25478651907497341 0 -0.43806130733353449 -0.23541812032183559 0 -0.43445882011373449 -0.25478651907497341 0 -0.4258852610480256 -0.24284815888716721 0 -0.43806130733353449 -0.23541812032183559 0 -0.4258852610480256 -0.24284815888716721 0 -0.42538833238501789 -0.2333934851751748 0 -0.41698539980062188 -0.23875950084572559 0 -0.43445882011373449 -0.25478651907497341 0 -0.4258852610480256 -0.24284815888716721 0 -0.42335340856967768 -0.24893549408922019 0 -0.4258852610480256 -0.24284815888716721 0 -0.42538833238501789 -0.2333934851751748 0 -0.43806130733353449 -0.23541812032183559 0 -0.43091611572645672 -0.22699763907763329 0 -0.42538833238501789 -0.2333934851751748 0 -0.43806130733353449 -0.23541812032183559 0 -0.43091611572645672 -0.22699763907763329 0 -0.44166379455333399 -0.21604972156869759 0 -0.43806130733353449 -0.23541812032183559 0 -0.43091611572645672 -0.22699763907763329 0 -0.43133498143110582 -0.21921018883561361 0 -0.44166379455333399 -0.21604972156869759 0 -0.43133498143110582 -0.21921018883561361 0 -0.4232485836513401 -0.22477446532261011 0 -0.4232102070061276 -0.21869015764887889 0 -0.43091611572645672 -0.22699763907763329 0 -0.43133498143110582 -0.21921018883561361 0 -0.4232485836513401 -0.22477446532261011 0 -0.43091611572645672 -0.22699763907763329 0 -0.4232485836513401 -0.22477446532261011 0 -0.42538833238501789 -0.2333934851751748 0 -0.4232485836513401 -0.22477446532261011 0 -0.42538833238501789 -0.2333934851751748 0 -0.41731365953457839 -0.2310953018814938 0 -0.4232485836513401 -0.22477446532261011 0 -0.41731365953457839 -0.2310953018814938 0 -0.4121948509493269 -0.2247325638453028 0 -0.41731365953457839 -0.2310953018814938 0 -0.4080561583250083 -0.23272886934204159 0 -0.41698539980062188 -0.23875950084572559 0 -0.4232485836513401 -0.22477446532261011 0 -0.4121948509493269 -0.2247325638453028 0 -0.41685681033243982 -0.21746512418924929 0 -0.4232485836513401 -0.22477446532261011 0 -0.41685681033243982 -0.21746512418924929 0 -0.4232102070061276 -0.21869015764887889 0 -0.4121948509493269 -0.2247325638453028 0 -0.4080561583250083 -0.23272886934204159 0 -0.39971520205611372 -0.2221352637332015 0 -0.4121948509493269 -0.2247325638453028 0 -0.40807454407470489 -0.21592977391801271 0 -0.41685681033243982 -0.21746512418924929 0 -0.4121948509493269 -0.2247325638453028 0 -0.39971520205611372 -0.2221352637332015 0 -0.40807454407470489 -0.21592977391801271 0 -0.41731365953457839 -0.2310953018814938 0 -0.4121948509493269 -0.2247325638453028 0 -0.4080561583250083 -0.23272886934204159 0 -0.4080561583250083 -0.23272886934204159 0 -0.40983148527785651 -0.24118391776602099 0 -0.41698539980062188 -0.23875950084572559 0 -0.42538833238501789 -0.2333934851751748 0 -0.41731365953457839 -0.2310953018814938 0 -0.41698539980062188 -0.23875950084572559 0 -0.40983148527785651 -0.24118391776602099 0 -0.41698539980062188 -0.23875950084572559 0 -0.41627810448972868 -0.24641300060905449 0 -0.4258852610480256 -0.24284815888716721 0 -0.42335340856967768 -0.24893549408922019 0 -0.41627810448972868 -0.24641300060905449 0 -0.4258852610480256 -0.24284815888716721 0 -0.41698539980062188 -0.23875950084572559 0 -0.41627810448972868 -0.24641300060905449 0 -0.41679144862722167 -0.25169429778568547 0 -0.42335340856967768 -0.24893549408922019 0 -0.41627810448972868 -0.24641300060905449 0 -0.41385673751816382 -0.25312989710486528 0 -0.41627810448972868 -0.24641300060905449 0 -0.4086566941719203 -0.24778871483445111 0 -0.40983148527785651 -0.24118391776602099 0 -0.41627810448972868 -0.24641300060905449 0 -0.4086566941719203 -0.24778871483445111 0 -0.40282532782868952 -0.25224285689579767 0 -0.4086566941719203 -0.24778871483445111 0 -0.40022281387448849 -0.24084313907701979 0 -0.40983148527785651 -0.24118391776602099 0 -0.4086566941719203 -0.24778871483445111 0 -0.40022281387448849 -0.24084313907701979 0 -0.4080561583250083 -0.23272886934204159 0 -0.40983148527785651 -0.24118391776602099 0 -0.40022281387448849 -0.24084313907701979 0 -0.40022281387448849 -0.24084313907701979 0 -0.3903832871219331 -0.2411545733314838 0 -0.38772777019650018 -0.2315142496456449 0 -0.3938256931015453 -0.25037754026629511 0 -0.40022281387448849 -0.24084313907701979 0 -0.3903832871219331 -0.2411545733314838 0 -0.3938256931015453 -0.25037754026629511 0 -0.3903832871219331 -0.2411545733314838 0 -0.37747963509906429 -0.24508953120583671 0 -0.3903832871219331 -0.2411545733314838 0 -0.37747963509906429 -0.24508953120583671 0 -0.38772777019650018 -0.2315142496456449 0 -0.37747963509906429 -0.24508953120583671 0 -0.37785639846487218 -0.21906994256996459 0 -0.37747963509906429 -0.24508953120583671 0 -0.37785639846487218 -0.21906994256996459 0 -0.38772777019650018 -0.2315142496456449 0 -0.36983275924353248 -0.22875232439276311 0 -0.37747963509906429 -0.24508953120583671 0 -0.37785639846487218 -0.21906994256996459 0 -0.37785639846487218 -0.21906994256996459 0 -0.38772777019650018 -0.2315142496456449 0 -0.38790285805175961 -0.2167146319195192 0 -0.4080561583250083 -0.23272886934204159 0 -0.40022281387448849 -0.24084313907701979 0 -0.39971520205611372 -0.2221352637332015 0 -0.40022281387448849 -0.24084313907701979 0 -0.39971520205611372 -0.2221352637332015 0 -0.38772777019650018 -0.2315142496456449 0 -0.39971520205611372 -0.2221352637332015 0 -0.38790285805175961 -0.2167146319195192 0 -0.40022281387448849 -0.24084313907701979 0 -0.38772777019650018 -0.2315142496456449 0 -0.39971520205611372 -0.2221352637332015 0 -0.39971520205611372 -0.2221352637332015 0 -0.39723076172532301 -0.205782178410022 0 -0.40807454407470489 -0.21592977391801271 0 -0.39971520205611372 -0.2221352637332015 0 -0.39723076172532301 -0.205782178410022 0 -0.38790285805175961 -0.2167146319195192 0 -0.39723076172532301 -0.205782178410022 0 -0.41303892827123678 -0.21093405469715851 0 -0.40807454407470489 -0.21592977391801271 0 -0.37373608311303341 -0.20786508091529229 0 -0.39723076172532301 -0.205782178410022 0 -0.38370630256805799 -0.1971119561512929 0 -0.37373608311303341 -0.20786508091529229 0 -0.39723076172532301 -0.205782178410022 0 -0.38790285805175961 -0.2167146319195192 0 -0.37373608311303341 -0.20786508091529229 0 -0.39723076172532301 -0.205782178410022 0 -0.37373608311303341 -0.20786508091529229 0 -0.37785639846487218 -0.21906994256996459 0 -0.38790285805175961 -0.2167146319195192 0 -0.36895563931783232 -0.19259611207654981 0 -0.38370630256805799 -0.1971119561512929 0 -0.3831693110633177 -0.1873742460103984 0 -0.36895563931783232 -0.19259611207654981 0 -0.37373608311303341 -0.20786508091529229 0 -0.38370630256805799 -0.1971119561512929 0 -0.38370630256805799 -0.1971119561512929 0 -0.39543971762078378 -0.19194216334420211 0 -0.3831693110633177 -0.1873742460103984 0 -0.39723076172532301 -0.205782178410022 0 -0.38370630256805799 -0.1971119561512929 0 -0.39543971762078378 -0.19194216334420211 0 -0.39723076172532301 -0.205782178410022 0 -0.39543971762078378 -0.19194216334420211 0 -0.40534117689708921 -0.19634387975323889 0 -0.39543971762078378 -0.19194216334420211 0 -0.40534117689708921 -0.19634387975323889 0 -0.40730162077548249 -0.18407395049314179 0 -0.39723076172532301 -0.205782178410022 0 -0.40534117689708921 -0.19634387975323889 0 -0.42072544033761272 -0.20369927590475301 0 -0.42032122747045741 -0.1927313373696285 0 -0.42072544033761272 -0.20369927590475301 0 -0.40730162077548249 -0.18407395049314179 0 -0.42072544033761272 -0.20369927590475301 0 -0.40730162077548249 -0.18407395049314179 0 -0.40534117689708921 -0.19634387975323889 0 -0.42072544033761272 -0.20369927590475301 0 -0.40730162077548249 -0.18407395049314179 0 -0.39723076172532301 -0.205782178410022 0 -0.41303892827123678 -0.21093405469715851 0 -0.42072544033761272 -0.20369927590475301 0 -0.39723076172532301 -0.205782178410022 0 -0.42072544033761272 -0.20369927590475301 0 -0.41303892827123678 -0.21093405469715851 0 -0.40807454407470489 -0.21592977391801271 0 -0.41685681033243982 -0.21746512418924929 0 -0.41303892827123678 -0.21093405469715851 0 -0.41685681033243982 -0.21746512418924929 0 -0.42140045260962489 -0.21331085224804261 0 -0.41685681033243982 -0.21746512418924929 0 -0.42140045260962489 -0.21331085224804261 0 -0.4232102070061276 -0.21869015764887889 0 -0.41303892827123678 -0.21093405469715851 0 -0.42140045260962489 -0.21331085224804261 0 -0.42072544033761272 -0.20369927590475301 0 -0.42512182626149492 -0.2033095177213731 0 -0.43378961613155448 -0.20908682079381441 0 -0.44184138868315109 -0.20247798044170351 0 -0.42072544033761272 -0.20369927590475301 0 -0.42512182626149492 -0.2033095177213731 0 -0.43133498143110582 -0.21921018883561361 0 -0.42072544033761272 -0.20369927590475301 0 -0.42512182626149492 -0.2033095177213731 0 -0.43133498143110582 -0.21921018883561361 0 -0.42512182626149492 -0.2033095177213731 0 -0.43378961613155448 -0.20908682079381441 0 -0.43133498143110582 -0.21921018883561361 0 -0.42140045260962489 -0.21331085224804261 0 -0.4232102070061276 -0.21869015764887889 0 -0.43133498143110582 -0.21921018883561361 0 -0.42072544033761272 -0.20369927590475301 0 -0.43133498143110582 -0.21921018883561361 0 -0.42140045260962489 -0.21331085224804261 0 -0.42072544033761272 -0.20369927590475301 0 -0.43133498143110582 -0.21921018883561361 0 -0.43378961613155448 -0.20908682079381441 0 -0.44166379455333399 -0.21604972156869759 0 -0.42032122747045741 -0.1927313373696285 0 -0.44184138868315109 -0.20247798044170351 0 -0.42032122747045741 -0.1927313373696285 0 -0.43099962817645188 -0.18319011649723049 0 -0.43833565968517207 -0.19112957676178299 0 -0.42032122747045741 -0.1927313373696285 0 -0.42512182626149492 -0.2033095177213731 0 -0.44184138868315109 -0.20247798044170351 0 -0.42032122747045741 -0.1927313373696285 0 -0.43833565968517207 -0.19112957676178299 0 -0.44184138868315109 -0.20247798044170351 0 -0.42032122747045741 -0.1927313373696285 0 -0.42072544033761272 -0.20369927590475301 0 -0.42512182626149492 -0.2033095177213731 0 -0.42549584187692119 -0.17333418479170171 0 -0.43099962817645188 -0.18319011649723049 0 -0.41834400919125792 -0.18158621355319651 0 -0.42032122747045741 -0.1927313373696285 0 -0.43099962817645188 -0.18319011649723049 0 -0.41834400919125792 -0.18158621355319651 0 -0.43099962817645188 -0.18319011649723049 0 -0.43495901877196291 -0.17485617288990979 0 -0.44455133712372419 -0.18300714728765441 0 -0.42549584187692119 -0.17333418479170171 0 -0.43099962817645188 -0.18319011649723049 0 -0.43495901877196291 -0.17485617288990979 0 -0.42549584187692119 -0.17333418479170171 0 -0.43495901877196291 -0.17485617288990979 0 -0.43155613508544272 -0.1669321437644439 0 -0.43495901877196291 -0.17485617288990979 0 -0.43155613508544272 -0.1669321437644439 0 -0.44219215159727421 -0.16781727210851849 0 -0.43155613508544272 -0.1669321437644439 0 -0.43166640735559808 -0.1552039120346444 0 -0.44219215159727421 -0.16781727210851849 0 -0.43155613508544272 -0.1669321437644439 0 -0.4214232379976206 -0.16216052115063159 0 -0.43166640735559808 -0.1552039120346444 0 -0.42549584187692119 -0.17333418479170171 0 -0.43155613508544272 -0.1669321437644439 0 -0.4214232379976206 -0.16216052115063159 0 -0.42549584187692119 -0.17333418479170171 0 -0.4214232379976206 -0.16216052115063159 0 -0.41110577652129249 -0.1670682470007229 0 -0.4214232379976206 -0.16216052115063159 0 -0.41110577652129249 -0.1670682470007229 0 -0.40669002996807779 -0.1495058137550834 0 -0.41110577652129249 -0.1670682470007229 0 -0.41834400919125792 -0.18158621355319651 0 -0.40730162077548249 -0.18407395049314179 0 -0.42549584187692119 -0.17333418479170171 0 -0.41110577652129249 -0.1670682470007229 0 -0.41834400919125792 -0.18158621355319651 0 -0.42032122747045741 -0.1927313373696285 0 -0.41834400919125792 -0.18158621355319651 0 -0.40730162077548249 -0.18407395049314179 0 -0.39543971762078378 -0.19194216334420211 0 -0.40730162077548249 -0.18407395049314179 0 -0.39267839793348491 -0.17927693187167279 0 -0.40730162077548249 -0.18407395049314179 0 -0.39267839793348491 -0.17927693187167279 0 -0.39387780121335469 -0.16444862508152899 0 -0.40730162077548249 -0.18407395049314179 0 -0.39387780121335469 -0.16444862508152899 0 -0.37378547386561772 -0.17392500984250869 0 -0.36895563931783232 -0.19259611207654981 0 -0.3831693110633177 -0.1873742460103984 0 -0.37378547386561772 -0.17392500984250869 0 -0.39267839793348491 -0.17927693187167279 0 -0.3831693110633177 -0.1873742460103984 0 -0.37378547386561772 -0.17392500984250869 0 -0.39267839793348491 -0.17927693187167279 0 -0.39387780121335469 -0.16444862508152899 0 -0.39543971762078378 -0.19194216334420211 0 -0.39267839793348491 -0.17927693187167279 0 -0.3831693110633177 -0.1873742460103984 0 -0.37378547386561772 -0.17392500984250869 0 -0.37839901512320262 -0.15996290040625341 0 -0.39387780121335469 -0.16444862508152899 0 -0.37839901512320262 -0.15996290040625341 0 -0.39387780121335469 -0.16444862508152899 0 -0.3804539816512269 -0.14482329966991631 0 -0.41110577652129249 -0.1670682470007229 0 -0.39387780121335469 -0.16444862508152899 0 -0.40669002996807779 -0.1495058137550834 0 -0.41110577652129249 -0.1670682470007229 0 -0.40730162077548249 -0.18407395049314179 0 -0.39387780121335469 -0.16444862508152899 0 -0.39387780121335469 -0.16444862508152899 0 -0.3804539816512269 -0.14482329966991631 0 -0.40669002996807779 -0.1495058137550834 0 -0.3804539816512269 -0.14482329966991631 0 -0.39647179587780151 -0.13189450107720049 0 -0.40669002996807779 -0.1495058137550834 0 -0.3804539816512269 -0.14482329966991631 0 -0.40669002996807779 -0.1495058137550834 0 -0.39387780121335469 -0.16444862508152899 0 -0.3804539816512269 -0.14482329966991631 0 -0.3804539816512269 -0.14482329966991631 0 -0.38278168804071749 -0.12940228238898679 0 -0.39647179587780151 -0.13189450107720049 0 -0.3804539816512269 -0.14482329966991631 0 -0.39647179587780151 -0.13189450107720049 0 -0.37212838853434238 -0.11808059788504249 0 -0.37028068739271691 -0.13083580994494901 0 -0.38278168804071749 -0.12940228238898679 0 -0.37028068739271691 -0.13083580994494901 0 -0.3804539816512269 -0.14482329966991631 0 -0.38278168804071749 -0.12940228238898679 0 -0.38278168804071749 -0.12940228238898679 0 -0.39647179587780151 -0.13189450107720049 0 -0.39044023874876249 -0.11757149150947201 0 -0.39647179587780151 -0.13189450107720049 0 -0.40828286160401828 -0.1310364195873514 0 -0.40669002996807779 -0.1495058137550834 0 -0.39647179587780151 -0.13189450107720049 0 -0.40828286160401828 -0.1310364195873514 0 -0.41122993917504558 -0.1199812866788818 0 -0.39647179587780151 -0.13189450107720049 0 -0.41122993917504558 -0.1199812866788818 0 -0.40828286160401828 -0.1310364195873514 0 -0.41930562378398423 -0.12797048681614909 0 -0.41122993917504558 -0.1199812866788818 0 -0.41930562378398423 -0.12797048681614909 0 -0.41533589961201212 -0.13938201891822019 0 -0.4273858072007774 -0.14414008567558009 0 -0.40828286160401828 -0.1310364195873514 0 -0.41533589961201212 -0.13938201891822019 0 -0.40669002996807779 -0.1495058137550834 0 -0.40828286160401828 -0.1310364195873514 0 -0.41930562378398423 -0.12797048681614909 0 -0.41533589961201212 -0.13938201891822019 0 -0.40669002996807779 -0.1495058137550834 0 -0.43166640735559808 -0.1552039120346444 0 -0.4214232379976206 -0.16216052115063159 0 -0.40669002996807779 -0.1495058137550834 0 -0.43166640735559808 -0.1552039120346444 0 -0.41533589961201212 -0.13938201891822019 0 -0.40669002996807779 -0.1495058137550834 0 -0.4273858072007774 -0.14414008567558009 0 -0.40669002996807779 -0.1495058137550834 0 -0.4273858072007774 -0.14414008567558009 0 -0.43166640735559808 -0.1552039120346444 0 -0.43166640735559808 -0.1552039120346444 0 -0.43525592456887258 -0.14374997194848471 0 -0.44410307239699631 -0.15282998285397989 0 -0.4273858072007774 -0.14414008567558009 0 -0.43166640735559808 -0.1552039120346444 0 -0.43525592456887258 -0.14374997194848471 0 -0.41930562378398423 -0.12797048681614909 0 -0.43525592456887258 -0.14374997194848471 0 -0.41930562378398423 -0.12797048681614909 0 -0.4273858072007774 -0.14414008567558009 0 -0.43525592456887258 -0.14374997194848471 0 -0.41930562378398423 -0.12797048681614909 0 -0.4273858072007774 -0.14414008567558009 0 -0.41930562378398423 -0.12797048681614909 0 -0.43525592456887258 -0.14374997194848471 0 -0.43389101300267191 -0.13422730327376839 0 -0.41930562378398423 -0.12797048681614909 0 -0.43389101300267191 -0.13422730327376839 0 -0.4149348530849476 -0.1169905694289516 0 -0.43389101300267191 -0.13422730327376839 0 -0.4149348530849476 -0.1169905694289516 0 -0.43389101300267191 -0.13422730327376839 0 -0.43160182387889101 -0.1187955019330571 0 -0.44085253015216358 -0.1237950587173612 0 -0.43389101300267191 -0.13422730327376839 0 -0.44872577578551592 -0.13320174295465559 0 -0.452847172920396 -0.1514640371185853 0 -0.44872577578551592 -0.13320174295465559 0 -0.45896755277767909 -0.12575633132281341 0 -0.45000974795797011 -0.119430952696417 0 -0.44872577578551592 -0.13320174295465559 0 -0.45000974795797011 -0.119430952696417 0 -0.44085253015216358 -0.1237950587173612 0 -0.43389101300267191 -0.13422730327376839 0 -0.44872577578551592 -0.13320174295465559 0 -0.44085253015216358 -0.1237950587173612 0 -0.43525592456887258 -0.14374997194848471 0 -0.43389101300267191 -0.13422730327376839 0 -0.452847172920396 -0.1514640371185853 0 -0.43525592456887258 -0.14374997194848471 0 -0.44410307239699631 -0.15282998285397989 0 -0.452847172920396 -0.1514640371185853 0 -0.44872577578551592 -0.13320174295465559 0 -0.452847172920396 -0.1514640371185853 0 -0.456386085566235 -0.14096643446963419 0 -0.43389101300267191 -0.13422730327376839 0 -0.452847172920396 -0.1514640371185853 0 -0.44410307239699631 -0.15282998285397989 0 -0.452847172920396 -0.1514640371185853 0 -0.45664278474311831 -0.16090201031420531 0 -0.452847172920396 -0.1514640371185853 0 -0.456386085566235 -0.14096643446963419 0 -0.46738274896045578 -0.15003021006820461 0 -0.452847172920396 -0.1514640371185853 0 -0.46738274896045578 -0.15003021006820461 0 -0.45664278474311831 -0.16090201031420531 0 -0.456386085566235 -0.14096643446963419 0 -0.46738274896045578 -0.15003021006820461 0 -0.47200539146090159 -0.13839174763128981 0 -0.456386085566235 -0.14096643446963419 0 -0.47200539146090159 -0.13839174763128981 0 -0.47750202174635031 -0.1215216316744509 0 -0.456386085566235 -0.14096643446963419 0 -0.45896755277767909 -0.12575633132281341 0 -0.47750202174635031 -0.1215216316744509 0 -0.456386085566235 -0.14096643446963419 0 -0.47750202174635031 -0.1215216316744509 0 -0.44872577578551592 -0.13320174295465559 0 -0.456386085566235 -0.14096643446963419 0 -0.45896755277767909 -0.12575633132281341 0 -0.47200539146090159 -0.13839174763128981 0 -0.48675070957056549 -0.14104871431286931 0 -0.47750202174635031 -0.1215216316744509 0 -0.50000000000000011 -0.12648838757554831 0 -0.48675070957056549 -0.14104871431286931 0 -0.5 -0.15043640832747529 0 -0.50000000000000011 -0.12648838757554831 0 -0.48675070957056549 -0.14104871431286931 0 -0.47750202174635031 -0.1215216316744509 0 -0.48675070957056549 -0.14104871431286931 0 -0.5 -0.15043640832747529 0 -0.48062174440056549 -0.15969986187448909 0 -0.46738274896045578 -0.15003021006820461 0 -0.47200539146090159 -0.13839174763128981 0 -0.48675070957056549 -0.14104871431286931 0 -0.48675070957056549 -0.14104871431286931 0 -0.48062174440056549 -0.15969986187448909 0 -0.46738274896045578 -0.15003021006820461 0 -0.48675070957056549 -0.14104871431286931 0 -0.48062174440056549 -0.15969986187448909 0 -0.48062174440056549 -0.15969986187448909 0 -0.46548313673471758 -0.16971310035941381 0 -0.46753260370971428 -0.1600862956540782 0 -0.46738274896045578 -0.15003021006820461 0 -0.48062174440056549 -0.15969986187448909 0 -0.46753260370971428 -0.1600862956540782 0 -0.48062174440056549 -0.15969986187448909 0 -0.47449277923056221 -0.17835100943610771 0 -0.46548313673471758 -0.16971310035941381 0 -0.48062174440056549 -0.15969986187448909 0 -0.47449277923056221 -0.17835100943610771 0 -0.5 -0.15043640832747529 0 -0.48062174440056549 -0.15969986187448909 0 -0.49999999999999828 -0.17438442907940241 0 -0.48062174440056549 -0.15969986187448909 0 -0.49999999999999828 -0.17438442907940241 0 -0.47449277923056221 -0.17835100943610771 0 -0.49999999999999828 -0.17438442907940241 0 -0.47449277923056221 -0.17835100943610771 0 -0.49999999999999828 -0.17438442907940241 0 -0.47449277923056221 -0.17835100943610771 0 -0.48549376880548989 -0.19132810400505559 0 -0.47449277923056221 -0.17835100943610771 0 -0.46892716456320649 -0.19528781647494389 0 -0.47449277923056221 -0.17835100943610771 0 -0.45952205817714309 -0.18067907836188021 0 -0.46892716456320649 -0.19528781647494389 0 -0.45952205817714309 -0.18067907836188021 0 -0.46548313673471758 -0.16971310035941381 0 -0.45289664290439807 -0.17180374819378549 0 -0.47449277923056221 -0.17835100943610771 0 -0.45952205817714309 -0.18067907836188021 0 -0.47449277923056221 -0.17835100943610771 0 -0.45952205817714309 -0.18067907836188021 0 -0.46548313673471758 -0.16971310035941381 0 -0.46548313673471758 -0.16971310035941381 0 -0.46753260370971428 -0.1600862956540782 0 -0.45664278474311831 -0.16090201031420531 0 -0.46738274896045578 -0.15003021006820461 0 -0.46753260370971428 -0.1600862956540782 0 -0.45664278474311831 -0.16090201031420531 0 -0.46548313673471758 -0.16971310035941381 0 -0.45664278474311831 -0.16090201031420531 0 -0.45289664290439807 -0.17180374819378549 0 -0.45664278474311831 -0.16090201031420531 0 -0.45289664290439807 -0.17180374819378549 0 -0.44219215159727421 -0.16781727210851849 0 -0.43166640735559808 -0.1552039120346444 0 -0.45664278474311831 -0.16090201031420531 0 -0.44219215159727421 -0.16781727210851849 0 -0.43166640735559808 -0.1552039120346444 0 -0.45664278474311831 -0.16090201031420531 0 -0.43166640735559808 -0.1552039120346444 0 -0.44410307239699631 -0.15282998285397989 0 -0.45664278474311831 -0.16090201031420531 0 -0.43495901877196291 -0.17485617288990979 0 -0.44219215159727421 -0.16781727210851849 0 -0.44455133712372419 -0.18300714728765441 0 -0.43099962817645188 -0.18319011649723049 0 -0.44455133712372419 -0.18300714728765441 0 -0.43833565968517207 -0.19112957676178299 0 -0.45952205817714309 -0.18067907836188021 0 -0.44455133712372419 -0.18300714728765441 0 -0.45396471697207569 -0.194241302212698 0 -0.45952205817714309 -0.18067907836188021 0 -0.44455133712372419 -0.18300714728765441 0 -0.45952205817714309 -0.18067907836188021 0 -0.45289664290439807 -0.17180374819378549 0 -0.44455133712372419 -0.18300714728765441 0 -0.45289664290439807 -0.17180374819378549 0 -0.44219215159727421 -0.16781727210851849 0 -0.44455133712372419 -0.18300714728765441 0 -0.44455133712372419 -0.18300714728765441 0 -0.43833565968517207 -0.19112957676178299 0 -0.45396471697207569 -0.194241302212698 0 -0.43833565968517207 -0.19112957676178299 0 -0.44184138868315109 -0.20247798044170351 0 -0.45396471697207569 -0.194241302212698 0 -0.44184138868315109 -0.20247798044170351 0 -0.46336154989584488 -0.2122246235137781 0 -0.45396471697207569 -0.194241302212698 0 -0.44184138868315109 -0.20247798044170351 0 -0.46336154989584488 -0.2122246235137781 0 -0.45338394269579491 -0.2190794284651259 0 -0.43378961613155448 -0.20908682079381441 0 -0.44184138868315109 -0.20247798044170351 0 -0.44166379455333399 -0.21604972156869759 0 -0.44184138868315109 -0.20247798044170351 0 -0.44166379455333399 -0.21604972156869759 0 -0.45338394269579491 -0.2190794284651259 0 -0.44184138868315109 -0.20247798044170351 0 -0.46336154989584488 -0.2122246235137781 0 -0.46336154989584488 -0.2122246235137781 0 -0.46892716456320649 -0.19528781647494389 0 -0.46336154989584488 -0.2122246235137781 0 -0.45396471697207569 -0.194241302212698 0 -0.46892716456320649 -0.19528781647494389 0 -0.45952205817714309 -0.18067907836188021 0 -0.45396471697207569 -0.194241302212698 0 -0.46892716456320649 -0.19528781647494389 0 -0.47449277923056221 -0.17835100943610771 0 -0.46892716456320649 -0.19528781647494389 0 -0.48549376880548989 -0.19132810400505559 0 -0.46892716456320649 -0.19528781647494389 0 -0.48549376880548989 -0.19132810400505559 0 -0.47978640147694102 -0.20418872613165631 0 -0.5 -0.20182215567114031 0 -0.48549376880548989 -0.19132810400505559 0 -0.47978640147694102 -0.20418872613165631 0 -0.49999999999999828 -0.17438442907940241 0 -0.5 -0.20182215567114031 0 -0.48549376880548989 -0.19132810400505559 0 -0.5 -0.20182215567114031 0 -0.48114952412016337 -0.22028093099336349 0 -0.49893749834448198 -0.22833723847294871 0 -0.5 -0.20182215567114031 0 -0.47978640147694102 -0.20418872613165631 0 -0.48114952412016337 -0.22028093099336349 0 -0.46336154989584488 -0.2122246235137781 0 -0.48114952412016337 -0.22028093099336349 0 -0.46336154989584488 -0.2122246235137781 0 -0.47978640147694102 -0.20418872613165631 0 -0.48114952412016337 -0.22028093099336349 0 -0.46336154989584488 -0.2122246235137781 0 -0.46892716456320649 -0.19528781647494389 0 -0.47978640147694102 -0.20418872613165631 0 -0.46336154989584488 -0.2122246235137781 0 -0.48114952412016337 -0.22028093099336349 0 -0.46857810181099829 -0.22486784275082261 0 -0.48114952412016337 -0.22028093099336349 0 -0.48798868478634799 -0.231470988200419 0 -0.47142395938804471 -0.23802335247430181 0 -0.48114952412016337 -0.22028093099336349 0 -0.47142395938804471 -0.23802335247430181 0 -0.46857810181099829 -0.22486784275082261 0 -0.48114952412016337 -0.22028093099336349 0 -0.48798868478634799 -0.231470988200419 0 -0.49893749834448198 -0.22833723847294871 0 -0.48114952412016337 -0.22028093099336349 0 -0.49893749834448198 -0.22833723847294871 0 -0.48798868478634799 -0.231470988200419 0 -0.49893749834448198 -0.22833723847294871 0 -0.4875835208682564 -0.24248539692068891 0 -0.5 -0.25669760885461612 0 -0.49893749834448198 -0.22833723847294871 0 -0.4875835208682564 -0.24248539692068891 0 -0.48798868478634799 -0.231470988200419 0 -0.4875835208682564 -0.24248539692068891 0 -0.47142395938804471 -0.23802335247430181 0 -0.47878778985378329 -0.25835102983948688 0 -0.4875835208682564 -0.24248539692068891 0 -0.47142395938804471 -0.23802335247430181 0 -0.45662330498375908 -0.25656877445722759 0 -0.47142395938804471 -0.23802335247430181 0 -0.45034617445999431 -0.24335722649563979 0 -0.47142395938804471 -0.23802335247430181 0 -0.45735065046854989 -0.23051648340969341 0 -0.45034617445999431 -0.24335722649563979 0 -0.46336154989584488 -0.2122246235137781 0 -0.46857810181099829 -0.22486784275082261 0 -0.45735065046854989 -0.23051648340969341 0 -0.46336154989584488 -0.2122246235137781 0 -0.45735065046854989 -0.23051648340969341 0 -0.47142395938804471 -0.23802335247430181 0 -0.46857810181099829 -0.22486784275082261 0 -0.45735065046854989 -0.23051648340969341 0 -0.46336154989584488 -0.2122246235137781 0 -0.45338394269579491 -0.2190794284651259 0 -0.45735065046854989 -0.23051648340969341 0 -0.45338394269579491 -0.2190794284651259 0 -0.45735065046854989 -0.23051648340969341 0 -0.43806130733353449 -0.23541812032183559 0 -0.44166379455333399 -0.21604972156869759 0 -0.43806130733353449 -0.23541812032183559 0 -0.44166379455333399 -0.21604972156869759 0 -0.45338394269579491 -0.2190794284651259 0 -0.43806130733353449 -0.23541812032183559 0 -0.45735065046854989 -0.23051648340969341 0 -0.45034617445999431 -0.24335722649563979 0 -0.43806130733353449 -0.23541812032183559 0 -0.43445882011373449 -0.25478651907497341 0 -0.45034617445999431 -0.24335722649563979 0 -0.43806130733353449 -0.23541812032183559 0 -0.41324955929443102 -0.038374170610562031 0 -0.41005136228565903 -0.05540387285823338 0 -0.42435348212729052 -0.04457483879584373 0 -0.41324955929443102 -0.038374170610562031 0 -0.41005136228565903 -0.05540387285823338 0 -0.39900851660089293 -0.046429079601448257 0 -0.41324955929443102 -0.038374170610562031 0 -0.40747857107326091 -0.02424585309778798 0 -0.40045416304880688 -0.034240371911693122 0 -0.41005136228565903 -0.05540387285823338 0 -0.4246600563061857 -0.059067830999859447 0 -0.41422906440869389 -0.068128229862373102 0 -0.41005136228565903 -0.05540387285823338 0 -0.4246600563061857 -0.059067830999859447 0 -0.42435348212729052 -0.04457483879584373 0 -0.4246600563061857 -0.059067830999859447 0 -0.42435348212729052 -0.04457483879584373 0 -0.43957367317472601 -0.045089571971719818 0 -0.4246600563061857 -0.059067830999859447 0 -0.43957367317472601 -0.045089571971719818 0 -0.44544580640037118 -0.056213229689383748 0 -0.41324955929443102 -0.038374170610562031 0 -0.42435348212729052 -0.04457483879584373 0 -0.42981912379901888 -0.030443092666165631 0 -0.42435348212729052 -0.04457483879584373 0 -0.42981912379901888 -0.030443092666165631 0 -0.43957367317472601 -0.045089571971719818 0 -0.41302196833726168 -0.01226972299954816 0 -0.4392085005598273 -0.024676348383282701 0 -0.42659341977192161 -0.010103830507352861 0 -0.41302196833726168 -0.01226972299954816 0 -0.4392085005598273 -0.024676348383282701 0 -0.42981912379901888 -0.030443092666165631 0 -0.41673372021425997 -0.022240754673565791 0 -0.4392085005598273 -0.024676348383282701 0 -0.41302196833726168 -0.01226972299954816 0 -0.41673372021425997 -0.022240754673565791 0 -0.4392085005598273 -0.024676348383282701 0 -0.43741768347029059 -0.01288367903972009 0 -0.42659341977192161 -0.010103830507352861 0 -0.4392085005598273 -0.024676348383282701 0 -0.4441818909265971 -0.00998157505946092 0 -0.42578104856505677 0.0031949168855625672 0 -0.43741768347029059 -0.01288367903972009 0 -0.4441818909265971 -0.00998157505946092 0 -0.42578104856505677 0.0031949168855625672 0 -0.43741768347029059 -0.01288367903972009 0 -0.42659341977192161 -0.010103830507352861 0 -0.42578104856505677 0.0031949168855625672 0 -0.43741768347029059 -0.01288367903972009 0 -0.42578104856505677 0.0031949168855625672 0 -0.42659341977192161 -0.010103830507352861 0 -0.41753789792717189 -0.0038843189997757009 0 -0.42578104856505677 0.0031949168855625672 0 -0.42659341977192161 -0.010103830507352861 0 -0.41753789792717189 -0.0038843189997757009 0 -0.41302196833726168 -0.01226972299954816 0 -0.41753789792717189 -0.0038843189997757009 0 -0.41302196833726168 -0.01226972299954816 0 -0.40771050441737638 -0.0035262849216432719 0 -0.41753789792717189 -0.0038843189997757009 0 -0.40771050441737638 -0.0035262849216432719 0 -0.41105156913745711 0.0034129409419674369 0 -0.42981912379901888 -0.030443092666165631 0 -0.40747857107326091 -0.02424585309778798 0 -0.41324955929443102 -0.038374170610562031 0 -0.42981912379901888 -0.030443092666165631 0 -0.40747857107326091 -0.02424585309778798 0 -0.42981912379901888 -0.030443092666165631 0 -0.41673372021425997 -0.022240754673565791 0 -0.40747857107326091 -0.02424585309778798 0 -0.41302196833726168 -0.01226972299954816 0 -0.41673372021425997 -0.022240754673565791 0 -0.40747857107326091 -0.02424585309778798 0 -0.41673372021425997 -0.022240754673565791 0 -0.40747857107326091 -0.02424585309778798 0 -0.40747857107326091 -0.02424585309778798 0 -0.38992317137517202 -0.02804917422583518 0 -0.40747857107326091 -0.02424585309778798 0 -0.38992317137517202 -0.02804917422583518 0 -0.38297625517291389 -0.017448943304264108 0 -0.40747857107326091 -0.02424585309778798 0 -0.38992317137517202 -0.02804917422583518 0 -0.40045416304880688 -0.034240371911693122 0 -0.40747857107326091 -0.02424585309778798 0 -0.39567459441968961 -0.012635194689989219 0 -0.38297625517291389 -0.017448943304264108 0 -0.40747857107326091 -0.02424585309778798 0 -0.38297625517291389 -0.017448943304264108 0 -0.41302196833726168 -0.01226972299954816 0 -0.40747857107326091 -0.02424585309778798 0 -0.39567459441968961 -0.012635194689989219 0 -0.41302196833726168 -0.01226972299954816 0 -0.40771050441737638 -0.0035262849216432719 0 -0.38683543611469601 0.0001369023841863784 0 -0.41302196833726168 -0.01226972299954816 0 -0.39567459441968961 -0.012635194689989219 0 -0.38683543611469601 0.0001369023841863784 0 -0.41302196833726168 -0.01226972299954816 0 -0.38683543611469601 0.0001369023841863784 0 -0.40771050441737638 -0.0035262849216432719 0 -0.38683543611469601 0.0001369023841863784 0 -0.40226596945639398 0.0014711925349297271 0 -0.39567459441968961 -0.012635194689989219 0 -0.38502252263107412 -0.0084426060797158468 0 -0.38683543611469601 0.0001369023841863784 0 -0.39567459441968961 -0.012635194689989219 0 -0.38502252263107412 -0.0084426060797158468 0 -0.38297625517291389 -0.017448943304264108 0 -0.38502252263107412 -0.0084426060797158468 0 -0.38009964520605882 -0.0090403485437739461 0 -0.38297625517291389 -0.017448943304264108 0 -0.37278444596104371 -0.0079457960458173115 0 -0.38009964520605882 -0.0090403485437739461 0 -0.38297625517291389 -0.017448943304264108 0 -0.37474494217865062 -0.0022388935110706832 0 -0.38502252263107412 -0.0084426060797158468 0 -0.38683543611469601 0.0001369023841863784 0 -0.37474494217865062 -0.0022388935110706832 0 -0.38502252263107412 -0.0084426060797158468 0 -0.38009964520605882 -0.0090403485437739461 0 -0.37474494217865062 -0.0022388935110706832 0 -0.37278444596104371 -0.0079457960458173115 0 -0.38009964520605882 -0.0090403485437739461 0 -0.37236777167708351 -0.031852495353884333 0 -0.38992317137517202 -0.02804917422583518 0 -0.37990921189048049 -0.023302515363219579 0 -0.37236777167708351 -0.031852495353884333 0 -0.38992317137517202 -0.02804917422583518 0 -0.38992317137517202 -0.02804917422583518 0 -0.38297625517291389 -0.017448943304264108 0 -0.37990921189048049 -0.023302515363219579 0 -0.3739022591900184 -0.02415390189740213 0 -0.38297625517291389 -0.017448943304264108 0 -0.37990921189048049 -0.023302515363219579 0 -0.37236777167708351 -0.031852495353884333 0 -0.3739022591900184 -0.02415390189740213 0 -0.37990921189048049 -0.023302515363219579 0 -0.37236777167708351 -0.031852495353884333 0 -0.37990921189048049 -0.023302515363219579 0 -0.38458287424021398 -0.039388642062709187 0 -0.39900851660089293 -0.046429079601448257 0 -0.3815482533063424 -0.052412606119804542 0 -0.37355784227175309 -0.045246792894939887 0 -0.37236777167708351 -0.031852495353884333 0 -0.38458287424021398 -0.039388642062709187 0 -0.37236777167708351 -0.031852495353884333 0 -0.38992317137517202 -0.02804917422583518 0 -0.38458287424021398 -0.039388642062709187 0 -0.37355784227175309 -0.045246792894939887 0 -0.38458287424021398 -0.039388642062709187 0 -0.3815482533063424 -0.052412606119804542 0 -0.38458287424021398 -0.039388642062709187 0 -0.39900851660089293 -0.046429079601448257 0 -0.40045416304880688 -0.034240371911693122 0 -0.38992317137517202 -0.02804917422583518 0 -0.38458287424021398 -0.039388642062709187 0 -0.40045416304880688 -0.034240371911693122 0 -0.41324955929443102 -0.038374170610562031 0 -0.39900851660089293 -0.046429079601448257 0 -0.40045416304880688 -0.034240371911693122 0 -0.39900851660089293 -0.046429079601448257 0 -0.39626447370361728 -0.06091275685647668 0 -0.3815482533063424 -0.052412606119804542 0 -0.41005136228565903 -0.05540387285823338 0 -0.39626447370361728 -0.06091275685647668 0 -0.40517181862379281 -0.066558370858305557 0 -0.41005136228565903 -0.05540387285823338 0 -0.39900851660089293 -0.046429079601448257 0 -0.39626447370361728 -0.06091275685647668 0 -0.36862349457690058 -0.057461967220355487 0 -0.3815482533063424 -0.052412606119804542 0 -0.37947166312044489 -0.067272628224985004 0 -0.3815482533063424 -0.052412606119804542 0 -0.37947166312044489 -0.067272628224985004 0 -0.39260231949431601 -0.074533368335879327 0 -0.36882665317829499 -0.078032107790563188 0 -0.39260231949431601 -0.074533368335879327 0 -0.39626447370361728 -0.06091275685647668 0 -0.3815482533063424 -0.052412606119804542 0 -0.39260231949431601 -0.074533368335879327 0 -0.3815482533063424 -0.052412606119804542 0 -0.39260231949431601 -0.074533368335879327 0 -0.36882665317829499 -0.078032107790563188 0 -0.37947166312044489 -0.067272628224985004 0 -0.39260231949431601 -0.074533368335879327 0 -0.36882665317829499 -0.078032107790563188 0 -0.39260231949431601 -0.074533368335879327 0 -0.39002829617667018 -0.099006697234722524 0 -0.36882665317829499 -0.078032107790563188 0 -0.39002829617667018 -0.099006697234722524 0 -0.37367929427193591 -0.1014825750548952 0 -0.36882665317829499 -0.078032107790563188 0 -0.39002829617667018 -0.099006697234722524 0 -0.39260231949431601 -0.074533368335879327 0 -0.39002829617667018 -0.099006697234722524 0 -0.39510370691593599 -0.098958215311000047 0 -0.39260231949431601 -0.074533368335879327 0 -0.40274583300482147 -0.094831984843681591 0 -0.39260231949431601 -0.074533368335879327 0 -0.39510370691593599 -0.098958215311000047 0 -0.40274583300482147 -0.094831984843681591 0 -0.40361170428446441 -0.083317353290434007 0 -0.39260231949431601 -0.074533368335879327 0 -0.40274583300482147 -0.094831984843681591 0 -0.40361170428446441 -0.083317353290434007 0 -0.39867569396630093 -0.073639632925658519 0 -0.40696916935602839 -0.074517235882718885 0 -0.39867569396630093 -0.073639632925658519 0 -0.40517181862379281 -0.066558370858305557 0 -0.40696916935602839 -0.074517235882718885 0 -0.39626447370361728 -0.06091275685647668 0 -0.39867569396630093 -0.073639632925658519 0 -0.40517181862379281 -0.066558370858305557 0 -0.39626447370361728 -0.06091275685647668 0 -0.39867569396630093 -0.073639632925658519 0 -0.39260231949431601 -0.074533368335879327 0 -0.40361170428446441 -0.083317353290434007 0 -0.39867569396630093 -0.073639632925658519 0 -0.39260231949431601 -0.074533368335879327 0 -0.39867569396630093 -0.073639632925658519 0 -0.39260231949431601 -0.074533368335879327 0 -0.37212838853434238 -0.11808059788504249 0 -0.38278168804071749 -0.12940228238898679 0 -0.39044023874876249 -0.11757149150947201 0 -0.37367929427193591 -0.1014825750548952 0 -0.37212838853434238 -0.11808059788504249 0 -0.39044023874876249 -0.11757149150947201 0 -0.37367929427193591 -0.1014825750548952 0 -0.39044023874876249 -0.11757149150947201 0 -0.39002829617667018 -0.099006697234722524 0 -0.39510370691593599 -0.098958215311000047 0 -0.40274583300482147 -0.094831984843681591 0 -0.41288934651532883 -0.11513060135148299 0 -0.39002829617667018 -0.099006697234722524 0 -0.39510370691593599 -0.098958215311000047 0 -0.41122993917504558 -0.1199812866788818 0 -0.39510370691593599 -0.098958215311000047 0 -0.41288934651532883 -0.11513060135148299 0 -0.39647179587780151 -0.13189450107720049 0 -0.39044023874876249 -0.11757149150947201 0 -0.41122993917504558 -0.1199812866788818 0 -0.39002829617667018 -0.099006697234722524 0 -0.41122993917504558 -0.1199812866788818 0 -0.39044023874876249 -0.11757149150947201 0 -0.39002829617667018 -0.099006697234722524 0 -0.41122993917504558 -0.1199812866788818 0 -0.39510370691593599 -0.098958215311000047 0 -0.41122993917504558 -0.1199812866788818 0 -0.41288934651532883 -0.11513060135148299 0 -0.41930562378398423 -0.12797048681614909 0 -0.41122993917504558 -0.1199812866788818 0 -0.4149348530849476 -0.1169905694289516 0 -0.41930562378398423 -0.12797048681614909 0 -0.41122993917504558 -0.1199812866788818 0 -0.41930562378398423 -0.12797048681614909 0 -0.4149348530849476 -0.1169905694289516 0 -0.41122993917504558 -0.1199812866788818 0 -0.41288934651532883 -0.11513060135148299 0 -0.4149348530849476 -0.1169905694289516 0 -0.41122993917504558 -0.1199812866788818 0 -0.4149348530849476 -0.1169905694289516 0 -0.41288934651532883 -0.11513060135148299 0 -0.4149348530849476 -0.1169905694289516 0 -0.41288934651532883 -0.11513060135148299 0 -0.4149348530849476 -0.1169905694289516 0 -0.41458672172207622 -0.10427776634057311 0 -0.40274583300482147 -0.094831984843681591 0 -0.41288934651532883 -0.11513060135148299 0 -0.4149348530849476 -0.1169905694289516 0 -0.41458672172207622 -0.10427776634057311 0 -0.43059848591229039 -0.1043464168163742 0 -0.40274583300482147 -0.094831984843681591 0 -0.41288934651532883 -0.11513060135148299 0 -0.41458672172207622 -0.10427776634057311 0 -0.41458672172207622 -0.10427776634057311 0 -0.41348552386521947 -0.090840815536544176 0 -0.43025813067654672 -0.08737754853092726 0 -0.40274583300482147 -0.094831984843681591 0 -0.41458672172207622 -0.10427776634057311 0 -0.41348552386521947 -0.090840815536544176 0 -0.43059848591229039 -0.1043464168163742 0 -0.43025813067654672 -0.08737754853092726 0 -0.44626211873963212 -0.091702264203795431 0 -0.41458672172207622 -0.10427776634057311 0 -0.43059848591229039 -0.1043464168163742 0 -0.43025813067654672 -0.08737754853092726 0 -0.41458672172207622 -0.10427776634057311 0 -0.43025813067654672 -0.08737754853092726 0 -0.4149348530849476 -0.1169905694289516 0 -0.43059848591229039 -0.1043464168163742 0 -0.43160182387889101 -0.1187955019330571 0 -0.4149348530849476 -0.1169905694289516 0 -0.43059848591229039 -0.1043464168163742 0 -0.43389101300267191 -0.13422730327376839 0 -0.4149348530849476 -0.1169905694289516 0 -0.43160182387889101 -0.1187955019330571 0 -0.43059848591229039 -0.1043464168163742 0 -0.43160182387889101 -0.1187955019330571 0 -0.44003429013576911 -0.11331979272890801 0 -0.43160182387889101 -0.1187955019330571 0 -0.44085253015216358 -0.1237950587173612 0 -0.44003429013576911 -0.11331979272890801 0 -0.41422906440869389 -0.068128229862373102 0 -0.41539885585273961 -0.080089681603359497 0 -0.42594434486026628 -0.073522222089585226 0 -0.4246600563061857 -0.059067830999859447 0 -0.41422906440869389 -0.068128229862373102 0 -0.42594434486026628 -0.073522222089585226 0 -0.41005136228565903 -0.05540387285823338 0 -0.40517181862379281 -0.066558370858305557 0 -0.41422906440869389 -0.068128229862373102 0 -0.40517181862379281 -0.066558370858305557 0 -0.41422906440869389 -0.068128229862373102 0 -0.40696916935602839 -0.074517235882718885 0 -0.41422906440869389 -0.068128229862373102 0 -0.40696916935602839 -0.074517235882718885 0 -0.41539885585273961 -0.080089681603359497 0 -0.41348552386521947 -0.090840815536544176 0 -0.41539885585273961 -0.080089681603359497 0 -0.43025813067654672 -0.08737754853092726 0 -0.40361170428446441 -0.083317353290434007 0 -0.41348552386521947 -0.090840815536544176 0 -0.41539885585273961 -0.080089681603359497 0 -0.40361170428446441 -0.083317353290434007 0 -0.40696916935602839 -0.074517235882718885 0 -0.41539885585273961 -0.080089681603359497 0 -0.40361170428446441 -0.083317353290434007 0 -0.40274583300482147 -0.094831984843681591 0 -0.41348552386521947 -0.090840815536544176 0 -0.41539885585273961 -0.080089681603359497 0 -0.43025813067654672 -0.08737754853092726 0 -0.42594434486026628 -0.073522222089585226 0 -0.4246600563061857 -0.059067830999859447 0 -0.44592953963101739 -0.07047733072128165 0 -0.43025813067654672 -0.08737754853092726 0 -0.42594434486026628 -0.073522222089585226 0 -0.44592953963101739 -0.07047733072128165 0 -0.4246600563061857 -0.059067830999859447 0 -0.42594434486026628 -0.073522222089585226 0 -0.44592953963101739 -0.07047733072128165 0 -0.44592953963101739 -0.07047733072128165 0 -0.45893666683642192 -0.056450303318209168 0 -0.44592953963101739 -0.07047733072128165 0 -0.44626211873963212 -0.091702264203795431 0 -0.46192575156697407 -0.079058111591217034 0 -0.43025813067654672 -0.08737754853092726 0 -0.44592953963101739 -0.07047733072128165 0 -0.43025813067654672 -0.08737754853092726 0 -0.44592953963101739 -0.07047733072128165 0 -0.44626211873963212 -0.091702264203795431 0 -0.44626211873963212 -0.091702264203795431 0 -0.46631049206888459 -0.091444160656324658 0 -0.46192575156697407 -0.079058111591217034 0 -0.44626211873963212 -0.091702264203795431 0 -0.46192575156697407 -0.079058111591217034 0 -0.46631049206888459 -0.091444160656324658 0 -0.46192575156697407 -0.079058111591217034 0 -0.47702460168979111 -0.087157524427869615 0 -0.44592953963101739 -0.07047733072128165 0 -0.46192575156697407 -0.079058111591217034 0 -0.45893666683642192 -0.056450303318209168 0 -0.46192575156697407 -0.079058111591217034 0 -0.47491389520024407 -0.068573693827893439 0 -0.45893666683642192 -0.056450303318209168 0 -0.46192575156697407 -0.079058111591217034 0 -0.47491389520024407 -0.068573693827893439 0 -0.44592953963101739 -0.07047733072128165 0 -0.46192575156697407 -0.079058111591217034 0 -0.45000974795797011 -0.119430952696417 0 -0.44085253015216358 -0.1237950587173612 0 -0.44003429013576911 -0.11331979272890801 0 -0.45000974795797011 -0.119430952696417 0 -0.44003429013576911 -0.11331979272890801 0 -0.44926481423485548 -0.10476542824413421 0 -0.43059848591229039 -0.1043464168163742 0 -0.44626211873963212 -0.091702264203795431 0 -0.43059848591229039 -0.1043464168163742 0 -0.44626211873963212 -0.091702264203795431 0 -0.44926481423485548 -0.10476542824413421 0 -0.43059848591229039 -0.1043464168163742 0 -0.44003429013576911 -0.11331979272890801 0 -0.44926481423485548 -0.10476542824413421 0 -0.44626211873963212 -0.091702264203795431 0 -0.44926481423485548 -0.10476542824413421 0 -0.46153012095291662 -0.1019472767233552 0 -0.44626211873963212 -0.091702264203795431 0 -0.46631049206888459 -0.091444160656324658 0 -0.46153012095291662 -0.1019472767233552 0 -0.46631049206888459 -0.091444160656324658 0 -0.46153012095291662 -0.1019472767233552 0 -0.4710589232177344 -0.098453604121520433 0 -0.46153012095291662 -0.1019472767233552 0 -0.46221413283232399 -0.11366089481890911 0 -0.47430793409480421 -0.10627177682285049 0 -0.44926481423485548 -0.10476542824413421 0 -0.46153012095291662 -0.1019472767233552 0 -0.46221413283232399 -0.11366089481890911 0 -0.45896755277767909 -0.12575633132281341 0 -0.46221413283232399 -0.11366089481890911 0 -0.47750202174635031 -0.1215216316744509 0 -0.45000974795797011 -0.119430952696417 0 -0.44926481423485548 -0.10476542824413421 0 -0.46221413283232399 -0.11366089481890911 0 -0.45896755277767909 -0.12575633132281341 0 -0.45000974795797011 -0.119430952696417 0 -0.46221413283232399 -0.11366089481890911 0 -0.47750202174635031 -0.1215216316744509 0 -0.47430793409480421 -0.10627177682285049 0 -0.48673501487359588 -0.1010237797652184 0 -0.46221413283232399 -0.11366089481890911 0 -0.47750202174635031 -0.1215216316744509 0 -0.47430793409480421 -0.10627177682285049 0 -0.47430793409480421 -0.10627177682285049 0 -0.47745372589702628 -0.099742000537211661 0 -0.48673501487359588 -0.1010237797652184 0 -0.46153012095291662 -0.1019472767233552 0 -0.47430793409480421 -0.10627177682285049 0 -0.4710589232177344 -0.098453604121520433 0 -0.46631049206888459 -0.091444160656324658 0 -0.4710589232177344 -0.098453604121520433 0 -0.47771303140197108 -0.093218841439257433 0 -0.47430793409480421 -0.10627177682285049 0 -0.4710589232177344 -0.098453604121520433 0 -0.47745372589702628 -0.099742000537211661 0 -0.4710589232177344 -0.098453604121520433 0 -0.47745372589702628 -0.099742000537211661 0 -0.47771303140197108 -0.093218841439257433 0 -0.47745372589702628 -0.099742000537211661 0 -0.48673501487359588 -0.1010237797652184 0 -0.47771303140197108 -0.093218841439257433 0 -0.48673501487359588 -0.1010237797652184 0 -0.47771303140197108 -0.093218841439257433 0 -0.47702460168979111 -0.087157524427869615 0 -0.47750202174635031 -0.1215216316744509 0 -0.48673501487359588 -0.1010237797652184 0 -0.4986179579264654 -0.1020768288792674 0 -0.48673501487359588 -0.1010237797652184 0 -0.49842317329231273 -0.098636270432611556 0 -0.47702460168979111 -0.087157524427869615 0 -0.48673501487359588 -0.1010237797652184 0 -0.49842317329231273 -0.098636270432611556 0 -0.4986179579264654 -0.1020768288792674 0 -0.49999999999999939 -0.099482120969144883 0 -0.49842317329231273 -0.098636270432611556 0 -0.4986179579264654 -0.1020768288792674 0 -0.49842317329231273 -0.098636270432611556 0 -0.4986179579264654 -0.1020768288792674 0 -0.49999999999999939 -0.099482120969144883 0 -0.49842317329231273 -0.098636270432611556 0 -0.50000000000000011 -0.12648838757554831 0 -0.47750202174635031 -0.1215216316744509 0 -0.4986179579264654 -0.1020768288792674 0 -0.47750202174635031 -0.1215216316744509 0 -0.4986179579264654 -0.1020768288792674 0 -0.47491389520024407 -0.068573693827893439 0 -0.47702460168979111 -0.087157524427869615 0 -0.4847984782487687 -0.075944598732494498 0 -0.47491389520024407 -0.068573693827893439 0 -0.47702460168979111 -0.087157524427869615 0 -0.47967839073812912 -0.064727650616396362 0 -0.4847984782487687 -0.075944598732494498 0 -0.48794163871831331 -0.064119883023254248 0 -0.47967839073812912 -0.064727650616396362 0 -0.47491389520024407 -0.068573693827893439 0 -0.4847984782487687 -0.075944598732494498 0 -0.47967839073812912 -0.064727650616396362 0 -0.47491389520024407 -0.068573693827893439 0 -0.46192575156697407 -0.079058111591217034 0 -0.47702460168979111 -0.087157524427869615 0 -0.46192575156697407 -0.079058111591217034 0 -0.47491389520024407 -0.068573693827893439 0 -0.47702460168979111 -0.087157524427869615 0 -0.46631049206888459 -0.091444160656324658 0 -0.47771303140197108 -0.093218841439257433 0 -0.47702460168979111 -0.087157524427869615 0 -0.47771303140197108 -0.093218841439257433 0 -0.47702460168979111 -0.087157524427869615 0 -0.49842317329231273 -0.098636270432611556 0 -0.49712708577170861 -0.075742961183477536 0 -0.4847984782487687 -0.075944598732494498 0 -0.49999999999999939 -0.099482120969144883 0 -0.49842317329231273 -0.098636270432611556 0 -0.5 -0.078030389970551228 0 -0.49842317329231273 -0.098636270432611556 0 -0.49712708577170861 -0.075742961183477536 0 -0.49842317329231273 -0.098636270432611556 0 -0.5 -0.078030389970551228 0 -0.49712708577170861 -0.075742961183477536 0 -0.49842317329231273 -0.098636270432611556 0 -0.47702460168979111 -0.087157524427869615 0 -0.4847984782487687 -0.075944598732494498 0 -0.49842317329231273 -0.098636270432611556 0 -0.47702460168979111 -0.087157524427869615 0 -0.5 -0.078030389970551228 0 -0.49712708577170861 -0.075742961183477536 0 -0.49999999999999928 -0.056578658971957581 0 -0.49712708577170861 -0.075742961183477536 0 -0.49583099825110311 -0.052849651934343489 0 -0.49712708577170861 -0.075742961183477536 0 -0.48794163871831331 -0.064119883023254248 0 -0.49583099825110311 -0.052849651934343489 0 -0.49712708577170861 -0.075742961183477536 0 -0.4847984782487687 -0.075944598732494498 0 -0.48794163871831331 -0.064119883023254248 0 -0.49712708577170861 -0.075742961183477536 0 -0.49999999999999928 -0.056578658971957581 0 -0.49583099825110311 -0.052849651934343489 0 -0.49583099825110311 -0.052849651934343489 0 -0.47748890114140963 -0.036443372127734748 0 -0.48227324058185622 -0.051334552649559453 0 -0.49999999999999928 -0.056578658971957581 0 -0.49583099825110311 -0.052849651934343489 0 -0.49999999999999928 -0.056578658971957581 0 -0.50000000000000144 -0.053559852644015388 0 -0.49583099825110311 -0.052849651934343489 0 -0.48794163871831331 -0.064119883023254248 0 -0.49583099825110311 -0.052849651934343489 0 -0.48227324058185622 -0.051334552649559453 0 -0.50000000000000144 -0.053559852644015388 0 -0.49583099825110311 -0.052849651934343489 0 -0.48598145264485831 -0.02728491224803695 0 -0.49583099825110311 -0.052849651934343489 0 -0.47748890114140963 -0.036443372127734748 0 -0.48598145264485831 -0.02728491224803695 0 -0.50000000000000144 -0.053559852644015388 0 -0.48598145264485831 -0.02728491224803695 0 -0.50000000000000144 -0.053559852644015388 0 -0.48598145264485831 -0.02728491224803695 0 -0.5 -0.025161366008633609 0 -0.49583099825110311 -0.052849651934343489 0 -0.47748890114140963 -0.036443372127734748 0 -0.47748890114140963 -0.036443372127734748 0 -0.48598145264485831 -0.02728491224803695 0 -0.47748890114140963 -0.036443372127734748 0 -0.47194379404182718 -0.042423275915137587 0 -0.48227324058185622 -0.051334552649559453 0 -0.47748890114140963 -0.036443372127734748 0 -0.47194379404182718 -0.042423275915137587 0 -0.47748890114140963 -0.036443372127734748 0 -0.47194379404182718 -0.042423275915137587 0 -0.47056077858213702 -0.03024644074295027 0 -0.47194379404182718 -0.042423275915137587 0 -0.46539503278239303 -0.037082973767017267 0 -0.47056077858213702 -0.03024644074295027 0 -0.47194379404182718 -0.042423275915137587 0 -0.47056077858213702 -0.03024644074295027 0 -0.47748890114140963 -0.036443372127734748 0 -0.47056077858213702 -0.03024644074295027 0 -0.47748890114140963 -0.036443372127734748 0 -0.47056077858213702 -0.03024644074295027 0 -0.47745882259212458 -0.028728106929589409 0 -0.47967839073812912 -0.064727650616396362 0 -0.47491389520024407 -0.068573693827893439 0 -0.47194379404182718 -0.042423275915137587 0 -0.47967839073812912 -0.064727650616396362 0 -0.47194379404182718 -0.042423275915137587 0 -0.48227324058185622 -0.051334552649559453 0 -0.47491389520024407 -0.068573693827893439 0 -0.47194379404182718 -0.042423275915137587 0 -0.47967839073812912 -0.064727650616396362 0 -0.48794163871831331 -0.064119883023254248 0 -0.48227324058185622 -0.051334552649559453 0 -0.47491389520024407 -0.068573693827893439 0 -0.47194379404182718 -0.042423275915137587 0 -0.45893666683642192 -0.056450303318209168 0 -0.45893666683642192 -0.056450303318209168 0 -0.45743491846808387 -0.04563500224908737 0 -0.44544580640037118 -0.056213229689383748 0 -0.47194379404182718 -0.042423275915137587 0 -0.45893666683642192 -0.056450303318209168 0 -0.45743491846808387 -0.04563500224908737 0 -0.47194379404182718 -0.042423275915137587 0 -0.45893666683642192 -0.056450303318209168 0 -0.46539503278239303 -0.037082973767017267 0 -0.44890774518284438 -0.02927164544362729 0 -0.46539503278239303 -0.037082973767017267 0 -0.45215967652477718 -0.036640332234541717 0 -0.44890774518284438 -0.02927164544362729 0 -0.46539503278239303 -0.037082973767017267 0 -0.44890774518284438 -0.02927164544362729 0 -0.46189821575704781 -0.02986243911986371 0 -0.47194379404182718 -0.042423275915137587 0 -0.46539503278239303 -0.037082973767017267 0 -0.45743491846808387 -0.04563500224908737 0 -0.46539503278239303 -0.037082973767017267 0 -0.46189821575704781 -0.02986243911986371 0 -0.47056077858213702 -0.03024644074295027 0 -0.46539503278239303 -0.037082973767017267 0 -0.45743491846808387 -0.04563500224908737 0 -0.45215967652477718 -0.036640332234541717 0 -0.42981912379901888 -0.030443092666165631 0 -0.45215967652477718 -0.036640332234541717 0 -0.45743491846808387 -0.04563500224908737 0 -0.45215967652477718 -0.036640332234541717 0 -0.43957367317472601 -0.045089571971719818 0 -0.42981912379901888 -0.030443092666165631 0 -0.45215967652477718 -0.036640332234541717 0 -0.43957367317472601 -0.045089571971719818 0 -0.45743491846808387 -0.04563500224908737 0 -0.43957367317472601 -0.045089571971719818 0 -0.44544580640037118 -0.056213229689383748 0 -0.4246600563061857 -0.059067830999859447 0 -0.44592953963101739 -0.07047733072128165 0 -0.44544580640037118 -0.056213229689383748 0 -0.44592953963101739 -0.07047733072128165 0 -0.45893666683642192 -0.056450303318209168 0 -0.44544580640037118 -0.056213229689383748 0 -0.4441818909265971 -0.00998157505946092 0 -0.45588653083934588 0.00041698580085632909 0 -0.44737850259376799 0.0077656591989471307 0 -0.4441818909265971 -0.00998157505946092 0 -0.4570262928383732 -0.018140378997512391 0 -0.45633913854906122 -0.0094275687658610888 0 -0.4441818909265971 -0.00998157505946092 0 -0.45633913854906122 -0.0094275687658610888 0 -0.45588653083934588 0.00041698580085632909 0 -0.43741768347029059 -0.01288367903972009 0 -0.4441818909265971 -0.00998157505946092 0 -0.44890774518284438 -0.02927164544362729 0 -0.42981912379901888 -0.030443092666165631 0 -0.45215967652477718 -0.036640332234541717 0 -0.4392085005598273 -0.024676348383282701 0 -0.4441818909265971 -0.00998157505946092 0 -0.44890774518284438 -0.02927164544362729 0 -0.46258273328813732 -0.023158067004484729 0 -0.43741768347029059 -0.01288367903972009 0 -0.44890774518284438 -0.02927164544362729 0 -0.43741768347029059 -0.01288367903972009 0 -0.4392085005598273 -0.024676348383282701 0 -0.44890774518284438 -0.02927164544362729 0 -0.4392085005598273 -0.024676348383282701 0 -0.44890774518284438 -0.02927164544362729 0 -0.45215967652477718 -0.036640332234541717 0 -0.4392085005598273 -0.024676348383282701 0 -0.44890774518284438 -0.02927164544362729 0 -0.4441818909265971 -0.00998157505946092 0 -0.46258273328813732 -0.023158067004484729 0 -0.46258273328813732 -0.023158067004484729 0 -0.46826183959192841 -0.01000530680732737 0 -0.47056077858213702 -0.03024644074295027 0 -0.4441818909265971 -0.00998157505946092 0 -0.4570262928383732 -0.018140378997512391 0 -0.46258273328813732 -0.023158067004484729 0 -0.4570262928383732 -0.018140378997512391 0 -0.46258273328813732 -0.023158067004484729 0 -0.44890774518284438 -0.02927164544362729 0 -0.46189821575704781 -0.02986243911986371 0 -0.46258273328813732 -0.023158067004484729 0 -0.46258273328813732 -0.023158067004484729 0 -0.47056077858213702 -0.03024644074295027 0 -0.46189821575704781 -0.02986243911986371 0 -0.46258273328813732 -0.023158067004484729 0 -0.47056077858213702 -0.03024644074295027 0 -0.4570262928383732 -0.018140378997512391 0 -0.46258273328813732 -0.023158067004484729 0 -0.46826183959192841 -0.01000530680732737 0 -0.4570262928383732 -0.018140378997512391 0 -0.46826183959192841 -0.01000530680732737 0 -0.45633913854906122 -0.0094275687658610888 0 -0.46826183959192841 -0.01000530680732737 0 -0.45633913854906122 -0.0094275687658610888 0 -0.45588653083934588 0.00041698580085632909 0 -0.46826183959192841 -0.01000530680732737 0 -0.47597217662329228 -0.0085245425598697612 0 -0.4659629006017233 0.010235827128295859 0 -0.46826183959192841 -0.01000530680732737 0 -0.47597217662329228 -0.0085245425598697612 0 -0.47580415800009379 -0.02093770259963601 0 -0.47597217662329228 -0.0085245425598697612 0 -0.48922725890134677 -0.010453537226696331 0 -0.48082517856277007 0.001845263919603602 0 -0.47597217662329228 -0.0085245425598697612 0 -0.47580415800009379 -0.02093770259963601 0 -0.48598145264485831 -0.02728491224803695 0 -0.47597217662329228 -0.0085245425598697612 0 -0.48598145264485831 -0.02728491224803695 0 -0.46826183959192841 -0.01000530680732737 0 -0.47056077858213702 -0.03024644074295027 0 -0.47580415800009379 -0.02093770259963601 0 -0.47597217662329228 -0.0085245425598697612 0 -0.48598145264485831 -0.02728491224803695 0 -0.4893389393206713 -0.02366416211133009 0 -0.46826183959192841 -0.01000530680732737 0 -0.47056077858213702 -0.03024644074295027 0 -0.47056077858213702 -0.03024644074295027 0 -0.47580415800009379 -0.02093770259963601 0 -0.47745882259212458 -0.028728106929589409 0 -0.47580415800009379 -0.02093770259963601 0 -0.47745882259212458 -0.028728106929589409 0 -0.48598145264485831 -0.02728491224803695 0 -0.47748890114140963 -0.036443372127734748 0 -0.47745882259212458 -0.028728106929589409 0 -0.48598145264485831 -0.02728491224803695 0 -0.48598145264485831 -0.02728491224803695 0 -0.4893389393206713 -0.02366416211133009 0 -0.5 -0.025161366008633609 0 -0.48598145264485831 -0.02728491224803695 0 -0.4893389393206713 -0.02366416211133009 0 -0.4893389393206713 -0.02366416211133009 0 -0.5 -0.025161366008633609 0 -0.48922725890134677 -0.010453537226696331 0 -0.48922725890134677 -0.010453537226696331 0 -0.5 0.0032371206267481911 0 -0.48082517856277007 0.001845263919603602 0 -0.5 -0.025161366008633609 0 -0.48922725890134677 -0.010453537226696331 0 -0.5 0.0032371206267481911 0 -0.47597217662329228 -0.0085245425598697612 0 -0.4893389393206713 -0.02366416211133009 0 -0.48922725890134677 -0.010453537226696331 0 -0.5 0.0032371206267481911 0 -0.48596576445654982 0.01457961489688041 0 -0.48082517856277007 0.001845263919603602 0 -0.48596576445654982 0.01457961489688041 0 -0.47541999506787802 0.025418180444172121 0 -0.5 0.031635607262129987 0 -0.5 0.0032371206267481911 0 -0.48596576445654982 0.01457961489688041 0 -0.5 0.031635607262129987 0 -0.48596576445654982 0.01457961489688041 0 -0.47541999506787802 0.025418180444172121 0 -0.47401658579892991 0.013489912392399149 0 -0.47541999506787802 0.025418180444172121 0 -0.46963945276383978 0.01793989872667965 0 -0.47401658579892991 0.013489912392399149 0 -0.47597217662329228 -0.0085245425598697612 0 -0.48082517856277007 0.001845263919603602 0 -0.4659629006017233 0.010235827128295859 0 -0.47401658579892991 0.013489912392399149 0 -0.48082517856277007 0.001845263919603602 0 -0.4659629006017233 0.010235827128295859 0 -0.46963945276383978 0.01793989872667965 0 -0.47401658579892991 0.013489912392399149 0 -0.4659629006017233 0.010235827128295859 0 -0.47597217662329228 -0.0085245425598697612 0 -0.4659629006017233 0.010235827128295859 0 -0.48596576445654982 0.01457961489688041 0 -0.47401658579892991 0.013489912392399149 0 -0.48082517856277007 0.001845263919603602 0 -0.5 0.060034093897511798 0 -0.47816362815030861 0.043832779932641487 0 -0.48068047186290208 0.063626500276227002 0 -0.47541999506787802 0.025418180444172121 0 -0.5 0.031635607262129987 0 -0.47816362815030861 0.043832779932641487 0 -0.5 0.060034093897511798 0 -0.5 0.031635607262129987 0 -0.47816362815030861 0.043832779932641487 0 -0.47541999506787802 0.025418180444172121 0 -0.47816362815030861 0.043832779932641487 0 -0.46442391639916691 0.036471327701905212 0 -0.47816362815030861 0.043832779932641487 0 -0.46119618507356652 0.049359273152949731 0 -0.48068047186290208 0.063626500276227002 0 -0.46119618507356652 0.049359273152949731 0 -0.46103932749027238 0.064238871702306077 0 -0.48068047186290208 0.063626500276227002 0 -0.46119618507356652 0.049359273152949731 0 -0.44286953411296898 0.045255716157198693 0 -0.46103932749027238 0.064238871702306077 0 -0.47816362815030861 0.043832779932641487 0 -0.46119618507356652 0.049359273152949731 0 -0.46442391639916691 0.036471327701905212 0 -0.46119618507356652 0.049359273152949731 0 -0.46442391639916691 0.036471327701905212 0 -0.45082509298125129 0.038608595210277222 0 -0.46442391639916691 0.036471327701905212 0 -0.45082509298125129 0.038608595210277222 0 -0.4583939967914884 0.024422211169287101 0 -0.45082509298125129 0.038608595210277222 0 -0.4583939967914884 0.024422211169287101 0 -0.46119618507356652 0.049359273152949731 0 -0.45082509298125129 0.038608595210277222 0 -0.44286953411296898 0.045255716157198693 0 -0.45082509298125129 0.038608595210277222 0 -0.4405409619944019 0.035432846457562263 0 -0.4458839614772655 0.023387518650519249 0 -0.45082509298125129 0.038608595210277222 0 -0.4405409619944019 0.035432846457562263 0 -0.44286953411296898 0.045255716157198693 0 -0.4405409619944019 0.035432846457562263 0 -0.44286953411296898 0.045255716157198693 0 -0.43229092530358848 0.04451632412921195 0 -0.44286953411296898 0.045255716157198693 0 -0.44282721760043869 0.062046251170956107 0 -0.46103932749027238 0.064238871702306077 0 -0.44286953411296898 0.045255716157198693 0 -0.44282721760043869 0.062046251170956107 0 -0.43188097302969042 0.056955122555226501 0 -0.44286953411296898 0.045255716157198693 0 -0.46103932749027238 0.064238871702306077 0 -0.46826183959192841 -0.01000530680732737 0 -0.45588653083934588 0.00041698580085632909 0 -0.4659629006017233 0.010235827128295859 0 -0.46826183959192841 -0.01000530680732737 0 -0.4659629006017233 0.010235827128295859 0 -0.45609316173783881 0.014082317838893479 0 -0.45588653083934588 0.00041698580085632909 0 -0.4659629006017233 0.010235827128295859 0 -0.46963945276383978 0.01793989872667965 0 -0.4659629006017233 0.010235827128295859 0 -0.4583939967914884 0.024422211169287101 0 -0.4659629006017233 0.010235827128295859 0 -0.4583939967914884 0.024422211169287101 0 -0.47541999506787802 0.025418180444172121 0 -0.46963945276383978 0.01793989872667965 0 -0.4583939967914884 0.024422211169287101 0 -0.47541999506787802 0.025418180444172121 0 -0.46442391639916691 0.036471327701905212 0 -0.4583939967914884 0.024422211169287101 0 -0.45609316173783881 0.014082317838893479 0 -0.4659629006017233 0.010235827128295859 0 -0.4583939967914884 0.024422211169287101 0 -0.45609316173783881 0.014082317838893479 0 -0.4583939967914884 0.024422211169287101 0 -0.4458839614772655 0.023387518650519249 0 -0.45082509298125129 0.038608595210277222 0 -0.4583939967914884 0.024422211169287101 0 -0.4458839614772655 0.023387518650519249 0 -0.4405409619944019 0.035432846457562263 0 -0.4458839614772655 0.023387518650519249 0 -0.43566193494816191 0.02574822372494872 0 -0.4458839614772655 0.023387518650519249 0 -0.4359559447540089 0.01018896392150693 0 -0.43566193494816191 0.02574822372494872 0 -0.4441818909265971 -0.00998157505946092 0 -0.44737850259376799 0.0077656591989471307 0 -0.4359559447540089 0.01018896392150693 0 -0.4458839614772655 0.023387518650519249 0 -0.44737850259376799 0.0077656591989471307 0 -0.4359559447540089 0.01018896392150693 0 -0.45609316173783881 0.014082317838893479 0 -0.4458839614772655 0.023387518650519249 0 -0.44737850259376799 0.0077656591989471307 0 -0.45609316173783881 0.014082317838893479 0 -0.45588653083934588 0.00041698580085632909 0 -0.44737850259376799 0.0077656591989471307 0 -0.4441818909265971 -0.00998157505946092 0 -0.4359559447540089 0.01018896392150693 0 -0.42578104856505677 0.0031949168855625672 0 -0.42578104856505677 0.0031949168855625672 0 -0.41622595309658328 0.016397403714119251 0 -0.42870406893849561 0.019163111370922251 0 -0.4359559447540089 0.01018896392150693 0 -0.42578104856505677 0.0031949168855625672 0 -0.42870406893849561 0.019163111370922251 0 -0.41753789792717189 -0.0038843189997757009 0 -0.42578104856505677 0.0031949168855625672 0 -0.41105156913745711 0.0034129409419674369 0 -0.42578104856505677 0.0031949168855625672 0 -0.40852807671777941 0.0155494406680463 0 -0.41622595309658328 0.016397403714119251 0 -0.42578104856505677 0.0031949168855625672 0 -0.40852807671777941 0.0155494406680463 0 -0.41105156913745711 0.0034129409419674369 0 -0.42578104856505677 0.0031949168855625672 0 -0.40852807671777941 0.0155494406680463 0 -0.42578104856505677 0.0031949168855625672 0 -0.41622595309658328 0.016397403714119251 0 -0.40852807671777941 0.0155494406680463 0 -0.41105156913745711 0.0034129409419674369 0 -0.40262572535869262 0.0089097845909437267 0 -0.40771050441737638 -0.0035262849216432719 0 -0.41105156913745711 0.0034129409419674369 0 -0.40226596945639398 0.0014711925349297271 0 -0.40667085762811028 0.029599890542676258 0 -0.41622595309658328 0.016397403714119251 0 -0.42870406893849561 0.019163111370922251 0 -0.40667085762811028 0.029599890542676258 0 -0.42870406893849561 0.019163111370922251 0 -0.40667085762811028 0.029599890542676258 0 -0.41990433555607742 0.03061685230769556 0 -0.42870406893849561 0.019163111370922251 0 -0.40852807671777941 0.0155494406680463 0 -0.40667085762811028 0.029599890542676258 0 -0.41622595309658328 0.016397403714119251 0 -0.40667085762811028 0.029599890542676258 0 -0.41622595309658328 0.016397403714119251 0 -0.41990433555607742 0.03061685230769556 0 -0.4284463216954002 0.029357354603554459 0 -0.42870406893849561 0.019163111370922251 0 -0.4359559447540089 0.01018896392150693 0 -0.42870406893849561 0.019163111370922251 0 -0.43566193494816191 0.02574822372494872 0 -0.4284463216954002 0.029357354603554459 0 -0.42870406893849561 0.019163111370922251 0 -0.43566193494816191 0.02574822372494872 0 -0.4284463216954002 0.029357354603554459 0 -0.43566193494816191 0.02574822372494872 0 -0.43264023121812112 0.033917661463996759 0 -0.4405409619944019 0.035432846457562263 0 -0.43264023121812112 0.033917661463996759 0 -0.43229092530358848 0.04451632412921195 0 -0.43264023121812112 0.033917661463996759 0 -0.43229092530358848 0.04451632412921195 0 -0.42532103781614489 0.037340924150209003 0 -0.4405409619944019 0.035432846457562263 0 -0.43566193494816191 0.02574822372494872 0 -0.43264023121812112 0.033917661463996759 0 -0.43229092530358848 0.04451632412921195 0 -0.42532103781614489 0.037340924150209003 0 -0.42042490988599091 0.046091327469671317 0 -0.4284463216954002 0.029357354603554459 0 -0.43264023121812112 0.033917661463996759 0 -0.42532103781614489 0.037340924150209003 0 -0.41990433555607742 0.03061685230769556 0 -0.4284463216954002 0.029357354603554459 0 -0.42532103781614489 0.037340924150209003 0 -0.43229092530358848 0.04451632412921195 0 -0.43188097302969042 0.056955122555226501 0 -0.42585725303016408 0.051510102087770737 0 -0.44286953411296898 0.045255716157198693 0 -0.43229092530358848 0.04451632412921195 0 -0.43188097302969042 0.056955122555226501 0 -0.43229092530358848 0.04451632412921195 0 -0.42585725303016408 0.051510102087770737 0 -0.42042490988599091 0.046091327469671317 0 -0.43188097302969042 0.056955122555226501 0 -0.41883220390138681 0.058477634196973202 0 -0.43131469147834472 0.070632617455275076 0 -0.43188097302969042 0.056955122555226501 0 -0.42585725303016408 0.051510102087770737 0 -0.41883220390138681 0.058477634196973202 0 -0.41883220390138681 0.058477634196973202 0 -0.40840220717331749 0.048304634434869917 0 -0.39985653820026013 0.060860810446949978 0 -0.42585725303016408 0.051510102087770737 0 -0.41883220390138681 0.058477634196973202 0 -0.42042490988599091 0.046091327469671317 0 -0.41883220390138681 0.058477634196973202 0 -0.40840220717331749 0.048304634434869917 0 -0.42042490988599091 0.046091327469671317 0 -0.41990433555607742 0.03061685230769556 0 -0.42532103781614489 0.037340924150209003 0 -0.4122967326089878 0.037821593301397609 0 -0.42532103781614489 0.037340924150209003 0 -0.42042490988599091 0.046091327469671317 0 -0.4122967326089878 0.037821593301397609 0 -0.40840220717331749 0.048304634434869917 0 -0.4122967326089878 0.037821593301397609 0 -0.40579981868685489 0.041495006097714962 0 -0.40840220717331749 0.048304634434869917 0 -0.42042490988599091 0.046091327469671317 0 -0.4122967326089878 0.037821593301397609 0 -0.4122967326089878 0.037821593301397609 0 -0.40278544391907911 0.034968452634622761 0 -0.40579981868685489 0.041495006097714962 0 -0.40667085762811028 0.029599890542676258 0 -0.4122967326089878 0.037821593301397609 0 -0.40278544391907911 0.034968452634622761 0 -0.40667085762811028 0.029599890542676258 0 -0.41990433555607742 0.03061685230769556 0 -0.4122967326089878 0.037821593301397609 0 -0.40667085762811028 0.029599890542676258 0 -0.40278544391907911 0.034968452634622761 0 -0.40667085762811028 0.029599890542676258 0 -0.38856614517843069 0.038175802748282091 0 -0.40667085762811028 0.029599890542676258 0 -0.38856614517843069 0.038175802748282091 0 -0.39127510487050182 0.027903964450529759 0 -0.40667085762811028 0.029599890542676258 0 -0.40278544391907911 0.034968452634622761 0 -0.38856614517843069 0.038175802748282091 0 -0.40278544391907911 0.034968452634622761 0 -0.40579981868685489 0.041495006097714962 0 -0.3977250587697031 0.045015474274426849 0 -0.40840220717331749 0.048304634434869917 0 -0.40579981868685489 0.041495006097714962 0 -0.3977250587697031 0.045015474274426849 0 -0.40278544391907911 0.034968452634622761 0 -0.3977250587697031 0.045015474274426849 0 -0.38856614517843069 0.038175802748282091 0 -0.40840220717331749 0.048304634434869917 0 -0.3977250587697031 0.045015474274426849 0 -0.39985653820026013 0.060860810446949978 0 -0.3977250587697031 0.045015474274426849 0 -0.39985653820026013 0.060860810446949978 0 -0.38472691017257071 0.052921849058569698 0 -0.39985653820026013 0.060860810446949978 0 -0.38472691017257071 0.052921849058569698 0 -0.38510762700538009 0.066428587654483159 0 -0.38472691017257071 0.052921849058569698 0 -0.37046143272875132 0.04675171495388801 0 -0.37000681959492809 0.05831264468359916 0 -0.38472691017257071 0.052921849058569698 0 -0.38510762700538009 0.066428587654483159 0 -0.37000681959492809 0.05831264468359916 0 -0.38856614517843069 0.038175802748282091 0 -0.37871402691879819 0.03757115751491092 0 -0.37046143272875132 0.04675171495388801 0 -0.38856614517843069 0.038175802748282091 0 -0.37046143272875132 0.04675171495388801 0 -0.38472691017257071 0.052921849058569698 0 -0.38856614517843069 0.038175802748282091 0 -0.37046143272875132 0.04675171495388801 0 -0.38856614517843069 0.038175802748282091 0 -0.38315308642314733 0.033917821982192238 0 -0.39127510487050182 0.027903964450529759 0 -0.38856614517843069 0.038175802748282091 0 -0.38315308642314733 0.033917821982192238 0 -0.37871402691879819 0.03757115751491092 0 -0.3977250587697031 0.045015474274426849 0 -0.38472691017257071 0.052921849058569698 0 -0.38856614517843069 0.038175802748282091 0 -0.37871402691879819 0.03757115751491092 0 -0.3764786745208083 0.032098692741998169 0 -0.37046143272875132 0.04675171495388801 0 -0.38315308642314733 0.033917821982192238 0 -0.3764786745208083 0.032098692741998169 0 -0.38155727091044611 0.028316364585127811 0 -0.38315308642314733 0.033917821982192238 0 -0.37871402691879819 0.03757115751491092 0 -0.3764786745208083 0.032098692741998169 0 -0.3764786745208083 0.032098692741998169 0 -0.38155727091044611 0.028316364585127811 0 -0.37960108001976323 0.022263106047543741 0 -0.37960108001976323 0.022263106047543741 0 -0.37998819155715241 0.0057865511937031933 0 -0.37123175334181557 0.027162262264614271 0 -0.3764786745208083 0.032098692741998169 0 -0.37960108001976323 0.022263106047543741 0 -0.37123175334181557 0.027162262264614271 0 -0.38155727091044611 0.028316364585127811 0 -0.38533699425949169 0.022674384769296389 0 -0.37960108001976323 0.022263106047543741 0 -0.38155727091044611 0.028316364585127811 0 -0.38533699425949169 0.022674384769296389 0 -0.39127510487050182 0.027903964450529759 0 -0.38315308642314733 0.033917821982192238 0 -0.38155727091044611 0.028316364585127811 0 -0.39127510487050182 0.027903964450529759 0 -0.39054146691731162 0.018060194648231769 0 -0.38533699425949169 0.022674384769296389 0 -0.39127510487050182 0.027903964450529759 0 -0.38533699425949169 0.022674384769296389 0 -0.3837100485794358 0.01682829411504885 0 -0.37960108001976323 0.022263106047543741 0 -0.39054146691731162 0.018060194648231769 0 -0.38533699425949169 0.022674384769296389 0 -0.3837100485794358 0.01682829411504885 0 -0.3837100485794358 0.01682829411504885 0 -0.37960108001976323 0.022263106047543741 0 -0.37998819155715241 0.0057865511937031933 0 -0.37998819155715241 0.0057865511937031933 0 -0.38683543611469601 0.0001369023841863784 0 -0.36064890389212972 0.0125435277679194 0 -0.37998819155715241 0.0057865511937031933 0 -0.38683543611469601 0.0001369023841863784 0 -0.38901012294298121 0.0062908016400105649 0 -0.38683543611469601 0.0001369023841863784 0 -0.38901012294298121 0.0062908016400105649 0 -0.39501457079486157 0.0055715078560810288 0 -0.37998819155715241 0.0057865511937031933 0 -0.38901012294298121 0.0062908016400105649 0 -0.38744744785130802 0.01185902438546781 0 -0.3837100485794358 0.01682829411504885 0 -0.37998819155715241 0.0057865511937031933 0 -0.38744744785130802 0.01185902438546781 0 -0.38901012294298121 0.0062908016400105649 0 -0.38744744785130802 0.01185902438546781 0 -0.39422738021243581 0.01127211946813913 0 -0.39054146691731162 0.018060194648231769 0 -0.3837100485794358 0.01682829411504885 0 -0.38744744785130802 0.01185902438546781 0 -0.39054146691731162 0.018060194648231769 0 -0.39422738021243581 0.01127211946813913 0 -0.39743955081534421 0.016339100765178138 0 -0.39054146691731162 0.018060194648231769 0 -0.38744744785130802 0.01185902438546781 0 -0.39422738021243581 0.01127211946813913 0 -0.39422738021243581 0.01127211946813913 0 -0.39501457079486157 0.0055715078560810288 0 -0.40262572535869262 0.0089097845909437267 0 -0.39422738021243581 0.01127211946813913 0 -0.40262572535869262 0.0089097845909437267 0 -0.39743955081534421 0.016339100765178138 0 -0.38683543611469601 0.0001369023841863784 0 -0.39501457079486157 0.0055715078560810288 0 -0.40226596945639398 0.0014711925349297271 0 -0.38901012294298121 0.0062908016400105649 0 -0.39422738021243581 0.01127211946813913 0 -0.39501457079486157 0.0055715078560810288 0 -0.41105156913745711 0.0034129409419674369 0 -0.40226596945639398 0.0014711925349297271 0 -0.40262572535869262 0.0089097845909437267 0 -0.39501457079486157 0.0055715078560810288 0 -0.40226596945639398 0.0014711925349297271 0 -0.40262572535869262 0.0089097845909437267 0 -0.40852807671777941 0.0155494406680463 0 -0.40262572535869262 0.0089097845909437267 0 -0.39743955081534421 0.016339100765178138 0 -0.40852807671777941 0.0155494406680463 0 -0.39127510487050182 0.027903964450529759 0 -0.40852807671777941 0.0155494406680463 0 -0.40667085762811028 0.029599890542676258 0 -0.39127510487050182 0.027903964450529759 0 -0.40852807671777941 0.0155494406680463 0 -0.39127510487050182 0.027903964450529759 0 -0.39743955081534421 0.016339100765178138 0 -0.39054146691731162 0.018060194648231769 0 -0.39127510487050182 0.027903964450529759 0 -0.39743955081534421 0.016339100765178138 0 -0.39792088922733271 0.1160922105611595 0 -0.40104213778508202 0.092866093853817611 0 -0.41467909406405851 0.1139188519362445 0 -0.39792088922733271 0.1160922105611595 0 -0.3782625711058698 0.101617738696854 0 -0.40104213778508202 0.092866093853817611 0 -0.3782625711058698 0.101617738696854 0 -0.38372255811484618 0.13025780258704611 0 -0.3782625711058698 0.101617738696854 0 -0.38372255811484618 0.13025780258704611 0 -0.36747352968705388 0.12273486311700831 0 -0.39792088922733271 0.1160922105611595 0 -0.3782625711058698 0.101617738696854 0 -0.38372255811484618 0.13025780258704611 0 -0.39792088922733271 0.1160922105611595 0 -0.3782625711058698 0.101617738696854 0 -0.3782625711058698 0.101617738696854 0 -0.40104213778508202 0.092866093853817611 0 -0.37470600383380392 0.082961959162170973 0 -0.39520328107527708 0.075997639864115257 0 -0.40104213778508202 0.092866093853817611 0 -0.37470600383380392 0.082961959162170973 0 -0.3782625711058698 0.101617738696854 0 -0.37470600383380392 0.082961959162170973 0 -0.40104213778508202 0.092866093853817611 0 -0.37470600383380392 0.082961959162170973 0 -0.38510762700538009 0.066428587654483159 0 -0.37000681959492809 0.05831264468359916 0 -0.37470600383380392 0.082961959162170973 0 -0.38510762700538009 0.066428587654483159 0 -0.39520328107527708 0.075997639864115257 0 -0.37470600383380392 0.082961959162170973 0 -0.39985653820026013 0.060860810446949978 0 -0.39520328107527708 0.075997639864115257 0 -0.41322693425173768 0.074694678089132868 0 -0.39985653820026013 0.060860810446949978 0 -0.38510762700538009 0.066428587654483159 0 -0.39520328107527708 0.075997639864115257 0 -0.39520328107527708 0.075997639864115257 0 -0.40104213778508202 0.092866093853817611 0 -0.41322693425173768 0.074694678089132868 0 -0.40104213778508202 0.092866093853817611 0 -0.41322693425173768 0.074694678089132868 0 -0.42957324029363853 0.085693113452461764 0 -0.41883220390138681 0.058477634196973202 0 -0.41322693425173768 0.074694678089132868 0 -0.43131469147834472 0.070632617455275076 0 -0.41883220390138681 0.058477634196973202 0 -0.39985653820026013 0.060860810446949978 0 -0.41322693425173768 0.074694678089132868 0 -0.43131469147834472 0.070632617455275076 0 -0.42957324029363853 0.085693113452461764 0 -0.4470315618909167 0.073148927984774167 0 -0.41322693425173768 0.074694678089132868 0 -0.43131469147834472 0.070632617455275076 0 -0.42957324029363853 0.085693113452461764 0 -0.44282721760043869 0.062046251170956107 0 -0.43188097302969042 0.056955122555226501 0 -0.43131469147834472 0.070632617455275076 0 -0.42957324029363853 0.085693113452461764 0 -0.42737827173636012 0.1027702285454639 0 -0.44343173260412461 0.097571970950778963 0 -0.40104213778508202 0.092866093853817611 0 -0.42737827173636012 0.1027702285454639 0 -0.41467909406405851 0.1139188519362445 0 -0.40104213778508202 0.092866093853817611 0 -0.42737827173636012 0.1027702285454639 0 -0.40104213778508202 0.092866093853817611 0 -0.42957324029363853 0.085693113452461764 0 -0.42737827173636012 0.1027702285454639 0 -0.39792088922733271 0.1160922105611595 0 -0.41467909406405851 0.1139188519362445 0 -0.417579207348795 0.13056668242546571 0 -0.39792088922733271 0.1160922105611595 0 -0.417579207348795 0.13056668242546571 0 -0.41467909406405851 0.1139188519362445 0 -0.42608096723388439 0.1205091241492761 0 -0.417579207348795 0.13056668242546571 0 -0.42737827173636012 0.1027702285454639 0 -0.41467909406405851 0.1139188519362445 0 -0.42608096723388439 0.1205091241492761 0 -0.42737827173636012 0.1027702285454639 0 -0.42608096723388439 0.1205091241492761 0 -0.43826405507869293 0.1195835460605416 0 -0.42608096723388439 0.1205091241492761 0 -0.43826405507869293 0.1195835460605416 0 -0.43293323699752101 0.1317554923945817 0 -0.43826405507869293 0.1195835460605416 0 -0.45371440568763749 0.1126743632371118 0 -0.44901593584904892 0.12912088192892021 0 -0.42737827173636012 0.1027702285454639 0 -0.43826405507869293 0.1195835460605416 0 -0.45371440568763749 0.1126743632371118 0 -0.4523882543875366 0.10983005993361 0 -0.45371440568763749 0.1126743632371118 0 -0.42737827173636012 0.1027702285454639 0 -0.4523882543875366 0.10983005993361 0 -0.44343173260412461 0.097571970950778963 0 -0.42737827173636012 0.1027702285454639 0 -0.4523882543875366 0.10983005993361 0 -0.45371440568763749 0.1126743632371118 0 -0.42737827173636012 0.1027702285454639 0 -0.45371440568763749 0.1126743632371118 0 -0.44343173260412461 0.097571970950778963 0 -0.45084974973894648 0.096020795281878568 0 -0.45306155814551219 0.1028275296158008 0 -0.44343173260412461 0.097571970950778963 0 -0.45084974973894648 0.096020795281878568 0 -0.44733932132275389 0.088290098875458828 0 -0.4523882543875366 0.10983005993361 0 -0.44343173260412461 0.097571970950778963 0 -0.45306155814551219 0.1028275296158008 0 -0.4523882543875366 0.10983005993361 0 -0.45306155814551219 0.1028275296158008 0 -0.45661100561120399 0.109540819014999 0 -0.45306155814551219 0.1028275296158008 0 -0.46084618436187341 0.10490351706993729 0 -0.45661100561120399 0.109540819014999 0 -0.45306155814551219 0.1028275296158008 0 -0.46084618436187341 0.10490351706993729 0 -0.45799439118323759 0.099220837031069903 0 -0.46084618436187341 0.10490351706993729 0 -0.4635407771028337 0.1124237257980706 0 -0.45661100561120399 0.109540819014999 0 -0.45799439118323759 0.099220837031069903 0 -0.46723244863383712 0.097971273043108306 0 -0.45594156200913483 0.091684632610025046 0 -0.45084974973894648 0.096020795281878568 0 -0.45799439118323759 0.099220837031069903 0 -0.45594156200913483 0.091684632610025046 0 -0.45084974973894648 0.096020795281878568 0 -0.45306155814551219 0.1028275296158008 0 -0.45799439118323759 0.099220837031069903 0 -0.46084618436187341 0.10490351706993729 0 -0.45799439118323759 0.099220837031069903 0 -0.46723244863383712 0.097971273043108306 0 -0.46084618436187341 0.10490351706993729 0 -0.46723244863383712 0.097971273043108306 0 -0.46686982756835349 0.1074114054382402 0 -0.46084618436187341 0.10490351706993729 0 -0.46686982756835349 0.1074114054382402 0 -0.4635407771028337 0.1124237257980706 0 -0.45371440568763749 0.1126743632371118 0 -0.46425598871103851 0.13528374379222011 0 -0.4635407771028337 0.1124237257980706 0 -0.45674497769142258 0.1138140594952527 0 -0.46958882025875243 0.12035793204680111 0 -0.46686982756835349 0.1074114054382402 0 -0.4635407771028337 0.1124237257980706 0 -0.47044075898603932 0.11380610730348489 0 -0.4635407771028337 0.1124237257980706 0 -0.46958882025875243 0.12035793204680111 0 -0.47044075898603932 0.11380610730348489 0 -0.45674497769142258 0.1138140594952527 0 -0.45371440568763749 0.1126743632371118 0 -0.46425598871103851 0.13528374379222011 0 -0.45674497769142258 0.1138140594952527 0 -0.46958882025875243 0.12035793204680111 0 -0.46425598871103851 0.13528374379222011 0 -0.4523882543875366 0.10983005993361 0 -0.45661100561120399 0.109540819014999 0 -0.45371440568763749 0.1126743632371118 0 -0.45674497769142258 0.1138140594952527 0 -0.45661100561120399 0.109540819014999 0 -0.45371440568763749 0.1126743632371118 0 -0.45674497769142258 0.1138140594952527 0 -0.45371440568763749 0.1126743632371118 0 -0.4635407771028337 0.1124237257980706 0 -0.45674497769142258 0.1138140594952527 0 -0.45661100561120399 0.109540819014999 0 -0.44282721760043869 0.062046251170956107 0 -0.4470315618909167 0.073148927984774167 0 -0.46103932749027238 0.064238871702306077 0 -0.44282721760043869 0.062046251170956107 0 -0.43131469147834472 0.070632617455275076 0 -0.4470315618909167 0.073148927984774167 0 -0.42957324029363853 0.085693113452461764 0 -0.44343173260412461 0.097571970950778963 0 -0.44733932132275389 0.088290098875458828 0 -0.42957324029363853 0.085693113452461764 0 -0.4470315618909167 0.073148927984774167 0 -0.44733932132275389 0.088290098875458828 0 -0.4470315618909167 0.073148927984774167 0 -0.44733932132275389 0.088290098875458828 0 -0.46047789149500767 0.082617330138573752 0 -0.45084974973894648 0.096020795281878568 0 -0.44733932132275389 0.088290098875458828 0 -0.45594156200913483 0.091684632610025046 0 -0.44733932132275389 0.088290098875458828 0 -0.45594156200913483 0.091684632610025046 0 -0.46047789149500767 0.082617330138573752 0 -0.46723244863383712 0.097971273043108306 0 -0.45594156200913483 0.091684632610025046 0 -0.46047789149500767 0.082617330138573752 0 -0.46047789149500767 0.082617330138573752 0 -0.46103932749027238 0.064238871702306077 0 -0.47920912086757578 0.083222027247413538 0 -0.4470315618909167 0.073148927984774167 0 -0.46047789149500767 0.082617330138573752 0 -0.46103932749027238 0.064238871702306077 0 -0.46103932749027238 0.064238871702306077 0 -0.48068047186290208 0.063626500276227002 0 -0.47920912086757578 0.083222027247413538 0 -0.46103932749027238 0.064238871702306077 0 -0.47920912086757578 0.083222027247413538 0 -0.46723244863383712 0.097971273043108306 0 -0.46047789149500767 0.082617330138573752 0 -0.47920912086757578 0.083222027247413538 0 -0.48068047186290208 0.063626500276227002 0 -0.47920912086757578 0.083222027247413538 0 -0.5 0.088432580532893601 0 -0.47920912086757578 0.083222027247413538 0 -0.49737891424487929 0.102205182792521 0 -0.47920912086757578 0.083222027247413538 0 -0.5 0.088432580532893601 0 -0.49737891424487929 0.102205182792521 0 -0.5 0.060034093897511798 0 -0.48068047186290208 0.063626500276227002 0 -0.5 0.088432580532893601 0 -0.47827810320487629 0.116675775998883 0 -0.48837893466537508 0.1117690854599766 0 -0.4842723158563047 0.1301441798928954 0 -0.47827810320487629 0.116675775998883 0 -0.47512549980118862 0.10796659812409699 0 -0.48837893466537508 0.1117690854599766 0 -0.47827810320487629 0.116675775998883 0 -0.46958882025875243 0.12035793204680111 0 -0.4842723158563047 0.1301441798928954 0 -0.47827810320487629 0.116675775998883 0 -0.47044075898603932 0.11380610730348489 0 -0.47512549980118862 0.10796659812409699 0 -0.46686982756835349 0.1074114054382402 0 -0.47044075898603932 0.11380610730348489 0 -0.47512549980118862 0.10796659812409699 0 -0.47827810320487629 0.116675775998883 0 -0.46958882025875243 0.12035793204680111 0 -0.47044075898603932 0.11380610730348489 0 -0.46723244863383712 0.097971273043108306 0 -0.47512549980118862 0.10796659812409699 0 -0.48162445158666772 0.1005823670901454 0 -0.46723244863383712 0.097971273043108306 0 -0.47920912086757578 0.083222027247413538 0 -0.48162445158666772 0.1005823670901454 0 -0.46723244863383712 0.097971273043108306 0 -0.46686982756835349 0.1074114054382402 0 -0.47512549980118862 0.10796659812409699 0 -0.47512549980118862 0.10796659812409699 0 -0.48162445158666772 0.1005823670901454 0 -0.48837893466537508 0.1117690854599766 0 -0.48162445158666772 0.1005823670901454 0 -0.49737891424487929 0.102205182792521 0 -0.48837893466537508 0.1117690854599766 0 -0.47920912086757578 0.083222027247413538 0 -0.48162445158666772 0.1005823670901454 0 -0.49737891424487929 0.102205182792521 0 -0.5 0.088432580532893601 0 -0.49737891424487929 0.102205182792521 0 -0.5 0.1168310671682755 0 -0.49737891424487929 0.102205182792521 0 -0.5 0.1168310671682755 0 -0.48837893466537508 0.1117690854599766 0 -0.5 0.1168310671682755 0 -0.48837893466537508 0.1117690854599766 0 -0.4842723158563047 0.1301441798928954 0 -0.5 0.1168310671682755 0 -0.4842723158563047 0.1301441798928954 0 -0.5 0.14522955380365729 0 -0.46958882025875243 0.12035793204680111 0 -0.4842723158563047 0.1301441798928954 0 -0.46425598871103851 0.13528374379222011 0 -0.4842723158563047 0.1301441798928954 0 -0.47479757173443998 0.15789312434732811 0 -0.46425598871103851 0.13528374379222011 0 -0.47479757173443998 0.15789312434732811 0 -0.46425598871103851 0.13528374379222011 0 -0.4842723158563047 0.1301441798928954 0 -0.5 0.14522955380365729 0 -0.47479757173443998 0.15789312434732811 0 -0.5 0.14522955380365729 0 -0.49999999999999972 0.17362804043903909 0 -0.47479757173443998 0.15789312434732811 0 -0.49999999999999972 0.17362804043903909 0 -0.47479757173443998 0.15789312434732811 0 -0.49999999999999972 0.17362804043903909 0 -0.49200992699072321 0.1743962810239672 0 -0.47479757173443998 0.15789312434732811 0 -0.48341269367675271 0.17637066895233999 0 -0.49170634683837577 0.1941587336203292 0 -0.49368671912131301 0.1828531969182482 0 -0.49999999999999972 0.17362804043903909 0 -0.5 0.19278741936367841 0 -0.49368671912131301 0.1828531969182482 0 -0.48341269367675271 0.17637066895233999 0 -0.49170634683837577 0.1941587336203292 0 -0.49368671912131301 0.1828531969182482 0 -0.49999999999999972 0.17362804043903909 0 -0.49200992699072321 0.1743962810239672 0 -0.49200992699072321 0.1743962810239672 0 -0.48341269367675271 0.17637066895233999 0 -0.49368671912131301 0.1828531969182482 0 -0.49200992699072321 0.1743962810239672 0 -0.48341269367675271 0.17637066895233999 0 -0.48341269367675271 0.17637066895233999 0 -0.45591042926964898 0.18268667049205081 0 -0.47274380268756999 0.19288508587190861 0 -0.48341269367675271 0.17637066895233999 0 -0.45591042926964898 0.18268667049205081 0 -0.49200992699072321 0.1743962810239672 0 -0.48341269367675271 0.17637066895233999 0 -0.47479757173443998 0.15789312434732811 0 -0.48341269367675271 0.17637066895233999 0 -0.47479757173443998 0.15789312434732811 0 -0.48341269367675271 0.17637066895233999 0 -0.47479757173443998 0.15789312434732811 0 -0.45723956394668003 0.16387676974864759 0 -0.48341269367675271 0.17637066895233999 0 -0.45723956394668003 0.16387676974864759 0 -0.45591042926964898 0.18268667049205081 0 -0.45591042926964898 0.18268667049205081 0 -0.43992511097516529 0.17411109905454999 0 -0.4284081648625454 0.1890026720317621 0 -0.45591042926964898 0.18268667049205081 0 -0.4284081648625454 0.1890026720317621 0 -0.45723956394668003 0.16387676974864759 0 -0.45591042926964898 0.18268667049205081 0 -0.43992511097516529 0.17411109905454999 0 -0.45723956394668003 0.16387676974864759 0 -0.43992511097516529 0.17411109905454999 0 -0.43892522612619872 0.15930650560997939 0 -0.43892522612619872 0.15930650560997939 0 -0.43796764784210812 0.14528805014891141 0 -0.45386540436598038 0.14482430837095511 0 -0.45723956394668003 0.16387676974864759 0 -0.43892522612619872 0.15930650560997939 0 -0.45386540436598038 0.14482430837095511 0 -0.45386540436598038 0.14482430837095511 0 -0.43293323699752101 0.1317554923945817 0 -0.43826405507869293 0.1195835460605416 0 -0.44901593584904892 0.12912088192892021 0 -0.43293323699752101 0.1317554923945817 0 -0.43796764784210812 0.14528805014891141 0 -0.45386540436598038 0.14482430837095511 0 -0.43293323699752101 0.1317554923945817 0 -0.44901593584904892 0.12912088192892021 0 -0.45386540436598038 0.14482430837095511 0 -0.43293323699752101 0.1317554923945817 0 -0.45371440568763749 0.1126743632371118 0 -0.44901593584904892 0.12912088192892021 0 -0.46425598871103851 0.13528374379222011 0 -0.44901593584904892 0.12912088192892021 0 -0.46425598871103851 0.13528374379222011 0 -0.45386540436598038 0.14482430837095511 0 -0.47479757173443998 0.15789312434732811 0 -0.45723956394668003 0.16387676974864759 0 -0.45386540436598038 0.14482430837095511 0 -0.47479757173443998 0.15789312434732811 0 -0.46425598871103851 0.13528374379222011 0 -0.45386540436598038 0.14482430837095511 0 -0.47479757173443998 0.15789312434732811 0 -0.45386540436598038 0.14482430837095511 0 -0.48226153920099157 0.23766317590200001 0 -0.47864167104372218 0.246590621409366 0 -0.48932095354102823 0.25454658797793611 0 -0.47315400564016008 0.2364435414805684 0 -0.47864167104372218 0.246590621409366 0 -0.46938038244821267 0.25133041049185839 0 -0.47315400564016008 0.2364435414805684 0 -0.48226153920099157 0.23766317590200001 0 -0.47864167104372218 0.246590621409366 0 -0.49106398183666961 0.22759324404760359 0 -0.48932095354102823 0.25454658797793611 0 -0.5 0.23810140997737081 0 -0.49106398183666961 0.22759324404760359 0 -0.48932095354102823 0.25454658797793611 0 -0.48226153920099157 0.23766317590200001 0 -0.49106398183666961 0.22759324404760359 0 -0.48932095354102823 0.25454658797793611 0 -0.5 0.23810140997737081 0 -0.49106398183666961 0.22759324404760359 0 -0.50000000000000022 0.21194679828831781 0 -0.49106398183666961 0.22759324404760359 0 -0.47912708394337772 0.2231418845945258 0 -0.48726644121087642 0.21298690825741631 0 -0.48226153920099157 0.23766317590200001 0 -0.49106398183666961 0.22759324404760359 0 -0.47912708394337772 0.2231418845945258 0 -0.47315400564016008 0.2364435414805684 0 -0.48226153920099157 0.23766317590200001 0 -0.47912708394337772 0.2231418845945258 0 -0.47315400564016008 0.2364435414805684 0 -0.47912708394337772 0.2231418845945258 0 -0.46764368341616458 0.22415830119077751 0 -0.47912708394337772 0.2231418845945258 0 -0.47360767850491831 0.20951316246361981 0 -0.46764368341616458 0.22415830119077751 0 -0.47360767850491831 0.20951316246361981 0 -0.48726644121087642 0.21298690825741631 0 -0.49170634683837577 0.1941587336203292 0 -0.47912708394337772 0.2231418845945258 0 -0.47360767850491831 0.20951316246361981 0 -0.48726644121087642 0.21298690825741631 0 -0.49106398183666961 0.22759324404760359 0 -0.50000000000000022 0.21194679828831781 0 -0.48726644121087642 0.21298690825741631 0 -0.50000000000000022 0.21194679828831781 0 -0.48726644121087642 0.21298690825741631 0 -0.49170634683837577 0.1941587336203292 0 -0.50000000000000022 0.21194679828831781 0 -0.49170634683837577 0.1941587336203292 0 -0.50000000000000022 0.21194679828831781 0 -0.5 0.19278741936367841 0 -0.49170634683837577 0.1941587336203292 0 -0.49368671912131301 0.1828531969182482 0 -0.5 0.19278741936367841 0 -0.49170634683837577 0.1941587336203292 0 -0.48341269367675271 0.17637066895233999 0 -0.49170634683837577 0.1941587336203292 0 -0.47274380268756999 0.19288508587190861 0 -0.47360767850491831 0.20951316246361981 0 -0.49170634683837577 0.1941587336203292 0 -0.47274380268756999 0.19288508587190861 0 -0.47360767850491831 0.20951316246361981 0 -0.47274380268756999 0.19288508587190861 0 -0.45820261548712909 0.20353130823034371 0 -0.45591042926964898 0.18268667049205081 0 -0.47274380268756999 0.19288508587190861 0 -0.45820261548712909 0.20353130823034371 0 -0.45591042926964898 0.18268667049205081 0 -0.43516662619925378 0.20614333559983469 0 -0.4284081648625454 0.1890026720317621 0 -0.45591042926964898 0.18268667049205081 0 -0.45820261548712909 0.20353130823034371 0 -0.43516662619925378 0.20614333559983469 0 -0.44192508753596349 0.22328399916790689 0 -0.43516662619925378 0.20614333559983469 0 -0.45032248765871591 0.2151961798839368 0 -0.44192508753596349 0.22328399916790689 0 -0.43516662619925378 0.20614333559983469 0 -0.45032248765871591 0.2151961798839368 0 -0.45820261548712909 0.20353130823034371 0 -0.43516662619925378 0.20614333559983469 0 -0.45032248765871591 0.2151961798839368 0 -0.46109406183397039 0.21551848415653921 0 -0.45620465585954723 0.2251951411450015 0 -0.45032248765871591 0.2151961798839368 0 -0.45820261548712909 0.20353130823034371 0 -0.46109406183397039 0.21551848415653921 0 -0.47360767850491831 0.20951316246361981 0 -0.45820261548712909 0.20353130823034371 0 -0.46109406183397039 0.21551848415653921 0 -0.47360767850491831 0.20951316246361981 0 -0.46109406183397039 0.21551848415653921 0 -0.46764368341616458 0.22415830119077751 0 -0.47315400564016008 0.2364435414805684 0 -0.46764368341616458 0.22415830119077751 0 -0.45925329591452863 0.2407771106774913 0 -0.46764368341616458 0.22415830119077751 0 -0.45620465585954723 0.2251951411450015 0 -0.45925329591452863 0.2407771106774913 0 -0.46109406183397039 0.21551848415653921 0 -0.46764368341616458 0.22415830119077751 0 -0.45620465585954723 0.2251951411450015 0 -0.45032248765871591 0.2151961798839368 0 -0.45620465585954723 0.2251951411450015 0 -0.44192508753596349 0.22328399916790689 0 -0.44192508753596349 0.22328399916790689 0 -0.44062222049055039 0.24203477259657111 0 -0.43146145522804691 0.2313120115293863 0 -0.45620465585954723 0.2251951411450015 0 -0.44062222049055039 0.24203477259657111 0 -0.45620465585954723 0.2251951411450015 0 -0.44192508753596349 0.22328399916790689 0 -0.44062222049055039 0.24203477259657111 0 -0.44062222049055039 0.24203477259657111 0 -0.45046339488490522 0.249057113070103 0 -0.44442574262614493 0.25832327296872359 0 -0.44062222049055039 0.24203477259657111 0 -0.45046339488490522 0.249057113070103 0 -0.45925329591452863 0.2407771106774913 0 -0.45620465585954723 0.2251951411450015 0 -0.44062222049055039 0.24203477259657111 0 -0.45925329591452863 0.2407771106774913 0 -0.45046339488490522 0.249057113070103 0 -0.45925329591452863 0.2407771106774913 0 -0.45807104112411212 0.25534721177055669 0 -0.45925329591452863 0.2407771106774913 0 -0.46938038244821267 0.25133041049185839 0 -0.45807104112411212 0.25534721177055669 0 -0.47315400564016008 0.2364435414805684 0 -0.45925329591452863 0.2407771106774913 0 -0.46938038244821267 0.25133041049185839 0 -0.4198454647722451 0.23985190764030939 0 -0.40081965837488509 0.24074316727492401 0 -0.40585136056822319 0.25674789398696107 0 -0.4198454647722451 0.23985190764030939 0 -0.405480724964072 0.22581663549259839 0 -0.40081965837488509 0.24074316727492401 0 -0.44062222049055039 0.24203477259657111 0 -0.4198454647722451 0.23985190764030939 0 -0.42503978512155383 0.25887440404814072 0 -0.44062222049055039 0.24203477259657111 0 -0.4198454647722451 0.23985190764030939 0 -0.43146145522804691 0.2313120115293863 0 -0.4198454647722451 0.23985190764030939 0 -0.43146145522804691 0.2313120115293863 0 -0.42370673975344808 0.22056464269113771 0 -0.44192508753596349 0.22328399916790689 0 -0.43146145522804691 0.2313120115293863 0 -0.42370673975344808 0.22056464269113771 0 -0.4198454647722451 0.23985190764030939 0 -0.42370673975344808 0.22056464269113771 0 -0.405480724964072 0.22581663549259839 0 -0.42370673975344808 0.22056464269113771 0 -0.40708390191205951 0.20882890034131879 0 -0.405480724964072 0.22581663549259839 0 -0.42370673975344808 0.22056464269113771 0 -0.40708390191205951 0.20882890034131879 0 -0.42107335870595469 0.2022269477122331 0 -0.44192508753596349 0.22328399916790689 0 -0.42370673975344808 0.22056464269113771 0 -0.43516662619925378 0.20614333559983469 0 -0.42370673975344808 0.22056464269113771 0 -0.43516662619925378 0.20614333559983469 0 -0.42107335870595469 0.2022269477122331 0 -0.43516662619925378 0.20614333559983469 0 -0.4284081648625454 0.1890026720317621 0 -0.42107335870595469 0.2022269477122331 0 -0.43516662619925378 0.20614333559983469 0 -0.4284081648625454 0.1890026720317621 0 -0.4284081648625454 0.1890026720317621 0 -0.40915969581062839 0.19342315750049971 0 -0.4284081648625454 0.1890026720317621 0 -0.42107335870595469 0.2022269477122331 0 -0.40915969581062839 0.19342315750049971 0 -0.40708390191205951 0.20882890034131879 0 -0.42107335870595469 0.2022269477122331 0 -0.40915969581062839 0.19342315750049971 0 -0.40708390191205951 0.20882890034131879 0 -0.40915969581062839 0.19342315750049971 0 -0.38991122675871148 0.19784364296923759 0 -0.40915969581062839 0.19342315750049971 0 -0.38991122675871148 0.19784364296923759 0 -0.40915969581062839 0.19342315750049971 0 -0.38991122675871148 0.19784364296923759 0 -0.39569501158598158 0.17813944679546001 0 -0.39158905321283283 0.2136173787495643 0 -0.38435338999826391 0.22831720607051781 0 -0.36414166766971379 0.2074649771098355 0 -0.38991122675871148 0.19784364296923759 0 -0.39158905321283283 0.2136173787495643 0 -0.36414166766971379 0.2074649771098355 0 -0.40708390191205951 0.20882890034131879 0 -0.39158905321283283 0.2136173787495643 0 -0.405480724964072 0.22581663549259839 0 -0.40708390191205951 0.20882890034131879 0 -0.38991122675871148 0.19784364296923759 0 -0.39158905321283283 0.2136173787495643 0 -0.405480724964072 0.22581663549259839 0 -0.38435338999826391 0.22831720607051781 0 -0.40081965837488509 0.24074316727492401 0 -0.39158905321283283 0.2136173787495643 0 -0.405480724964072 0.22581663549259839 0 -0.38435338999826391 0.22831720607051781 0 -0.37619177155740557 0.24036243622333081 0 -0.38790582398472923 0.24962922847932231 0 -0.36318679658289171 0.25196182354824148 0 -0.38435338999826391 0.22831720607051781 0 -0.37619177155740557 0.24036243622333081 0 -0.38790582398472923 0.24962922847932231 0 -0.38435338999826391 0.22831720607051781 0 -0.38790582398472923 0.24962922847932231 0 -0.40081965837488509 0.24074316727492401 0 -0.38790582398472923 0.24962922847932231 0 -0.40081965837488509 0.24074316727492401 0 -0.40585136056822319 0.25674789398696107 0 -0.40926453963391513 0.14045102348790381 0 -0.42614672387873248 0.14526589422012931 0 -0.41883635224822963 0.16472684775983329 0 -0.40926453963391513 0.14045102348790381 0 -0.41883635224822963 0.16472684775983329 0 -0.40926453963391513 0.14045102348790381 0 -0.41883635224822963 0.16472684775983329 0 -0.40029434983296169 0.15790366282291429 0 -0.40926453963391513 0.14045102348790381 0 -0.417579207348795 0.13056668242546571 0 -0.40026410281127539 0.13237877311027449 0 -0.40926453963391513 0.14045102348790381 0 -0.417579207348795 0.13056668242546571 0 -0.42614672387873248 0.14526589422012931 0 -0.417579207348795 0.13056668242546571 0 -0.43293323699752101 0.1317554923945817 0 -0.42614672387873248 0.14526589422012931 0 -0.42608096723388439 0.1205091241492761 0 -0.417579207348795 0.13056668242546571 0 -0.43293323699752101 0.1317554923945817 0 -0.43796764784210812 0.14528805014891141 0 -0.43293323699752101 0.1317554923945817 0 -0.42614672387873248 0.14526589422012931 0 -0.43892522612619872 0.15930650560997939 0 -0.43796764784210812 0.14528805014891141 0 -0.42614672387873248 0.14526589422012931 0 -0.43892522612619872 0.15930650560997939 0 -0.42614672387873248 0.14526589422012931 0 -0.41883635224822963 0.16472684775983329 0 -0.43992511097516529 0.17411109905454999 0 -0.43892522612619872 0.15930650560997939 0 -0.41883635224822963 0.16472684775983329 0 -0.4284081648625454 0.1890026720317621 0 -0.41883635224822963 0.16472684775983329 0 -0.43992511097516529 0.17411109905454999 0 -0.4284081648625454 0.1890026720317621 0 -0.41883635224822963 0.16472684775983329 0 -0.40915969581062839 0.19342315750049971 0 -0.41883635224822963 0.16472684775983329 0 -0.39569501158598158 0.17813944679546001 0 -0.4284081648625454 0.1890026720317621 0 -0.40915969581062839 0.19342315750049971 0 -0.41883635224822963 0.16472684775983329 0 -0.40029434983296169 0.15790366282291429 0 -0.39569501158598158 0.17813944679546001 0 -0.38484252596519369 0.16167484958157691 0 -0.41883635224822963 0.16472684775983329 0 -0.40029434983296169 0.15790366282291429 0 -0.39569501158598158 0.17813944679546001 0 -0.39569501158598158 0.17813944679546001 0 -0.38484252596519369 0.16167484958157691 0 -0.36525228834216061 0.17922160577889321 0 -0.38991122675871148 0.19784364296923759 0 -0.39569501158598158 0.17813944679546001 0 -0.36525228834216061 0.17922160577889321 0 -0.39283331973148827 0.14452614648979731 0 -0.38372255811484618 0.13025780258704611 0 -0.36636290901460722 0.1509782344479508 0 -0.38484252596519369 0.16167484958157691 0 -0.39283331973148827 0.14452614648979731 0 -0.36636290901460722 0.1509782344479508 0 -0.40029434983296169 0.15790366282291429 0 -0.38484252596519369 0.16167484958157691 0 -0.39283331973148827 0.14452614648979731 0 -0.40926453963391513 0.14045102348790381 0 -0.40029434983296169 0.15790366282291429 0 -0.39283331973148827 0.14452614648979731 0 -0.39283331973148827 0.14452614648979731 0 -0.40026410281127539 0.13237877311027449 0 -0.38372255811484618 0.13025780258704611 0 -0.39792088922733271 0.1160922105611595 0 -0.417579207348795 0.13056668242546571 0 -0.40026410281127539 0.13237877311027449 0 -0.39792088922733271 0.1160922105611595 0 -0.40026410281127539 0.13237877311027449 0 -0.38372255811484618 0.13025780258704611 0 -0.40926453963391513 0.14045102348790381 0 -0.39283331973148827 0.14452614648979731 0 -0.40026410281127539 0.13237877311027449 0 -0.38372255811484618 0.13025780258704611 0 -0.36636290901460722 0.1509782344479508 0 -0.36747352968705388 0.12273486311700831 0 -0.36636290901460722 0.1509782344479508 0 -0.36747352968705388 0.12273486311700831 0 -0.35528769071996391 0.12689780186549679 0 -0.36636290901460722 0.1509782344479508 0 -0.36747352968705388 0.12273486311700831 0 -0.35528769071996391 0.12689780186549679 0 -0.33512599087492562 0.1447950320020088 0 -0.35528769071996391 0.12689780186549679 0 -0.35168351666373848 0.14314256241625531 0 -0.33512599087492562 0.1447950320020088 0 -0.35528769071996391 0.12689780186549679 0 -0.33512599087492562 0.1447950320020088 0 -0.34115039425197219 0.12498493974687711 0 -0.35528769071996391 0.12689780186549679 0 -0.35168351666373848 0.14314256241625531 0 -0.36636290901460722 0.1509782344479508 0 -0.35168351666373848 0.14314256241625531 0 -0.36636290901460722 0.1509782344479508 0 -0.34333519974196419 0.16612441953572921 0 -0.38484252596519369 0.16167484958157691 0 -0.36636290901460722 0.1509782344479508 0 -0.36525228834216061 0.17922160577889321 0 -0.36636290901460722 0.1509782344479508 0 -0.36525228834216061 0.17922160577889321 0 -0.36525228834216061 0.17922160577889321 0 -0.34333519974196419 0.16612441953572921 0 -0.34654591437965571 0.19533490523866279 0 -0.36636290901460722 0.1509782344479508 0 -0.36525228834216061 0.17922160577889321 0 -0.34333519974196419 0.16612441953572921 0 -0.34333519974196419 0.16612441953572921 0 -0.31496429102988749 0.16269226213852109 0 -0.33512599087492562 0.1447950320020088 0 -0.34333519974196419 0.16612441953572921 0 -0.34654591437965571 0.19533490523866279 0 -0.32412519241006588 0.1878495682783011 0 -0.31496429102988749 0.16269226213852109 0 -0.32412519241006588 0.1878495682783011 0 -0.34333519974196419 0.16612441953572921 0 -0.31496429102988749 0.16269226213852109 0 -0.32412519241006588 0.1878495682783011 0 -0.31303823693556859 0.17707572181323081 0 -0.31496429102988749 0.16269226213852109 0 -0.32412519241006588 0.1878495682783011 0 -0.31303823693556859 0.17707572181323081 0 -0.32412519241006588 0.1878495682783011 0 -0.3108046026399135 0.18379038091696129 0 -0.31496429102988749 0.16269226213852109 0 -0.31353256245119709 0.1587605055712967 0 -0.31354631638020197 0.13395604467094269 0 -0.33512599087492562 0.1447950320020088 0 -0.3122891553291075 0.14635758184588041 0 -0.31353256245119709 0.1587605055712967 0 -0.33512599087492562 0.1447950320020088 0 -0.3122891553291075 0.14635758184588041 0 -0.31496429102988749 0.16269226213852109 0 -0.31353256245119709 0.1587605055712967 0 -0.33512599087492562 0.1447950320020088 0 -0.31496429102988749 0.16269226213852109 0 -0.33512599087492562 0.1447950320020088 0 -0.31354631638020197 0.13395604467094269 0 -0.32917568526667751 0.12578156900391591 0 -0.33512599087492562 0.1447950320020088 0 -0.31354631638020197 0.13395604467094269 0 -0.32917568526667751 0.12578156900391591 0 -0.32114709127587232 0.11611322513389059 0 -0.32917568526667751 0.12578156900391591 0 -0.33512599087492562 0.1447950320020088 0 -0.34115039425197219 0.12498493974687711 0 -0.35168351666373848 0.14314256241625531 0 -0.34333519974196419 0.16612441953572921 0 -0.33512599087492562 0.1447950320020088 0 -0.36303104699726713 0.23570834844077809 0 -0.34244699517042121 0.23816418055786151 0 -0.36318679658289171 0.25196182354824148 0 -0.34244699517042121 0.23816418055786151 0 -0.36318679658289171 0.25196182354824148 0 -0.33952374355129727 0.25899057541505788 0 -0.37619177155740557 0.24036243622333081 0 -0.36303104699726713 0.23570834844077809 0 -0.36318679658289171 0.25196182354824148 0 -0.38435338999826391 0.22831720607051781 0 -0.37619177155740557 0.24036243622333081 0 -0.36303104699726713 0.23570834844077809 0 -0.38435338999826391 0.22831720607051781 0 -0.36303104699726713 0.23570834844077809 0 -0.36414166766971379 0.2074649771098355 0 -0.36303104699726713 0.23570834844077809 0 -0.36414166766971379 0.2074649771098355 0 -0.36303104699726713 0.23570834844077809 0 -0.35084793517488477 0.2210857468323085 0 -0.34244699517042121 0.23816418055786151 0 -0.36303104699726713 0.23570834844077809 0 -0.35084793517488477 0.2210857468323085 0 -0.36414166766971379 0.2074649771098355 0 -0.35084793517488477 0.2210857468323085 0 -0.36414166766971379 0.2074649771098355 0 -0.34654591437965571 0.19533490523866279 0 -0.36525228834216061 0.17922160577889321 0 -0.36414166766971379 0.2074649771098355 0 -0.38991122675871148 0.19784364296923759 0 -0.36525228834216061 0.17922160577889321 0 -0.36414166766971379 0.2074649771098355 0 -0.36525228834216061 0.17922160577889321 0 -0.36414166766971379 0.2074649771098355 0 -0.34654591437965571 0.19533490523866279 0 -0.32412519241006588 0.1878495682783011 0 -0.33328609379024349 0.2130068744180813 0 -0.34654591437965571 0.19533490523866279 0 -0.32412519241006588 0.1878495682783011 0 -0.33328609379024349 0.2130068744180813 0 -0.32412519241006588 0.1878495682783011 0 -0.33328609379024349 0.2130068744180813 0 -0.31080006153106382 0.20197173666100501 0 -0.32412519241006588 0.1878495682783011 0 -0.31080006153106382 0.20197173666100501 0 -0.3108046026399135 0.18379038091696129 0 -0.33328609379024349 0.2130068744180813 0 -0.31873218963182409 0.22654972870499029 0 -0.31080006153106382 0.20197173666100501 0 -0.35084793517488477 0.2210857468323085 0 -0.34654591437965571 0.19533490523866279 0 -0.33328609379024349 0.2130068744180813 0 -0.35084793517488477 0.2210857468323085 0 -0.33328609379024349 0.2130068744180813 0 -0.34244699517042121 0.23816418055786151 0 -0.33328609379024349 0.2130068744180813 0 -0.34244699517042121 0.23816418055786151 0 -0.33328609379024349 0.2130068744180813 0 -0.31873218963182409 0.22654972870499029 0 -0.34244699517042121 0.23816418055786151 0 -0.31873218963182409 0.22654972870499029 0 -0.32200613725511351 0.24850726385495631 0 -0.34244699517042121 0.23816418055786151 0 -0.31873218963182409 0.22654972870499029 0 -0.32200613725511351 0.24850726385495631 0 -0.30672251365844311 0.23743048015470111 0 -0.32200613725511351 0.24850726385495631 0 -0.34244699517042121 0.23816418055786151 0 -0.33952374355129727 0.25899057541505788 0 -0.29125564533142001 0.24067530578368901 0 -0.30672251365844311 0.23743048015470111 0 -0.30640548876467488 0.25787073169030861 0 -0.32200613725511351 0.24850726385495631 0 -0.30672251365844311 0.23743048015470111 0 -0.30640548876467488 0.25787073169030861 0 -0.29125564533142001 0.24067530578368901 0 -0.30672251365844311 0.23743048015470111 0 -0.29521310730918271 0.21354937073956171 0 -0.31873218963182409 0.22654972870499029 0 -0.30672251365844311 0.23743048015470111 0 -0.29521310730918271 0.21354937073956171 0 -0.29125564533142001 0.24067530578368901 0 -0.29521310730918271 0.21354937073956171 0 -0.29125564533142001 0.24067530578368901 0 -0.29521310730918271 0.21354937073956171 0 -0.27258595833473342 0.22149207507906341 0 -0.29521310730918271 0.21354937073956171 0 -0.28878760701375322 0.1984352968903606 0 -0.27490594785389072 0.20112241201531189 0 -0.31873218963182409 0.22654972870499029 0 -0.29521310730918271 0.21354937073956171 0 -0.31080006153106382 0.20197173666100501 0 -0.29521310730918271 0.21354937073956171 0 -0.29917056928694541 0.1864234356954344 0 -0.29521310730918271 0.21354937073956171 0 -0.31080006153106382 0.20197173666100501 0 -0.29917056928694541 0.1864234356954344 0 -0.31080006153106382 0.20197173666100501 0 -0.3108046026399135 0.18379038091696129 0 -0.29917056928694541 0.1864234356954344 0 -0.28878760701375322 0.1984352968903606 0 -0.29917056928694541 0.1864234356954344 0 -0.28955343229492791 0.1852490896997587 0 -0.29521310730918271 0.21354937073956171 0 -0.28878760701375322 0.1984352968903606 0 -0.29917056928694541 0.1864234356954344 0 -0.28878760701375322 0.1984352968903606 0 -0.27938784373491388 0.18917199981814359 0 -0.28955343229492791 0.1852490896997587 0 -0.27938784373491388 0.18917199981814359 0 -0.27490594785389072 0.20112241201531189 0 -0.26439180367967152 0.18225540552070321 0 -0.28878760701375322 0.1984352968903606 0 -0.27938784373491388 0.18917199981814359 0 -0.27490594785389072 0.20112241201531189 0 -0.27490594785389072 0.20112241201531189 0 -0.25370102580463139 0.2052288024824625 0 -0.26439180367967152 0.18225540552070321 0 -0.25370102580463139 0.2052288024824625 0 -0.26439180367967152 0.18225540552070321 0 -0.23359887481107691 0.1809086922627815 0 -0.27490594785389072 0.20112241201531189 0 -0.25370102580463139 0.2052288024824625 0 -0.27258595833473342 0.22149207507906341 0 -0.29521310730918271 0.21354937073956171 0 -0.27490594785389072 0.20112241201531189 0 -0.27258595833473342 0.22149207507906341 0 -0.29125564533142001 0.24067530578368901 0 -0.27258595833473342 0.22149207507906341 0 -0.26834113505385238 0.23837358332174549 0 -0.27258595833473342 0.22149207507906341 0 -0.25272375818517617 0.22994970808158929 0 -0.26834113505385238 0.23837358332174549 0 -0.25370102580463139 0.2052288024824625 0 -0.27258595833473342 0.22149207507906341 0 -0.25272375818517617 0.22994970808158929 0 -0.25272375818517617 0.22994970808158929 0 -0.25621817608628389 0.2460965770837312 0 -0.26834113505385238 0.23837358332174549 0 -0.25621817608628389 0.2460965770837312 0 -0.26834113505385238 0.23837358332174549 0 -0.26892213733164849 0.25365425058065472 0 -0.29125564533142001 0.24067530578368901 0 -0.26834113505385238 0.23837358332174549 0 -0.26892213733164849 0.25365425058065472 0 -0.29370567785695612 0.15770531643225719 0 -0.28412418886142132 0.16518528890623771 0 -0.28065913062351988 0.14575155473079041 0 -0.30159211447790629 0.14759241864651959 0 -0.29370567785695612 0.15770531643225719 0 -0.28065913062351988 0.14575155473079041 0 -0.29682817834931757 0.13068013418198679 0 -0.30159211447790629 0.14759241864651959 0 -0.28065913062351988 0.14575155473079041 0 -0.29682817834931757 0.13068013418198679 0 -0.28065913062351988 0.14575155473079041 0 -0.28285123447775751 0.1183560919224374 0 -0.31354631638020197 0.13395604467094269 0 -0.29682817834931757 0.13068013418198679 0 -0.30159211447790629 0.14759241864651959 0 -0.31354631638020197 0.13395604467094269 0 -0.3122891553291075 0.14635758184588041 0 -0.30159211447790629 0.14759241864651959 0 -0.31353256245119709 0.1587605055712967 0 -0.3122891553291075 0.14635758184588041 0 -0.30159211447790629 0.14759241864651959 0 -0.31496429102988749 0.16269226213852109 0 -0.31353256245119709 0.1587605055712967 0 -0.30488677357152572 0.1641353808659653 0 -0.30159211447790629 0.14759241864651959 0 -0.30488677357152572 0.1641353808659653 0 -0.29370567785695612 0.15770531643225719 0 -0.31353256245119709 0.1587605055712967 0 -0.30159211447790629 0.14759241864651959 0 -0.30488677357152572 0.1641353808659653 0 -0.31496429102988749 0.16269226213852109 0 -0.30225886166240762 0.17397067591913981 0 -0.31303823693556859 0.17707572181323081 0 -0.31496429102988749 0.16269226213852109 0 -0.30225886166240762 0.17397067591913981 0 -0.31496429102988749 0.16269226213852109 0 -0.30488677357152572 0.1641353808659653 0 -0.30225886166240762 0.17397067591913981 0 -0.30488677357152572 0.1641353808659653 0 -0.30225886166240762 0.17397067591913981 0 -0.29597535979189887 0.1670989905046398 0 -0.30488677357152572 0.1641353808659653 0 -0.29370567785695612 0.15770531643225719 0 -0.29597535979189887 0.1670989905046398 0 -0.31303823693556859 0.17707572181323081 0 -0.3108046026399135 0.18379038091696129 0 -0.30225886166240762 0.17397067591913981 0 -0.30225886166240762 0.17397067591913981 0 -0.29917056928694541 0.1864234356954344 0 -0.28955343229492791 0.1852490896997587 0 -0.3108046026399135 0.18379038091696129 0 -0.30225886166240762 0.17397067591913981 0 -0.29917056928694541 0.1864234356954344 0 -0.30225886166240762 0.17397067591913981 0 -0.28955343229492791 0.1852490896997587 0 -0.30225886166240762 0.17397067591913981 0 -0.28955343229492791 0.1852490896997587 0 -0.29024545837739651 0.173916500811098 0 -0.28955343229492791 0.1852490896997587 0 -0.29024545837739651 0.173916500811098 0 -0.27889874324695868 0.17762520371433099 0 -0.29024545837739651 0.173916500811098 0 -0.28412418886142132 0.16518528890623771 0 -0.27889874324695868 0.17762520371433099 0 -0.27938784373491388 0.18917199981814359 0 -0.28955343229492791 0.1852490896997587 0 -0.27889874324695868 0.17762520371433099 0 -0.29370567785695612 0.15770531643225719 0 -0.29597535979189887 0.1670989905046398 0 -0.28412418886142132 0.16518528890623771 0 -0.30225886166240762 0.17397067591913981 0 -0.29024545837739651 0.173916500811098 0 -0.29597535979189887 0.1670989905046398 0 -0.29024545837739651 0.173916500811098 0 -0.29597535979189887 0.1670989905046398 0 -0.28412418886142132 0.16518528890623771 0 -0.28412418886142132 0.16518528890623771 0 -0.26844272787379447 0.16268744982768751 0 -0.27889874324695868 0.17762520371433099 0 -0.28412418886142132 0.16518528890623771 0 -0.26844272787379447 0.16268744982768751 0 -0.28065913062351988 0.14575155473079041 0 -0.26844272787379447 0.16268744982768751 0 -0.27889874324695868 0.17762520371433099 0 -0.26439180367967152 0.18225540552070321 0 -0.27938784373491388 0.18917199981814359 0 -0.27889874324695868 0.17762520371433099 0 -0.26439180367967152 0.18225540552070321 0 -0.26844272787379447 0.16268744982768751 0 -0.26439180367967152 0.18225540552070321 0 -0.247018622616726 0.15992587597476091 0 -0.26844272787379447 0.16268744982768751 0 -0.25846103874104392 0.14702121199507179 0 -0.247018622616726 0.15992587597476091 0 -0.26844272787379447 0.16268744982768751 0 -0.25846103874104392 0.14702121199507179 0 -0.28065913062351988 0.14575155473079041 0 -0.25846103874104392 0.14702121199507179 0 -0.28065913062351988 0.14575155473079041 0 -0.25922316449870308 0.12628093809151891 0 -0.28065913062351988 0.14575155473079041 0 -0.25922316449870308 0.12628093809151891 0 -0.28285123447775751 0.1183560919224374 0 -0.25846103874104392 0.14702121199507179 0 -0.25922316449870308 0.12628093809151891 0 -0.2369615480924761 0.1404602413506009 0 -0.25922316449870308 0.12628093809151891 0 -0.25136603029008331 0.1103208693098497 0 -0.26687835675477128 0.1014348965859585 0 -0.25136603029008331 0.1103208693098497 0 -0.26687835675477128 0.1014348965859585 0 -0.24377998071086901 0.096378574065869249 0 -0.26687835675477128 0.1014348965859585 0 -0.28737892951993471 0.098967158637655914 0 -0.27569457229827071 0.081243623470509244 0 -0.26687835675477128 0.1014348965859585 0 -0.28285123447775751 0.1183560919224374 0 -0.28737892951993471 0.098967158637655914 0 -0.25922316449870308 0.12628093809151891 0 -0.26687835675477128 0.1014348965859585 0 -0.28285123447775751 0.1183560919224374 0 -0.29682817834931757 0.13068013418198679 0 -0.28285123447775751 0.1183560919224374 0 -0.30549209578720232 0.10774456093924389 0 -0.28285123447775751 0.1183560919224374 0 -0.28737892951993471 0.098967158637655914 0 -0.30549209578720232 0.10774456093924389 0 -0.28737892951993471 0.098967158637655914 0 -0.30549209578720232 0.10774456093924389 0 -0.29743787519420251 0.08153307720754506 0 -0.30549209578720232 0.10774456093924389 0 -0.29743787519420251 0.08153307720754506 0 -0.31354631638020197 0.13395604467094269 0 -0.29682817834931757 0.13068013418198679 0 -0.30549209578720232 0.10774456093924389 0 -0.31354631638020197 0.13395604467094269 0 -0.30549209578720232 0.10774456093924389 0 -0.29926204670725021 0.066629363318123747 0 -0.30931237829482389 0.073252958087475881 0 -0.31697319293959142 0.061410437985649477 0 -0.29926204670725021 0.066629363318123747 0 -0.30931237829482389 0.073252958087475881 0 -0.29743787519420251 0.08153307720754506 0 -0.30549209578720232 0.10774456093924389 0 -0.29743787519420251 0.08153307720754506 0 -0.31312795334666071 0.083579729522452809 0 -0.30931237829482389 0.073252958087475881 0 -0.29743787519420251 0.08153307720754506 0 -0.31312795334666071 0.083579729522452809 0 -0.28737892951993471 0.098967158637655914 0 -0.29743787519420251 0.08153307720754506 0 -0.27569457229827071 0.081243623470509244 0 -0.29743787519420251 0.08153307720754506 0 -0.28743776060402371 0.060458689408765323 0 -0.28938365460120269 0.05532159347584624 0 -0.29743787519420251 0.08153307720754506 0 -0.28938365460120269 0.05532159347584624 0 -0.29926204670725021 0.066629363318123747 0 -0.29743787519420251 0.08153307720754506 0 -0.28938365460120269 0.05532159347584624 0 -0.29743787519420251 0.08153307720754506 0 -0.27569457229827071 0.081243623470509244 0 -0.28743776060402371 0.060458689408765323 0 -0.27569457229827071 0.081243623470509244 0 -0.26257114212692878 0.06573449919026883 0 -0.28743776060402371 0.060458689408765323 0 -0.26257114212692878 0.06573449919026883 0 -0.28743776060402371 0.060458689408765323 0 -0.26687835675477128 0.1014348965859585 0 -0.25261226255175379 0.080423606239198905 0 -0.24377998071086901 0.096378574065869249 0 -0.26687835675477128 0.1014348965859585 0 -0.27569457229827071 0.081243623470509244 0 -0.25261226255175379 0.080423606239198905 0 -0.26257114212692878 0.06573449919026883 0 -0.23770452364983391 0.071010308971772351 0 -0.25261226255175379 0.080423606239198905 0 -0.26257114212692878 0.06573449919026883 0 -0.23770452364983391 0.071010308971772351 0 -0.27569457229827071 0.081243623470509244 0 -0.25261226255175379 0.080423606239198905 0 -0.26257114212692878 0.06573449919026883 0 -0.2522816967992324 0.037264740289820159 0 -0.27263172987273521 0.051913181220590639 0 -0.24906194248509719 0.058488871325365822 0 -0.26257114212692878 0.06573449919026883 0 -0.27263172987273521 0.051913181220590639 0 -0.24906194248509719 0.058488871325365822 0 -0.2522816967992324 0.037264740289820159 0 -0.2684979789729644 0.03593820420606865 0 -0.27263172987273521 0.051913181220590639 0 -0.2684979789729644 0.03593820420606865 0 -0.27263172987273521 0.051913181220590639 0 -0.28132943400820298 0.02911010974414751 0 -0.27263172987273521 0.051913181220590639 0 -0.28132943400820298 0.02911010974414751 0 -0.28938365460120269 0.05532159347584624 0 -0.26257114212692878 0.06573449919026883 0 -0.27263172987273521 0.051913181220590639 0 -0.28743776060402371 0.060458689408765323 0 -0.25267499080189931 -0.0034516002120552492 0 -0.26909988492935111 -0.0018655285383734981 0 -0.25157722050270093 0.012682655753942951 0 -0.26909988492935111 -0.0018655285383734981 0 -0.25157722050270093 0.012682655753942951 0 -0.27200359261247947 0.017754051058092819 0 -0.2522816967992324 0.037264740289820159 0 -0.25157722050270093 0.012682655753942951 0 -0.27200359261247947 0.017754051058092819 0 -0.2522816967992324 0.037264740289820159 0 -0.2684979789729644 0.03593820420606865 0 -0.27200359261247947 0.017754051058092819 0 -0.2522816967992324 0.037264740289820159 0 -0.27200359261247947 0.017754051058092819 0 -0.27200359261247947 0.017754051058092819 0 -0.28831373269731447 0.017122983851404761 0 -0.28132943400820298 0.02911010974414751 0 -0.2684979789729644 0.03593820420606865 0 -0.27200359261247947 0.017754051058092819 0 -0.28132943400820298 0.02911010974414751 0 -0.26909988492935111 -0.0018655285383734981 0 -0.2917254884257266 -0.0017566381736345419 0 -0.27200359261247947 0.017754051058092819 0 -0.2917254884257266 -0.0017566381736345419 0 -0.27200359261247947 0.017754051058092819 0 -0.28831373269731447 0.017122983851404761 0 -0.2917254884257266 -0.0017566381736345419 0 -0.28831373269731447 0.017122983851404761 0 -0.29997880334656019 0.01439552450637107 0 -0.2917254884257266 -0.0017566381736345419 0 -0.27200359261247947 0.017754051058092819 0 -0.28831373269731447 0.017122983851404761 0 -0.29656482898857922 0.02610767777843559 0 -0.29997880334656019 0.01439552450637107 0 -0.28831373269731447 0.017122983851404761 0 -0.28132943400820298 0.02911010974414751 0 -0.29656482898857922 0.02610767777843559 0 -0.28132943400820298 0.02911010974414751 0 -0.29656482898857922 0.02610767777843559 0 -0.29344050585463782 0.03493273697686209 0 -0.29656482898857922 0.02610767777843559 0 -0.31039051656375261 0.022327184027059441 0 -0.30541723396373921 0.038711125382435783 0 -0.31039051656375261 0.022327184027059441 0 -0.30541723396373921 0.038711125382435783 0 -0.32038394146944787 0.031620215762440292 0 -0.29656482898857922 0.02610767777843559 0 -0.31039051656375261 0.022327184027059441 0 -0.29997880334656019 0.01439552450637107 0 -0.31039051656375261 0.022327184027059441 0 -0.31177688145040278 0.0050359958776742568 0 -0.29997880334656019 0.01439552450637107 0 -0.2917254884257266 -0.0017566381736345419 0 -0.31177688145040278 0.0050359958776742568 0 -0.29997880334656019 0.01439552450637107 0 -0.27263172987273521 0.051913181220590639 0 -0.28743776060402371 0.060458689408765323 0 -0.28938365460120269 0.05532159347584624 0 -0.28938365460120269 0.05532159347584624 0 -0.29045052645802971 0.045802035002429492 0 -0.29738278035354182 0.050541329601553678 0 -0.28938365460120269 0.05532159347584624 0 -0.29738278035354182 0.050541329601553678 0 -0.29780899910201009 0.056562827273038227 0 -0.29926204670725021 0.066629363318123747 0 -0.28938365460120269 0.05532159347584624 0 -0.29780899910201009 0.056562827273038227 0 -0.28132943400820298 0.02911010974414751 0 -0.28938365460120269 0.05532159347584624 0 -0.29045052645802971 0.045802035002429492 0 -0.28132943400820298 0.02911010974414751 0 -0.28938365460120269 0.05532159347584624 0 -0.28132943400820298 0.02911010974414751 0 -0.29344050585463782 0.03493273697686209 0 -0.29045052645802971 0.045802035002429492 0 -0.29344050585463782 0.03493273697686209 0 -0.29045052645802971 0.045802035002429492 0 -0.30541723396373921 0.038711125382435783 0 -0.29045052645802971 0.045802035002429492 0 -0.30541723396373921 0.038711125382435783 0 -0.29738278035354182 0.050541329601553678 0 -0.29045052645802971 0.045802035002429492 0 -0.30541723396373921 0.038711125382435783 0 -0.29656482898857922 0.02610767777843559 0 -0.29344050585463782 0.03493273697686209 0 -0.30541723396373921 0.038711125382435783 0 -0.30541723396373921 0.038711125382435783 0 -0.30520751474604563 0.05375902269662923 0 -0.31780711793698518 0.045521831715634557 0 -0.29926204670725021 0.066629363318123747 0 -0.30520751474604563 0.05375902269662923 0 -0.31697319293959142 0.061410437985649477 0 -0.30541723396373921 0.038711125382435783 0 -0.30520751474604563 0.05375902269662923 0 -0.29738278035354182 0.050541329601553678 0 -0.30520751474604563 0.05375902269662923 0 -0.29738278035354182 0.050541329601553678 0 -0.29780899910201009 0.056562827273038227 0 -0.29926204670725021 0.066629363318123747 0 -0.30520751474604563 0.05375902269662923 0 -0.29780899910201009 0.056562827273038227 0 -0.32553678940662539 0.052415823907368687 0 -0.31780711793698518 0.045521831715634557 0 -0.33422422494732851 0.04449049745268327 0 -0.31697319293959142 0.061410437985649477 0 -0.32553678940662539 0.052415823907368687 0 -0.31780711793698518 0.045521831715634557 0 -0.30520751474604563 0.05375902269662923 0 -0.31697319293959142 0.061410437985649477 0 -0.31780711793698518 0.045521831715634557 0 -0.31697319293959142 0.061410437985649477 0 -0.32808937753058609 0.059947696530402161 0 -0.32553678940662539 0.052415823907368687 0 -0.31780711793698518 0.045521831715634557 0 -0.32038394146944787 0.031620215762440292 0 -0.33422422494732851 0.04449049745268327 0 -0.30541723396373921 0.038711125382435783 0 -0.31780711793698518 0.045521831715634557 0 -0.32038394146944787 0.031620215762440292 0 -0.30541723396373921 0.038711125382435783 0 -0.32038394146944787 0.031620215762440292 0 -0.32038394146944787 0.031620215762440292 0 -0.33422422494732851 0.04449049745268327 0 -0.33422422494732851 0.04449049745268327 0 -0.34051642268078958 0.02208187176518148 0 -0.34924074101412461 0.03711639968071382 0 -0.32038394146944787 0.031620215762440292 0 -0.33422422494732851 0.04449049745268327 0 -0.34051642268078958 0.02208187176518148 0 -0.33422422494732851 0.04449049745268327 0 -0.34715076893326918 0.04673829876922056 0 -0.34924074101412461 0.03711639968071382 0 -0.33422422494732851 0.04449049745268327 0 -0.34806450842520742 0.057360779142928031 0 -0.34715076893326918 0.04673829876922056 0 -0.33422422494732851 0.04449049745268327 0 -0.34806450842520742 0.057360779142928031 0 -0.33422422494732851 0.04449049745268327 0 -0.33482930480244999 0.055095026294593591 0 -0.34806450842520742 0.057360779142928031 0 -0.3407399656121517 0.06083029771636933 0 -0.33482930480244999 0.055095026294593591 0 -0.33440717105718593 0.063083878638897639 0 -0.3407399656121517 0.06083029771636933 0 -0.33482930480244999 0.055095026294593591 0 -0.34806450842520742 0.057360779142928031 0 -0.32808937753058609 0.059947696530402161 0 -0.33482930480244999 0.055095026294593591 0 -0.33440717105718593 0.063083878638897639 0 -0.32808937753058609 0.059947696530402161 0 -0.32553678940662539 0.052415823907368687 0 -0.33482930480244999 0.055095026294593591 0 -0.32553678940662539 0.052415823907368687 0 -0.33422422494732851 0.04449049745268327 0 -0.33482930480244999 0.055095026294593591 0 -0.31039051656375261 0.022327184027059441 0 -0.31177688145040278 0.0050359958776742568 0 -0.3261420213634148 0.01391490981329808 0 -0.32828291010712762 -0.0049346835118845543 0 -0.31177688145040278 0.0050359958776742568 0 -0.3261420213634148 0.01391490981329808 0 -0.31039051656375261 0.022327184027059441 0 -0.32038394146944787 0.031620215762440292 0 -0.3261420213634148 0.01391490981329808 0 -0.31039051656375261 0.022327184027059441 0 -0.32038394146944787 0.031620215762440292 0 -0.32038394146944787 0.031620215762440292 0 -0.34051642268078958 0.02208187176518148 0 -0.32038394146944787 0.031620215762440292 0 -0.3261420213634148 0.01391490981329808 0 -0.34051642268078958 0.02208187176518148 0 -0.3261420213634148 0.01391490981329808 0 -0.34051642268078958 0.02208187176518148 0 -0.34055428987364128 0.0059527955302196532 0 -0.32828291010712762 -0.0049346835118845543 0 -0.3261420213634148 0.01391490981329808 0 -0.34055428987364128 0.0059527955302196532 0 -0.34051642268078958 0.02208187176518148 0 -0.34055428987364128 0.0059527955302196532 0 -0.36064890389212972 0.0125435277679194 0 -0.34718119132474479 -0.01384164818341615 0 -0.34055428987364128 0.0059527955302196532 0 -0.36064890389212972 0.0125435277679194 0 -0.34051642268078958 0.02208187176518148 0 -0.36064890389212972 0.0125435277679194 0 -0.34051642268078958 0.02208187176518148 0 -0.35699945364537122 0.027147445145089769 0 -0.34924074101412461 0.03711639968071382 0 -0.34051642268078958 0.02208187176518148 0 -0.35699945364537122 0.027147445145089769 0 -0.36064890389212972 0.0125435277679194 0 -0.35699945364537122 0.027147445145089769 0 -0.36163302121541668 0.029781402687577421 0 -0.35940737946489582 0.035374977024224222 0 -0.37998819155715241 0.0057865511937031933 0 -0.36738966121720701 0.029980518529024301 0 -0.37123175334181557 0.027162262264614271 0 -0.37998819155715241 0.0057865511937031933 0 -0.36738966121720701 0.029980518529024301 0 -0.3645477689834325 0.020181962352102071 0 -0.37998819155715241 0.0057865511937031933 0 -0.36738966121720701 0.029980518529024301 0 -0.36273559053419291 0.026622670051971411 0 -0.36738966121720701 0.029980518529024301 0 -0.3645477689834325 0.020181962352102071 0 -0.35699945364537122 0.027147445145089769 0 -0.36163302121541668 0.029781402687577421 0 -0.36273559053419291 0.026622670051971411 0 -0.35699945364537122 0.027147445145089769 0 -0.36273559053419291 0.026622670051971411 0 -0.3645477689834325 0.020181962352102071 0 -0.36163302121541668 0.029781402687577421 0 -0.36273559053419291 0.026622670051971411 0 -0.36738966121720701 0.029980518529024301 0 -0.35699945364537122 0.027147445145089769 0 -0.3645477689834325 0.020181962352102071 0 -0.36064890389212972 0.0125435277679194 0 -0.3645477689834325 0.020181962352102071 0 -0.36064890389212972 0.0125435277679194 0 -0.37998819155715241 0.0057865511937031933 0 -0.3645477689834325 0.020181962352102071 0 -0.36064890389212972 0.0125435277679194 0 -0.38683543611469601 0.0001369023841863784 0 -0.36064890389212972 0.0125435277679194 0 -0.37474494217865062 -0.0022388935110706832 0 -0.38683543611469601 0.0001369023841863784 0 -0.36064890389212972 0.0125435277679194 0 -0.37474494217865062 -0.0022388935110706832 0 -0.36307869926690151 -0.00068504054922277494 0 -0.36064890389212972 0.0125435277679194 0 -0.35479113087726238 0.05417448586434577 0 -0.34715076893326918 0.04673829876922056 0 -0.35593663516940488 0.04278932274017315 0 -0.35479113087726238 0.05417448586434577 0 -0.35147867423579721 0.06053566178096708 0 -0.3622197730044176 0.060127746183944272 0 -0.35479113087726238 0.05417448586434577 0 -0.35147867423579721 0.06053566178096708 0 -0.35479113087726238 0.05417448586434577 0 -0.34806450842520742 0.057360779142928031 0 -0.35147867423579721 0.06053566178096708 0 -0.35479113087726238 0.05417448586434577 0 -0.34806450842520742 0.057360779142928031 0 -0.34806450842520742 0.057360779142928031 0 -0.35147867423579721 0.06053566178096708 0 -0.3447014191436914 0.063951910484466787 0 -0.34806450842520742 0.057360779142928031 0 -0.35147867423579721 0.06053566178096708 0 -0.3407399656121517 0.06083029771636933 0 -0.34806450842520742 0.057360779142928031 0 -0.3407399656121517 0.06083029771636933 0 -0.34806450842520742 0.057360779142928031 0 -0.3447014191436914 0.063951910484466787 0 -0.35479113087726238 0.05417448586434577 0 -0.34806450842520742 0.057360779142928031 0 -0.34715076893326918 0.04673829876922056 0 -0.34715076893326918 0.04673829876922056 0 -0.34924074101412461 0.03711639968071382 0 -0.35593663516940488 0.04278932274017315 0 -0.36738966121720701 0.029980518529024301 0 -0.35479113087726238 0.05417448586434577 0 -0.35593663516940488 0.04278932274017315 0 -0.35699945364537122 0.027147445145089769 0 -0.34924074101412461 0.03711639968071382 0 -0.35940737946489582 0.035374977024224222 0 -0.34924074101412461 0.03711639968071382 0 -0.35593663516940488 0.04278932274017315 0 -0.35940737946489582 0.035374977024224222 0 -0.36738966121720701 0.029980518529024301 0 -0.35479113087726238 0.05417448586434577 0 -0.36677646394688163 0.041367990420506082 0 -0.37123175334181557 0.027162262264614271 0 -0.37046143272875132 0.04675171495388801 0 -0.36738966121720701 0.029980518529024301 0 -0.35479113087726238 0.05417448586434577 0 -0.37123175334181557 0.027162262264614271 0 -0.36677646394688163 0.041367990420506082 0 -0.37046143272875132 0.04675171495388801 0 -0.3764786745208083 0.032098692741998169 0 -0.37123175334181557 0.027162262264614271 0 -0.37046143272875132 0.04675171495388801 0 -0.36163302121541668 0.029781402687577421 0 -0.36738966121720701 0.029980518529024301 0 -0.35940737946489582 0.035374977024224222 0 -0.36738966121720701 0.029980518529024301 0 -0.35593663516940488 0.04278932274017315 0 -0.35940737946489582 0.035374977024224222 0 -0.36738966121720701 0.029980518529024301 0 -0.37123175334181557 0.027162262264614271 0 -0.36677646394688163 0.041367990420506082 0 -0.36677646394688163 0.041367990420506082 0 -0.37046143272875132 0.04675171495388801 0 -0.36802302346639398 0.047906750352184523 0 -0.36677646394688163 0.041367990420506082 0 -0.36802302346639398 0.047906750352184523 0 -0.37046143272875132 0.04675171495388801 0 -0.37000681959492809 0.05831264468359916 0 -0.36802302346639398 0.047906750352184523 0 -0.37000681959492809 0.05831264468359916 0 -0.37046143272875132 0.04675171495388801 0 -0.36802302346639398 0.047906750352184523 0 -0.37000681959492809 0.05831264468359916 0 -0.37046143272875132 0.04675171495388801 0 -0.36802302346639398 0.047906750352184523 0 -0.35479113087726238 0.05417448586434577 0 -0.36802302346639398 0.047906750352184523 0 -0.35479113087726238 0.05417448586434577 0 -0.36802302346639398 0.047906750352184523 0 -0.3622197730044176 0.060127746183944272 0 -0.35479113087726238 0.05417448586434577 0 -0.36677646394688163 0.041367990420506082 0 -0.36802302346639398 0.047906750352184523 0 -0.36802302346639398 0.047906750352184523 0 -0.3622197730044176 0.060127746183944272 0 -0.37000681959492809 0.05831264468359916 0 -0.35147867423579721 0.06053566178096708 0 -0.36926886504626422 0.077079019973005369 0 -0.3622197730044176 0.060127746183944272 0 -0.37000681959492809 0.05831264468359916 0 -0.36926886504626422 0.077079019973005369 0 -0.37000681959492809 0.05831264468359916 0 -0.36926886504626422 0.077079019973005369 0 -0.37079498002478778 0.078498176574577722 0 -0.36926886504626422 0.077079019973005369 0 -0.34551673285671652 0.071984855543133663 0 -0.36912013352382872 0.080861301107253064 0 -0.37000681959492809 0.05831264468359916 0 -0.37079498002478778 0.078498176574577722 0 -0.37470600383380392 0.082961959162170973 0 -0.35147867423579721 0.06053566178096708 0 -0.3622197730044176 0.060127746183944272 0 -0.36926886504626422 0.077079019973005369 0 -0.37000681959492809 0.05831264468359916 0 -0.37470600383380392 0.082961959162170973 0 -0.37000681959492809 0.05831264468359916 0 -0.36926886504626422 0.077079019973005369 0 -0.36926886504626422 0.077079019973005369 0 -0.37079498002478778 0.078498176574577722 0 -0.34551673285671652 0.071984855543133663 0 -0.34763839367566191 0.079069075487607554 0 -0.36912013352382872 0.080861301107253064 0 -0.34551673285671652 0.071984855543133663 0 -0.36912013352382872 0.080861301107253064 0 -0.35147867423579721 0.06053566178096708 0 -0.36926886504626422 0.077079019973005369 0 -0.34551673285671652 0.071984855543133663 0 -0.34408269824063842 0.074738747125954852 0 -0.34763839367566191 0.079069075487607554 0 -0.34179116264722731 0.080399472229040897 0 -0.34408269824063842 0.074738747125954852 0 -0.34551673285671652 0.071984855543133663 0 -0.34763839367566191 0.079069075487607554 0 -0.34408269824063842 0.074738747125954852 0 -0.34551673285671652 0.071984855543133663 0 -0.35147867423579721 0.06053566178096708 0 -0.34551673285671652 0.071984855543133663 0 -0.3447014191436914 0.063951910484466787 0 -0.35147867423579721 0.06053566178096708 0 -0.34551673285671652 0.071984855543133663 0 -0.34763839367566191 0.079069075487607554 0 -0.36858415035949882 0.094491491786065696 0 -0.34763839367566191 0.079069075487607554 0 -0.36858415035949882 0.094491491786065696 0 -0.35198293914272999 0.094145145766245733 0 -0.34456144318064219 0.08667329674911145 0 -0.34763839367566191 0.079069075487607554 0 -0.35198293914272999 0.094145145766245733 0 -0.34456144318064219 0.08667329674911145 0 -0.35198293914272999 0.094145145766245733 0 -0.34431035454597703 0.093789606507308373 0 -0.34456144318064219 0.08667329674911145 0 -0.34763839367566191 0.079069075487607554 0 -0.34179116264722731 0.080399472229040897 0 -0.3782625711058698 0.101617738696854 0 -0.37470600383380392 0.082961959162170973 0 -0.36858415035949882 0.094491491786065696 0 -0.34763839367566191 0.079069075487607554 0 -0.36912013352382872 0.080861301107253064 0 -0.36858415035949882 0.094491491786065696 0 -0.36926886504626422 0.077079019973005369 0 -0.37079498002478778 0.078498176574577722 0 -0.36912013352382872 0.080861301107253064 0 -0.36926886504626422 0.077079019973005369 0 -0.36912013352382872 0.080861301107253064 0 -0.36912013352382872 0.080861301107253064 0 -0.37470600383380392 0.082961959162170973 0 -0.37079498002478778 0.078498176574577722 0 -0.36912013352382872 0.080861301107253064 0 -0.37470600383380392 0.082961959162170973 0 -0.36912013352382872 0.080861301107253064 0 -0.37470600383380392 0.082961959162170973 0 -0.36858415035949882 0.094491491786065696 0 -0.36912013352382872 0.080861301107253064 0 -0.36858415035949882 0.094491491786065696 0 -0.36858415035949882 0.094491491786065696 0 -0.36747352968705388 0.12273486311700831 0 -0.3782625711058698 0.101617738696854 0 -0.36858415035949882 0.094491491786065696 0 -0.36858415035949882 0.094491491786065696 0 -0.36006702585218792 0.10838608290929221 0 -0.35198293914272999 0.094145145766245733 0 -0.36858415035949882 0.094491491786065696 0 -0.36006702585218792 0.10838608290929221 0 -0.36747352968705388 0.12273486311700831 0 -0.3782625711058698 0.101617738696854 0 -0.36858415035949882 0.094491491786065696 0 -0.36747352968705388 0.12273486311700831 0 -0.36006702585218792 0.10838608290929221 0 -0.36747352968705388 0.12273486311700831 0 -0.35832203275528268 0.1183511860346923 0 -0.35528769071996391 0.12689780186549679 0 -0.36747352968705388 0.12273486311700831 0 -0.35832203275528268 0.1183511860346923 0 -0.35528769071996391 0.12689780186549679 0 -0.35832203275528268 0.1183511860346923 0 -0.35045988476192508 0.115385996246972 0 -0.36006702585218792 0.10838608290929221 0 -0.35832203275528268 0.1183511860346923 0 -0.35045988476192508 0.115385996246972 0 -0.35045988476192508 0.115385996246972 0 -0.34547580274860562 0.10394098399483009 0 -0.33570271963636877 0.11206429961599181 0 -0.35528769071996391 0.12689780186549679 0 -0.35045988476192508 0.115385996246972 0 -0.34115039425197219 0.12498493974687711 0 -0.36006702585218792 0.10838608290929221 0 -0.35198293914272999 0.094145145766245733 0 -0.34547580274860562 0.10394098399483009 0 -0.36006702585218792 0.10838608290929221 0 -0.35045988476192508 0.115385996246972 0 -0.34547580274860562 0.10394098399483009 0 -0.35198293914272999 0.094145145766245733 0 -0.34547580274860562 0.10394098399483009 0 -0.34431035454597703 0.093789606507308373 0 -0.34547580274860562 0.10394098399483009 0 -0.34431035454597703 0.093789606507308373 0 -0.335413749579693 0.097286071719103154 0 -0.34547580274860562 0.10394098399483009 0 -0.335413749579693 0.097286071719103154 0 -0.33570271963636877 0.11206429961599181 0 -0.335413749579693 0.097286071719103154 0 -0.33570271963636877 0.11206429961599181 0 -0.32444247844199348 0.1047035033472971 0 -0.35045988476192508 0.115385996246972 0 -0.34115039425197219 0.12498493974687711 0 -0.33570271963636877 0.11206429961599181 0 -0.32917568526667751 0.12578156900391591 0 -0.33570271963636877 0.11206429961599181 0 -0.32114709127587232 0.11611322513389059 0 -0.32917568526667751 0.12578156900391591 0 -0.34115039425197219 0.12498493974687711 0 -0.33570271963636877 0.11206429961599181 0 -0.31354631638020197 0.13395604467094269 0 -0.30549209578720232 0.10774456093924389 0 -0.32114709127587232 0.11611322513389059 0 -0.30549209578720232 0.10774456093924389 0 -0.32114709127587232 0.11611322513389059 0 -0.32444247844199348 0.1047035033472971 0 -0.33570271963636877 0.11206429961599181 0 -0.32114709127587232 0.11611322513389059 0 -0.32444247844199348 0.1047035033472971 0 -0.30549209578720232 0.10774456093924389 0 -0.32444247844199348 0.1047035033472971 0 -0.32445673593083119 0.090309359328255762 0 -0.30549209578720232 0.10774456093924389 0 -0.32445673593083119 0.090309359328255762 0 -0.31312795334666071 0.083579729522452809 0 -0.335413749579693 0.097286071719103154 0 -0.32444247844199348 0.1047035033472971 0 -0.32445673593083119 0.090309359328255762 0 -0.32445673593083119 0.090309359328255762 0 -0.3275606083710243 0.080211281293741998 0 -0.31312795334666071 0.083579729522452809 0 -0.3275606083710243 0.080211281293741998 0 -0.31312795334666071 0.083579729522452809 0 -0.31976082328641481 0.073112182403608325 0 -0.30931237829482389 0.073252958087475881 0 -0.31312795334666071 0.083579729522452809 0 -0.31976082328641481 0.073112182403608325 0 -0.30931237829482389 0.073252958087475881 0 -0.31697319293959142 0.061410437985649477 0 -0.31976082328641481 0.073112182403608325 0 -0.31697319293959142 0.061410437985649477 0 -0.31976082328641481 0.073112182403608325 0 -0.32886731949388731 0.069155273298144179 0 -0.31697319293959142 0.061410437985649477 0 -0.32808937753058609 0.059947696530402161 0 -0.32886731949388731 0.069155273298144179 0 -0.3275606083710243 0.080211281293741998 0 -0.31976082328641481 0.073112182403608325 0 -0.32886731949388731 0.069155273298144179 0 -0.32886731949388731 0.069155273298144179 0 -0.33770721458858299 0.069047958238937293 0 -0.336378655355973 0.076693290193422539 0 -0.3275606083710243 0.080211281293741998 0 -0.32886731949388731 0.069155273298144179 0 -0.336378655355973 0.076693290193422539 0 -0.33440717105718593 0.063083878638897639 0 -0.32886731949388731 0.069155273298144179 0 -0.33770721458858299 0.069047958238937293 0 -0.32808937753058609 0.059947696530402161 0 -0.33440717105718593 0.063083878638897639 0 -0.32886731949388731 0.069155273298144179 0 -0.3407399656121517 0.06083029771636933 0 -0.33440717105718593 0.063083878638897639 0 -0.33770721458858299 0.069047958238937293 0 -0.3407399656121517 0.06083029771636933 0 -0.3447014191436914 0.063951910484466787 0 -0.33770721458858299 0.069047958238937293 0 -0.34551673285671652 0.071984855543133663 0 -0.3447014191436914 0.063951910484466787 0 -0.33770721458858299 0.069047958238937293 0 -0.34408269824063842 0.074738747125954852 0 -0.33770721458858299 0.069047958238937293 0 -0.336378655355973 0.076693290193422539 0 -0.34408269824063842 0.074738747125954852 0 -0.34551673285671652 0.071984855543133663 0 -0.33770721458858299 0.069047958238937293 0 -0.34551673285671652 0.071984855543133663 0 -0.33770721458858299 0.069047958238937293 0 -0.34408269824063842 0.074738747125954852 0 -0.336378655355973 0.076693290193422539 0 -0.34179116264722731 0.080399472229040897 0 -0.336378655355973 0.076693290193422539 0 -0.34179116264722731 0.080399472229040897 0 -0.33708436589161489 0.085963183755354639 0 -0.34456144318064219 0.08667329674911145 0 -0.34179116264722731 0.080399472229040897 0 -0.33708436589161489 0.085963183755354639 0 -0.34456144318064219 0.08667329674911145 0 -0.34431035454597703 0.093789606507308373 0 -0.33708436589161489 0.085963183755354639 0 -0.34431035454597703 0.093789606507308373 0 -0.335413749579693 0.097286071719103154 0 -0.33708436589161489 0.085963183755354639 0 -0.335413749579693 0.097286071719103154 0 -0.32445673593083119 0.090309359328255762 0 -0.33708436589161489 0.085963183755354639 0 -0.32445673593083119 0.090309359328255762 0 -0.3275606083710243 0.080211281293741998 0 -0.33708436589161489 0.085963183755354639 0 -0.3275606083710243 0.080211281293741998 0 -0.336378655355973 0.076693290193422539 0 -0.33708436589161489 0.085963183755354639 0 -0.38891458820749281 0.47713565504117422 0 -0.42172655890518862 0.5 0 -0.3640375775585698 0.5 0 -0.38891458820749281 0.47713565504117422 0 -0.37103467036260362 0.45695891695805302 0 -0.36943712044780219 0.47475959506207249 0 -0.39694697642853649 0.45370639251272787 0 -0.37103467036260362 0.45695891695805302 0 -0.38891458820749281 0.47713565504117422 0 -0.39694697642853649 0.45370639251272787 0 -0.37103467036260362 0.45695891695805302 0 -0.38249991962136642 0.44345487931465249 0 -0.39694697642853649 0.45370639251272787 0 -0.37103467036260362 0.45695891695805302 0 -0.38249991962136642 0.44345487931465249 0 -0.39694697642853649 0.45370639251272787 0 -0.40464661760035381 0.43350824459614162 0 -0.38891458820749281 0.47713565504117422 0 -0.39694697642853649 0.45370639251272787 0 -0.41631826774707797 0.4711213942969617 0 -0.39694697642853649 0.45370639251272787 0 -0.42285928249446952 0.45045386806740279 0 -0.41631826774707797 0.4711213942969617 0 -0.42285928249446952 0.45045386806740279 0 -0.42501824733507809 0.43459816807542118 0 -0.40464661760035381 0.43350824459614162 0 -0.39694697642853649 0.45370639251272787 0 -0.42285928249446952 0.45045386806740279 0 -0.39694697642853649 0.45370639251272787 0 -0.42285928249446952 0.45045386806740279 0 -0.40464661760035381 0.43350824459614162 0 -0.42285928249446952 0.45045386806740279 0 -0.43521244088076849 0.46107148678855758 0 -0.44877158856040261 0.44720134362207808 0 -0.42285928249446952 0.45045386806740279 0 -0.44877158856040261 0.44720134362207808 0 -0.42285928249446952 0.45045386806740279 0 -0.43592409671607729 0.44045812782560079 0 -0.44877158856040261 0.44720134362207808 0 -0.42285928249446952 0.45045386806740279 0 -0.43592409671607729 0.44045812782560079 0 -0.42501824733507809 0.43459816807542118 0 -0.42285928249446952 0.45045386806740279 0 -0.43521244088076849 0.46107148678855758 0 -0.41631826774707797 0.4711213942969617 0 -0.41631826774707797 0.4711213942969617 0 -0.42172655890518862 0.5 0 -0.43935827984199688 0.47473889959161758 0 -0.43521244088076849 0.46107148678855758 0 -0.41631826774707797 0.4711213942969617 0 -0.43935827984199688 0.47473889959161758 0 -0.38891458820749281 0.47713565504117422 0 -0.41631826774707797 0.4711213942969617 0 -0.42172655890518862 0.5 0 -0.42172655890518862 0.5 0 -0.43935827984199688 0.47473889959161758 0 -0.47784082473980471 0.47626967285504462 0 -0.42172655890518862 0.5 0 -0.5 0.5 0 -0.47784082473980471 0.47626967285504462 0 -0.43935827984199688 0.47473889959161758 0 -0.47784082473980471 0.47626967285504462 0 -0.4487547857598953 0.46184192836472759 0 -0.5 0.5 0 -0.47784082473980471 0.47626967285504462 0 -0.49999999999999589 0.44077113011354369 0 -0.47784082473980471 0.47626967285504462 0 -0.47438579428019922 0.44398623686781052 0 -0.4627013265822788 0.4545376326069438 0 -0.47784082473980471 0.47626967285504462 0 -0.49999999999999589 0.44077113011354369 0 -0.47438579428019922 0.44398623686781052 0 -0.49999999999999589 0.44077113011354369 0 -0.47438579428019922 0.44398623686781052 0 -0.48180565015534738 0.42787197640755792 0 -0.49999999999999589 0.44077113011354369 0 -0.47438579428019922 0.44398623686781052 0 -0.47438579428019922 0.44398623686781052 0 -0.4627013265822788 0.4545376326069438 0 -0.44877158856040261 0.44720134362207808 0 -0.47438579428019922 0.44398623686781052 0 -0.44877158856040261 0.44720134362207808 0 -0.47438579428019922 0.44398623686781052 0 -0.44877158856040261 0.44720134362207808 0 -0.46289485375526918 0.43579199928955081 0 -0.44877158856040261 0.44720134362207808 0 -0.44878504691792248 0.43547483269414872 0 -0.46289485375526918 0.43579199928955081 0 -0.47784082473980471 0.47626967285504462 0 -0.4627013265822788 0.4545376326069438 0 -0.4487547857598953 0.46184192836472759 0 -0.4627013265822788 0.4545376326069438 0 -0.4487547857598953 0.46184192836472759 0 -0.44877158856040261 0.44720134362207808 0 -0.4487547857598953 0.46184192836472759 0 -0.44877158856040261 0.44720134362207808 0 -0.43521244088076849 0.46107148678855758 0 -0.4487547857598953 0.46184192836472759 0 -0.44877158856040261 0.44720134362207808 0 -0.43521244088076849 0.46107148678855758 0 -0.43935827984199688 0.47473889959161758 0 -0.4487547857598953 0.46184192836472759 0 -0.44877158856040261 0.44720134362207808 0 -0.44508566455651338 0.43839632914573512 0 -0.44878504691792248 0.43547483269414872 0 -0.44877158856040261 0.44720134362207808 0 -0.44878504691792248 0.43547483269414872 0 -0.43592409671607729 0.44045812782560079 0 -0.44877158856040261 0.44720134362207808 0 -0.44508566455651338 0.43839632914573512 0 -0.44531233658805403 0.42513554986162888 0 -0.44878504691792248 0.43547483269414872 0 -0.44880957839306629 0.41410011360809668 0 -0.44878504691792248 0.43547483269414872 0 -0.44880957839306629 0.41410011360809668 0 -0.43788570063392329 0.43164093021736671 0 -0.44531233658805403 0.42513554986162888 0 -0.44878504691792248 0.43547483269414872 0 -0.43592409671607729 0.44045812782560079 0 -0.44508566455651338 0.43839632914573512 0 -0.43788570063392329 0.43164093021736671 0 -0.44508566455651338 0.43839632914573512 0 -0.43788570063392329 0.43164093021736671 0 -0.44878504691792248 0.43547483269414872 0 -0.44508566455651338 0.43839632914573512 0 -0.44878504691792248 0.43547483269414872 0 -0.44531233658805403 0.42513554986162888 0 -0.44880957839306629 0.41410011360809668 0 -0.42391867717568832 0.41711337076656618 0 -0.44880957839306629 0.41410011360809668 0 -0.46585669794528167 0.42199291516666237 0 -0.4641229039382897 0.40091036417177778 0 -0.44878504691792248 0.43547483269414872 0 -0.46585669794528167 0.42199291516666237 0 -0.44878504691792248 0.43547483269414872 0 -0.44880957839306629 0.41410011360809668 0 -0.46585669794528167 0.42199291516666237 0 -0.44878504691792248 0.43547483269414872 0 -0.46585669794528167 0.42199291516666237 0 -0.46289485375526918 0.43579199928955081 0 -0.47438579428019922 0.44398623686781052 0 -0.46289485375526918 0.43579199928955081 0 -0.48180565015534738 0.42787197640755792 0 -0.46585669794528167 0.42199291516666237 0 -0.46289485375526918 0.43579199928955081 0 -0.48180565015534738 0.42787197640755792 0 -0.46585669794528167 0.42199291516666237 0 -0.48292834897264081 0.4085109976391762 0 -0.4641229039382897 0.40091036417177778 0 -0.46585669794528167 0.42199291516666237 0 -0.48292834897264081 0.4085109976391762 0 -0.46585669794528167 0.42199291516666237 0 -0.48180565015534738 0.42787197640755792 0 -0.48292834897264081 0.4085109976391762 0 -0.48292834897264081 0.4085109976391762 0 -0.5 0.41790010511261683 0 -0.5 0.39502908011169002 0 -0.48180565015534738 0.42787197640755792 0 -0.48292834897264081 0.4085109976391762 0 -0.5 0.41790010511261683 0 -0.49999999999999589 0.44077113011354369 0 -0.48180565015534738 0.42787197640755792 0 -0.5 0.41790010511261683 0 -0.48850556386005051 0.3766603246979251 0 -0.5 0.39502908011169002 0 -0.47832653283541199 0.38608194873200979 0 -0.48850556386005051 0.3766603246979251 0 -0.5 0.39502908011169002 0 -0.5 0.36887446842263683 0 -0.48292834897264081 0.4085109976391762 0 -0.5 0.39502908011169002 0 -0.47832653283541199 0.38608194873200979 0 -0.48292834897264081 0.4085109976391762 0 -0.5 0.39502908011169002 0 -0.48292834897264081 0.4085109976391762 0 -0.47832653283541199 0.38608194873200979 0 -0.4641229039382897 0.40091036417177778 0 -0.48850556386005051 0.3766603246979251 0 -0.47832653283541199 0.38608194873200979 0 -0.48259334700195489 0.36409898273387958 0 -0.47832653283541199 0.38608194873200979 0 -0.46059005399087027 0.38292215568240928 0 -0.4641229039382897 0.40091036417177778 0 -0.47832653283541199 0.38608194873200979 0 -0.46059005399087027 0.38292215568240928 0 -0.46572599417265398 0.36772482908493609 0 -0.44880957839306629 0.41410011360809668 0 -0.4641229039382897 0.40091036417177778 0 -0.44883410986820999 0.3927253945220448 0 -0.46059005399087027 0.38292215568240928 0 -0.4641229039382897 0.40091036417177778 0 -0.44883410986820999 0.3927253945220448 0 -0.44880957839306629 0.41410011360809668 0 -0.44883410986820999 0.3927253945220448 0 -0.43699833754743561 0.40294499431243458 0 -0.44880957839306629 0.41410011360809668 0 -0.44883410986820999 0.3927253945220448 0 -0.44883410986820999 0.3927253945220448 0 -0.43978391516082421 0.3912231797547942 0 -0.43699833754743561 0.40294499431243458 0 -0.44883410986820999 0.3927253945220448 0 -0.43978391516082421 0.3912231797547942 0 -0.44802713623065987 0.37645115623263098 0 -0.44883410986820999 0.3927253945220448 0 -0.44885864134335329 0.37135067543599282 0 -0.44883410986820999 0.3927253945220448 0 -0.44802713623065987 0.37645115623263098 0 -0.44885864134335329 0.37135067543599282 0 -0.43978391516082421 0.3912231797547942 0 -0.44802713623065987 0.37645115623263098 0 -0.42527607699699133 0.39277117395206662 0 -0.46059005399087027 0.38292215568240928 0 -0.44883410986820999 0.3927253945220448 0 -0.44885864134335329 0.37135067543599282 0 -0.44802713623065987 0.37645115623263098 0 -0.4250431626101242 0.37647010748543319 0 -0.42527607699699133 0.39277117395206662 0 -0.44802713623065987 0.37645115623263098 0 -0.42527607699699133 0.39277117395206662 0 -0.4250431626101242 0.37647010748543319 0 -0.4134887672477453 0.38574914578498593 0 -0.40122768387689522 0.38158953953487368 0 -0.4250431626101242 0.37647010748543319 0 -0.40122768387689522 0.38158953953487368 0 -0.4250431626101242 0.37647010748543319 0 -0.4134887672477453 0.38574914578498593 0 -0.42527607699699133 0.39277117395206662 0 -0.4250431626101242 0.37647010748543319 0 -0.40122768387689522 0.38158953953487368 0 -0.40086489287733429 0.37467411733839928 0 -0.4134887672477453 0.38574914578498593 0 -0.40798835104355652 0.39359067917546098 0 -0.40557429982823212 0.38794008425198068 0 -0.4134887672477453 0.38574914578498593 0 -0.40122768387689522 0.38158953953487368 0 -0.40557429982823212 0.38794008425198068 0 -0.40798835104355652 0.39359067917546098 0 -0.42527607699699133 0.39277117395206662 0 -0.40252501776332311 0.40909119167150271 0 -0.42527607699699133 0.39277117395206662 0 -0.40252501776332311 0.40909119167150271 0 -0.4134887672477453 0.38574914578498593 0 -0.40798835104355652 0.39359067917546098 0 -0.42527607699699133 0.39277117395206662 0 -0.42527607699699133 0.39277117395206662 0 -0.43699833754743561 0.40294499431243458 0 -0.42391867717568832 0.41711337076656618 0 -0.43978391516082421 0.3912231797547942 0 -0.42527607699699133 0.39277117395206662 0 -0.43699833754743561 0.40294499431243458 0 -0.44880957839306629 0.41410011360809668 0 -0.43699833754743561 0.40294499431243458 0 -0.42391867717568832 0.41711337076656618 0 -0.44531233658805403 0.42513554986162888 0 -0.42391867717568832 0.41711337076656618 0 -0.43788570063392329 0.43164093021736671 0 -0.44531233658805403 0.42513554986162888 0 -0.42391867717568832 0.41711337076656618 0 -0.43788570063392329 0.43164093021736671 0 -0.42391867717568832 0.41711337076656618 0 -0.42501824733507809 0.43459816807542118 0 -0.43592409671607729 0.44045812782560079 0 -0.43788570063392329 0.43164093021736671 0 -0.42501824733507809 0.43459816807542118 0 -0.42391867717568832 0.41711337076656618 0 -0.42501824733507809 0.43459816807542118 0 -0.40464661760035381 0.43350824459614162 0 -0.42527607699699133 0.39277117395206662 0 -0.42391867717568832 0.41711337076656618 0 -0.40252501776332311 0.40909119167150271 0 -0.42391867717568832 0.41711337076656618 0 -0.40252501776332311 0.40909119167150271 0 -0.40464661760035381 0.43350824459614162 0 -0.42391867717568832 0.41711337076656618 0 -0.40252501776332311 0.40909119167150271 0 -0.40252501776332311 0.40909119167150271 0 -0.37875820238401509 0.42613984176471847 0 -0.40252501776332311 0.40909119167150271 0 -0.40464661760035381 0.43350824459614162 0 -0.37875820238401509 0.42613984176471847 0 -0.38249991962136642 0.44345487931465249 0 -0.40464661760035381 0.43350824459614162 0 -0.37875820238401509 0.42613984176471847 0 -0.40252501776332311 0.40909119167150271 0 -0.37875820238401509 0.42613984176471847 0 -0.37769092578324193 0.39977892163450779 0 -0.37769092578324193 0.39977892163450779 0 -0.38963770449155072 0.39285491215608792 0 -0.37686086334024771 0.38257038446795849 0 -0.40252501776332311 0.40909119167150271 0 -0.37769092578324193 0.39977892163450779 0 -0.38963770449155072 0.39285491215608792 0 -0.40252501776332311 0.40909119167150271 0 -0.37769092578324193 0.39977892163450779 0 -0.37686086334024771 0.38257038446795849 0 -0.39363670834615189 0.38450398520198442 0 -0.40086489287733429 0.37467411733839928 0 -0.38963770449155072 0.39285491215608792 0 -0.37686086334024771 0.38257038446795849 0 -0.39363670834615189 0.38450398520198442 0 -0.37686086334024771 0.38257038446795849 0 -0.40086489287733429 0.37467411733839928 0 -0.37686086334024771 0.38257038446795849 0 -0.40086489287733429 0.37467411733839928 0 -0.39033592763893787 0.37070590072739279 0 -0.39363670834615189 0.38450398520198442 0 -0.40122768387689522 0.38158953953487368 0 -0.39959239714473138 0.39083097251260251 0 -0.38963770449155072 0.39285491215608792 0 -0.39363670834615189 0.38450398520198442 0 -0.39959239714473138 0.39083097251260251 0 -0.39363670834615189 0.38450398520198442 0 -0.40122768387689522 0.38158953953487368 0 -0.40086489287733429 0.37467411733839928 0 -0.40122768387689522 0.38158953953487368 0 -0.40557429982823212 0.38794008425198068 0 -0.39959239714473138 0.39083097251260251 0 -0.40798835104355652 0.39359067917546098 0 -0.40557429982823212 0.38794008425198068 0 -0.39959239714473138 0.39083097251260251 0 -0.40252501776332311 0.40909119167150271 0 -0.38963770449155072 0.39285491215608792 0 -0.39959239714473138 0.39083097251260251 0 -0.40798835104355652 0.39359067917546098 0 -0.40252501776332311 0.40909119167150271 0 -0.39959239714473138 0.39083097251260251 0 -0.3926828114571661 0.35541775914535301 0 -0.40105078960399698 0.34662517948293931 0 -0.40586906590548888 0.3393029225754271 0 -0.3926828114571661 0.35541775914535301 0 -0.39400561065841477 0.34382680172727831 0 -0.40586906590548888 0.3393029225754271 0 -0.3926828114571661 0.35541775914535301 0 -0.40586906590548888 0.3393029225754271 0 -0.3926828114571661 0.35541775914535301 0 -0.39969836615416421 0.35756427730283669 0 -0.39341808057325789 0.36431669671432632 0 -0.3926828114571661 0.35541775914535301 0 -0.40105078960399698 0.34662517948293931 0 -0.39969836615416421 0.35756427730283669 0 -0.3926828114571661 0.35541775914535301 0 -0.39400561065841477 0.34382680172727831 0 -0.38539473684528258 0.34837828204789067 0 -0.40105078960399698 0.34662517948293931 0 -0.40525205349158999 0.35429039595711992 0 -0.40888688292129022 0.34941903462410451 0 -0.40105078960399698 0.34662517948293931 0 -0.4080564418273247 0.34368885170405422 0 -0.40888688292129022 0.34941903462410451 0 -0.40105078960399698 0.34662517948293931 0 -0.40525205349158999 0.35429039595711992 0 -0.39969836615416421 0.35756427730283669 0 -0.40525205349158999 0.35429039595711992 0 -0.39969836615416421 0.35756427730283669 0 -0.40553625032349627 0.36037170931698131 0 -0.40553625032349627 0.36037170931698131 0 -0.40544017780568847 0.3661562974108753 0 -0.40025021147547779 0.36436392320030081 0 -0.40544017780568847 0.3661562974108753 0 -0.40025021147547779 0.36436392320030081 0 -0.397742957241214 0.36844985128713797 0 -0.39969836615416421 0.35756427730283669 0 -0.40553625032349627 0.36037170931698131 0 -0.40025021147547779 0.36436392320030081 0 -0.40544017780568847 0.3661562974108753 0 -0.40086489287733429 0.37467411733839928 0 -0.397742957241214 0.36844985128713797 0 -0.40086489287733429 0.37467411733839928 0 -0.397742957241214 0.36844985128713797 0 -0.39033592763893787 0.37070590072739279 0 -0.397742957241214 0.36844985128713797 0 -0.39341808057325789 0.36431669671432632 0 -0.39033592763893787 0.37070590072739279 0 -0.39969836615416421 0.35756427730283669 0 -0.40025021147547779 0.36436392320030081 0 -0.39341808057325789 0.36431669671432632 0 -0.40025021147547779 0.36436392320030081 0 -0.397742957241214 0.36844985128713797 0 -0.39341808057325789 0.36431669671432632 0 -0.3926828114571661 0.35541775914535301 0 -0.39341808057325789 0.36431669671432632 0 -0.37949655700884349 0.37153259571527891 0 -0.37949655700884349 0.37153259571527891 0 -0.37823932191431281 0.35548757599615399 0 -0.37024808467873749 0.36543132639488701 0 -0.3926828114571661 0.35541775914535301 0 -0.37949655700884349 0.37153259571527891 0 -0.37823932191431281 0.35548757599615399 0 -0.3926828114571661 0.35541775914535301 0 -0.37949655700884349 0.37153259571527891 0 -0.39341808057325789 0.36431669671432632 0 -0.39033592763893787 0.37070590072739279 0 -0.37949655700884349 0.37153259571527891 0 -0.37686086334024771 0.38257038446795849 0 -0.39033592763893787 0.37070590072739279 0 -0.37949655700884349 0.37153259571527891 0 -0.37823932191431281 0.35548757599615399 0 -0.38539473684528258 0.34837828204789067 0 -0.3787015959315434 0.33902802614693439 0 -0.3926828114571661 0.35541775914535301 0 -0.37823932191431281 0.35548757599615399 0 -0.38539473684528258 0.34837828204789067 0 -0.3787015959315434 0.33902802614693439 0 -0.37816355277066899 0.32985684687273281 0 -0.39158393304450312 0.32769252248945308 0 -0.39400561065841477 0.34382680172727831 0 -0.38539473684528258 0.34837828204789067 0 -0.3787015959315434 0.33902802614693439 0 -0.39158393304450312 0.32769252248945308 0 -0.37442838800096029 0.32044424157556423 0 -0.37816355277066899 0.32985684687273281 0 -0.39158393304450312 0.32769252248945308 0 -0.37442838800096029 0.32044424157556423 0 -0.38613629988198012 0.31665983269396758 0 -0.39158393304450312 0.32769252248945308 0 -0.37442838800096029 0.32044424157556423 0 -0.38613629988198012 0.31665983269396758 0 -0.37442838800096029 0.32044424157556423 0 -0.37415321332832258 0.31386652142517069 0 -0.39158393304450312 0.32769252248945308 0 -0.4039094095666334 0.320812311378052 0 -0.40925887999808552 0.33516025262174892 0 -0.38613629988198012 0.31665983269396758 0 -0.39830358576524327 0.31266849694114901 0 -0.39158393304450312 0.32769252248945308 0 -0.39830358576524327 0.31266849694114901 0 -0.39158393304450312 0.32769252248945308 0 -0.4039094095666334 0.320812311378052 0 -0.39830358576524327 0.31266849694114901 0 -0.4039094095666334 0.320812311378052 0 -0.40826549608127172 0.31275764886218971 0 -0.3787015959315434 0.33902802614693439 0 -0.40777024278950652 0.33697950655941222 0 -0.39158393304450312 0.32769252248945308 0 -0.40925887999808552 0.33516025262174892 0 -0.39158393304450312 0.32769252248945308 0 -0.40777024278950652 0.33697950655941222 0 -0.40925887999808552 0.33516025262174892 0 -0.3787015959315434 0.33902802614693439 0 -0.39158393304450312 0.32769252248945308 0 -0.40777024278950652 0.33697950655941222 0 -0.39400561065841477 0.34382680172727831 0 -0.3787015959315434 0.33902802614693439 0 -0.40777024278950652 0.33697950655941222 0 -0.39400561065841477 0.34382680172727831 0 -0.40586906590548888 0.3393029225754271 0 -0.40777024278950652 0.33697950655941222 0 -0.40105078960399698 0.34662517948293931 0 -0.40586906590548888 0.3393029225754271 0 -0.40105078960399698 0.34662517948293931 0 -0.40586906590548888 0.3393029225754271 0 -0.4080564418273247 0.34368885170405422 0 -0.4080564418273247 0.34368885170405422 0 -0.41125860555200922 0.34134685969384471 0 -0.40895905381070002 0.33957121871677393 0 -0.40586906590548888 0.3393029225754271 0 -0.4080564418273247 0.34368885170405422 0 -0.40895905381070002 0.33957121871677393 0 -0.4080564418273247 0.34368885170405422 0 -0.41125860555200922 0.34134685969384471 0 -0.41366919887348358 0.34576378073699821 0 -0.41125860555200922 0.34134685969384471 0 -0.41273643032526569 0.33662953043248711 0 -0.41433336845197538 0.3415594658204692 0 -0.41125860555200922 0.34134685969384471 0 -0.41433336845197538 0.3415594658204692 0 -0.41366919887348358 0.34576378073699821 0 -0.41125860555200922 0.34134685969384471 0 -0.41273643032526569 0.33662953043248711 0 -0.40895905381070002 0.33957121871677393 0 -0.41273643032526569 0.33662953043248711 0 -0.40777024278950652 0.33697950655941222 0 -0.41273643032526569 0.33662953043248711 0 -0.40895905381070002 0.33957121871677393 0 -0.40777024278950652 0.33697950655941222 0 -0.41273643032526569 0.33662953043248711 0 -0.40777024278950652 0.33697950655941222 0 -0.40925887999808552 0.33516025262174892 0 -0.40777024278950652 0.33697950655941222 0 -0.40925887999808552 0.33516025262174892 0 -0.40586906590548888 0.3393029225754271 0 -0.40895905381070002 0.33957121871677393 0 -0.40777024278950652 0.33697950655941222 0 -0.40586906590548888 0.3393029225754271 0 -0.40777024278950652 0.33697950655941222 0 -0.41273643032526569 0.33662953043248711 0 -0.40925887999808552 0.33516025262174892 0 -0.40925887999808552 0.33516025262174892 0 -0.42024067891477529 0.32173946694831868 0 -0.40925887999808552 0.33516025262174892 0 -0.42071708592719742 0.33131558094746122 0 -0.42024067891477529 0.32173946694831868 0 -0.41273643032526569 0.33662953043248711 0 -0.40925887999808552 0.33516025262174892 0 -0.42071708592719742 0.33131558094746122 0 -0.41273643032526569 0.33662953043248711 0 -0.4199209072431685 0.34318781838679219 0 -0.41433336845197538 0.3415594658204692 0 -0.4199209072431685 0.34318781838679219 0 -0.41433336845197538 0.3415594658204692 0 -0.41366919887348358 0.34576378073699821 0 -0.40925887999808552 0.33516025262174892 0 -0.41892768793075841 0.31754462100172592 0 -0.42141481873501418 0.31567829233095179 0 -0.40925887999808552 0.33516025262174892 0 -0.411263050936583 0.31954773430139438 0 -0.41892768793075841 0.31754462100172592 0 -0.40925887999808552 0.33516025262174892 0 -0.42141481873501418 0.31567829233095179 0 -0.40925887999808552 0.33516025262174892 0 -0.42024067891477529 0.32173946694831868 0 -0.42141481873501418 0.31567829233095179 0 -0.411263050936583 0.31954773430139438 0 -0.40826549608127172 0.31275764886218971 0 -0.41647318301620623 0.31168328686166002 0 -0.4039094095666334 0.320812311378052 0 -0.411263050936583 0.31954773430139438 0 -0.40826549608127172 0.31275764886218971 0 -0.4039094095666334 0.320812311378052 0 -0.40925887999808552 0.33516025262174892 0 -0.411263050936583 0.31954773430139438 0 -0.411263050936583 0.31954773430139438 0 -0.41892768793075841 0.31754462100172592 0 -0.41647318301620623 0.31168328686166002 0 -0.41892768793075841 0.31754462100172592 0 -0.42141481873501418 0.31567829233095179 0 -0.41892768793075841 0.31754462100172592 0 -0.42141481873501418 0.31567829233095179 0 -0.41647318301620623 0.31168328686166002 0 -0.42024067891477529 0.32173946694831868 0 -0.43790895006943947 0.32081412042189511 0 -0.43122247783146522 0.30831868127488848 0 -0.42024067891477529 0.32173946694831868 0 -0.42938605365092247 0.3272194948190838 0 -0.43790895006943947 0.32081412042189511 0 -0.42024067891477529 0.32173946694831868 0 -0.42141481873501418 0.31567829233095179 0 -0.43122247783146522 0.30831868127488848 0 -0.42024067891477529 0.32173946694831868 0 -0.43122247783146522 0.30831868127488848 0 -0.42071708592719742 0.33131558094746122 0 -0.42024067891477529 0.32173946694831868 0 -0.42938605365092247 0.3272194948190838 0 -0.42938605365092247 0.3272194948190838 0 -0.43674098495811231 0.33493788649063261 0 -0.43790895006943947 0.32081412042189511 0 -0.43790895006943947 0.32081412042189511 0 -0.4401847358662575 0.3127477530096977 0 -0.43122247783146522 0.30831868127488848 0 -0.41273643032526569 0.33662953043248711 0 -0.43674098495811231 0.33493788649063261 0 -0.42071708592719742 0.33131558094746122 0 -0.42938605365092247 0.3272194948190838 0 -0.43674098495811231 0.33493788649063261 0 -0.41273643032526569 0.33662953043248711 0 -0.4199209072431685 0.34318781838679219 0 -0.43385085243219867 0.34555045147446217 0 -0.41273643032526569 0.33662953043248711 0 -0.42071708592719742 0.33131558094746122 0 -0.43674098495811231 0.33493788649063261 0 -0.41273643032526569 0.33662953043248711 0 -0.43385085243219867 0.34555045147446217 0 -0.41273643032526569 0.33662953043248711 0 -0.43674098495811231 0.33493788649063261 0 -0.43385085243219867 0.34555045147446217 0 -0.43385085243219867 0.34555045147446217 0 -0.4302486007270056 0.35272204188882378 0 -0.42573384958437638 0.34916959158482058 0 -0.43385085243219867 0.34555045147446217 0 -0.43539550265875948 0.35741731211322858 0 -0.44110397924445488 0.35756373905142852 0 -0.43539550265875948 0.35741731211322858 0 -0.4302486007270056 0.35272204188882378 0 -0.42757171946388478 0.35850981688022993 0 -0.43385085243219867 0.34555045147446217 0 -0.43539550265875948 0.35741731211322858 0 -0.4302486007270056 0.35272204188882378 0 -0.4302486007270056 0.35272204188882378 0 -0.42480748600639012 0.35482075793933809 0 -0.42573384958437638 0.34916959158482058 0 -0.4302486007270056 0.35272204188882378 0 -0.42757171946388478 0.35850981688022993 0 -0.42480748600639012 0.35482075793933809 0 -0.42757171946388478 0.35850981688022993 0 -0.42480748600639012 0.35482075793933809 0 -0.42195212413097077 0.36043988011418487 0 -0.4199209072431685 0.34318781838679219 0 -0.43385085243219867 0.34555045147446217 0 -0.42573384958437638 0.34916959158482058 0 -0.42480748600639012 0.35482075793933809 0 -0.42573384958437638 0.34916959158482058 0 -0.41984140151311927 0.3495668882346864 0 -0.4199209072431685 0.34318781838679219 0 -0.42573384958437638 0.34916959158482058 0 -0.41984140151311927 0.3495668882346864 0 -0.4199209072431685 0.34318781838679219 0 -0.41984140151311927 0.3495668882346864 0 -0.41366919887348358 0.34576378073699821 0 -0.41984140151311927 0.3495668882346864 0 -0.41366919887348358 0.34576378073699821 0 -0.41404230344944593 0.35073751764187411 0 -0.42480748600639012 0.35482075793933809 0 -0.41984140151311927 0.3495668882346864 0 -0.41755863725870102 0.35684421707679032 0 -0.42480748600639012 0.35482075793933809 0 -0.41755863725870102 0.35684421707679032 0 -0.42195212413097077 0.36043988011418487 0 -0.41984140151311927 0.3495668882346864 0 -0.41755863725870102 0.35684421707679032 0 -0.41404230344944593 0.35073751764187411 0 -0.41755863725870102 0.35684421707679032 0 -0.41125051028190041 0.35540848222164118 0 -0.41404230344944593 0.35073751764187411 0 -0.41125051028190041 0.35540848222164118 0 -0.40888688292129022 0.34941903462410451 0 -0.41404230344944593 0.35073751764187411 0 -0.41755863725870102 0.35684421707679032 0 -0.41125051028190041 0.35540848222164118 0 -0.41142088061722581 0.36176204086772412 0 -0.40553625032349627 0.36037170931698131 0 -0.41125051028190041 0.35540848222164118 0 -0.41142088061722581 0.36176204086772412 0 -0.40525205349158999 0.35429039595711992 0 -0.40553625032349627 0.36037170931698131 0 -0.41125051028190041 0.35540848222164118 0 -0.40525205349158999 0.35429039595711992 0 -0.41125051028190041 0.35540848222164118 0 -0.40888688292129022 0.34941903462410451 0 -0.4080564418273247 0.34368885170405422 0 -0.40888688292129022 0.34941903462410451 0 -0.41366919887348358 0.34576378073699821 0 -0.40888688292129022 0.34941903462410451 0 -0.41366919887348358 0.34576378073699821 0 -0.41404230344944593 0.35073751764187411 0 -0.4250431626101242 0.37647010748543319 0 -0.40086489287733429 0.37467411733839928 0 -0.42486892241442098 0.36677785020884007 0 -0.40086489287733429 0.37467411733839928 0 -0.42486892241442098 0.36677785020884007 0 -0.40086489287733429 0.37467411733839928 0 -0.41378193274770297 0.36450427419225789 0 -0.42486892241442098 0.36677785020884007 0 -0.40544017780568847 0.3661562974108753 0 -0.40086489287733429 0.37467411733839928 0 -0.41378193274770297 0.36450427419225789 0 -0.40544017780568847 0.3661562974108753 0 -0.41142088061722581 0.36176204086772412 0 -0.41378193274770297 0.36450427419225789 0 -0.40553625032349627 0.36037170931698131 0 -0.40544017780568847 0.3661562974108753 0 -0.41142088061722581 0.36176204086772412 0 -0.41755863725870102 0.35684421707679032 0 -0.41378193274770297 0.36450427419225789 0 -0.42195212413097077 0.36043988011418487 0 -0.41378193274770297 0.36450427419225789 0 -0.42486892241442098 0.36677785020884007 0 -0.42195212413097077 0.36043988011418487 0 -0.41755863725870102 0.35684421707679032 0 -0.41142088061722581 0.36176204086772412 0 -0.41378193274770297 0.36450427419225789 0 -0.4250431626101242 0.37647010748543319 0 -0.44885864134335329 0.37135067543599282 0 -0.4250431626101242 0.37647010748543319 0 -0.42486892241442098 0.36677785020884007 0 -0.44885864134335329 0.37135067543599282 0 -0.42486892241442098 0.36677785020884007 0 -0.448872951951507 0.35888158307927881 0 -0.43539550265875948 0.35741731211322858 0 -0.42486892241442098 0.36677785020884007 0 -0.44110397924445488 0.35756373905142852 0 -0.43539550265875948 0.35741731211322858 0 -0.42757171946388478 0.35850981688022993 0 -0.42486892241442098 0.36677785020884007 0 -0.42757171946388478 0.35850981688022993 0 -0.42486892241442098 0.36677785020884007 0 -0.42195212413097077 0.36043988011418487 0 -0.42486892241442098 0.36677785020884007 0 -0.44885864134335329 0.37135067543599282 0 -0.448872951951507 0.35888158307927881 0 -0.44802713623065987 0.37645115623263098 0 -0.4250431626101242 0.37647010748543319 0 -0.44885864134335329 0.37135067543599282 0 -0.42486892241442098 0.36677785020884007 0 -0.44110397924445488 0.35756373905142852 0 -0.448872951951507 0.35888158307927881 0 -0.44885864134335329 0.37135067543599282 0 -0.448872951951507 0.35888158307927881 0 -0.44885864134335329 0.37135067543599282 0 -0.448872951951507 0.35888158307927881 0 -0.45634368000688869 0.36512471152292858 0 -0.43385085243219867 0.34555045147446217 0 -0.45496527453913199 0.35447137251643651 0 -0.44889299330712729 0.34242966823447613 0 -0.43385085243219867 0.34555045147446217 0 -0.45496527453913199 0.35447137251643651 0 -0.43385085243219867 0.34555045147446217 0 -0.44887533288597797 0.35680703170406669 0 -0.45496527453913199 0.35447137251643651 0 -0.43385085243219867 0.34555045147446217 0 -0.44110397924445488 0.35756373905142852 0 -0.44887533288597797 0.35680703170406669 0 -0.44110397924445488 0.35756373905142852 0 -0.44887533288597797 0.35680703170406669 0 -0.448872951951507 0.35888158307927881 0 -0.44887533288597797 0.35680703170406669 0 -0.448872951951507 0.35888158307927881 0 -0.44887533288597797 0.35680703170406669 0 -0.448872951951507 0.35888158307927881 0 -0.45496527453913199 0.35447137251643651 0 -0.448872951951507 0.35888158307927881 0 -0.45496527453913199 0.35447137251643651 0 -0.47186707529616939 0.3513175305497272 0 -0.448872951951507 0.35888158307927881 0 -0.47186707529616939 0.3513175305497272 0 -0.448872951951507 0.35888158307927881 0 -0.45634368000688869 0.36512471152292858 0 -0.47186707529616939 0.3513175305497272 0 -0.45911772068334677 0.34536620346235469 0 -0.45496527453913199 0.35447137251643651 0 -0.47186707529616939 0.3513175305497272 0 -0.45911772068334677 0.34536620346235469 0 -0.45496527453913199 0.35447137251643651 0 -0.44889299330712729 0.34242966823447613 0 -0.46572599417265398 0.36772482908493609 0 -0.45634368000688869 0.36512471152292858 0 -0.47186707529616939 0.3513175305497272 0 -0.46059005399087027 0.38292215568240928 0 -0.44885864134335329 0.37135067543599282 0 -0.46572599417265398 0.36772482908493609 0 -0.44885864134335329 0.37135067543599282 0 -0.46572599417265398 0.36772482908493609 0 -0.44885864134335329 0.37135067543599282 0 -0.46572599417265398 0.36772482908493609 0 -0.45634368000688869 0.36512471152292858 0 -0.47832653283541199 0.38608194873200979 0 -0.46572599417265398 0.36772482908493609 0 -0.48259334700195489 0.36409898273387958 0 -0.46572599417265398 0.36772482908493609 0 -0.48259334700195489 0.36409898273387958 0 -0.47186707529616939 0.3513175305497272 0 -0.46572599417265398 0.36772482908493609 0 -0.48259334700195489 0.36409898273387958 0 -0.47186707529616939 0.3513175305497272 0 -0.494861198640831 0.34375347802017348 0 -0.47186707529616939 0.3513175305497272 0 -0.48536711719674469 0.35339641184703091 0 -0.494861198640831 0.34375347802017348 0 -0.48259334700195489 0.36409898273387958 0 -0.47186707529616939 0.3513175305497272 0 -0.48536711719674469 0.35339641184703091 0 -0.48259334700195489 0.36409898273387958 0 -0.49214684784802371 0.35441565608434311 0 -0.48536711719674469 0.35339641184703091 0 -0.49214684784802371 0.35441565608434311 0 -0.5 0.36887446842263683 0 -0.5 0.34271985673358363 0 -0.49214684784802371 0.35441565608434311 0 -0.48536711719674469 0.35339641184703091 0 -0.494861198640831 0.34375347802017348 0 -0.49214684784802371 0.35441565608434311 0 -0.494861198640831 0.34375347802017348 0 -0.5 0.34271985673358363 0 -0.48850556386005051 0.3766603246979251 0 -0.48259334700195489 0.36409898273387958 0 -0.5 0.36887446842263683 0 -0.48259334700195489 0.36409898273387958 0 -0.49214684784802371 0.35441565608434311 0 -0.5 0.36887446842263683 0 -0.485708092488497 0.3189911195031831 0 -0.5 0.31656524504453032 0 -0.48475009422380527 0.3315545986069256 0 -0.485708092488497 0.3189911195031831 0 -0.5 0.31656524504453032 0 -0.48583489694974541 0.30845327583860088 0 -0.5 0.31656524504453032 0 -0.5 0.34271985673358363 0 -0.48475009422380527 0.3315545986069256 0 -0.494861198640831 0.34375347802017348 0 -0.5 0.34271985673358363 0 -0.48475009422380527 0.3315545986069256 0 -0.48475009422380527 0.3315545986069256 0 -0.46074553959095882 0.3332462425487791 0 -0.47186707529616939 0.3513175305497272 0 -0.494861198640831 0.34375347802017348 0 -0.48475009422380527 0.3315545986069256 0 -0.47186707529616939 0.3513175305497272 0 -0.48475009422380527 0.3315545986069256 0 -0.46074553959095882 0.3332462425487791 0 -0.48475009422380527 0.3315545986069256 0 -0.47224737878043732 0.31939135852267558 0 -0.46074553959095882 0.3332462425487791 0 -0.485708092488497 0.3189911195031831 0 -0.48475009422380527 0.3315545986069256 0 -0.47224737878043732 0.31939135852267558 0 -0.485708092488497 0.3189911195031831 0 -0.47224737878043732 0.31939135852267558 0 -0.48583489694974541 0.30845327583860088 0 -0.47224737878043732 0.31939135852267558 0 -0.46258830912673421 0.31343425170936878 0 -0.46074553959095882 0.3332462425487791 0 -0.46258830912673421 0.31343425170936878 0 -0.46074553959095882 0.3332462425487791 0 -0.45107709460752138 0.31557533431346357 0 -0.45911772068334677 0.34536620346235469 0 -0.47186707529616939 0.3513175305497272 0 -0.46074553959095882 0.3332462425487791 0 -0.45911772068334677 0.34536620346235469 0 -0.46074553959095882 0.3332462425487791 0 -0.44889299330712729 0.34242966823447613 0 -0.43674098495811231 0.33493788649063261 0 -0.46074553959095882 0.3332462425487791 0 -0.43674098495811231 0.33493788649063261 0 -0.46074553959095882 0.3332462425487791 0 -0.44889299330712729 0.34242966823447613 0 -0.43674098495811231 0.33493788649063261 0 -0.46074553959095882 0.3332462425487791 0 -0.43790895006943947 0.32081412042189511 0 -0.43674098495811231 0.33493788649063261 0 -0.43385085243219867 0.34555045147446217 0 -0.44889299330712729 0.34242966823447613 0 -0.46074553959095882 0.3332462425487791 0 -0.45107709460752138 0.31557533431346357 0 -0.43790895006943947 0.32081412042189511 0 -0.45107709460752138 0.31557533431346357 0 -0.43790895006943947 0.32081412042189511 0 -0.4401847358662575 0.3127477530096977 0 -0.44444415583193408 0.29216055381020578 0 -0.43122247783146522 0.30831868127488848 0 -0.44810052680614793 0.29565349026271098 0 -0.43122247783146522 0.30831868127488848 0 -0.44368336155109173 0.30649675881006838 0 -0.44810052680614793 0.29565349026271098 0 -0.43122247783146522 0.30831868127488848 0 -0.4401847358662575 0.3127477530096977 0 -0.44368336155109173 0.30649675881006838 0 -0.43122247783146522 0.30831868127488848 0 -0.44444415583193408 0.29216055381020578 0 -0.44810052680614793 0.29565349026271098 0 -0.43122247783146522 0.30831868127488848 0 -0.45107709460752138 0.31557533431346357 0 -0.4401847358662575 0.3127477530096977 0 -0.44368336155109173 0.30649675881006838 0 -0.44368336155109173 0.30649675881006838 0 -0.44996115485610377 0.3015940899144034 0 -0.4551770389262465 0.30483297142504889 0 -0.44368336155109173 0.30649675881006838 0 -0.44996115485610377 0.3015940899144034 0 -0.44810052680614793 0.29565349026271098 0 -0.45288369214092922 0.29939313915978533 0 -0.44996115485610377 0.3015940899144034 0 -0.44810052680614793 0.29565349026271098 0 -0.45288369214092922 0.29939313915978533 0 -0.44996115485610377 0.3015940899144034 0 -0.4551770389262465 0.30483297142504889 0 -0.45107709460752138 0.31557533431346357 0 -0.44368336155109173 0.30649675881006838 0 -0.4551770389262465 0.30483297142504889 0 -0.44702735364695217 0.27675533545947301 0 -0.43422108619098299 0.29621681389521232 0 -0.44444415583193408 0.29216055381020578 0 -0.44702735364695217 0.27675533545947301 0 -0.43422108619098299 0.29621681389521232 0 -0.44702735364695217 0.27675533545947301 0 -0.43274811138672559 0.28469846643612018 0 -0.43422108619098299 0.29621681389521232 0 -0.44810052680614793 0.29565349026271098 0 -0.4493542421043164 0.28919027156790111 0 -0.45395006383388498 0.28587005882998617 0 -0.44444415583193408 0.29216055381020578 0 -0.44810052680614793 0.29565349026271098 0 -0.4493542421043164 0.28919027156790111 0 -0.44444415583193408 0.29216055381020578 0 -0.4493542421043164 0.28919027156790111 0 -0.44702735364695217 0.27675533545947301 0 -0.4493542421043164 0.28919027156790111 0 -0.45395006383388498 0.28587005882998617 0 -0.44702735364695217 0.27675533545947301 0 -0.44810052680614793 0.29565349026271098 0 -0.45395006383388498 0.28587005882998617 0 -0.46497857578083068 0.28298829925053381 0 -0.44810052680614793 0.29565349026271098 0 -0.4593999708052337 0.29480301670676529 0 -0.46497857578083068 0.28298829925053381 0 -0.44810052680614793 0.29565349026271098 0 -0.46497857578083068 0.28298829925053381 0 -0.45288369214092922 0.29939313915978533 0 -0.44810052680614793 0.29565349026271098 0 -0.4593999708052337 0.29480301670676529 0 -0.4593999708052337 0.29480301670676529 0 -0.46827174088950307 0.29409138505043392 0 -0.46497857578083068 0.28298829925053381 0 -0.46258830912673421 0.31343425170936878 0 -0.45107709460752138 0.31557533431346357 0 -0.4551770389262465 0.30483297142504889 0 -0.45288369214092922 0.29939313915978533 0 -0.4593999708052337 0.29480301670676529 0 -0.4551770389262465 0.30483297142504889 0 -0.4593999708052337 0.29480301670676529 0 -0.4551770389262465 0.30483297142504889 0 -0.46625021185001803 0.30380681263807602 0 -0.4593999708052337 0.29480301670676529 0 -0.46827174088950307 0.29409138505043392 0 -0.46625021185001803 0.30380681263807602 0 -0.47224737878043732 0.31939135852267558 0 -0.46258830912673421 0.31343425170936878 0 -0.46625021185001803 0.30380681263807602 0 -0.46258830912673421 0.31343425170936878 0 -0.4551770389262465 0.30483297142504889 0 -0.46625021185001803 0.30380681263807602 0 -0.47551717359816043 0.30301602212345602 0 -0.4769183937012712 0.29196404103452073 0 -0.48583489694974541 0.30845327583860088 0 -0.47224737878043732 0.31939135852267558 0 -0.46625021185001803 0.30380681263807602 0 -0.47551717359816043 0.30301602212345602 0 -0.47224737878043732 0.31939135852267558 0 -0.47551717359816043 0.30301602212345602 0 -0.48583489694974541 0.30845327583860088 0 -0.46827174088950307 0.29409138505043392 0 -0.46625021185001803 0.30380681263807602 0 -0.47551717359816043 0.30301602212345602 0 -0.46827174088950307 0.29409138505043392 0 -0.46497857578083068 0.28298829925053381 0 -0.4769183937012712 0.29196404103452073 0 -0.4769183937012712 0.29196404103452073 0 -0.48757792524538679 0.2814999319082685 0 -0.48583489694974541 0.30845327583860088 0 -0.46827174088950307 0.29409138505043392 0 -0.47551717359816043 0.30301602212345602 0 -0.4769183937012712 0.29196404103452073 0 -0.46497857578083068 0.28298829925053381 0 -0.47783287987075052 0.28169384510791978 0 -0.4769183937012712 0.29196404103452073 0 -0.47783287987075052 0.28169384510791978 0 -0.4769183937012712 0.29196404103452073 0 -0.48757792524538679 0.2814999319082685 0 -0.5 0.29041063335547701 0 -0.48757792524538679 0.2814999319082685 0 -0.48583489694974541 0.30845327583860088 0 -0.48757792524538679 0.2814999319082685 0 -0.48583489694974541 0.30845327583860088 0 -0.5 0.31656524504453032 0 -0.5 0.29041063335547701 0 -0.48583489694974541 0.30845327583860088 0 -0.5 0.23810140997737081 0 -0.5 0.26425602166642381 0 -0.48932095354102823 0.25454658797793611 0 -0.48757792524538679 0.2814999319082685 0 -0.48932095354102823 0.25454658797793611 0 -0.48366697684514259 0.26703881783025729 0 -0.48757792524538679 0.2814999319082685 0 -0.5 0.26425602166642381 0 -0.48932095354102823 0.25454658797793611 0 -0.48757792524538679 0.2814999319082685 0 -0.48932095354102823 0.25454658797793611 0 -0.5 0.29041063335547701 0 -0.48757792524538679 0.2814999319082685 0 -0.5 0.26425602166642381 0 -0.46497857578083068 0.28298829925053381 0 -0.48185662475551339 0.27032310823835648 0 -0.46497857578083068 0.28298829925053381 0 -0.47783287987075052 0.28169384510791978 0 -0.48185662475551339 0.27032310823835648 0 -0.48366697684514259 0.26703881783025729 0 -0.45893043448094739 0.2699305570534084 0 -0.48757792524538679 0.2814999319082685 0 -0.48366697684514259 0.26703881783025729 0 -0.48185662475551339 0.27032310823835648 0 -0.48366697684514259 0.26703881783025729 0 -0.48185662475551339 0.27032310823835648 0 -0.47235815296560851 0.27257019559313889 0 -0.46497857578083068 0.28298829925053381 0 -0.48185662475551339 0.27032310823835648 0 -0.47235815296560851 0.27257019559313889 0 -0.48366697684514259 0.26703881783025729 0 -0.46959483388743167 0.25994315597580908 0 -0.45893043448094739 0.2699305570534084 0 -0.48366697684514259 0.26703881783025729 0 -0.47235815296560851 0.27257019559313889 0 -0.45893043448094739 0.2699305570534084 0 -0.47783287987075052 0.28169384510791978 0 -0.48757792524538679 0.2814999319082685 0 -0.48185662475551339 0.27032310823835648 0 -0.48932095354102823 0.25454658797793611 0 -0.48366697684514259 0.26703881783025729 0 -0.47792533453874358 0.25606878273296479 0 -0.48366697684514259 0.26703881783025729 0 -0.46959483388743167 0.25994315597580908 0 -0.47792533453874358 0.25606878273296479 0 -0.47864167104372218 0.246590621409366 0 -0.48932095354102823 0.25454658797793611 0 -0.47792533453874358 0.25606878273296479 0 -0.47864167104372218 0.246590621409366 0 -0.47792533453874358 0.25606878273296479 0 -0.46938038244821267 0.25133041049185839 0 -0.46959483388743167 0.25994315597580908 0 -0.47792533453874358 0.25606878273296479 0 -0.46938038244821267 0.25133041049185839 0 -0.46959483388743167 0.25994315597580908 0 -0.46938038244821267 0.25133041049185839 0 -0.45807104112411212 0.25534721177055669 0 -0.46959483388743167 0.25994315597580908 0 -0.45807104112411212 0.25534721177055669 0 -0.45893043448094739 0.2699305570534084 0 -0.45807104112411212 0.25534721177055669 0 -0.45893043448094739 0.2699305570534084 0 -0.44442574262614493 0.25832327296872359 0 -0.45395006383388498 0.28587005882998617 0 -0.46497857578083068 0.28298829925053381 0 -0.45893043448094739 0.2699305570534084 0 -0.45395006383388498 0.28587005882998617 0 -0.45893043448094739 0.2699305570534084 0 -0.44702735364695217 0.27675533545947301 0 -0.46497857578083068 0.28298829925053381 0 -0.47235815296560851 0.27257019559313889 0 -0.45893043448094739 0.2699305570534084 0 -0.45893043448094739 0.2699305570534084 0 -0.43419389211675241 0.27282229627655952 0 -0.45893043448094739 0.2699305570534084 0 -0.44442574262614493 0.25832327296872359 0 -0.43419389211675241 0.27282229627655952 0 -0.45893043448094739 0.2699305570534084 0 -0.44702735364695217 0.27675533545947301 0 -0.43419389211675241 0.27282229627655952 0 -0.44702735364695217 0.27675533545947301 0 -0.43419389211675241 0.27282229627655952 0 -0.43274811138672559 0.28469846643612018 0 -0.45046339488490522 0.249057113070103 0 -0.45807104112411212 0.25534721177055669 0 -0.44442574262614493 0.25832327296872359 0 -0.44062222049055039 0.24203477259657111 0 -0.44442574262614493 0.25832327296872359 0 -0.42503978512155383 0.25887440404814072 0 -0.44062222049055039 0.24203477259657111 0 -0.42503978512155383 0.25887440404814072 0 -0.44442574262614493 0.25832327296872359 0 -0.42503978512155383 0.25887440404814072 0 -0.43419389211675241 0.27282229627655952 0 -0.42503978512155383 0.25887440404814072 0 -0.40945734975255721 0.27571403549971041 0 -0.40585136056822319 0.25674789398696107 0 -0.4198454647722451 0.23985190764030939 0 -0.42503978512155383 0.25887440404814072 0 -0.40585136056822319 0.25674789398696107 0 -0.40945734975255721 0.27571403549971041 0 -0.43419389211675241 0.27282229627655952 0 -0.42503978512155383 0.25887440404814072 0 -0.40945734975255721 0.27571403549971041 0 -0.42503978512155383 0.25887440404814072 0 -0.40945734975255721 0.27571403549971041 0 -0.43419389211675241 0.27282229627655952 0 -0.40945734975255721 0.27571403549971041 0 -0.43419389211675241 0.27282229627655952 0 -0.4229835889384117 0.28415291652507912 0 -0.43419389211675241 0.27282229627655952 0 -0.43274811138672559 0.28469846643612018 0 -0.4229835889384117 0.28415291652507912 0 -0.43274811138672559 0.28469846643612018 0 -0.43422108619098299 0.29621681389521232 0 -0.42519236151645012 0.29288975242762622 0 -0.43274811138672559 0.28469846643612018 0 -0.42519236151645012 0.29288975242762622 0 -0.4229835889384117 0.28415291652507912 0 -0.42141481873501418 0.31567829233095179 0 -0.43422108619098299 0.29621681389521232 0 -0.42141481873501418 0.31567829233095179 0 -0.43422108619098299 0.29621681389521232 0 -0.42237726971740519 0.30236741203524931 0 -0.44444415583193408 0.29216055381020578 0 -0.43422108619098299 0.29621681389521232 0 -0.43122247783146522 0.30831868127488848 0 -0.42141481873501418 0.31567829233095179 0 -0.43422108619098299 0.29621681389521232 0 -0.43122247783146522 0.30831868127488848 0 -0.43422108619098299 0.29621681389521232 0 -0.42519236151645012 0.29288975242762622 0 -0.42237726971740519 0.30236741203524931 0 -0.42141481873501418 0.31567829233095179 0 -0.43122247783146522 0.30831868127488848 0 -0.42237726971740519 0.30236741203524931 0 -0.41647318301620623 0.31168328686166002 0 -0.40812109447663159 0.30329838776079099 0 -0.42141481873501418 0.31567829233095179 0 -0.42237726971740519 0.30236741203524931 0 -0.41647318301620623 0.31168328686166002 0 -0.42237726971740519 0.30236741203524931 0 -0.40812109447663159 0.30329838776079099 0 -0.41256551749876041 0.29129965580367562 0 -0.40826549608127172 0.31275764886218971 0 -0.41647318301620623 0.31168328686166002 0 -0.40812109447663159 0.30329838776079099 0 -0.40945734975255721 0.27571403549971041 0 -0.4229835889384117 0.28415291652507912 0 -0.41256551749876041 0.29129965580367562 0 -0.42519236151645012 0.29288975242762622 0 -0.4229835889384117 0.28415291652507912 0 -0.41256551749876041 0.29129965580367562 0 -0.42519236151645012 0.29288975242762622 0 -0.42237726971740519 0.30236741203524931 0 -0.41256551749876041 0.29129965580367562 0 -0.40945734975255721 0.27571403549971041 0 -0.39180528154043992 0.29479027846244049 0 -0.39350738277932218 0.27757861076756318 0 -0.40945734975255721 0.27571403549971041 0 -0.39180528154043992 0.29479027846244049 0 -0.40812109447663159 0.30329838776079099 0 -0.41256551749876041 0.29129965580367562 0 -0.39180528154043992 0.29479027846244049 0 -0.40945734975255721 0.27571403549971041 0 -0.41256551749876041 0.29129965580367562 0 -0.39180528154043992 0.29479027846244049 0 -0.38613629988198012 0.31665983269396758 0 -0.39830358576524327 0.31266849694114901 0 -0.39180528154043992 0.29479027846244049 0 -0.39830358576524327 0.31266849694114901 0 -0.40812109447663159 0.30329838776079099 0 -0.39180528154043992 0.29479027846244049 0 -0.39830358576524327 0.31266849694114901 0 -0.40826549608127172 0.31275764886218971 0 -0.40812109447663159 0.30329838776079099 0 -0.39180528154043992 0.29479027846244049 0 -0.37819889022761238 0.29924868842846319 0 -0.37415321332832258 0.31386652142517069 0 -0.38613629988198012 0.31665983269396758 0 -0.39180528154043992 0.29479027846244049 0 -0.37415321332832258 0.31386652142517069 0 -0.39180528154043992 0.29479027846244049 0 -0.37415321332832258 0.31386652142517069 0 -0.39180528154043992 0.29479027846244049 0 -0.37819889022761238 0.29924868842846319 0 -0.37870614451813112 0.28175948497688769 0 -0.39180528154043992 0.29479027846244049 0 -0.37870614451813112 0.28175948497688769 0 -0.39350738277932218 0.27757861076756318 0 -0.37870614451813112 0.28175948497688769 0 -0.37647038179830861 0.26645711442365799 0 -0.39350738277932218 0.27757861076756318 0 -0.37647038179830861 0.26645711442365799 0 -0.39336972403141229 0.26369738761855421 0 -0.39350738277932218 0.27757861076756318 0 -0.38790582398472923 0.24962922847932231 0 -0.37647038179830861 0.26645711442365799 0 -0.39336972403141229 0.26369738761855421 0 -0.38790582398472923 0.24962922847932231 0 -0.37647038179830861 0.26645711442365799 0 -0.36318679658289171 0.25196182354824148 0 -0.40945734975255721 0.27571403549971041 0 -0.40585136056822319 0.25674789398696107 0 -0.39336972403141229 0.26369738761855421 0 -0.38790582398472923 0.24962922847932231 0 -0.40585136056822319 0.25674789398696107 0 -0.39336972403141229 0.26369738761855421 0 -0.40945734975255721 0.27571403549971041 0 -0.39336972403141229 0.26369738761855421 0 -0.39350738277932218 0.27757861076756318 0 -0.40945734975255721 0.27571403549971041 0 -0.39350738277932218 0.27757861076756318 0 -0.35583614606747688 0.27501819518035592 0 -0.36318679658289171 0.25196182354824148 0 -0.33952374355129727 0.25899057541505788 0 -0.37647038179830861 0.26645711442365799 0 -0.35583614606747688 0.27501819518035592 0 -0.36318679658289171 0.25196182354824148 0 -0.37870614451813112 0.28175948497688769 0 -0.37647038179830861 0.26645711442365799 0 -0.35583614606747688 0.27501819518035592 0 -0.37819889022761238 0.29924868842846319 0 -0.37870614451813112 0.28175948497688769 0 -0.36775571630023218 0.2927315942663431 0 -0.37870614451813112 0.28175948497688769 0 -0.35583614606747688 0.27501819518035592 0 -0.36775571630023218 0.2927315942663431 0 -0.37819889022761238 0.29924868842846319 0 -0.36899777432263853 0.30469822459034263 0 -0.37415321332832258 0.31386652142517069 0 -0.36899777432263853 0.30469822459034263 0 -0.36272901898995358 0.31473918551029578 0 -0.37415321332832258 0.31386652142517069 0 -0.37819889022761238 0.29924868842846319 0 -0.36775571630023218 0.2927315942663431 0 -0.36899777432263853 0.30469822459034263 0 -0.36775571630023218 0.2927315942663431 0 -0.36899777432263853 0.30469822459034263 0 -0.35931620367806588 0.30475084950198522 0 -0.36775571630023218 0.2927315942663431 0 -0.35931620367806588 0.30475084950198522 0 -0.35261706249820868 0.29381533636168528 0 -0.36899777432263853 0.30469822459034263 0 -0.35931620367806588 0.30475084950198522 0 -0.36272901898995358 0.31473918551029578 0 -0.35931620367806588 0.30475084950198522 0 -0.35261706249820868 0.29381533636168528 0 -0.34344143829887858 0.30736403781452232 0 -0.35931620367806588 0.30475084950198522 0 -0.34344143829887858 0.30736403781452232 0 -0.35467675850453528 0.31743756764607989 0 -0.35931620367806588 0.30475084950198522 0 -0.35467675850453528 0.31743756764607989 0 -0.36272901898995358 0.31473918551029578 0 -0.35583614606747688 0.27501819518035592 0 -0.36775571630023218 0.2927315942663431 0 -0.35261706249820868 0.29381533636168528 0 -0.35583614606747688 0.27501819518035592 0 -0.35261706249820868 0.29381533636168528 0 -0.33673580814638959 0.28921200504521999 0 -0.35261706249820868 0.29381533636168528 0 -0.33673580814638959 0.28921200504521999 0 -0.34344143829887858 0.30736403781452232 0 -0.33673580814638959 0.28921200504521999 0 -0.32075162894010661 0.28280614760534989 0 -0.33379142081270979 0.2734424933293601 0 -0.34344143829887858 0.30736403781452232 0 -0.31699951866320542 0.30755322334125379 0 -0.34344143829887858 0.30736403781452232 0 -0.31699951866320542 0.30755322334125379 0 -0.33459812393413729 0.32207732583041709 0 -0.33673580814638959 0.28921200504521999 0 -0.34344143829887858 0.30736403781452232 0 -0.31699951866320542 0.30755322334125379 0 -0.33673580814638959 0.28921200504521999 0 -0.31699951866320542 0.30755322334125379 0 -0.32075162894010661 0.28280614760534989 0 -0.31699951866320542 0.30755322334125379 0 -0.32075162894010661 0.28280614760534989 0 -0.30493521127791462 0.28695781074044469 0 -0.32075162894010661 0.28280614760534989 0 -0.31931282352829687 0.26617321261290411 0 -0.33379142081270979 0.2734424933293601 0 -0.32075162894010661 0.28280614760534989 0 -0.31931282352829687 0.26617321261290411 0 -0.30493521127791462 0.28695781074044469 0 -0.35583614606747688 0.27501819518035592 0 -0.33673580814638959 0.28921200504521999 0 -0.33379142081270979 0.2734424933293601 0 -0.35583614606747688 0.27501819518035592 0 -0.33379142081270979 0.2734424933293601 0 -0.33952374355129727 0.25899057541505788 0 -0.31931282352829687 0.26617321261290411 0 -0.33379142081270979 0.2734424933293601 0 -0.33952374355129727 0.25899057541505788 0 -0.32200613725511351 0.24850726385495631 0 -0.31931282352829687 0.26617321261290411 0 -0.33952374355129727 0.25899057541505788 0 -0.32200613725511351 0.24850726385495631 0 -0.31931282352829687 0.26617321261290411 0 -0.30640548876467488 0.25787073169030861 0 -0.31931282352829687 0.26617321261290411 0 -0.30640548876467488 0.25787073169030861 0 -0.3010630097917536 0.27273037638764702 0 -0.31931282352829687 0.26617321261290411 0 -0.3010630097917536 0.27273037638764702 0 -0.30493521127791462 0.28695781074044469 0 -0.31931282352829687 0.26617321261290411 0 -0.30493521127791462 0.28695781074044469 0 -0.3010630097917536 0.27273037638764702 0 -0.29309283898050847 0.28048055459605348 0 -0.30493521127791462 0.28695781074044469 0 -0.3010630097917536 0.27273037638764702 0 -0.29309283898050847 0.28048055459605348 0 -0.28156868640737281 0.27216957229852412 0 -0.30640548876467488 0.25787073169030861 0 -0.3010630097917536 0.27273037638764702 0 -0.28156868640737281 0.27216957229852412 0 -0.30640548876467488 0.25787073169030861 0 -0.28156868640737281 0.27216957229852412 0 -0.28729818335365731 0.26780124082781631 0 -0.28156868640737281 0.27216957229852412 0 -0.28729818335365731 0.26780124082781631 0 -0.27880962639343299 0.26078065685839158 0 -0.29309283898050847 0.28048055459605348 0 -0.28156868640737281 0.27216957229852412 0 -0.28401529333418091 0.28255904946725641 0 -0.30640548876467488 0.25787073169030861 0 -0.28156868640737281 0.27216957229852412 0 -0.29125564533142001 0.24067530578368901 0 -0.30640548876467488 0.25787073169030861 0 -0.28729818335365731 0.26780124082781631 0 -0.29125564533142001 0.24067530578368901 0 -0.28729818335365731 0.26780124082781631 0 -0.27880962639343299 0.26078065685839158 0 -0.29125564533142001 0.24067530578368901 0 -0.28729818335365731 0.26780124082781631 0 -0.29125564533142001 0.24067530578368901 0 -0.26892213733164849 0.25365425058065472 0 -0.27880962639343299 0.26078065685839158 0 -0.26892213733164849 0.25365425058065472 0 -0.27880962639343299 0.26078065685839158 0 -0.26500347954306669 0.26960291480127369 0 -0.28156868640737281 0.27216957229852412 0 -0.25673188405007052 0.28646841290673969 0 -0.28156868640737281 0.27216957229852412 0 -0.26500347954306669 0.26960291480127369 0 -0.25673188405007052 0.28646841290673969 0 -0.28156868640737281 0.27216957229852412 0 -0.27880962639343299 0.26078065685839158 0 -0.26500347954306669 0.26960291480127369 0 -0.28156868640737281 0.27216957229852412 0 -0.27479408276187339 0.28687287199942368 0 -0.28401529333418091 0.28255904946725641 0 -0.26500347954306669 0.26960291480127369 0 -0.25265925142613249 0.26128234508680298 0 -0.25673188405007052 0.28646841290673969 0 -0.26892213733164849 0.25365425058065472 0 -0.26500347954306669 0.26960291480127369 0 -0.25265925142613249 0.26128234508680298 0 -0.25621817608628389 0.2460965770837312 0 -0.26892213733164849 0.25365425058065472 0 -0.25265925142613249 0.26128234508680298 0 -0.25505401324638421 0.30366623925853881 0 -0.26661761067819428 0.2958317928062858 0 -0.26721257633701828 0.30790943684761429 0 -0.25505401324638421 0.30366623925853881 0 -0.26721257633701828 0.30790943684761429 0 -0.25901197930261888 0.31383205914145501 0 -0.26721257633701828 0.30790943684761429 0 -0.25901197930261888 0.31383205914145501 0 -0.26528599585519008 0.31471464054907522 0 -0.25505401324638421 0.30366623925853881 0 -0.25901197930261888 0.31383205914145501 0 -0.24885494741763489 0.31718848033418301 0 -0.25505401324638421 0.30366623925853881 0 -0.25673188405007052 0.28646841290673969 0 -0.26661761067819428 0.2958317928062858 0 -0.26661761067819428 0.2958317928062858 0 -0.27573637841232751 0.29432500902679382 0 -0.27326763327687947 0.30016750757533939 0 -0.28156868640737281 0.27216957229852412 0 -0.25673188405007052 0.28646841290673969 0 -0.27479408276187339 0.28687287199942368 0 -0.26661761067819428 0.2958317928062858 0 -0.27479408276187339 0.28687287199942368 0 -0.27573637841232751 0.29432500902679382 0 -0.25673188405007052 0.28646841290673969 0 -0.26661761067819428 0.2958317928062858 0 -0.27479408276187339 0.28687287199942368 0 -0.27479408276187339 0.28687287199942368 0 -0.28401529333418091 0.28255904946725641 0 -0.28313816676434478 0.29069510378855717 0 -0.27479408276187339 0.28687287199942368 0 -0.27573637841232751 0.29432500902679382 0 -0.28313816676434478 0.29069510378855717 0 -0.27573637841232751 0.29432500902679382 0 -0.28086439858034518 0.29805776896436298 0 -0.28313816676434478 0.29069510378855717 0 -0.28086439858034518 0.29805776896436298 0 -0.27753065875984329 0.30327410754998058 0 -0.28274061889410179 0.30278083970340541 0 -0.27753065875984329 0.30327410754998058 0 -0.27514776209796898 0.30785266251660498 0 -0.28274061889410179 0.30278083970340541 0 -0.27753065875984329 0.30327410754998058 0 -0.27326763327687947 0.30016750757533939 0 -0.27348155140824082 0.30658246875079598 0 -0.28086439858034518 0.29805776896436298 0 -0.27753065875984329 0.30327410754998058 0 -0.27326763327687947 0.30016750757533939 0 -0.27573637841232751 0.29432500902679382 0 -0.28086439858034518 0.29805776896436298 0 -0.27326763327687947 0.30016750757533939 0 -0.26661761067819428 0.2958317928062858 0 -0.27326763327687947 0.30016750757533939 0 -0.26721257633701828 0.30790943684761429 0 -0.26721257633701828 0.30790943684761429 0 -0.27514776209796898 0.30785266251660498 0 -0.27123720609067609 0.3158529302113221 0 -0.26721257633701828 0.30790943684761429 0 -0.27348155140824082 0.30658246875079598 0 -0.27514776209796898 0.30785266251660498 0 -0.26721257633701828 0.30790943684761429 0 -0.27514776209796898 0.30785266251660498 0 -0.27326763327687947 0.30016750757533939 0 -0.26721257633701828 0.30790943684761429 0 -0.27348155140824082 0.30658246875079598 0 -0.27514776209796898 0.30785266251660498 0 -0.2851872012256097 0.31550597615259851 0 -0.27753065875984329 0.30327410754998058 0 -0.27348155140824082 0.30658246875079598 0 -0.27514776209796898 0.30785266251660498 0 -0.27348155140824082 0.30658246875079598 0 -0.27514776209796898 0.30785266251660498 0 -0.27514776209796898 0.30785266251660498 0 -0.2905575990275322 0.30774240886798532 0 -0.27514776209796898 0.30785266251660498 0 -0.2905575990275322 0.30774240886798532 0 -0.2851872012256097 0.31550597615259851 0 -0.2896026760048197 0.2969772506180926 0 -0.2905575990275322 0.30774240886798532 0 -0.30493521127791462 0.28695781074044469 0 -0.27514776209796898 0.30785266251660498 0 -0.28274061889410179 0.30278083970340541 0 -0.2905575990275322 0.30774240886798532 0 -0.2905575990275322 0.30774240886798532 0 -0.2851872012256097 0.31550597615259851 0 -0.28274061889410179 0.30278083970340541 0 -0.2896026760048197 0.2969772506180926 0 -0.2905575990275322 0.30774240886798532 0 -0.28086439858034518 0.29805776896436298 0 -0.28274061889410179 0.30278083970340541 0 -0.2896026760048197 0.2969772506180926 0 -0.28401529333418091 0.28255904946725641 0 -0.28313816676434478 0.29069510378855717 0 -0.29095683727235372 0.28753395384208091 0 -0.28086439858034518 0.29805776896436298 0 -0.2896026760048197 0.2969772506180926 0 -0.28313816676434478 0.29069510378855717 0 -0.2896026760048197 0.2969772506180926 0 -0.28313816676434478 0.29069510378855717 0 -0.29095683727235372 0.28753395384208091 0 -0.2896026760048197 0.2969772506180926 0 -0.29095683727235372 0.28753395384208091 0 -0.30493521127791462 0.28695781074044469 0 -0.29309283898050847 0.28048055459605348 0 -0.29095683727235372 0.28753395384208091 0 -0.30493521127791462 0.28695781074044469 0 -0.29309283898050847 0.28048055459605348 0 -0.28401529333418091 0.28255904946725641 0 -0.29095683727235372 0.28753395384208091 0 -0.31699951866320542 0.30755322334125379 0 -0.2905575990275322 0.30774240886798532 0 -0.30563014257680821 0.31779627416788381 0 -0.31699951866320542 0.30755322334125379 0 -0.2905575990275322 0.30774240886798532 0 -0.2905575990275322 0.30774240886798532 0 -0.30493521127791462 0.28695781074044469 0 -0.31699951866320542 0.30755322334125379 0 -0.2905575990275322 0.30774240886798532 0 -0.30493521127791462 0.28695781074044469 0 -0.30538608464820588 0.33090408634228141 0 -0.28942706780696309 0.31873813168532672 0 -0.30563014257680821 0.31779627416788381 0 -0.30538608464820588 0.33090408634228141 0 -0.31811651498789978 0.32488887006413791 0 -0.30563014257680821 0.31779627416788381 0 -0.30538608464820588 0.33090408634228141 0 -0.2937791937433501 0.31637108240395312 0 -0.30538608464820588 0.33090408634228141 0 -0.3017933608705089 0.344447887165377 0 -0.32134510148944728 0.34307004099923799 0 -0.30538608464820588 0.33090408634228141 0 -0.29093013722955491 0.33661105704622479 0 -0.3017933608705089 0.344447887165377 0 -0.30538608464820588 0.33090408634228141 0 -0.29093013722955491 0.33661105704622479 0 -0.2885751077852815 0.32830696870384862 0 -0.29093013722955491 0.33661105704622479 0 -0.28224162025157051 0.34582573333151501 0 -0.3017933608705089 0.344447887165377 0 -0.2885751077852815 0.32830696870384862 0 -0.28146834572906437 0.33465123959114113 0 -0.2790455690922089 0.3243844570517187 0 -0.29093013722955491 0.33661105704622479 0 -0.2885751077852815 0.32830696870384862 0 -0.28146834572906437 0.33465123959114113 0 -0.29093013722955491 0.33661105704622479 0 -0.28146834572906437 0.33465123959114113 0 -0.28224162025157051 0.34582573333151501 0 -0.30538608464820588 0.33090408634228141 0 -0.2885751077852815 0.32830696870384862 0 -0.28942706780696309 0.31873813168532672 0 -0.30538608464820588 0.33090408634228141 0 -0.28942706780696309 0.31873813168532672 0 -0.2937791937433501 0.31637108240395312 0 -0.28942706780696309 0.31873813168532672 0 -0.2937791937433501 0.31637108240395312 0 -0.2851872012256097 0.31550597615259851 0 -0.2905575990275322 0.30774240886798532 0 -0.30563014257680821 0.31779627416788381 0 -0.2937791937433501 0.31637108240395312 0 -0.2905575990275322 0.30774240886798532 0 -0.2937791937433501 0.31637108240395312 0 -0.2851872012256097 0.31550597615259851 0 -0.28942706780696309 0.31873813168532672 0 -0.2937791937433501 0.31637108240395312 0 -0.2885751077852815 0.32830696870384862 0 -0.28942706780696309 0.31873813168532672 0 -0.2790455690922089 0.3243844570517187 0 -0.28942706780696309 0.31873813168532672 0 -0.2790455690922089 0.3243844570517187 0 -0.2851872012256097 0.31550597615259851 0 -0.2790455690922089 0.3243844570517187 0 -0.28942706780696309 0.31873813168532672 0 -0.2851872012256097 0.31550597615259851 0 -0.2790455690922089 0.3243844570517187 0 -0.28942706780696309 0.31873813168532672 0 -0.2851872012256097 0.31550597615259851 0 -0.27514776209796898 0.30785266251660498 0 -0.2851872012256097 0.31550597615259851 0 -0.27699557949655113 0.31645322234696882 0 -0.2851872012256097 0.31550597615259851 0 -0.27699557949655113 0.31645322234696882 0 -0.2790455690922089 0.3243844570517187 0 -0.27514776209796898 0.30785266251660498 0 -0.27699557949655113 0.31645322234696882 0 -0.27123720609067609 0.3158529302113221 0 -0.27001263578126711 0.32263717043347712 0 -0.2790455690922089 0.3243844570517187 0 -0.25910260253645218 0.33523110656146687 0 -0.26721257633701828 0.30790943684761429 0 -0.27123720609067609 0.3158529302113221 0 -0.26528599585519008 0.31471464054907522 0 -0.27699557949655113 0.31645322234696882 0 -0.27123720609067609 0.3158529302113221 0 -0.27001263578126711 0.32263717043347712 0 -0.27123720609067609 0.3158529302113221 0 -0.26528599585519008 0.31471464054907522 0 -0.26368222169044719 0.32126413599590953 0 -0.27123720609067609 0.3158529302113221 0 -0.27001263578126711 0.32263717043347712 0 -0.26368222169044719 0.32126413599590953 0 -0.27699557949655113 0.31645322234696882 0 -0.27001263578126711 0.32263717043347712 0 -0.2790455690922089 0.3243844570517187 0 -0.2790455690922089 0.3243844570517187 0 -0.25910260253645218 0.33523110656146687 0 -0.2790455690922089 0.3243844570517187 0 -0.26824012707650141 0.34000504592112352 0 -0.28146834572906437 0.33465123959114113 0 -0.2790455690922089 0.3243844570517187 0 -0.26824012707650141 0.34000504592112352 0 -0.2790455690922089 0.3243844570517187 0 -0.26824012707650141 0.34000504592112352 0 -0.25910260253645218 0.33523110656146687 0 -0.28146834572906437 0.33465123959114113 0 -0.26824012707650141 0.34000504592112352 0 -0.28224162025157051 0.34582573333151501 0 -0.25910260253645218 0.33523110656146687 0 -0.25407523553642281 0.3497448278934856 0 -0.23915963598069589 0.34607775607121571 0 -0.25910260253645218 0.33523110656146687 0 -0.25407523553642281 0.3497448278934856 0 -0.26309588156361569 0.34576168367824162 0 -0.26824012707650141 0.34000504592112352 0 -0.25910260253645218 0.33523110656146687 0 -0.26309588156361569 0.34576168367824162 0 -0.25910260253645218 0.33523110656146687 0 -0.25451497659773847 0.32559442806853028 0 -0.24843663428782739 0.33758714710907461 0 -0.25451497659773847 0.32559442806853028 0 -0.25901197930261888 0.31383205914145501 0 -0.24885494741763489 0.31718848033418301 0 -0.25451497659773847 0.32559442806853028 0 -0.25901197930261888 0.31383205914145501 0 -0.26368222169044719 0.32126413599590953 0 -0.25901197930261888 0.31383205914145501 0 -0.26528599585519008 0.31471464054907522 0 -0.26368222169044719 0.32126413599590953 0 -0.27001263578126711 0.32263717043347712 0 -0.25910260253645218 0.33523110656146687 0 -0.26368222169044719 0.32126413599590953 0 -0.25910260253645218 0.33523110656146687 0 -0.25451497659773847 0.32559442806853028 0 -0.26368222169044719 0.32126413599590953 0 -0.26470209097228098 0.37140351159401941 0 -0.25562758441007077 0.36194187249828802 0 -0.266880351992417 0.3582272519812631 0 -0.26470209097228098 0.37140351159401941 0 -0.25213085833087667 0.37355178257669552 0 -0.25562758441007077 0.36194187249828802 0 -0.25213085833087667 0.37355178257669552 0 -0.25562758441007077 0.36194187249828802 0 -0.24329038266145239 0.36134909741814653 0 -0.25562758441007077 0.36194187249828802 0 -0.25407523553642281 0.3497448278934856 0 -0.24329038266145239 0.36134909741814653 0 -0.25407523553642281 0.3497448278934856 0 -0.26309588156361569 0.34576168367824162 0 -0.266880351992417 0.3582272519812631 0 -0.25562758441007077 0.36194187249828802 0 -0.25407523553642281 0.3497448278934856 0 -0.266880351992417 0.3582272519812631 0 -0.266880351992417 0.3582272519812631 0 -0.27640009279511962 0.35155878343443242 0 -0.28837447244510311 0.36628710188532532 0 -0.26309588156361569 0.34576168367824162 0 -0.266880351992417 0.3582272519812631 0 -0.27640009279511962 0.35155878343443242 0 -0.26824012707650141 0.34000504592112352 0 -0.26309588156361569 0.34576168367824162 0 -0.27640009279511962 0.35155878343443242 0 -0.26824012707650141 0.34000504592112352 0 -0.27640009279511962 0.35155878343443242 0 -0.28224162025157051 0.34582573333151501 0 -0.266880351992417 0.3582272519812631 0 -0.28837447244510311 0.36628710188532532 0 -0.266880351992417 0.3582272519812631 0 -0.28837447244510311 0.36628710188532532 0 -0.27747916353329311 0.37529003384729942 0 -0.26470209097228098 0.37140351159401941 0 -0.266880351992417 0.3582272519812631 0 -0.27747916353329311 0.37529003384729942 0 -0.28837447244510311 0.36628710188532532 0 -0.28714059247178902 0.37543321948423419 0 -0.27747916353329311 0.37529003384729942 0 -0.28837447244510311 0.36628710188532532 0 -0.28956810344150979 0.35324588380912608 0 -0.30292150033679799 0.36018321991941088 0 -0.28837447244510311 0.36628710188532532 0 -0.29874239202075642 0.37528196759933868 0 -0.28714059247178902 0.37543321948423419 0 -0.28224162025157051 0.34582573333151501 0 -0.3017933608705089 0.344447887165377 0 -0.28224162025157051 0.34582573333151501 0 -0.28956810344150979 0.35324588380912608 0 -0.3017933608705089 0.344447887165377 0 -0.27640009279511962 0.35155878343443242 0 -0.28224162025157051 0.34582573333151501 0 -0.28956810344150979 0.35324588380912608 0 -0.27640009279511962 0.35155878343443242 0 -0.28837447244510311 0.36628710188532532 0 -0.28956810344150979 0.35324588380912608 0 -0.3017933608705089 0.344447887165377 0 -0.31193410579265052 0.3536039280541286 0 -0.30292150033679799 0.36018321991941088 0 -0.28956810344150979 0.35324588380912608 0 -0.3017933608705089 0.344447887165377 0 -0.30292150033679799 0.36018321991941088 0 -0.3017933608705089 0.344447887165377 0 -0.32134510148944728 0.34307004099923799 0 -0.3017933608705089 0.344447887165377 0 -0.31193410579265052 0.3536039280541286 0 -0.32134510148944728 0.34307004099923799 0 -0.31193410579265052 0.3536039280541286 0 -0.30292150033679799 0.36018321991941088 0 -0.31340485972314069 0.36375751913665871 0 -0.28837447244510311 0.36628710188532532 0 -0.30292150033679799 0.36018321991941088 0 -0.30986859289778912 0.37434695178938759 0 -0.28837447244510311 0.36628710188532532 0 -0.30986859289778912 0.37434695178938759 0 -0.28837447244510311 0.36628710188532532 0 -0.30986859289778912 0.37434695178938759 0 -0.29874239202075642 0.37528196759933868 0 -0.30292150033679799 0.36018321991941088 0 -0.30986859289778912 0.37434695178938759 0 -0.31340485972314069 0.36375751913665871 0 -0.30986859289778912 0.37434695178938759 0 -0.31340485972314069 0.36375751913665871 0 -0.32167824364597858 0.36970754211250728 0 -0.31340485972314069 0.36375751913665871 0 -0.32243327870136801 0.35950699838777223 0 -0.32167824364597858 0.36970754211250728 0 -0.32243327870136801 0.35950699838777223 0 -0.32167824364597858 0.36970754211250728 0 -0.33132177355711989 0.36851943955526861 0 -0.32167824364597858 0.36970754211250728 0 -0.33132177355711989 0.36851943955526861 0 -0.33136271335047512 0.38240680169344993 0 -0.32243327870136801 0.35950699838777223 0 -0.33132177355711989 0.36851943955526861 0 -0.33989838930305449 0.35721367281084643 0 -0.33132177355711989 0.36851943955526861 0 -0.34304766554360439 0.37232322735168022 0 -0.33136271335047512 0.38240680169344993 0 -0.33132177355711989 0.36851943955526861 0 -0.34304766554360439 0.37232322735168022 0 -0.33989838930305449 0.35721367281084643 0 -0.33989838930305449 0.35721367281084643 0 -0.32134510148944728 0.34307004099923799 0 -0.33989838930305449 0.35721367281084643 0 -0.32134510148944728 0.34307004099923799 0 -0.3500233487104954 0.34104903357308669 0 -0.32243327870136801 0.35950699838777223 0 -0.33989838930305449 0.35721367281084643 0 -0.32134510148944728 0.34307004099923799 0 -0.31193410579265052 0.3536039280541286 0 -0.32243327870136801 0.35950699838777223 0 -0.32134510148944728 0.34307004099923799 0 -0.31193410579265052 0.3536039280541286 0 -0.31340485972314069 0.36375751913665871 0 -0.32243327870136801 0.35950699838777223 0 -0.30538608464820588 0.33090408634228141 0 -0.32134510148944728 0.34307004099923799 0 -0.30538608464820588 0.33090408634228141 0 -0.32134510148944728 0.34307004099923799 0 -0.31811651498789978 0.32488887006413791 0 -0.32134510148944728 0.34307004099923799 0 -0.31811651498789978 0.32488887006413791 0 -0.33459812393413729 0.32207732583041709 0 -0.31699951866320542 0.30755322334125379 0 -0.30563014257680821 0.31779627416788381 0 -0.31811651498789978 0.32488887006413791 0 -0.31699951866320542 0.30755322334125379 0 -0.31811651498789978 0.32488887006413791 0 -0.33459812393413729 0.32207732583041709 0 -0.32134510148944728 0.34307004099923799 0 -0.34342889555096417 0.33131534648734451 0 -0.3500233487104954 0.34104903357308669 0 -0.32134510148944728 0.34307004099923799 0 -0.33459812393413729 0.32207732583041709 0 -0.34342889555096417 0.33131534648734451 0 -0.32134510148944728 0.34307004099923799 0 -0.3500233487104954 0.34104903357308669 0 -0.3500233487104954 0.34104903357308669 0 -0.35650114511620551 0.33294276438790088 0 -0.36794029410566942 0.33226259727897972 0 -0.34342889555096417 0.33131534648734451 0 -0.3500233487104954 0.34104903357308669 0 -0.35650114511620551 0.33294276438790088 0 -0.33459812393413729 0.32207732583041709 0 -0.34342889555096417 0.33131534648734451 0 -0.35467675850453528 0.31743756764607989 0 -0.34344143829887858 0.30736403781452232 0 -0.33459812393413729 0.32207732583041709 0 -0.35467675850453528 0.31743756764607989 0 -0.35650114511620551 0.33294276438790088 0 -0.35467675850453528 0.31743756764607989 0 -0.36272901898995358 0.31473918551029578 0 -0.34342889555096417 0.33131534648734451 0 -0.35650114511620551 0.33294276438790088 0 -0.35467675850453528 0.31743756764607989 0 -0.35650114511620551 0.33294276438790088 0 -0.36272901898995358 0.31473918551029578 0 -0.37415321332832258 0.31386652142517069 0 -0.35650114511620551 0.33294276438790088 0 -0.37415321332832258 0.31386652142517069 0 -0.35650114511620551 0.33294276438790088 0 -0.37442838800096029 0.32044424157556423 0 -0.37415321332832258 0.31386652142517069 0 -0.37816355277066899 0.32985684687273281 0 -0.37442838800096029 0.32044424157556423 0 -0.36794029410566942 0.33226259727897972 0 -0.3787015959315434 0.33902802614693439 0 -0.3500233487104954 0.34104903357308669 0 -0.36794029410566942 0.33226259727897972 0 -0.35650114511620551 0.33294276438790088 0 -0.37442838800096029 0.32044424157556423 0 -0.36794029410566942 0.33226259727897972 0 -0.3787015959315434 0.33902802614693439 0 -0.3500233487104954 0.34104903357308669 0 -0.3787015959315434 0.33902802614693439 0 -0.37816355277066899 0.32985684687273281 0 -0.36794029410566942 0.33226259727897972 0 -0.3787015959315434 0.33902802614693439 0 -0.3500233487104954 0.34104903357308669 0 -0.36501658974902518 0.35367198233662939 0 -0.37823932191431281 0.35548757599615399 0 -0.3787015959315434 0.33902802614693439 0 -0.36501658974902518 0.35367198233662939 0 -0.37823932191431281 0.35548757599615399 0 -0.36501658974902518 0.35367198233662939 0 -0.37024808467873749 0.36543132639488701 0 -0.36501658974902518 0.35367198233662939 0 -0.37024808467873749 0.36543132639488701 0 -0.35845167711666143 0.37135730462245548 0 -0.37949655700884349 0.37153259571527891 0 -0.37024808467873749 0.36543132639488701 0 -0.36758280318953013 0.37627165255961892 0 -0.37024808467873749 0.36543132639488701 0 -0.35845167711666143 0.37135730462245548 0 -0.36758280318953013 0.37627165255961892 0 -0.36501658974902518 0.35367198233662939 0 -0.35845167711666143 0.37135730462245548 0 -0.35334750121980912 0.35582299833575448 0 -0.34304766554360439 0.37232322735168022 0 -0.33989838930305449 0.35721367281084643 0 -0.35845167711666143 0.37135730462245548 0 -0.33989838930305449 0.35721367281084643 0 -0.35845167711666143 0.37135730462245548 0 -0.35334750121980912 0.35582299833575448 0 -0.33989838930305449 0.35721367281084643 0 -0.35845167711666143 0.37135730462245548 0 -0.33989838930305449 0.35721367281084643 0 -0.3500233487104954 0.34104903357308669 0 -0.35334750121980912 0.35582299833575448 0 -0.3500233487104954 0.34104903357308669 0 -0.36501658974902518 0.35367198233662939 0 -0.35334750121980912 0.35582299833575448 0 -0.35285683380316007 0.39046665159751448 0 -0.36027192889352422 0.40897543894708011 0 -0.34270265381785459 0.40768080501023862 0 -0.34304766554360439 0.37232322735168022 0 -0.35845167711666143 0.37135730462245548 0 -0.35285683380316007 0.39046665159751448 0 -0.37686086334024771 0.38257038446795849 0 -0.35285683380316007 0.39046665159751448 0 -0.37686086334024771 0.38257038446795849 0 -0.35285683380316007 0.39046665159751448 0 -0.36758280318953013 0.37627165255961892 0 -0.35845167711666143 0.37135730462245548 0 -0.35285683380316007 0.39046665159751448 0 -0.36758280318953013 0.37627165255961892 0 -0.37686086334024771 0.38257038446795849 0 -0.37949655700884349 0.37153259571527891 0 -0.36758280318953013 0.37627165255961892 0 -0.37769092578324193 0.39977892163450779 0 -0.35285683380316007 0.39046665159751448 0 -0.37769092578324193 0.39977892163450779 0 -0.37686086334024771 0.38257038446795849 0 -0.35285683380316007 0.39046665159751448 0 -0.37769092578324193 0.39977892163450779 0 -0.35285683380316007 0.39046665159751448 0 -0.36027192889352422 0.40897543894708011 0 -0.37875820238401509 0.42613984176471847 0 -0.37769092578324193 0.39977892163450779 0 -0.36027192889352422 0.40897543894708011 0 -0.37875820238401509 0.42613984176471847 0 -0.36027192889352422 0.40897543894708011 0 -0.36048507512927641 0.42545129427310208 0 -0.37875820238401509 0.42613984176471847 0 -0.36048507512927641 0.42545129427310208 0 -0.35499138700470761 0.44318849185793469 0 -0.37875820238401509 0.42613984176471847 0 -0.35499138700470761 0.44318849185793469 0 -0.34691622899781399 0.42161541908905831 0 -0.33223168701086447 0.43660936806356893 0 -0.35499138700470761 0.44318849185793469 0 -0.36048507512927641 0.42545129427310208 0 -0.34691622899781399 0.42161541908905831 0 -0.35499138700470761 0.44318849185793469 0 -0.36027192889352422 0.40897543894708011 0 -0.34691622899781399 0.42161541908905831 0 -0.34270265381785459 0.40768080501023862 0 -0.36027192889352422 0.40897543894708011 0 -0.36048507512927641 0.42545129427310208 0 -0.34691622899781399 0.42161541908905831 0 -0.34270265381785459 0.40768080501023862 0 -0.32841174735063311 0.41773478988879181 0 -0.32505653004414181 0.39961172552874852 0 -0.34691622899781399 0.42161541908905831 0 -0.34270265381785459 0.40768080501023862 0 -0.32841174735063311 0.41773478988879181 0 -0.34691622899781399 0.42161541908905831 0 -0.32841174735063311 0.41773478988879181 0 -0.33223168701086447 0.43660936806356893 0 -0.32841174735063311 0.41773478988879181 0 -0.33223168701086447 0.43660936806356893 0 -0.31148998866141242 0.43181261152586448 0 -0.32841174735063311 0.41773478988879181 0 -0.31441363705571701 0.41408607272300291 0 -0.32505653004414181 0.39961172552874852 0 -0.32841174735063311 0.41773478988879181 0 -0.31441363705571701 0.41408607272300291 0 -0.31148998866141242 0.43181261152586448 0 -0.32505653004414181 0.39961172552874852 0 -0.31219235154091651 0.39185403334122892 0 -0.30619500853749271 0.39725637532293351 0 -0.32505653004414181 0.39961172552874852 0 -0.31778050989885959 0.38527433798844479 0 -0.31219235154091651 0.39185403334122892 0 -0.35285683380316007 0.39046665159751448 0 -0.32505653004414181 0.39961172552874852 0 -0.33136271335047512 0.38240680169344993 0 -0.35285683380316007 0.39046665159751448 0 -0.34270265381785459 0.40768080501023862 0 -0.32505653004414181 0.39961172552874852 0 -0.35285683380316007 0.39046665159751448 0 -0.32505653004414181 0.39961172552874852 0 -0.35285683380316007 0.39046665159751448 0 -0.33136271335047512 0.38240680169344993 0 -0.34304766554360439 0.37232322735168022 0 -0.35285683380316007 0.39046665159751448 0 -0.33136271335047512 0.38240680169344993 0 -0.30986859289778912 0.37434695178938759 0 -0.32167824364597858 0.36970754211250728 0 -0.33136271335047512 0.38240680169344993 0 -0.30986859289778912 0.37434695178938759 0 -0.33136271335047512 0.38240680169344993 0 -0.32505653004414181 0.39961172552874852 0 -0.33136271335047512 0.38240680169344993 0 -0.31778050989885959 0.38527433798844479 0 -0.30986859289778912 0.37434695178938759 0 -0.33136271335047512 0.38240680169344993 0 -0.31778050989885959 0.38527433798844479 0 -0.30986859289778912 0.37434695178938759 0 -0.31778050989885959 0.38527433798844479 0 -0.30574515252343709 0.38648905476423068 0 -0.30986859289778912 0.37434695178938759 0 -0.30574515252343709 0.38648905476423068 0 -0.29874239202075642 0.37528196759933868 0 -0.30574515252343709 0.38648905476423068 0 -0.29874239202075642 0.37528196759933868 0 -0.29146244090030071 0.40289140707507309 0 -0.31778050989885959 0.38527433798844479 0 -0.30574515252343709 0.38648905476423068 0 -0.31219235154091651 0.39185403334122892 0 -0.32505653004414181 0.39961172552874852 0 -0.30619500853749271 0.39725637532293351 0 -0.29725622628512233 0.40875679945997928 0 -0.32505653004414181 0.39961172552874852 0 -0.29725622628512233 0.40875679945997928 0 -0.30574515252343709 0.38648905476423068 0 -0.30619500853749271 0.39725637532293351 0 -0.29146244090030071 0.40289140707507309 0 -0.30574515252343709 0.38648905476423068 0 -0.31219235154091651 0.39185403334122892 0 -0.30619500853749271 0.39725637532293351 0 -0.30619500853749271 0.39725637532293351 0 -0.29146244090030071 0.40289140707507309 0 -0.29725622628512233 0.40875679945997928 0 -0.29146244090030071 0.40289140707507309 0 -0.2882496590958894 0.39023794275143442 0 -0.278827461574497 0.39790462172635238 0 -0.28396634188800352 0.38487377460497352 0 -0.2882496590958894 0.39023794275143442 0 -0.278827461574497 0.39790462172635238 0 -0.29146244090030071 0.40289140707507309 0 -0.278827461574497 0.39790462172635238 0 -0.27940045790464241 0.41220012044695847 0 -0.29874239202075642 0.37528196759933868 0 -0.29146244090030071 0.40289140707507309 0 -0.29874239202075642 0.37528196759933868 0 -0.29146244090030071 0.40289140707507309 0 -0.2882496590958894 0.39023794275143442 0 -0.29874239202075642 0.37528196759933868 0 -0.28396634188800352 0.38487377460497352 0 -0.28714059247178902 0.37543321948423419 0 -0.29874239202075642 0.37528196759933868 0 -0.28396634188800352 0.38487377460497352 0 -0.2882496590958894 0.39023794275143442 0 -0.28396634188800352 0.38487377460497352 0 -0.28714059247178902 0.37543321948423419 0 -0.27747916353329311 0.37529003384729942 0 -0.28396634188800352 0.38487377460497352 0 -0.27747916353329311 0.37529003384729942 0 -0.26775424033426293 0.38456849691175748 0 -0.28396634188800352 0.38487377460497352 0 -0.26775424033426293 0.38456849691175748 0 -0.278827461574497 0.39790462172635238 0 -0.26470209097228098 0.37140351159401941 0 -0.27747916353329311 0.37529003384729942 0 -0.26775424033426293 0.38456849691175748 0 -0.278827461574497 0.39790462172635238 0 -0.26298604578065232 0.3973558675440883 0 -0.2677584473194361 0.40899541659639099 0 -0.26775424033426293 0.38456849691175748 0 -0.278827461574497 0.39790462172635238 0 -0.26298604578065232 0.3973558675440883 0 -0.26298604578065232 0.3973558675440883 0 -0.25152819264859128 0.38883491631829081 0 -0.2490618870264745 0.40647588616764979 0 -0.26298604578065232 0.3973558675440883 0 -0.2677584473194361 0.40899541659639099 0 -0.2490618870264745 0.40647588616764979 0 -0.25213085833087667 0.37355178257669552 0 -0.26775424033426293 0.38456849691175748 0 -0.25152819264859128 0.38883491631829081 0 -0.26775424033426293 0.38456849691175748 0 -0.26298604578065232 0.3973558675440883 0 -0.25152819264859128 0.38883491631829081 0 -0.26470209097228098 0.37140351159401941 0 -0.25213085833087667 0.37355178257669552 0 -0.26775424033426293 0.38456849691175748 0 -0.2572482915111563 0.42152384209731297 0 -0.26330490497154813 0.43976041958731371 0 -0.24092688658692171 0.43286849171069308 0 -0.2572482915111563 0.42152384209731297 0 -0.27163392734069919 0.42205675226444578 0 -0.26330490497154813 0.43976041958731371 0 -0.2572482915111563 0.42152384209731297 0 -0.2677584473194361 0.40899541659639099 0 -0.2490618870264745 0.40647588616764979 0 -0.2572482915111563 0.42152384209731297 0 -0.2677584473194361 0.40899541659639099 0 -0.27163392734069919 0.42205675226444578 0 -0.27940045790464241 0.41220012044695847 0 -0.27163392734069919 0.42205675226444578 0 -0.28418248977984512 0.43050084655080739 0 -0.2677584473194361 0.40899541659639099 0 -0.27940045790464241 0.41220012044695847 0 -0.27163392734069919 0.42205675226444578 0 -0.278827461574497 0.39790462172635238 0 -0.2677584473194361 0.40899541659639099 0 -0.27940045790464241 0.41220012044695847 0 -0.27163392734069919 0.42205675226444578 0 -0.28418248977984512 0.43050084655080739 0 -0.26330490497154813 0.43976041958731371 0 -0.28418248977984512 0.43050084655080739 0 -0.29943060469912958 0.42576946359573847 0 -0.28981068171355151 0.44369098771903792 0 -0.29146244090030071 0.40289140707507309 0 -0.28418248977984512 0.43050084655080739 0 -0.29146244090030071 0.40289140707507309 0 -0.27940045790464241 0.41220012044695847 0 -0.28418248977984512 0.43050084655080739 0 -0.28418248977984512 0.43050084655080739 0 -0.29725622628512233 0.40875679945997928 0 -0.29943060469912958 0.42576946359573847 0 -0.29146244090030071 0.40289140707507309 0 -0.28418248977984512 0.43050084655080739 0 -0.29725622628512233 0.40875679945997928 0 -0.31441363705571701 0.41408607272300291 0 -0.32505653004414181 0.39961172552874852 0 -0.29725622628512233 0.40875679945997928 0 -0.31441363705571701 0.41408607272300291 0 -0.29725622628512233 0.40875679945997928 0 -0.29943060469912958 0.42576946359573847 0 -0.31441363705571701 0.41408607272300291 0 -0.29943060469912958 0.42576946359573847 0 -0.31148998866141242 0.43181261152586448 0 -0.29943060469912958 0.42576946359573847 0 -0.31148998866141242 0.43181261152586448 0 -0.28981068171355151 0.44369098771903792 0 -0.31148998866141242 0.43181261152586448 0 -0.30120616623050861 0.45239726712555162 0 -0.31718999816658727 0.45065056632578487 0 -0.31148998866141242 0.43181261152586448 0 -0.30120616623050861 0.45239726712555162 0 -0.31148998866141242 0.43181261152586448 0 -0.30120616623050861 0.45239726712555162 0 -0.28981068171355151 0.44369098771903792 0 -0.30120616623050861 0.45239726712555162 0 -0.29092234379960469 0.47298192272523881 0 -0.30745775624609217 0.47728579204436761 0 -0.30120616623050861 0.45239726712555162 0 -0.30745775624609217 0.47728579204436761 0 -0.31718999816658727 0.45065056632578487 0 -0.2852957606144535 0.45730244818253718 0 -0.28186649269177161 0.46567885888970018 0 -0.29092234379960469 0.47298192272523881 0 -0.30120616623050861 0.45239726712555162 0 -0.29092234379960469 0.47298192272523881 0 -0.30120616623050861 0.45239726712555162 0 -0.2852957606144535 0.45730244818253718 0 -0.29092234379960469 0.47298192272523881 0 -0.2852957606144535 0.45730244818253718 0 -0.28186649269177161 0.46567885888970018 0 -0.27690253865938408 0.45811028602654041 0 -0.28418248977984512 0.43050084655080739 0 -0.28981068171355151 0.44369098771903792 0 -0.27690253865938408 0.45811028602654041 0 -0.30120616623050861 0.45239726712555162 0 -0.2852957606144535 0.45730244818253718 0 -0.28981068171355151 0.44369098771903792 0 -0.2852957606144535 0.45730244818253718 0 -0.28981068171355151 0.44369098771903792 0 -0.27690253865938408 0.45811028602654041 0 -0.28418248977984512 0.43050084655080739 0 -0.27690253865938408 0.45811028602654041 0 -0.28418248977984512 0.43050084655080739 0 -0.27690253865938408 0.45811028602654041 0 -0.26330490497154813 0.43976041958731371 0 -0.2852957606144535 0.45730244818253718 0 -0.27690253865938408 0.45811028602654041 0 -0.28186649269177161 0.46567885888970018 0 -0.27690253865938408 0.45811028602654041 0 -0.27835780074514338 0.47366975871288508 0 -0.27690253865938408 0.45811028602654041 0 -0.25345677561811758 0.46036691342989022 0 -0.27690253865938408 0.45811028602654041 0 -0.25345677561811758 0.46036691342989022 0 -0.26590293397843329 0.47057525233348851 0 -0.25345677561811758 0.46036691342989022 0 -0.25315469521642581 0.4750486889203015 0 -0.26590293397843329 0.47057525233348851 0 -0.25345677561811758 0.46036691342989022 0 -0.26330490497154813 0.43976041958731371 0 -0.24129970279445639 0.44943490890582899 0 -0.27690253865938408 0.45811028602654041 0 -0.25345677561811758 0.46036691342989022 0 -0.26330490497154813 0.43976041958731371 0 -0.26169037092037989 0.4910190989046625 0 -0.25397816739109252 0.5 0 -0.27113802145370669 0.49283981386083792 0 -0.26169037092037989 0.4910190989046625 0 -0.25474868654415728 0.48692894813519849 0 -0.26689660829256312 0.48430763362261348 0 -0.26169037092037989 0.4910190989046625 0 -0.25397816739109252 0.5 0 -0.25474868654415728 0.48692894813519849 0 -0.25315469521642581 0.4750486889203015 0 -0.26689660829256312 0.48430763362261348 0 -0.25315469521642581 0.4750486889203015 0 -0.26689660829256312 0.48430763362261348 0 -0.26590293397843329 0.47057525233348851 0 -0.25474868654415728 0.48692894813519849 0 -0.25315469521642581 0.4750486889203015 0 -0.26689660829256312 0.48430763362261348 0 -0.27690253865938408 0.45811028602654041 0 -0.26590293397843329 0.47057525233348851 0 -0.26946370716205509 0.4860372782758946 0 -0.27690253865938408 0.45811028602654041 0 -0.26946370716205509 0.4860372782758946 0 -0.27690253865938408 0.45811028602654041 0 -0.27835780074514338 0.47366975871288508 0 -0.26946370716205509 0.4860372782758946 0 -0.26689660829256312 0.48430763362261348 0 -0.26590293397843329 0.47057525233348851 0 -0.26946370716205509 0.4860372782758946 0 -0.28186649269177161 0.46567885888970018 0 -0.27835780074514338 0.47366975871288508 0 -0.28298297564177088 0.4743823417855309 0 -0.27835780074514338 0.47366975871288508 0 -0.2798907507987049 0.48286402398659151 0 -0.28298297564177088 0.4743823417855309 0 -0.27835780074514338 0.47366975871288508 0 -0.2798907507987049 0.48286402398659151 0 -0.26946370716205509 0.4860372782758946 0 -0.26946370716205509 0.4860372782758946 0 -0.28063852136870049 0.49356657832492562 0 -0.26946370716205509 0.4860372782758946 0 -0.27113802145370669 0.49283981386083792 0 -0.28063852136870049 0.49356657832492562 0 -0.2798907507987049 0.48286402398659151 0 -0.26946370716205509 0.4860372782758946 0 -0.28063852136870049 0.49356657832492562 0 -0.25397816739109252 0.5 0 -0.27113802145370669 0.49283981386083792 0 -0.27742446875513049 0.50000000000000155 0 -0.26689660829256312 0.48430763362261348 0 -0.26946370716205509 0.4860372782758946 0 -0.27113802145370669 0.49283981386083792 0 -0.26169037092037989 0.4910190989046625 0 -0.26689660829256312 0.48430763362261348 0 -0.27113802145370669 0.49283981386083792 0 -0.26689660829256312 0.48430763362261348 0 -0.26946370716205509 0.4860372782758946 0 -0.27113802145370669 0.49283981386083792 0 -0.28063852136870049 0.49356657832492562 0 -0.27742446875513049 0.50000000000000155 0 -0.28063852136870049 0.49356657832492562 0 -0.27742446875513049 0.50000000000000155 0 -0.28063852136870049 0.49356657832492562 0 -0.27742446875513049 0.50000000000000155 0 -0.29018685806186229 0.50000000000000122 0 -0.28063852136870049 0.49356657832492562 0 -0.29018685806186229 0.50000000000000122 0 -0.29092234379960469 0.47298192272523881 0 -0.28063852136870049 0.49356657832492562 0 -0.29018685806186229 0.50000000000000122 0 -0.29018685806186229 0.50000000000000122 0 -0.29092234379960469 0.47298192272523881 0 -0.30745775624609217 0.47728579204436761 0 -0.28063852136870049 0.49356657832492562 0 -0.29092234379960469 0.47298192272523881 0 -0.2798907507987049 0.48286402398659151 0 -0.28063852136870049 0.49356657832492562 0 -0.29092234379960469 0.47298192272523881 0 -0.28186649269177161 0.46567885888970018 0 -0.28298297564177088 0.4743823417855309 0 -0.29092234379960469 0.47298192272523881 0 -0.2798907507987049 0.48286402398659151 0 -0.28298297564177088 0.4743823417855309 0 -0.29092234379960469 0.47298192272523881 0 -0.29018685806186229 0.50000000000000122 0 -0.30745775624609217 0.47728579204436761 0 -0.3640375775585698 0.5 0 -0.30745775624609217 0.47728579204436761 0 -0.33122457162539992 0.46023714195115112 0 -0.3640375775585698 0.5 0 -0.30745775624609217 0.47728579204436761 0 -0.33122457162539992 0.46023714195115112 0 -0.30745775624609217 0.47728579204436761 0 -0.31718999816658727 0.45065056632578487 0 -0.33122457162539992 0.46023714195115112 0 -0.33223168701086447 0.43660936806356893 0 -0.31148998866141242 0.43181261152586448 0 -0.31718999816658727 0.45065056632578487 0 -0.33223168701086447 0.43660936806356893 0 -0.31718999816658727 0.45065056632578487 0 -0.33122457162539992 0.46023714195115112 0 -0.33122457162539992 0.46023714195115112 0 -0.35499138700470761 0.44318849185793469 0 -0.33223168701086447 0.43660936806356893 0 -0.33122457162539992 0.46023714195115112 0 -0.35499138700470761 0.44318849185793469 0 -0.33122457162539992 0.46023714195115112 0 -0.35376164566254242 0.46494380824906301 0 -0.35499138700470761 0.44318849185793469 0 -0.38249991962136642 0.44345487931465249 0 -0.35499138700470761 0.44318849185793469 0 -0.37103467036260362 0.45695891695805302 0 -0.38249991962136642 0.44345487931465249 0 -0.37875820238401509 0.42613984176471847 0 -0.35499138700470761 0.44318849185793469 0 -0.35376164566254242 0.46494380824906301 0 -0.35499138700470761 0.44318849185793469 0 -0.37103467036260362 0.45695891695805302 0 -0.35376164566254242 0.46494380824906301 0 -0.37103467036260362 0.45695891695805302 0 -0.36943712044780219 0.47475959506207249 0 -0.33122457162539992 0.46023714195115112 0 -0.35376164566254242 0.46494380824906301 0 -0.3640375775585698 0.5 0 -0.38891458820749281 0.47713565504117422 0 -0.36943712044780219 0.47475959506207249 0 -0.3640375775585698 0.5 0 -0.35376164566254242 0.46494380824906301 0 -0.36943712044780219 0.47475959506207249 0 -0.3640375775585698 0.5 0 -0.1410608215807003 0.47118489318428192 0 -0.1506389915883973 0.47451242435581331 0 -0.15779819732271971 0.4695739402503486 0 -0.1410608215807003 0.47118489318428192 0 -0.15779819732271971 0.4695739402503486 0 -0.1455325599989582 0.47665965757352818 0 -0.14983465253105441 0.48099067897208148 0 -0.1405957742956809 0.47995063378193648 0 -0.14983465253105441 0.48099067897208148 0 -0.14427471349546869 0.48965289008050411 0 -0.1405957742956809 0.47995063378193648 0 -0.1455325599989582 0.47665965757352818 0 -0.1410608215807003 0.47118489318428192 0 -0.1506389915883973 0.47451242435581331 0 -0.1455325599989582 0.47665965757352818 0 -0.1410608215807003 0.47118489318428192 0 -0.1405957742956809 0.47995063378193648 0 -0.1506389915883973 0.47451242435581331 0 -0.15682389603308189 0.47748605108520858 0 -0.15779819732271971 0.4695739402503486 0 -0.1506389915883973 0.47451242435581331 0 -0.14983465253105441 0.48099067897208148 0 -0.15682389603308189 0.47748605108520858 0 -0.1455325599989582 0.47665965757352818 0 -0.1506389915883973 0.47451242435581331 0 -0.14983465253105441 0.48099067897208148 0 -0.14983465253105441 0.48099067897208148 0 -0.1558122254133027 0.48316327461493752 0 -0.15682389603308189 0.47748605108520858 0 -0.14983465253105441 0.48099067897208148 0 -0.1558122254133027 0.48316327461493752 0 -0.15140604362779489 0.486968875654338 0 -0.1558122254133027 0.48316327461493752 0 -0.15140604362779489 0.486968875654338 0 -0.15545271364459581 0.49281799385228547 0 -0.14983465253105441 0.48099067897208148 0 -0.15140604362779489 0.486968875654338 0 -0.14427471349546869 0.48965289008050411 0 -0.15140604362779489 0.486968875654338 0 -0.15545271364459581 0.49281799385228547 0 -0.14427471349546869 0.48965289008050411 0 -0.15453849507163009 0.5 0 -0.14427471349546869 0.48965289008050411 0 -0.12543772684428189 0.5 0 -0.15453849507163009 0.5 0 -0.15545271364459581 0.49281799385228547 0 -0.14427471349546869 0.48965289008050411 0 -0.14427471349546869 0.48965289008050411 0 -0.12543772684428189 0.5 0 -0.13178312884530541 0.48627570230508688 0 -0.14427471349546869 0.48965289008050411 0 -0.13178312884530541 0.48627570230508688 0 -0.1405957742956809 0.47995063378193648 0 -0.13178312884530541 0.48627570230508688 0 -0.1317912103042716 0.47600940211286807 0 -0.11642361318749669 0.48420448820259387 0 -0.1317912103042716 0.47600940211286807 0 -0.14083201439797821 0.46516349611765162 0 -0.12052644250191399 0.4682622397032008 0 -0.13178312884530541 0.48627570230508688 0 -0.1405957742956809 0.47995063378193648 0 -0.1317912103042716 0.47600940211286807 0 -0.1410608215807003 0.47118489318428192 0 -0.1405957742956809 0.47995063378193648 0 -0.1317912103042716 0.47600940211286807 0 -0.1410608215807003 0.47118489318428192 0 -0.1317912103042716 0.47600940211286807 0 -0.14083201439797821 0.46516349611765162 0 -0.12618187852634369 0.45882241462805679 0 -0.14083201439797821 0.46516349611765162 0 -0.12052644250191399 0.4682622397032008 0 -0.14083201439797821 0.46516349611765162 0 -0.12052644250191399 0.4682622397032008 0 -0.12618187852634369 0.45882241462805679 0 -0.13621980461969219 0.45775649261309698 0 -0.13482926781972801 0.45201676164804122 0 -0.13621980461969219 0.45775649261309698 0 -0.13482926781972801 0.45201676164804122 0 -0.1430360577347192 0.45502329805863873 0 -0.13621980461969219 0.45775649261309698 0 -0.14083201439797821 0.46516349611765162 0 -0.1430360577347192 0.45502329805863873 0 -0.12618187852634369 0.45882241462805679 0 -0.13621980461969219 0.45775649261309698 0 -0.14083201439797821 0.46516349611765162 0 -0.12618187852634369 0.45882241462805679 0 -0.13482926781972801 0.45201676164804122 0 -0.1248743097581413 0.44162978393037222 0 -0.13482926781972801 0.45201676164804122 0 -0.13973201497409549 0.44099892737807922 0 -0.1415241139788854 0.4488412036993919 0 -0.13482926781972801 0.45201676164804122 0 -0.1415241139788854 0.4488412036993919 0 -0.1430360577347192 0.45502329805863873 0 -0.13973201497409549 0.44099892737807922 0 -0.13491063247587859 0.43073185275000708 0 -0.1248743097581413 0.44162978393037222 0 -0.13482926781972801 0.45201676164804122 0 -0.13973201497409549 0.44099892737807922 0 -0.1248743097581413 0.44162978393037222 0 -0.13973201497409549 0.44099892737807922 0 -0.14849911538699881 0.44732582771280882 0 -0.14949031039727409 0.43903968606904947 0 -0.14849911538699881 0.44732582771280882 0 -0.1430360577347192 0.45502329805863873 0 -0.15230793746503779 0.45507497120342549 0 -0.13973201497409549 0.44099892737807922 0 -0.1415241139788854 0.4488412036993919 0 -0.14849911538699881 0.44732582771280882 0 -0.1415241139788854 0.4488412036993919 0 -0.14849911538699881 0.44732582771280882 0 -0.1430360577347192 0.45502329805863873 0 -0.14849911538699881 0.44732582771280882 0 -0.15230793746503779 0.45507497120342549 0 -0.15767924869329919 0.44641741059368378 0 -0.14949031039727409 0.43903968606904947 0 -0.15767924869329919 0.44641741059368378 0 -0.15912083936695831 0.4347249498771325 0 -0.14849911538699881 0.44732582771280882 0 -0.14949031039727409 0.43903968606904947 0 -0.15767924869329919 0.44641741059368378 0 -0.14083201439797821 0.46516349611765162 0 -0.16113758629404229 0.46206475253210239 0 -0.15779819732271971 0.4695739402503486 0 -0.1410608215807003 0.47118489318428192 0 -0.14083201439797821 0.46516349611765162 0 -0.15779819732271971 0.4695739402503486 0 -0.14083201439797821 0.46516349611765162 0 -0.16113758629404229 0.46206475253210239 0 -0.14083201439797821 0.46516349611765162 0 -0.15230793746503779 0.45507497120342549 0 -0.16113758629404229 0.46206475253210239 0 -0.14083201439797821 0.46516349611765162 0 -0.1430360577347192 0.45502329805863873 0 -0.15230793746503779 0.45507497120342549 0 -0.16113758629404229 0.46206475253210239 0 -0.16940388650370539 0.44815354093755089 0 -0.18144315819010631 0.45896600894655282 0 -0.16113758629404229 0.46206475253210239 0 -0.18144315819010631 0.45896600894655282 0 -0.16113758629404229 0.46206475253210239 0 -0.17453557306473899 0.46796298731641428 0 -0.15779819732271971 0.4695739402503486 0 -0.15230793746503779 0.45507497120342549 0 -0.16113758629404229 0.46206475253210239 0 -0.16013216473902109 0.45292766881669072 0 -0.16113758629404229 0.46206475253210239 0 -0.16013216473902109 0.45292766881669072 0 -0.16940388650370539 0.44815354093755089 0 -0.15767924869329919 0.44641741059368378 0 -0.16940388650370539 0.44815354093755089 0 -0.15912083936695831 0.4347249498771325 0 -0.15230793746503779 0.45507497120342549 0 -0.16013216473902109 0.45292766881669072 0 -0.15767924869329919 0.44641741059368378 0 -0.16013216473902109 0.45292766881669072 0 -0.15767924869329919 0.44641741059368378 0 -0.16940388650370539 0.44815354093755089 0 -0.1829590266345629 0.45699162349075462 0 -0.18255950863604661 0.43173185523385532 0 -0.1829590266345629 0.45699162349075462 0 -0.19557533522393281 0.44055915781337712 0 -0.18255950863604661 0.43173185523385532 0 -0.16940388650370539 0.44815354093755089 0 -0.1829590266345629 0.45699162349075462 0 -0.18255950863604661 0.43173185523385532 0 -0.16113758629404229 0.46206475253210239 0 -0.17453557306473899 0.46796298731641428 0 -0.18144315819010631 0.45896600894655282 0 -0.17453557306473899 0.46796298731641428 0 -0.18144315819010631 0.45896600894655282 0 -0.17453557306473899 0.46796298731641428 0 -0.18311948649431831 0.46713679563994498 0 -0.16940388650370539 0.44815354093755089 0 -0.18144315819010631 0.45896600894655282 0 -0.1829590266345629 0.45699162349075462 0 -0.18144315819010631 0.45896600894655282 0 -0.1829590266345629 0.45699162349075462 0 -0.18144315819010631 0.45896600894655282 0 -0.1829865290739871 0.45873048193697258 0 -0.1829590266345629 0.45699162349075462 0 -0.18144315819010631 0.45896600894655282 0 -0.1829865290739871 0.45873048193697258 0 -0.1829865290739871 0.45873048193697258 0 -0.1829590266345629 0.45699162349075462 0 -0.17453557306473899 0.46796298731641428 0 -0.18144315819010631 0.45896600894655282 0 -0.18311948649431831 0.46713679563994498 0 -0.1829865290739871 0.45873048193697258 0 -0.18311948649431831 0.46713679563994498 0 -0.18144315819010631 0.45896600894655282 0 -0.1829865290739871 0.45873048193697258 0 -0.18311948649431831 0.46713679563994498 0 -0.18311948649431831 0.46713679563994498 0 -0.18337937489664821 0.48356839781997168 0 -0.19511197543601369 0.47606725323690458 0 -0.18311948649431831 0.46713679563994498 0 -0.18337937489664821 0.48356839781997168 0 -0.18311948649431831 0.46713679563994498 0 -0.18337937489664821 0.48356839781997168 0 -0.17485937494801759 0.47808814193434568 0 -0.17453557306473899 0.46796298731641428 0 -0.18311948649431831 0.46713679563994498 0 -0.17485937494801759 0.47808814193434568 0 -0.17453557306473899 0.46796298731641428 0 -0.15779819732271971 0.4695739402503486 0 -0.17453557306473899 0.46796298731641428 0 -0.16499414335466689 0.48039049058434952 0 -0.17453557306473899 0.46796298731641428 0 -0.16499414335466689 0.48039049058434952 0 -0.15779819732271971 0.4695739402503486 0 -0.17453557306473899 0.46796298731641428 0 -0.17485937494801759 0.47808814193434568 0 -0.16499414335466689 0.48039049058434952 0 -0.17485937494801759 0.47808814193434568 0 -0.16499414335466689 0.48039049058434952 0 -0.1699453859209171 0.49288017845899518 0 -0.1558122254133027 0.48316327461493752 0 -0.16499414335466689 0.48039049058434952 0 -0.15682389603308189 0.47748605108520858 0 -0.16499414335466689 0.48039049058434952 0 -0.15682389603308189 0.47748605108520858 0 -0.15779819732271971 0.4695739402503486 0 -0.15453849507163009 0.5 0 -0.1699453859209171 0.49288017845899518 0 -0.18363926329897839 0.49999999999999828 0 -0.15453849507163009 0.5 0 -0.15545271364459581 0.49281799385228547 0 -0.1699453859209171 0.49288017845899518 0 -0.15545271364459581 0.49281799385228547 0 -0.16499414335466689 0.48039049058434952 0 -0.1699453859209171 0.49288017845899518 0 -0.15545271364459581 0.49281799385228547 0 -0.16499414335466689 0.48039049058434952 0 -0.1558122254133027 0.48316327461493752 0 -0.15545271364459581 0.49281799385228547 0 -0.16499414335466689 0.48039049058434952 0 -0.18337937489664821 0.48356839781997168 0 -0.18363926329897839 0.49999999999999828 0 -0.18337937489664821 0.48356839781997168 0 -0.1699453859209171 0.49288017845899518 0 -0.18363926329897839 0.49999999999999828 0 -0.18337937489664821 0.48356839781997168 0 -0.17485937494801759 0.47808814193434568 0 -0.1699453859209171 0.49288017845899518 0 -0.18337937489664821 0.48356839781997168 0 -0.18363926329897839 0.49999999999999828 0 -0.19848883175809501 0.48685236178056529 0 -0.18363926329897839 0.49999999999999828 0 -0.19848883175809501 0.48685236178056529 0 -0.20708556466301639 0.5 0 -0.18311948649431831 0.46713679563994498 0 -0.19511197543601369 0.47606725323690458 0 -0.20656524953558469 0.46488016823659339 0 -0.18337937489664821 0.48356839781997168 0 -0.19848883175809501 0.48685236178056529 0 -0.19511197543601369 0.47606725323690458 0 -0.19848883175809501 0.48685236178056529 0 -0.19511197543601369 0.47606725323690458 0 -0.206747867840962 0.47700509082497228 0 -0.19511197543601369 0.47606725323690458 0 -0.206747867840962 0.47700509082497228 0 -0.20656524953558469 0.46488016823659339 0 -0.19848883175809501 0.48685236178056529 0 -0.206747867840962 0.47700509082497228 0 -0.21585796601610141 0.48648558657266339 0 -0.206747867840962 0.47700509082497228 0 -0.21852396914967101 0.47285401242330122 0 -0.20656524953558469 0.46488016823659339 0 -0.206747867840962 0.47700509082497228 0 -0.21852396914967101 0.47285401242330122 0 -0.21585796601610141 0.48648558657266339 0 -0.20708556466301639 0.5 0 -0.21585796601610141 0.48648558657266339 0 -0.23053186602705439 0.5 0 -0.19848883175809501 0.48685236178056529 0 -0.20708556466301639 0.5 0 -0.21585796601610141 0.48648558657266339 0 -0.21585796601610141 0.48648558657266339 0 -0.23053186602705439 0.5 0 -0.2373192826940049 0.48342253064983348 0 -0.21852396914967101 0.47285401242330122 0 -0.2373192826940049 0.48342253064983348 0 -0.23001101257685119 0.46262354083324181 0 -0.21852396914967101 0.47285401242330122 0 -0.21585796601610141 0.48648558657266339 0 -0.2373192826940049 0.48342253064983348 0 -0.25474868654415728 0.48692894813519849 0 -0.25315469521642581 0.4750486889203015 0 -0.2373192826940049 0.48342253064983348 0 -0.25315469521642581 0.4750486889203015 0 -0.2373192826940049 0.48342253064983348 0 -0.23001101257685119 0.46262354083324181 0 -0.25397816739109252 0.5 0 -0.23053186602705439 0.5 0 -0.2373192826940049 0.48342253064983348 0 -0.25397816739109252 0.5 0 -0.25474868654415728 0.48692894813519849 0 -0.2373192826940049 0.48342253064983348 0 -0.26330490497154813 0.43976041958731371 0 -0.24129970279445639 0.44943490890582899 0 -0.24092688658692171 0.43286849171069308 0 -0.24129970279445639 0.44943490890582899 0 -0.2242493546558077 0.44235471361969553 0 -0.24092688658692171 0.43286849171069308 0 -0.25345677561811758 0.46036691342989022 0 -0.23001101257685119 0.46262354083324181 0 -0.25345677561811758 0.46036691342989022 0 -0.24129970279445639 0.44943490890582899 0 -0.23001101257685119 0.46262354083324181 0 -0.25345677561811758 0.46036691342989022 0 -0.25315469521642581 0.4750486889203015 0 -0.23001101257685119 0.46262354083324181 0 -0.24129970279445639 0.44943490890582899 0 -0.23001101257685119 0.46262354083324181 0 -0.2242493546558077 0.44235471361969553 0 -0.23001101257685119 0.46262354083324181 0 -0.2242493546558077 0.44235471361969553 0 -0.2144914677851314 0.45380351874251162 0 -0.2242493546558077 0.44235471361969553 0 -0.20880164963731279 0.443380440886459 0 -0.2144914677851314 0.45380351874251162 0 -0.20880164963731279 0.443380440886459 0 -0.2144914677851314 0.45380351874251162 0 -0.20415969833182021 0.45549933815243238 0 -0.23001101257685119 0.46262354083324181 0 -0.2144914677851314 0.45380351874251162 0 -0.20656524953558469 0.46488016823659339 0 -0.21852396914967101 0.47285401242330122 0 -0.23001101257685119 0.46262354083324181 0 -0.20656524953558469 0.46488016823659339 0 -0.23001101257685119 0.46262354083324181 0 -0.20656524953558469 0.46488016823659339 0 -0.2144914677851314 0.45380351874251162 0 -0.20415969833182021 0.45549933815243238 0 -0.20656524953558469 0.46488016823659339 0 -0.1829865290739871 0.45873048193697258 0 -0.1829590266345629 0.45699162349075462 0 -0.20415969833182021 0.45549933815243238 0 -0.1829865290739871 0.45873048193697258 0 -0.20415969833182021 0.45549933815243238 0 -0.18311948649431831 0.46713679563994498 0 -0.20415969833182021 0.45549933815243238 0 -0.20656524953558469 0.46488016823659339 0 -0.1829865290739871 0.45873048193697258 0 -0.18311948649431831 0.46713679563994498 0 -0.20415969833182021 0.45549933815243238 0 -0.18311948649431831 0.46713679563994498 0 -0.20656524953558469 0.46488016823659339 0 -0.1829590266345629 0.45699162349075462 0 -0.19557533522393281 0.44055915781337712 0 -0.1829590266345629 0.45699162349075462 0 -0.20415969833182021 0.45549933815243238 0 -0.19557533522393281 0.44055915781337712 0 -0.20880164963731279 0.443380440886459 0 -0.20415969833182021 0.45549933815243238 0 -0.19557533522393281 0.44055915781337712 0 -0.19557533522393281 0.44055915781337712 0 -0.20819164381331129 0.42412669213600601 0 -0.19557533522393281 0.44055915781337712 0 -0.19413142888046839 0.4217351031076268 0 -0.18255950863604661 0.43173185523385532 0 -0.19557533522393281 0.44055915781337712 0 -0.19413142888046839 0.4217351031076268 0 -0.20819164381331129 0.42412669213600601 0 -0.19413142888046839 0.4217351031076268 0 -0.20819164381331129 0.42412669213600601 0 -0.2021706660915297 0.40578572337793972 0 -0.19413142888046839 0.4217351031076268 0 -0.2021706660915297 0.40578572337793972 0 -0.18215999063752189 0.40647208697695608 0 -0.20819164381331129 0.42412669213600601 0 -0.22405449890785839 0.40643558214578251 0 -0.2021706660915297 0.40578572337793972 0 -0.20880164963731279 0.443380440886459 0 -0.19557533522393281 0.44055915781337712 0 -0.20819164381331129 0.42412669213600601 0 -0.2242493546558077 0.44235471361969553 0 -0.20880164963731279 0.443380440886459 0 -0.20819164381331129 0.42412669213600601 0 -0.2242493546558077 0.44235471361969553 0 -0.20819164381331129 0.42412669213600601 0 -0.22600929792909111 0.42518400498706249 0 -0.2242493546558077 0.44235471361969553 0 -0.22600929792909111 0.42518400498706249 0 -0.24092688658692171 0.43286849171069308 0 -0.20819164381331129 0.42412669213600601 0 -0.22600929792909111 0.42518400498706249 0 -0.22405449890785839 0.40643558214578251 0 -0.22600929792909111 0.42518400498706249 0 -0.22405449890785839 0.40643558214578251 0 -0.2382988550227183 0.41778448946306668 0 -0.2572482915111563 0.42152384209731297 0 -0.2382988550227183 0.41778448946306668 0 -0.2490618870264745 0.40647588616764979 0 -0.22405449890785839 0.40643558214578251 0 -0.2382988550227183 0.41778448946306668 0 -0.2490618870264745 0.40647588616764979 0 -0.2572482915111563 0.42152384209731297 0 -0.2382988550227183 0.41778448946306668 0 -0.24092688658692171 0.43286849171069308 0 -0.22600929792909111 0.42518400498706249 0 -0.2382988550227183 0.41778448946306668 0 -0.24092688658692171 0.43286849171069308 0 -0.24000210142933509 0.37809552861286783 0 -0.23801773827758249 0.39392053259368742 0 -0.22567210936962789 0.38582584627882549 0 -0.25152819264859128 0.38883491631829081 0 -0.24000210142933509 0.37809552861286783 0 -0.23801773827758249 0.39392053259368742 0 -0.25213085833087667 0.37355178257669552 0 -0.25152819264859128 0.38883491631829081 0 -0.24000210142933509 0.37809552861286783 0 -0.25152819264859128 0.38883491631829081 0 -0.2490618870264745 0.40647588616764979 0 -0.23801773827758249 0.39392053259368742 0 -0.22405449890785839 0.40643558214578251 0 -0.2490618870264745 0.40647588616764979 0 -0.23801773827758249 0.39392053259368742 0 -0.22405449890785839 0.40643558214578251 0 -0.22567210936962789 0.38582584627882549 0 -0.2099895612515065 0.38861519238670661 0 -0.22405449890785839 0.40643558214578251 0 -0.23801773827758249 0.39392053259368742 0 -0.22567210936962789 0.38582584627882549 0 -0.22567210936962789 0.38582584627882549 0 -0.21752164111765379 0.37637519474985792 0 -0.23054114355980421 0.3681661286558337 0 -0.24000210142933509 0.37809552861286783 0 -0.22567210936962789 0.38582584627882549 0 -0.23054114355980421 0.3681661286558337 0 -0.22567210936962789 0.38582584627882549 0 -0.21752164111765379 0.37637519474985792 0 -0.2099895612515065 0.38861519238670661 0 -0.21752164111765379 0.37637519474985792 0 -0.2099895612515065 0.38861519238670661 0 -0.20825127389149589 0.37038948781896619 0 -0.2099895612515065 0.38861519238670661 0 -0.1956253707180633 0.37355818799515828 0 -0.20825127389149589 0.37038948781896619 0 -0.22405449890785839 0.40643558214578251 0 -0.2099895612515065 0.38861519238670661 0 -0.2021706660915297 0.40578572337793972 0 -0.2021706660915297 0.40578572337793972 0 -0.19434121226752371 0.39112870189136351 0 -0.18215999063752189 0.40647208697695608 0 -0.2099895612515065 0.38861519238670661 0 -0.2021706660915297 0.40578572337793972 0 -0.19434121226752371 0.39112870189136351 0 -0.2099895612515065 0.38861519238670661 0 -0.19434121226752371 0.39112870189136351 0 -0.1956253707180633 0.37355818799515828 0 -0.19434121226752371 0.39112870189136351 0 -0.18176047263899719 0.38121231872005679 0 -0.1956253707180633 0.37355818799515828 0 -0.18176047263899719 0.38121231872005679 0 -0.16585623702428451 0.39107516703040651 0 -0.16689278400863089 0.37048631692620287 0 -0.16585623702428451 0.39107516703040651 0 -0.1532541744773912 0.375434017343177 0 -0.15169756500005979 0.38990146883471011 0 -0.16585623702428451 0.39107516703040651 0 -0.1532541744773912 0.375434017343177 0 -0.16689278400863089 0.37048631692620287 0 -0.16585623702428451 0.39107516703040651 0 -0.1665369108918931 0.40914444316194981 0 -0.1556916669008335 0.40278409093046019 0 -0.16585623702428451 0.39107516703040651 0 -0.18215999063752189 0.40647208697695608 0 -0.1665369108918931 0.40914444316194981 0 -0.16585623702428451 0.39107516703040651 0 -0.15169756500005979 0.38990146883471011 0 -0.1556916669008335 0.40278409093046019 0 -0.18176047263899719 0.38121231872005679 0 -0.16585623702428451 0.39107516703040651 0 -0.18215999063752189 0.40647208697695608 0 -0.18176047263899719 0.38121231872005679 0 -0.18215999063752189 0.40647208697695608 0 -0.19434121226752371 0.39112870189136351 0 -0.18176047263899719 0.38121231872005679 0 -0.18215999063752189 0.40647208697695608 0 -0.18215999063752189 0.40647208697695608 0 -0.18255950863604661 0.43173185523385532 0 -0.18215999063752189 0.40647208697695608 0 -0.16958367679162159 0.42493542776846188 0 -0.1665369108918931 0.40914444316194981 0 -0.19413142888046839 0.4217351031076268 0 -0.18215999063752189 0.40647208697695608 0 -0.18255950863604661 0.43173185523385532 0 -0.18215999063752189 0.40647208697695608 0 -0.18255950863604661 0.43173185523385532 0 -0.16958367679162159 0.42493542776846188 0 -0.16940388650370539 0.44815354093755089 0 -0.18255950863604661 0.43173185523385532 0 -0.16958367679162159 0.42493542776846188 0 -0.16940388650370539 0.44815354093755089 0 -0.16958367679162159 0.42493542776846188 0 -0.15912083936695831 0.4347249498771325 0 -0.16958367679162159 0.42493542776846188 0 -0.15912083936695831 0.4347249498771325 0 -0.15604886632200479 0.41831593774319042 0 -0.16958367679162159 0.42493542776846188 0 -0.1665369108918931 0.40914444316194981 0 -0.15604886632200479 0.41831593774319042 0 -0.1665369108918931 0.40914444316194981 0 -0.15604886632200479 0.41831593774319042 0 -0.1556916669008335 0.40278409093046019 0 -0.15604886632200479 0.41831593774319042 0 -0.14768726638806501 0.40958107086639878 0 -0.1556916669008335 0.40278409093046019 0 -0.15604886632200479 0.41831593774319042 0 -0.1455440964649429 0.41771164433310332 0 -0.14575226394851429 0.42876386523653243 0 -0.15604886632200479 0.41831593774319042 0 -0.1455440964649429 0.41771164433310332 0 -0.14768726638806501 0.40958107086639878 0 -0.1455440964649429 0.41771164433310332 0 -0.14768726638806501 0.40958107086639878 0 -0.13820848934052041 0.41088683445876423 0 -0.15912083936695831 0.4347249498771325 0 -0.15604886632200479 0.41831593774319042 0 -0.14575226394851429 0.42876386523653243 0 -0.14949031039727409 0.43903968606904947 0 -0.15912083936695831 0.4347249498771325 0 -0.14575226394851429 0.42876386523653243 0 -0.1455440964649429 0.41771164433310332 0 -0.14575226394851429 0.42876386523653243 0 -0.13557398954387551 0.42076075412316039 0 -0.13973201497409549 0.44099892737807922 0 -0.14949031039727409 0.43903968606904947 0 -0.14575226394851429 0.42876386523653243 0 -0.13491063247587859 0.43073185275000708 0 -0.1242188050129694 0.42501783294758849 0 -0.1248743097581413 0.44162978393037222 0 -0.13973201497409549 0.44099892737807922 0 -0.14575226394851429 0.42876386523653243 0 -0.13491063247587859 0.43073185275000708 0 -0.14575226394851429 0.42876386523653243 0 -0.13491063247587859 0.43073185275000708 0 -0.13557398954387551 0.42076075412316039 0 -0.13491063247587859 0.43073185275000708 0 -0.13557398954387551 0.42076075412316039 0 -0.1242188050129694 0.42501783294758849 0 -0.13820848934052041 0.41088683445876423 0 -0.13557398954387551 0.42076075412316039 0 -0.12623023605756489 0.41143854881348008 0 -0.1455440964649429 0.41771164433310332 0 -0.13820848934052041 0.41088683445876423 0 -0.13557398954387551 0.42076075412316039 0 -0.13557398954387551 0.42076075412316039 0 -0.12623023605756489 0.41143854881348008 0 -0.1242188050129694 0.42501783294758849 0 -0.13820848934052041 0.41088683445876423 0 -0.12623023605756489 0.41143854881348008 0 -0.13398515235888339 0.40371564514020769 0 -0.12997925716256209 0.39431640422262348 0 -0.14074253368576661 0.38200722200303072 0 -0.1429432129120235 0.39820684686647628 0 -0.12623023605756489 0.41143854881348008 0 -0.13398515235888339 0.40371564514020769 0 -0.12997925716256209 0.39431640422262348 0 -0.13398515235888339 0.40371564514020769 0 -0.12997925716256209 0.39431640422262348 0 -0.1429432129120235 0.39820684686647628 0 -0.13820848934052041 0.41088683445876423 0 -0.13398515235888339 0.40371564514020769 0 -0.1429432129120235 0.39820684686647628 0 -0.12997925716256209 0.39431640422262348 0 -0.14074253368576661 0.38200722200303072 0 -0.12523428666698541 0.37069662222368049 0 -0.12997925716256209 0.39431640422262348 0 -0.12523428666698541 0.37069662222368049 0 -0.12103247972044499 0.39311621374447298 0 -0.14074253368576661 0.38200722200303072 0 -0.15169756500005979 0.38990146883471011 0 -0.1429432129120235 0.39820684686647628 0 -0.14074253368576661 0.38200722200303072 0 -0.1532541744773912 0.375434017343177 0 -0.15169756500005979 0.38990146883471011 0 -0.15169756500005979 0.38990146883471011 0 -0.1556916669008335 0.40278409093046019 0 -0.1429432129120235 0.39820684686647628 0 -0.14768726638806501 0.40958107086639878 0 -0.1556916669008335 0.40278409093046019 0 -0.1429432129120235 0.39820684686647628 0 -0.14768726638806501 0.40958107086639878 0 -0.13820848934052041 0.41088683445876423 0 -0.1429432129120235 0.39820684686647628 0 -0.14407255521749979 0.34403263722221961 0 -0.15504053286571459 0.3545366000593369 0 -0.14129669608781389 0.36249735492572199 0 -0.14407255521749979 0.34403263722221961 0 -0.15504053286571459 0.3545366000593369 0 -0.1549481930100888 0.34056708499864929 0 -0.14074253368576661 0.38200722200303072 0 -0.1532541744773912 0.375434017343177 0 -0.14129669608781389 0.36249735492572199 0 -0.1532541744773912 0.375434017343177 0 -0.15504053286571459 0.3545366000593369 0 -0.14129669608781389 0.36249735492572199 0 -0.14129669608781389 0.36249735492572199 0 -0.12523428666698541 0.37069662222368049 0 -0.1294360936135257 0.3482770307028879 0 -0.12523428666698541 0.37069662222368049 0 -0.1294360936135257 0.3482770307028879 0 -0.14074253368576661 0.38200722200303072 0 -0.14129669608781389 0.36249735492572199 0 -0.12523428666698541 0.37069662222368049 0 -0.14407255521749979 0.34403263722221961 0 -0.14129669608781389 0.36249735492572199 0 -0.1294360936135257 0.3482770307028879 0 -0.1294360936135257 0.3482770307028879 0 -0.13363790056006589 0.32585743918209531 0 -0.14407255521749979 0.34403263722221961 0 -0.1294360936135257 0.3482770307028879 0 -0.13363790056006589 0.32585743918209531 0 -0.1294360936135257 0.3482770307028879 0 -0.13363790056006589 0.32585743918209531 0 -0.1154499742120704 0.34086754873962172 0 -0.12722248981549561 0.3181430308760943 0 -0.13363790056006589 0.32585743918209531 0 -0.1360408951285694 0.3130357752318072 0 -0.12722248981549561 0.3181430308760943 0 -0.1360408951285694 0.3130357752318072 0 -0.12136448477009221 0.30951812845445109 0 -0.12722248981549561 0.3181430308760943 0 -0.13363790056006589 0.32585743918209531 0 -0.12142985306419619 0.32461006626398298 0 -0.13363790056006589 0.32585743918209531 0 -0.12142985306419619 0.32461006626398298 0 -0.13363790056006589 0.32585743918209531 0 -0.1360408951285694 0.3130357752318072 0 -0.14290423209994971 0.32095809222069871 0 -0.13363790056006589 0.32585743918209531 0 -0.1360408951285694 0.3130357752318072 0 -0.14290423209994971 0.32095809222069871 0 -0.1532404752523272 0.32269894785805692 0 -0.1464174014568787 0.29836992735667278 0 -0.13363790056006589 0.32585743918209531 0 -0.14290423209994971 0.32095809222069871 0 -0.15729966860100811 0.32827511069417059 0 -0.13363790056006589 0.32585743918209531 0 -0.15729966860100811 0.32827511069417059 0 -0.14290423209994971 0.32095809222069871 0 -0.1532404752523272 0.32269894785805692 0 -0.15729966860100811 0.32827511069417059 0 -0.1532404752523272 0.32269894785805692 0 -0.15943794807189979 0.31595908059817063 0 -0.1547819877644892 0.3091453549012102 0 -0.14407255521749979 0.34403263722221961 0 -0.13363790056006589 0.32585743918209531 0 -0.14748957934716561 0.33468306802428371 0 -0.13363790056006589 0.32585743918209531 0 -0.14748957934716561 0.33468306802428371 0 -0.15729966860100811 0.32827511069417059 0 -0.14748957934716561 0.33468306802428371 0 -0.1549481930100888 0.34056708499864929 0 -0.15729966860100811 0.32827511069417059 0 -0.14407255521749979 0.34403263722221961 0 -0.14748957934716561 0.33468306802428371 0 -0.1549481930100888 0.34056708499864929 0 -0.15729966860100811 0.32827511069417059 0 -0.18096143664194889 0.33069278220625808 0 -0.1549481930100888 0.34056708499864929 0 -0.15729966860100811 0.32827511069417059 0 -0.16781010436956259 0.34240718275037813 0 -0.15729966860100811 0.32827511069417059 0 -0.16781010436956259 0.34240718275037813 0 -0.18096143664194889 0.33069278220625808 0 -0.15729966860100811 0.32827511069417059 0 -0.17028988351433311 0.32233995817617028 0 -0.18096143664194889 0.33069278220625808 0 -0.15943794807189979 0.31595908059817063 0 -0.16495134068588049 0.31685297469802859 0 -0.1638395481514221 0.30983277085387728 0 -0.1532404752523272 0.32269894785805692 0 -0.15943794807189979 0.31595908059817063 0 -0.16037638850537991 0.32126535467967993 0 -0.15943794807189979 0.31595908059817063 0 -0.16037638850537991 0.32126535467967993 0 -0.16495134068588049 0.31685297469802859 0 -0.15729966860100811 0.32827511069417059 0 -0.16037638850537991 0.32126535467967993 0 -0.17028988351433311 0.32233995817617028 0 -0.1532404752523272 0.32269894785805692 0 -0.15729966860100811 0.32827511069417059 0 -0.16037638850537991 0.32126535467967993 0 -0.16495134068588049 0.31685297469802859 0 -0.17285953122972289 0.31090601179704258 0 -0.1638395481514221 0.30983277085387728 0 -0.17028988351433311 0.32233995817617028 0 -0.16495134068588049 0.31685297469802859 0 -0.17285953122972289 0.31090601179704258 0 -0.16037638850537991 0.32126535467967993 0 -0.17028988351433311 0.32233995817617028 0 -0.16495134068588049 0.31685297469802859 0 -0.18077272512400111 0.31876138179813301 0 -0.17285953122972289 0.31090601179704258 0 -0.17028988351433311 0.32233995817617028 0 -0.18077272512400111 0.31876138179813301 0 -0.17285953122972289 0.31090601179704258 0 -0.17028988351433311 0.32233995817617028 0 -0.18077272512400111 0.31876138179813301 0 -0.18096143664194889 0.33069278220625808 0 -0.18077272512400111 0.31876138179813301 0 -0.19386790912735871 0.33176087567547108 0 -0.18077272512400111 0.31876138179813301 0 -0.18096143664194889 0.33069278220625808 0 -0.18077272512400111 0.31876138179813301 0 -0.18096143664194889 0.33069278220625808 0 -0.19386790912735871 0.33176087567547108 0 -0.18096143664194889 0.33069278220625808 0 -0.1813609546404725 0.35595255046315749 0 -0.18096143664194889 0.33069278220625808 0 -0.1813609546404725 0.35595255046315749 0 -0.19258948339875709 0.33633707034479371 0 -0.16781010436956259 0.34240718275037813 0 -0.18096143664194889 0.33069278220625808 0 -0.1813609546404725 0.35595255046315749 0 -0.18096143664194889 0.33069278220625808 0 -0.19386790912735871 0.33176087567547108 0 -0.15504053286571459 0.3545366000593369 0 -0.16781010436956259 0.34240718275037813 0 -0.1813609546404725 0.35595255046315749 0 -0.15504053286571459 0.3545366000593369 0 -0.1549481930100888 0.34056708499864929 0 -0.16781010436956259 0.34240718275037813 0 -0.1532541744773912 0.375434017343177 0 -0.15504053286571459 0.3545366000593369 0 -0.16689278400863089 0.37048631692620287 0 -0.15504053286571459 0.3545366000593369 0 -0.1813609546404725 0.35595255046315749 0 -0.16689278400863089 0.37048631692620287 0 -0.18176047263899719 0.38121231872005679 0 -0.1813609546404725 0.35595255046315749 0 -0.18176047263899719 0.38121231872005679 0 -0.1813609546404725 0.35595255046315749 0 -0.1956253707180633 0.37355818799515828 0 -0.18176047263899719 0.38121231872005679 0 -0.1813609546404725 0.35595255046315749 0 -0.16689278400863089 0.37048631692620287 0 -0.1813609546404725 0.35595255046315749 0 -0.1956253707180633 0.37355818799515828 0 -0.2000380028121157 0.35856944723279938 0 -0.1956253707180633 0.37355818799515828 0 -0.2000380028121157 0.35856944723279938 0 -0.20825127389149589 0.37038948781896619 0 -0.1813609546404725 0.35595255046315749 0 -0.1951678646333711 0.34883535218340811 0 -0.19258948339875709 0.33633707034479371 0 -0.1813609546404725 0.35595255046315749 0 -0.1951678646333711 0.34883535218340811 0 -0.2000380028121157 0.35856944723279938 0 -0.1951678646333711 0.34883535218340811 0 -0.2000380028121157 0.35856944723279938 0 -0.20668301768213909 0.34448234069288158 0 -0.20668301768213909 0.34448234069288158 0 -0.2120127789660084 0.36084248239747968 0 -0.21921666942493959 0.3569244055809645 0 -0.2000380028121157 0.35856944723279938 0 -0.20668301768213909 0.34448234069288158 0 -0.2120127789660084 0.36084248239747968 0 -0.2120127789660084 0.36084248239747968 0 -0.21921666942493959 0.3569244055809645 0 -0.20668301768213909 0.34448234069288158 0 -0.21921666942493959 0.3569244055809645 0 -0.22158808080033929 0.34557455345049992 0 -0.20668301768213909 0.34448234069288158 0 -0.21921666942493959 0.3569244055809645 0 -0.2000380028121157 0.35856944723279938 0 -0.20825127389149589 0.37038948781896619 0 -0.2120127789660084 0.36084248239747968 0 -0.2120127789660084 0.36084248239747968 0 -0.2199937556016836 0.36693485901855288 0 -0.21921666942493959 0.3569244055809645 0 -0.20825127389149589 0.37038948781896619 0 -0.2120127789660084 0.36084248239747968 0 -0.2199937556016836 0.36693485901855288 0 -0.21752164111765379 0.37637519474985792 0 -0.20825127389149589 0.37038948781896619 0 -0.2199937556016836 0.36693485901855288 0 -0.21752164111765379 0.37637519474985792 0 -0.23054114355980421 0.3681661286558337 0 -0.2199937556016836 0.36693485901855288 0 -0.23054114355980421 0.3681661286558337 0 -0.21921666942493959 0.3569244055809645 0 -0.23305195790672301 0.35812934693154008 0 -0.23054114355980421 0.3681661286558337 0 -0.2199937556016836 0.36693485901855288 0 -0.21921666942493959 0.3569244055809645 0 -0.23054114355980421 0.3681661286558337 0 -0.21921666942493959 0.3569244055809645 0 -0.21921666942493959 0.3569244055809645 0 -0.22158808080033929 0.34557455345049992 0 -0.23915963598069589 0.34607775607121571 0 -0.21921666942493959 0.3569244055809645 0 -0.23915963598069589 0.34607775607121571 0 -0.21921666942493959 0.3569244055809645 0 -0.23305195790672301 0.35812934693154008 0 -0.23915963598069589 0.34607775607121571 0 -0.23305195790672301 0.35812934693154008 0 -0.23915963598069589 0.34607775607121571 0 -0.24329038266145239 0.36134909741814653 0 -0.25407523553642281 0.3497448278934856 0 -0.23915963598069589 0.34607775607121571 0 -0.24329038266145239 0.36134909741814653 0 -0.25213085833087667 0.37355178257669552 0 -0.24000210142933509 0.37809552861286783 0 -0.24329038266145239 0.36134909741814653 0 -0.24000210142933509 0.37809552861286783 0 -0.23054114355980421 0.3681661286558337 0 -0.24329038266145239 0.36134909741814653 0 -0.23054114355980421 0.3681661286558337 0 -0.23305195790672301 0.35812934693154008 0 -0.24329038266145239 0.36134909741814653 0 -0.23582541811145999 0.32679902143390172 0 -0.24885494741763489 0.31718848033418301 0 -0.23189508169276829 0.30076725351495531 0 -0.23582541811145999 0.32679902143390172 0 -0.24885494741763489 0.31718848033418301 0 -0.24633099797708269 0.32737693631841108 0 -0.25451497659773847 0.32559442806853028 0 -0.24885494741763489 0.31718848033418301 0 -0.24633099797708269 0.32737693631841108 0 -0.24843663428782739 0.33758714710907461 0 -0.22129300011358269 0.33481371145693772 0 -0.25451497659773847 0.32559442806853028 0 -0.24633099797708269 0.32737693631841108 0 -0.24843663428782739 0.33758714710907461 0 -0.25910260253645218 0.33523110656146687 0 -0.23915963598069589 0.34607775607121571 0 -0.23582541811145999 0.32679902143390172 0 -0.24633099797708269 0.32737693631841108 0 -0.24843663428782739 0.33758714710907461 0 -0.25910260253645218 0.33523110656146687 0 -0.23915963598069589 0.34607775607121571 0 -0.24843663428782739 0.33758714710907461 0 -0.23582541811145999 0.32679902143390172 0 -0.24843663428782739 0.33758714710907461 0 -0.22129300011358269 0.33481371145693772 0 -0.23915963598069589 0.34607775607121571 0 -0.24843663428782739 0.33758714710907461 0 -0.22129300011358269 0.33481371145693772 0 -0.22158808080033929 0.34557455345049992 0 -0.23915963598069589 0.34607775607121571 0 -0.22129300011358269 0.33481371145693772 0 -0.23582541811145999 0.32679902143390172 0 -0.21954464392232159 0.31820766509236142 0 -0.23189508169276829 0.30076725351495531 0 -0.23582541811145999 0.32679902143390172 0 -0.22129300011358269 0.33481371145693772 0 -0.21954464392232159 0.31820766509236142 0 -0.21954464392232159 0.31820766509236142 0 -0.20492818889453221 0.32276220977772679 0 -0.20060783596013981 0.3076349397264902 0 -0.22129300011358269 0.33481371145693772 0 -0.21954464392232159 0.31820766509236142 0 -0.20492818889453221 0.32276220977772679 0 -0.22129300011358269 0.33481371145693772 0 -0.20492818889453221 0.32276220977772679 0 -0.19386790912735871 0.33176087567547108 0 -0.22129300011358269 0.33481371145693772 0 -0.19386790912735871 0.33176087567547108 0 -0.20668301768213909 0.34448234069288158 0 -0.22129300011358269 0.33481371145693772 0 -0.19386790912735871 0.33176087567547108 0 -0.20668301768213909 0.34448234069288158 0 -0.22158808080033929 0.34557455345049992 0 -0.22129300011358269 0.33481371145693772 0 -0.20668301768213909 0.34448234069288158 0 -0.19386790912735871 0.33176087567547108 0 -0.19258948339875709 0.33633707034479371 0 -0.20668301768213909 0.34448234069288158 0 -0.19386790912735871 0.33176087567547108 0 -0.1951678646333711 0.34883535218340811 0 -0.20668301768213909 0.34448234069288158 0 -0.19258948339875709 0.33633707034479371 0 -0.18096143664194889 0.33069278220625808 0 -0.19386790912735871 0.33176087567547108 0 -0.19258948339875709 0.33633707034479371 0 -0.19386790912735871 0.33176087567547108 0 -0.19258948339875709 0.33633707034479371 0 -0.18077272512400111 0.31876138179813301 0 -0.19386790912735871 0.33176087567547108 0 -0.20060783596013981 0.3076349397264902 0 -0.20492818889453221 0.32276220977772679 0 -0.19386790912735871 0.33176087567547108 0 -0.20060783596013981 0.3076349397264902 0 -0.19386790912735871 0.33176087567547108 0 -0.20060783596013981 0.3076349397264902 0 -0.20060783596013981 0.3076349397264902 0 -0.20734776279292019 0.28350900377750898 0 -0.23189508169276829 0.30076725351495531 0 -0.21954464392232159 0.31820766509236142 0 -0.20060783596013981 0.3076349397264902 0 -0.23189508169276829 0.30076725351495531 0 -0.20060783596013981 0.3076349397264902 0 -0.20734776279292019 0.28350900377750898 0 -0.18034630435624241 0.29180066960649809 0 -0.20734776279292019 0.28350900377750898 0 -0.19375927737912041 0.2730469699042487 0 -0.18034630435624241 0.29180066960649809 0 -0.20060783596013981 0.3076349397264902 0 -0.20734776279292019 0.28350900377750898 0 -0.20734776279292019 0.28350900377750898 0 -0.23189508169276829 0.30076725351495531 0 -0.22396762922540969 0.27514125130055722 0 -0.23189508169276829 0.30076725351495531 0 -0.2378434694439332 0.28391349183279069 0 -0.22396762922540969 0.27514125130055722 0 -0.25673188405007052 0.28646841290673969 0 -0.23189508169276829 0.30076725351495531 0 -0.2378434694439332 0.28391349183279069 0 -0.25673188405007052 0.28646841290673969 0 -0.23189508169276829 0.30076725351495531 0 -0.25505401324638421 0.30366623925853881 0 -0.25673188405007052 0.28646841290673969 0 -0.23189508169276829 0.30076725351495531 0 -0.25505401324638421 0.30366623925853881 0 -0.24885494741763489 0.31718848033418301 0 -0.23189508169276829 0.30076725351495531 0 -0.25265925142613249 0.26128234508680298 0 -0.23885305679183191 0.2684477152547543 0 -0.23951274761537589 0.2474853768326048 0 -0.23885305679183191 0.2684477152547543 0 -0.22811192938500721 0.25829645972706228 0 -0.23951274761537589 0.2474853768326048 0 -0.25621817608628389 0.2460965770837312 0 -0.25265925142613249 0.26128234508680298 0 -0.23951274761537589 0.2474853768326048 0 -0.25673188405007052 0.28646841290673969 0 -0.2378434694439332 0.28391349183279069 0 -0.23885305679183191 0.2684477152547543 0 -0.25265925142613249 0.26128234508680298 0 -0.25673188405007052 0.28646841290673969 0 -0.23885305679183191 0.2684477152547543 0 -0.23885305679183191 0.2684477152547543 0 -0.22396762922540969 0.27514125130055722 0 -0.22811192938500721 0.25829645972706228 0 -0.2378434694439332 0.28391349183279069 0 -0.23885305679183191 0.2684477152547543 0 -0.22396762922540969 0.27514125130055722 0 -0.22811192938500721 0.25829645972706228 0 -0.22371849106378741 0.2462845034026982 0 -0.23951274761537589 0.2474853768326048 0 -0.22396762922540969 0.27514125130055722 0 -0.22811192938500721 0.25829645972706228 0 -0.21408768962570049 0.25938306782852782 0 -0.22811192938500721 0.25829645972706228 0 -0.21408768962570049 0.25938306782852782 0 -0.22371849106378741 0.2462845034026982 0 -0.21408768962570049 0.25938306782852782 0 -0.19928355658839081 0.25766712263582692 0 -0.2066863838603582 0.24242880758937649 0 -0.21408768962570049 0.25938306782852782 0 -0.20163280817849061 0.26608937016207479 0 -0.19928355658839081 0.25766712263582692 0 -0.20734776279292019 0.28350900377750898 0 -0.21408768962570049 0.25938306782852782 0 -0.20734776279292019 0.28350900377750898 0 -0.22396762922540969 0.27514125130055722 0 -0.21408768962570049 0.25938306782852782 0 -0.20734776279292019 0.28350900377750898 0 -0.21408768962570049 0.25938306782852782 0 -0.20163280817849061 0.26608937016207479 0 -0.20734776279292019 0.28350900377750898 0 -0.20163280817849061 0.26608937016207479 0 -0.19375927737912041 0.2730469699042487 0 -0.20163280817849061 0.26608937016207479 0 -0.19375927737912041 0.2730469699042487 0 -0.19160269433399771 0.26436194023610149 0 -0.19375927737912041 0.2730469699042487 0 -0.19160269433399771 0.26436194023610149 0 -0.17991988358848049 0.26483995741486333 0 -0.19928355658839081 0.25766712263582692 0 -0.18259587964237009 0.2606558300825601 0 -0.2066863838603582 0.24242880758937649 0 -0.18259587964237009 0.2606558300825601 0 -0.19333963139412971 0.24385714112684301 0 -0.19928355658839081 0.25766712263582692 0 -0.19160269433399771 0.26436194023610149 0 -0.18259587964237009 0.2606558300825601 0 -0.18259587964237009 0.2606558300825601 0 -0.2066863838603582 0.24242880758937649 0 -0.20163280817849061 0.26608937016207479 0 -0.19928355658839081 0.25766712263582692 0 -0.19160269433399771 0.26436194023610149 0 -0.17991988358848049 0.26483995741486333 0 -0.17951502337729761 0.2392424245160312 0 -0.17991988358848049 0.26483995741486333 0 -0.17042143569771079 0.26099360542817968 0 -0.17951502337729761 0.2392424245160312 0 -0.18259587964237009 0.2606558300825601 0 -0.17991988358848049 0.26483995741486333 0 -0.17951502337729761 0.2392424245160312 0 -0.19160269433399771 0.26436194023610149 0 -0.18259587964237009 0.2606558300825601 0 -0.17991988358848049 0.26483995741486333 0 -0.18259587964237009 0.2606558300825601 0 -0.17991988358848049 0.26483995741486333 0 -0.17991988358848049 0.26483995741486333 0 -0.17042143569771079 0.26099360542817968 0 -0.17716480609589361 0.26914773470870201 0 -0.17042143569771079 0.26099360542817968 0 -0.1627301728603629 0.26968240911070368 0 -0.1532221513837192 0.25419418888983192 0 -0.17042143569771079 0.26099360542817968 0 -0.1532221513837192 0.25419418888983192 0 -0.17951502337729761 0.2392424245160312 0 -0.1627301728603629 0.26968240911070368 0 -0.1620479085915319 0.28265904931380531 0 -0.15271877240598841 0.27446820953958367 0 -0.17042143569771079 0.26099360542817968 0 -0.1627301728603629 0.26968240911070368 0 -0.1699765768805111 0.26885491792894611 0 -0.1627301728603629 0.26968240911070368 0 -0.1699765768805111 0.26885491792894611 0 -0.16860704672851359 0.27535934789532951 0 -0.1627301728603629 0.26968240911070368 0 -0.16860704672851359 0.27535934789532951 0 -0.1620479085915319 0.28265904931380531 0 -0.16860704672851359 0.27535934789532951 0 -0.17077339862397739 0.28423195702734899 0 -0.1620479085915319 0.28265904931380531 0 -0.17991988358848049 0.26483995741486333 0 -0.18034630435624241 0.29180066960649809 0 -0.17991988358848049 0.26483995741486333 0 -0.17716480609589361 0.26914773470870201 0 -0.18034630435624241 0.29180066960649809 0 -0.16860704672851359 0.27535934789532951 0 -0.17716480609589361 0.26914773470870201 0 -0.17077339862397739 0.28423195702734899 0 -0.19375927737912041 0.2730469699042487 0 -0.17991988358848049 0.26483995741486333 0 -0.18034630435624241 0.29180066960649809 0 -0.17042143569771079 0.26099360542817968 0 -0.1699765768805111 0.26885491792894611 0 -0.17716480609589361 0.26914773470870201 0 -0.1699765768805111 0.26885491792894611 0 -0.16860704672851359 0.27535934789532951 0 -0.17716480609589361 0.26914773470870201 0 -0.17991988358848049 0.26483995741486333 0 -0.17716480609589361 0.26914773470870201 0 -0.17716480609589361 0.26914773470870201 0 -0.18034630435624241 0.29180066960649809 0 -0.17077339862397739 0.28423195702734899 0 -0.18034630435624241 0.29180066960649809 0 -0.16501618616712291 0.29775164083812761 0 -0.17077339862397739 0.28423195702734899 0 -0.18077272512400111 0.31876138179813301 0 -0.18034630435624241 0.29180066960649809 0 -0.18077272512400111 0.31876138179813301 0 -0.18034630435624241 0.29180066960649809 0 -0.17285953122972289 0.31090601179704258 0 -0.18034630435624241 0.29180066960649809 0 -0.17285953122972289 0.31090601179704258 0 -0.16501618616712291 0.29775164083812761 0 -0.18077272512400111 0.31876138179813301 0 -0.20060783596013981 0.3076349397264902 0 -0.18034630435624241 0.29180066960649809 0 -0.16501618616712291 0.29775164083812761 0 -0.15329008091572741 0.28945008379417048 0 -0.1547819877644892 0.3091453549012102 0 -0.17285953122972289 0.31090601179704258 0 -0.16501618616712291 0.29775164083812761 0 -0.1638395481514221 0.30983277085387728 0 -0.16501618616712291 0.29775164083812761 0 -0.1638395481514221 0.30983277085387728 0 -0.1547819877644892 0.3091453549012102 0 -0.15943794807189979 0.31595908059817063 0 -0.1638395481514221 0.30983277085387728 0 -0.1547819877644892 0.3091453549012102 0 -0.16501618616712291 0.29775164083812761 0 -0.17077339862397739 0.28423195702734899 0 -0.1620479085915319 0.28265904931380531 0 -0.16501618616712291 0.29775164083812761 0 -0.1620479085915319 0.28265904931380531 0 -0.15329008091572741 0.28945008379417048 0 -0.1464174014568787 0.29836992735667278 0 -0.13959432766143021 0.2740409068552887 0 -0.1620479085915319 0.28265904931380531 0 -0.15329008091572741 0.28945008379417048 0 -0.15271877240598841 0.27446820953958367 0 -0.15329008091572741 0.28945008379417048 0 -0.1464174014568787 0.29836992735667278 0 -0.13959432766143021 0.2740409068552887 0 -0.15329008091572741 0.28945008379417048 0 -0.1464174014568787 0.29836992735667278 0 -0.1547819877644892 0.3091453549012102 0 -0.1532404752523272 0.32269894785805692 0 -0.1464174014568787 0.29836992735667278 0 -0.1360408951285694 0.3130357752318072 0 -0.14290423209994971 0.32095809222069871 0 -0.1464174014568787 0.29836992735667278 0 -0.1532404752523272 0.32269894785805692 0 -0.1464174014568787 0.29836992735667278 0 -0.1547819877644892 0.3091453549012102 0 -0.1360408951285694 0.3130357752318072 0 -0.1264253840414637 0.29528772621663357 0 -0.12136448477009221 0.30951812845445109 0 -0.1360408951285694 0.3130357752318072 0 -0.1464174014568787 0.29836992735667278 0 -0.1264253840414637 0.29528772621663357 0 -0.1464174014568787 0.29836992735667278 0 -0.1264253840414637 0.29528772621663357 0 -0.13959432766143021 0.2740409068552887 0 -0.1264253840414637 0.29528772621663357 0 -0.13959432766143021 0.2740409068552887 0 -0.1185373796182298 0.27837978510360878 0 -0.13959432766143021 0.2740409068552887 0 -0.1327712538659816 0.24971188635390451 0 -0.13959432766143021 0.2740409068552887 0 -0.116744543106582 0.25728181003509248 0 -0.1327712538659816 0.24971188635390451 0 -0.13959432766143021 0.2740409068552887 0 -0.1532221513837192 0.25419418888983192 0 -0.1327712538659816 0.24971188635390451 0 -0.1627301728603629 0.26968240911070368 0 -0.1532221513837192 0.25419418888983192 0 -0.15271877240598841 0.27446820953958367 0 -0.13959432766143021 0.2740409068552887 0 -0.1532221513837192 0.25419418888983192 0 -0.15271877240598841 0.27446820953958367 0 -0.15329008091572741 0.28945008379417048 0 -0.13959432766143021 0.2740409068552887 0 -0.15271877240598841 0.27446820953958367 0 -0.1061606963602142 0.26761343855331338 0 -0.1001789302111205 0.27974269320078388 0 -0.1185373796182298 0.27837978510360878 0 -0.1061606963602142 0.26761343855331338 0 -0.1001789302111205 0.27974269320078388 0 -0.092613028744971265 0.26767711662392979 0 -0.1061606963602142 0.26761343855331338 0 -0.10005120432924321 0.25626016583208688 0 -0.116744543106582 0.25728181003509248 0 -0.1061606963602142 0.26761343855331338 0 -0.10005120432924321 0.25626016583208688 0 -0.092613028744971265 0.26767711662392979 0 -0.10005120432924321 0.25626016583208688 0 -0.116744543106582 0.25728181003509248 0 -0.1045487088169635 0.24438495162540061 0 -0.13959432766143021 0.2740409068552887 0 -0.116744543106582 0.25728181003509248 0 -0.1185373796182298 0.27837978510360878 0 -0.1061606963602142 0.26761343855331338 0 -0.116744543106582 0.25728181003509248 0 -0.1185373796182298 0.27837978510360878 0 -0.1264253840414637 0.29528772621663357 0 -0.1127724140037699 0.30190213115774378 0 -0.1091517300735869 0.29135078386346752 0 -0.1264253840414637 0.29528772621663357 0 -0.1185373796182298 0.27837978510360878 0 -0.1091517300735869 0.29135078386346752 0 -0.1264253840414637 0.29528772621663357 0 -0.12136448477009221 0.30951812845445109 0 -0.1127724140037699 0.30190213115774378 0 -0.12136448477009221 0.30951812845445109 0 -0.1127724140037699 0.30190213115774378 0 -0.1061991548417472 0.31213959050036899 0 -0.1127724140037699 0.30190213115774378 0 -0.1061991548417472 0.31213959050036899 0 -0.1005146973405663 0.30141191014932889 0 -0.1127724140037699 0.30190213115774378 0 -0.1005146973405663 0.30141191014932889 0 -0.1091517300735869 0.29135078386346752 0 -0.1005146973405663 0.30141191014932889 0 -0.094430836728355921 0.29177030977787999 0 -0.089068024122243669 0.30112896568664949 0 -0.1061991548417472 0.31213959050036899 0 -0.1005146973405663 0.30141191014932889 0 -0.090928135519314904 0.31087631578889069 0 -0.1001789302111205 0.27974269320078388 0 -0.1185373796182298 0.27837978510360878 0 -0.1091517300735869 0.29135078386346752 0 -0.1005146973405663 0.30141191014932889 0 -0.1091517300735869 0.29135078386346752 0 -0.094430836728355921 0.29177030977787999 0 -0.1001789302111205 0.27974269320078388 0 -0.1091517300735869 0.29135078386346752 0 -0.094430836728355921 0.29177030977787999 0 -0.1001789302111205 0.27974269320078388 0 -0.094430836728355921 0.29177030977787999 0 -0.086145563619835275 0.2816538088019015 0 -0.094430836728355921 0.29177030977787999 0 -0.086145563619835275 0.2816538088019015 0 -0.081526075002782958 0.29533369696514911 0 -0.094430836728355921 0.29177030977787999 0 -0.081526075002782958 0.29533369696514911 0 -0.089068024122243669 0.30112896568664949 0 -0.086145563619835275 0.2816538088019015 0 -0.081526075002782958 0.29533369696514911 0 -0.070830210313899522 0.29195808219782299 0 -0.090928135519314904 0.31087631578889069 0 -0.079482369404140468 0.30560554845979909 0 -0.074915307566508993 0.31649039264194578 0 -0.090928135519314904 0.31087631578889069 0 -0.089068024122243669 0.30112896568664949 0 -0.079482369404140468 0.30560554845979909 0 -0.1005146973405663 0.30141191014932889 0 -0.090928135519314904 0.31087631578889069 0 -0.089068024122243669 0.30112896568664949 0 -0.081526075002782958 0.29533369696514911 0 -0.089068024122243669 0.30112896568664949 0 -0.079482369404140468 0.30560554845979909 0 -0.054647974243728172 0.30430181459310768 0 -0.074915307566508993 0.31649039264194578 0 -0.079482369404140468 0.30560554845979909 0 -0.068661557073843291 0.3005821027458685 0 -0.074915307566508993 0.31649039264194578 0 -0.068661557073843291 0.3005821027458685 0 -0.054647974243728172 0.30430181459310768 0 -0.074915307566508993 0.31649039264194578 0 -0.081526075002782958 0.29533369696514911 0 -0.079482369404140468 0.30560554845979909 0 -0.068661557073843291 0.3005821027458685 0 -0.070830210313899522 0.29195808219782299 0 -0.067453711470644842 0.27023673344429472 0 -0.052574645638654917 0.28480468584225688 0 -0.081526075002782958 0.29533369696514911 0 -0.068661557073843291 0.3005821027458685 0 -0.070830210313899522 0.29195808219782299 0 -0.068661557073843291 0.3005821027458685 0 -0.070830210313899522 0.29195808219782299 0 -0.068661557073843291 0.3005821027458685 0 -0.070830210313899522 0.29195808219782299 0 -0.059610011597539182 0.29372125904316332 0 -0.086145563619835275 0.2816538088019015 0 -0.070830210313899522 0.29195808219782299 0 -0.077256670317037021 0.26667642926106078 0 -0.070830210313899522 0.29195808219782299 0 -0.067453711470644842 0.27023673344429472 0 -0.070830210313899522 0.29195808219782299 0 -0.077256670317037021 0.26667642926106078 0 -0.070830210313899522 0.29195808219782299 0 -0.067453711470644842 0.27023673344429472 0 -0.077256670317037021 0.26667642926106078 0 -0.086145563619835275 0.2816538088019015 0 -0.077256670317037021 0.26667642926106078 0 -0.092613028744971265 0.26767711662392979 0 -0.1001789302111205 0.27974269320078388 0 -0.086145563619835275 0.2816538088019015 0 -0.092613028744971265 0.26767711662392979 0 -0.077256670317037021 0.26667642926106078 0 -0.086302411784292182 0.25447467192259482 0 -0.083666647235009842 0.24139059785004849 0 -0.077256670317037021 0.26667642926106078 0 -0.083666647235009842 0.24139059785004849 0 -0.10005120432924321 0.25626016583208688 0 -0.086302411784292182 0.25447467192259482 0 -0.094679029848152713 0.24609146959404629 0 -0.10005120432924321 0.25626016583208688 0 -0.092613028744971265 0.26767711662392979 0 -0.086302411784292182 0.25447467192259482 0 -0.077256670317037021 0.26667642926106078 0 -0.092613028744971265 0.26767711662392979 0 -0.086302411784292182 0.25447467192259482 0 -0.077256670317037021 0.26667642926106078 0 -0.064077212627390134 0.24851538469076631 0 -0.083666647235009842 0.24139059785004849 0 -0.067453711470644842 0.27023673344429472 0 -0.077256670317037021 0.26667642926106078 0 -0.064077212627390134 0.24851538469076631 0 -0.067453711470644842 0.27023673344429472 0 -0.064077212627390134 0.24851538469076631 0 -0.067453711470644842 0.27023673344429472 0 -0.04634179854296408 0.26632715615711849 0 -0.064077212627390134 0.24851538469076631 0 -0.04634179854296408 0.26632715615711849 0 -0.064077212627390134 0.24851538469076631 0 -0.046578861792199937 0.24361118962503389 0 -0.067453711470644842 0.27023673344429472 0 -0.04634179854296408 0.26632715615711849 0 -0.052574645638654917 0.28480468584225688 0 -0.04634179854296408 0.26632715615711849 0 -0.034380640920947357 0.29211323654426968 0 -0.052574645638654917 0.28480468584225688 0 -0.04634179854296408 0.26632715615711849 0 -0.022607631921228569 0.27169805167723737 0 -0.034380640920947357 0.29211323654426968 0 -0.04634179854296408 0.26632715615711849 0 -0.03068766995985707 0.25286978792993342 0 -0.022607631921228569 0.27169805167723737 0 -0.04634179854296408 0.26632715615711849 0 -0.03068766995985707 0.25286978792993342 0 -0.046578861792199937 0.24361118962503389 0 -0.03068766995985707 0.25286978792993342 0 -0.022607631921228569 0.27169805167723737 0 -0.0098044441781452579 0.25473951632571468 0 -0.022607631921228569 0.27169805167723737 0 -0.015153941911089409 0.29208252597919021 0 3.3590645499582607e-05 0.27236849017123349 0 -0.022607631921228569 0.27169805167723737 0 -0.0098044441781452579 0.25473951632571468 0 3.3590645499582607e-05 0.27236849017123349 0 -0.0098044441781452579 0.25473951632571468 0 0.0073806355134042019 0.25529449578482938 0 3.3590645499582607e-05 0.27236849017123349 0 -0.0088759444352828343 0.31092800175718183 0 -0.015153941911089409 0.29208252597919021 0 0.0083336089875100904 0.29343585490586271 0 -0.015153941911089409 0.29208252597919021 0 0.0083336089875100904 0.29343585490586271 0 3.3590645499582607e-05 0.27236849017123349 0 -0.022607631921228569 0.27169805167723737 0 -0.015153941911089409 0.29208252597919021 0 -0.034380640920947357 0.29211323654426968 0 -0.0088759444352828343 0.31092800175718183 0 -0.015153941911089409 0.29208252597919021 0 -0.03508050583840458 0.3127012881250415 0 -0.015153941911089409 0.29208252597919021 0 -0.034380640920947357 0.29211323654426968 0 -0.03508050583840458 0.3127012881250415 0 -0.034380640920947357 0.29211323654426968 0 -0.054647974243728172 0.30430181459310768 0 -0.034380640920947357 0.29211323654426968 0 -0.054647974243728172 0.30430181459310768 0 -0.03508050583840458 0.3127012881250415 0 -0.034380640920947357 0.29211323654426968 0 -0.052574645638654917 0.28480468584225688 0 -0.054647974243728172 0.30430181459310768 0 -0.052574645638654917 0.28480468584225688 0 -0.059610011597539182 0.29372125904316332 0 -0.054647974243728172 0.30430181459310768 0 -0.070830210313899522 0.29195808219782299 0 -0.052574645638654917 0.28480468584225688 0 -0.059610011597539182 0.29372125904316332 0 -0.068661557073843291 0.3005821027458685 0 -0.059610011597539182 0.29372125904316332 0 -0.054647974243728172 0.30430181459310768 0 -0.058679851530075752 0.32054224196392622 0 -0.045885169747561752 0.33132665820789581 0 -0.073191842414501496 0.33174208285196288 0 -0.054647974243728172 0.30430181459310768 0 -0.058679851530075752 0.32054224196392622 0 -0.03508050583840458 0.3127012881250415 0 -0.045885169747561752 0.33132665820789581 0 -0.067541502003893042 0.3482616942848048 0 -0.073191842414501496 0.33174208285196288 0 -0.045885169747561752 0.33132665820789581 0 -0.073191842414501496 0.33174208285196288 0 -0.045885169747561752 0.33132665820789581 0 -0.018578497080621779 0.33091123356382868 0 -0.045885169747561752 0.33132665820789581 0 -0.03508050583840458 0.3127012881250415 0 -0.018578497080621779 0.33091123356382868 0 -0.058679851530075752 0.32054224196392622 0 -0.045885169747561752 0.33132665820789581 0 -0.03508050583840458 0.3127012881250415 0 -0.0088759444352828343 0.31092800175718183 0 -0.03508050583840458 0.3127012881250415 0 -0.018578497080621779 0.33091123356382868 0 -0.018578497080621779 0.33091123356382868 0 -0.0050552824635438226 0.34569829691311771 0 -0.02749858990914332 0.35301881799134821 0 -0.045885169747561752 0.33132665820789581 0 -0.018578497080621779 0.33091123356382868 0 -0.02749858990914332 0.35301881799134821 0 -0.018578497080621779 0.33091123356382868 0 -0.0050552824635438226 0.34569829691311771 0 0.0064742168078369342 0.3347740657525386 0 -0.018578497080621779 0.33091123356382868 0 0.0087281755863181168 0.33049580891976171 0 -0.018578497080621779 0.33091123356382868 0 0.0064742168078369342 0.3347740657525386 0 0.0087281755863181168 0.33049580891976171 0 -0.018578497080621779 0.33091123356382868 0 -0.003280447873963227 0.32161399115684158 0 0.0087281755863181168 0.33049580891976171 0 -0.0088759444352828343 0.31092800175718183 0 -0.018578497080621779 0.33091123356382868 0 -0.003280447873963227 0.32161399115684158 0 -0.0088759444352828343 0.31092800175718183 0 -0.003280447873963227 0.32161399115684158 0 0.0056044744337335906 0.31412092038659428 0 -0.0052616759920083916 0.36132776784546622 0 -0.0045342830833226501 0.3863935686212247 0 -0.0052616759920083916 0.36132776784546622 0 -0.024169526760701381 0.37267007813580277 0 -0.0045342830833226501 0.3863935686212247 0 -0.0052616759920083916 0.36132776784546622 0 -0.0045342830833226501 0.3863935686212247 0 0.0079023355216259559 0.37348921158265391 0 -0.0052616759920083916 0.36132776784546622 0 -0.0050552824635438226 0.34569829691311771 0 0.0061318462344260851 0.35417601161121459 0 -0.0052616759920083916 0.36132776784546622 0 -0.0050552824635438226 0.34569829691311771 0 -0.02749858990914332 0.35301881799134821 0 -0.02749858990914332 0.35301881799134821 0 -0.024169526760701381 0.37267007813580277 0 -0.04149310004589906 0.37124785083274592 0 -0.0052616759920083916 0.36132776784546622 0 -0.02749858990914332 0.35301881799134821 0 -0.024169526760701381 0.37267007813580277 0 -0.02749858990914332 0.35301881799134821 0 -0.04149310004589906 0.37124785083274592 0 -0.051818441616049399 0.35735321764765782 0 -0.045885169747561752 0.33132665820789581 0 -0.02749858990914332 0.35301881799134821 0 -0.051818441616049399 0.35735321764765782 0 -0.045885169747561752 0.33132665820789581 0 -0.051818441616049399 0.35735321764765782 0 -0.067541502003893042 0.3482616942848048 0 -0.04149310004589906 0.37124785083274592 0 -0.051818441616049399 0.35735321764765782 0 -0.056875823715872062 0.37631267096962301 0 -0.051818441616049399 0.35735321764765782 0 -0.069616273344600341 0.3650636543096733 0 -0.056875823715872062 0.37631267096962301 0 -0.069616273344600341 0.3650636543096733 0 -0.085055645225370236 0.37193713089684588 0 -0.071788917171084016 0.3809272333041443 0 -0.069616273344600341 0.3650636543096733 0 -0.071788917171084016 0.3809272333041443 0 -0.056875823715872062 0.37631267096962301 0 -0.069616273344600341 0.3650636543096733 0 -0.085055645225370236 0.37193713089684588 0 -0.084100884505446297 0.3554636863979832 0 -0.085055645225370236 0.37193713089684588 0 -0.084100884505446297 0.3554636863979832 0 -0.1008292236537022 0.36036332390371462 0 -0.084100884505446297 0.3554636863979832 0 -0.067541502003893042 0.3482616942848048 0 -0.085709514220790303 0.34113927750747819 0 -0.084100884505446297 0.3554636863979832 0 -0.085709514220790303 0.34113927750747819 0 -0.099722393067727538 0.34687368244968458 0 -0.069616273344600341 0.3650636543096733 0 -0.084100884505446297 0.3554636863979832 0 -0.067541502003893042 0.3482616942848048 0 -0.051818441616049399 0.35735321764765782 0 -0.069616273344600341 0.3650636543096733 0 -0.067541502003893042 0.3482616942848048 0 -0.067541502003893042 0.3482616942848048 0 -0.073191842414501496 0.33174208285196288 0 -0.085709514220790303 0.34113927750747819 0 -0.058679851530075752 0.32054224196392622 0 -0.073191842414501496 0.33174208285196288 0 -0.074915307566508993 0.31649039264194578 0 -0.054647974243728172 0.30430181459310768 0 -0.058679851530075752 0.32054224196392622 0 -0.074915307566508993 0.31649039264194578 0 -0.073191842414501496 0.33174208285196288 0 -0.074915307566508993 0.31649039264194578 0 -0.095182640889289766 0.32867897069078372 0 -0.090928135519314904 0.31087631578889069 0 -0.074915307566508993 0.31649039264194578 0 -0.095182640889289766 0.32867897069078372 0 -0.074915307566508993 0.31649039264194578 0 -0.095182640889289766 0.32867897069078372 0 -0.073191842414501496 0.33174208285196288 0 -0.085709514220790303 0.34113927750747819 0 -0.095182640889289766 0.32867897069078372 0 -0.085709514220790303 0.34113927750747819 0 -0.095182640889289766 0.32867897069078372 0 -0.099722393067727538 0.34687368244968458 0 -0.095182640889289766 0.32867897069078372 0 -0.1154499742120704 0.34086754873962172 0 -0.095182640889289766 0.32867897069078372 0 -0.1098512680755149 0.32470257897991811 0 -0.1154499742120704 0.34086754873962172 0 -0.095182640889289766 0.32867897069078372 0 -0.1154499742120704 0.34086754873962172 0 -0.099722393067727538 0.34687368244968458 0 -0.1061991548417472 0.31213959050036899 0 -0.090928135519314904 0.31087631578889069 0 -0.095182640889289766 0.32867897069078372 0 -0.1061991548417472 0.31213959050036899 0 -0.095182640889289766 0.32867897069078372 0 -0.1098512680755149 0.32470257897991811 0 -0.1061991548417472 0.31213959050036899 0 -0.115330384384618 0.31728312261503783 0 -0.1098512680755149 0.32470257897991811 0 -0.12136448477009221 0.30951812845445109 0 -0.1061991548417472 0.31213959050036899 0 -0.115330384384618 0.31728312261503783 0 -0.115330384384618 0.31728312261503783 0 -0.1098512680755149 0.32470257897991811 0 -0.12142985306419619 0.32461006626398298 0 -0.12722248981549561 0.3181430308760943 0 -0.115330384384618 0.31728312261503783 0 -0.12142985306419619 0.32461006626398298 0 -0.12722248981549561 0.3181430308760943 0 -0.12136448477009221 0.30951812845445109 0 -0.115330384384618 0.31728312261503783 0 -0.1098512680755149 0.32470257897991811 0 -0.12142985306419619 0.32461006626398298 0 -0.1154499742120704 0.34086754873962172 0 -0.13363790056006589 0.32585743918209531 0 -0.12142985306419619 0.32461006626398298 0 -0.1154499742120704 0.34086754873962172 0 -0.12523428666698541 0.37069662222368049 0 -0.1294360936135257 0.3482770307028879 0 -0.1154159689866658 0.35521970897278921 0 -0.1154499742120704 0.34086754873962172 0 -0.1154159689866658 0.35521970897278921 0 -0.099722393067727538 0.34687368244968458 0 -0.1294360936135257 0.3482770307028879 0 -0.1154499742120704 0.34086754873962172 0 -0.1154159689866658 0.35521970897278921 0 -0.12523428666698541 0.37069662222368049 0 -0.1154159689866658 0.35521970897278921 0 -0.11117961403065831 0.36839673047223442 0 -0.12523428666698541 0.37069662222368049 0 -0.11117961403065831 0.36839673047223442 0 -0.1123930043347208 0.38073562172137532 0 -0.11117961403065831 0.36839673047223442 0 -0.1008292236537022 0.36036332390371462 0 -0.09970079949094271 0.37763208900548878 0 -0.1154159689866658 0.35521970897278921 0 -0.11117961403065831 0.36839673047223442 0 -0.1008292236537022 0.36036332390371462 0 -0.085055645225370236 0.37193713089684588 0 -0.1008292236537022 0.36036332390371462 0 -0.09970079949094271 0.37763208900548878 0 -0.084100884505446297 0.3554636863979832 0 -0.1008292236537022 0.36036332390371462 0 -0.099722393067727538 0.34687368244968458 0 -0.1154159689866658 0.35521970897278921 0 -0.1008292236537022 0.36036332390371462 0 -0.099722393067727538 0.34687368244968458 0 -0.1036554482544351 0.39516830989393792 0 -0.1102807352191843 0.41378788895710661 0 -0.09259379641793411 0.40948313349934218 0 -0.1036554482544351 0.39516830989393792 0 -0.09970079949094271 0.37763208900548878 0 -0.1123930043347208 0.38073562172137532 0 -0.1036554482544351 0.39516830989393792 0 -0.09970079949094271 0.37763208900548878 0 -0.084297773186445962 0.39217279846007119 0 -0.11117961403065831 0.36839673047223442 0 -0.09970079949094271 0.37763208900548878 0 -0.1123930043347208 0.38073562172137532 0 -0.12523428666698541 0.37069662222368049 0 -0.1123930043347208 0.38073562172137532 0 -0.12103247972044499 0.39311621374447298 0 -0.1036554482544351 0.39516830989393792 0 -0.1123930043347208 0.38073562172137532 0 -0.12103247972044499 0.39311621374447298 0 -0.12523428666698541 0.37069662222368049 0 -0.12103247972044499 0.39311621374447298 0 -0.1036554482544351 0.39516830989393792 0 -0.12103247972044499 0.39311621374447298 0 -0.1102807352191843 0.41378788895710661 0 -0.12997925716256209 0.39431640422262348 0 -0.1102807352191843 0.41378788895710661 0 -0.12997925716256209 0.39431640422262348 0 -0.12103247972044499 0.39311621374447298 0 -0.1102807352191843 0.41378788895710661 0 -0.12623023605756489 0.41143854881348008 0 -0.1102807352191843 0.41378788895710661 0 -0.1242188050129694 0.42501783294758849 0 -0.12623023605756489 0.41143854881348008 0 -0.12997925716256209 0.39431640422262348 0 -0.1102807352191843 0.41378788895710661 0 -0.1102807352191843 0.41378788895710661 0 -0.1104760497445479 0.43296770510105842 0 -0.1242188050129694 0.42501783294758849 0 -0.1104760497445479 0.43296770510105842 0 -0.1242188050129694 0.42501783294758849 0 -0.1248743097581413 0.44162978393037222 0 -0.1102807352191843 0.41378788895710661 0 -0.090582213275806372 0.43325937369158968 0 -0.1102807352191843 0.41378788895710661 0 -0.1104760497445479 0.43296770510105842 0 -0.090582213275806372 0.43325937369158968 0 -0.1102807352191843 0.41378788895710661 0 -0.09259379641793411 0.40948313349934218 0 -0.090582213275806372 0.43325937369158968 0 -0.09259379641793411 0.40948313349934218 0 -0.090582213275806372 0.43325937369158968 0 -0.074152812153798875 0.41302729649400538 0 -0.090582213275806372 0.43325937369158968 0 -0.066022972602334681 0.42956105407568013 0 -0.074152812153798875 0.41302729649400538 0 -0.066022972602334681 0.42956105407568013 0 -0.074152812153798875 0.41302729649400538 0 -0.049329429094603867 0.41198700835812702 0 -0.074152812153798875 0.41302729649400538 0 -0.063154715464804681 0.39516467689365731 0 -0.084297773186445962 0.39217279846007119 0 -0.09259379641793411 0.40948313349934218 0 -0.074152812153798875 0.41302729649400538 0 -0.084297773186445962 0.39217279846007119 0 -0.1036554482544351 0.39516830989393792 0 -0.09259379641793411 0.40948313349934218 0 -0.084297773186445962 0.39217279846007119 0 -0.085055645225370236 0.37193713089684588 0 -0.09970079949094271 0.37763208900548878 0 -0.084297773186445962 0.39217279846007119 0 -0.085055645225370236 0.37193713089684588 0 -0.084297773186445962 0.39217279846007119 0 -0.071788917171084016 0.3809272333041443 0 -0.063154715464804681 0.39516467689365731 0 -0.084297773186445962 0.39217279846007119 0 -0.071788917171084016 0.3809272333041443 0 -0.063154715464804681 0.39516467689365731 0 -0.071788917171084016 0.3809272333041443 0 -0.056875823715872062 0.37631267096962301 0 -0.04149310004589906 0.37124785083274592 0 -0.056875823715872062 0.37631267096962301 0 -0.04338349465279491 0.38811939282985902 0 -0.063154715464804681 0.39516467689365731 0 -0.056875823715872062 0.37631267096962301 0 -0.04338349465279491 0.38811939282985902 0 -0.063154715464804681 0.39516467689365731 0 -0.04338349465279491 0.38811939282985902 0 -0.049329429094603867 0.41198700835812702 0 -0.04338349465279491 0.38811939282985902 0 -0.024844401122877391 0.39948633252540261 0 -0.049329429094603867 0.41198700835812702 0 -0.024169526760701381 0.37267007813580277 0 -0.04149310004589906 0.37124785083274592 0 -0.04338349465279491 0.38811939282985902 0 -0.024169526760701381 0.37267007813580277 0 -0.04338349465279491 0.38811939282985902 0 -0.024844401122877391 0.39948633252540261 0 -0.024169526760701381 0.37267007813580277 0 -0.024844401122877391 0.39948633252540261 0 -0.0045342830833226501 0.3863935686212247 0 -0.024844401122877391 0.39948633252540261 0 -0.0045342830833226501 0.3863935686212247 0 -0.0038092142255275289 0.41137928311071797 0 -0.0045342830833226501 0.3863935686212247 0 -0.0038092142255275289 0.41137928311071797 0 -0.024169526760701381 0.37267007813580277 0 -0.0045342830833226501 0.3863935686212247 0 -0.0030841453677343121 0.43636499760021141 0 -0.0038092142255275289 0.41137928311071797 0 -0.026324668085478481 0.42779129271708288 0 -0.0030841453677343121 0.43636499760021141 0 -0.0038092142255275289 0.41137928311071797 0 -0.024844401122877391 0.39948633252540261 0 -0.0038092142255275289 0.41137928311071797 0 -0.026324668085478481 0.42779129271708288 0 -0.026324668085478481 0.42779129271708288 0 -0.049329429094603867 0.41198700835812702 0 -0.049413859365407042 0.43472239834070731 0 -0.024844401122877391 0.39948633252540261 0 -0.026324668085478481 0.42779129271708288 0 -0.049329429094603867 0.41198700835812702 0 -0.074152812153798875 0.41302729649400538 0 -0.063154715464804681 0.39516467689365731 0 -0.049329429094603867 0.41198700835812702 0 -0.066022972602334681 0.42956105407568013 0 -0.049329429094603867 0.41198700835812702 0 -0.049413859365407042 0.43472239834070731 0 -0.066022972602334681 0.42956105407568013 0 -0.049413859365407042 0.43472239834070731 0 -0.0708836913324285 0.45273085842607269 0 -0.0393713920190637 0.45112048084748302 0 -0.052402143273794041 0.47435943831340011 0 -0.0708836913324285 0.45273085842607269 0 -0.049413859365407042 0.43472239834070731 0 -0.0393713920190637 0.45112048084748302 0 -0.0708836913324285 0.45273085842607269 0 -0.0393713920190637 0.45112048084748302 0 -0.02876560419008364 0.47203163756026523 0 -0.052402143273794041 0.47435943831340011 0 -0.026324668085478481 0.42779129271708288 0 -0.049413859365407042 0.43472239834070731 0 -0.0393713920190637 0.45112048084748302 0 -0.0030841453677343121 0.43636499760021141 0 -0.026324668085478481 0.42779129271708288 0 -0.01888650882967766 0.45329231687868837 0 -0.026324668085478481 0.42779129271708288 0 -0.0393713920190637 0.45112048084748302 0 -0.01888650882967766 0.45329231687868837 0 -0.0393713920190637 0.45112048084748302 0 -0.01888650882967766 0.45329231687868837 0 -0.02876560419008364 0.47203163756026523 0 -0.01888650882967766 0.45329231687868837 0 -0.01341416680576474 0.47109478045738301 0 -0.02876560419008364 0.47203163756026523 0 -0.01888650882967766 0.45329231687868837 0 -0.002359076509941094 0.46135071208970457 0 -0.01341416680576474 0.47109478045738301 0 -0.0030841453677343121 0.43636499760021141 0 -0.01888650882967766 0.45329231687868837 0 -0.002359076509941094 0.46135071208970457 0 -0.0030841453677343121 0.43636499760021141 0 -0.002359076509941094 0.46135071208970457 0 -0.0090346539348886701 0.5 0 -0.0016340076521478781 0.48633642657919801 0 -0.017460482120078509 0.48648722646036041 0 -0.0016340076521478781 0.48633642657919801 0 -0.01341416680576474 0.47109478045738301 0 -0.017460482120078509 0.48648722646036041 0 -0.002359076509941094 0.46135071208970457 0 -0.0016340076521478781 0.48633642657919801 0 -0.01341416680576474 0.47109478045738301 0 -0.002359076509941094 0.46135071208970457 0 -0.0016340076521478781 0.48633642657919801 0 -0.002359076509941094 0.46135071208970457 0 -0.0016340076521478781 0.48633642657919801 0 0.0036787250480955699 0.47408322248379448 0 -0.01341416680576474 0.47109478045738301 0 -0.02876560419008364 0.47203163756026523 0 -0.017460482120078509 0.48648722646036041 0 -0.02876560419008364 0.47203163756026523 0 -0.017460482120078509 0.48648722646036041 0 -0.038135422162237087 0.5 0 -0.0090346539348886701 0.5 0 -0.017460482120078509 0.48648722646036041 0 -0.038135422162237087 0.5 0 -0.02876560419008364 0.47203163756026523 0 -0.038135422162237087 0.5 0 -0.052402143273794041 0.47435943831340011 0 -0.038135422162237087 0.5 0 -0.052402143273794041 0.47435943831340011 0 -0.067236190389585393 0.5 0 -0.052402143273794041 0.47435943831340011 0 -0.067236190389585393 0.5 0 -0.073349005429332273 0.47921852398434828 0 -0.067236190389585393 0.5 0 -0.073349005429332273 0.47921852398434828 0 -0.096336958616933588 0.5 0 -0.073349005429332273 0.47921852398434828 0 -0.096336958616933588 0.5 0 -0.093805091172543903 0.47224368257650851 0 -0.052402143273794041 0.47435943831340011 0 -0.073349005429332273 0.47921852398434828 0 -0.0708836913324285 0.45273085842607269 0 -0.0708836913324285 0.45273085842607269 0 -0.1043361340672995 0.45358667135048331 0 -0.093805091172543903 0.47224368257650851 0 -0.090582213275806372 0.43325937369158968 0 -0.0708836913324285 0.45273085842607269 0 -0.1043361340672995 0.45358667135048331 0 -0.090582213275806372 0.43325937369158968 0 -0.066022972602334681 0.42956105407568013 0 -0.0708836913324285 0.45273085842607269 0 -0.090582213275806372 0.43325937369158968 0 -0.0708836913324285 0.45273085842607269 0 -0.073349005429332273 0.47921852398434828 0 -0.0708836913324285 0.45273085842607269 0 -0.093805091172543903 0.47224368257650851 0 -0.1043361340672995 0.45358667135048331 0 -0.12052644250191399 0.4682622397032008 0 -0.093805091172543903 0.47224368257650851 0 -0.1104760497445479 0.43296770510105842 0 -0.090582213275806372 0.43325937369158968 0 -0.1043361340672995 0.45358667135048331 0 -0.12618187852634369 0.45882241462805679 0 -0.1043361340672995 0.45358667135048331 0 -0.1248743097581413 0.44162978393037222 0 -0.1104760497445479 0.43296770510105842 0 -0.1043361340672995 0.45358667135048331 0 -0.1248743097581413 0.44162978393037222 0 -0.12618187852634369 0.45882241462805679 0 -0.1043361340672995 0.45358667135048331 0 -0.12052644250191399 0.4682622397032008 0 -0.1317912103042716 0.47600940211286807 0 -0.12052644250191399 0.4682622397032008 0 -0.11642361318749669 0.48420448820259387 0 -0.12052644250191399 0.4682622397032008 0 -0.11642361318749669 0.48420448820259387 0 -0.093805091172543903 0.47224368257650851 0 -0.12543772684428189 0.5 0 -0.11642361318749669 0.48420448820259387 0 -0.096336958616933588 0.5 0 -0.12543772684428189 0.5 0 -0.13178312884530541 0.48627570230508688 0 -0.11642361318749669 0.48420448820259387 0 -0.11642361318749669 0.48420448820259387 0 -0.096336958616933588 0.5 0 -0.093805091172543903 0.47224368257650851 0 -0.1693268494853358 0.079538523923443544 0 -0.16945340910355561 0.089496265134995978 0 -0.1618062267740645 0.07958177760614682 0 -0.16945340910355561 0.089496265134995978 0 -0.1618062267740645 0.07958177760614682 0 -0.1616157516695074 0.095139316102685473 0 -0.1618062267740645 0.07958177760614682 0 -0.1616157516695074 0.095139316102685473 0 -0.14767322655010931 0.084806545451415583 0 -0.1618062267740645 0.07958177760614682 0 -0.16640070467345031 0.07104807823334372 0 -0.15517576509654349 0.068304766057398533 0 -0.16640070467345031 0.07104807823334372 0 -0.15517576509654349 0.068304766057398533 0 -0.16451238623864939 0.061110077383343737 0 -0.16640070467345031 0.07104807823334372 0 -0.17354141001077031 0.063798093567348918 0 -0.16451238623864939 0.061110077383343737 0 -0.17157411485926041 0.074087910936242465 0 -0.16640070467345031 0.07104807823334372 0 -0.17354141001077031 0.063798093567348918 0 -0.1693268494853358 0.079538523923443544 0 -0.17157411485926041 0.074087910936242465 0 -0.16640070467345031 0.07104807823334372 0 -0.1693268494853358 0.079538523923443544 0 -0.1618062267740645 0.07958177760614682 0 -0.16640070467345031 0.07104807823334372 0 -0.17354141001077031 0.063798093567348918 0 -0.17702749526748529 0.081966948020833708 0 -0.17656426821359539 0.052679136019797047 0 -0.18185637422210199 0.067243003367259677 0 -0.17702749526748529 0.081966948020833708 0 -0.17656426821359539 0.052679136019797047 0 -0.17702749526748529 0.081966948020833708 0 -0.17656426821359539 0.052679136019797047 0 -0.17157411485926041 0.074087910936242465 0 -0.17354141001077031 0.063798093567348918 0 -0.17702749526748529 0.081966948020833708 0 -0.18185637422210199 0.067243003367259677 0 -0.1853153676200878 0.058850167416455039 0 -0.18892740292417859 0.064703221589215376 0 -0.18185637422210199 0.067243003367259677 0 -0.19050021368002351 0.072419239531055349 0 -0.18892740292417859 0.064703221589215376 0 -0.18185637422210199 0.067243003367259677 0 -0.18141962227324601 0.075216957450553817 0 -0.17702749526748529 0.081966948020833708 0 -0.18185637422210199 0.067243003367259677 0 -0.18141962227324601 0.075216957450553817 0 -0.19050021368002351 0.072419239531055349 0 -0.18141962227324601 0.075216957450553817 0 -0.1867192510276118 0.077748512173410014 0 -0.19050021368002351 0.072419239531055349 0 -0.18141962227324601 0.075216957450553817 0 -0.1867192510276118 0.077748512173410014 0 -0.1819129998543452 0.079414551687582866 0 -0.18248563084903771 0.082725789105533951 0 -0.17702749526748529 0.081966948020833708 0 -0.17749072232138041 0.1112547600218704 0 -0.1867192510276118 0.077748512173410014 0 -0.18248563084903771 0.082725789105533951 0 -0.1819129998543452 0.079414551687582866 0 -0.18141962227324601 0.075216957450553817 0 -0.1819129998543452 0.079414551687582866 0 -0.17702749526748529 0.081966948020833708 0 -0.18248563084903771 0.082725789105533951 0 -0.1819129998543452 0.079414551687582866 0 -0.17702749526748529 0.081966948020833708 0 -0.1693268494853358 0.079538523923443544 0 -0.16945340910355561 0.089496265134995978 0 -0.17702749526748529 0.081966948020833708 0 -0.1693268494853358 0.079538523923443544 0 -0.17157411485926041 0.074087910936242465 0 -0.17702749526748529 0.081966948020833708 0 -0.17702749526748529 0.081966948020833708 0 -0.17749072232138041 0.1112547600218704 0 -0.16945340910355561 0.089496265134995978 0 -0.17702749526748529 0.081966948020833708 0 -0.17749072232138041 0.1112547600218704 0 -0.17749072232138041 0.1112547600218704 0 -0.1951643137470572 0.093770439387570487 0 -0.18248563084903771 0.082725789105533951 0 -0.17749072232138041 0.1112547600218704 0 -0.1951643137470572 0.093770439387570487 0 -0.17749072232138041 0.1112547600218704 0 -0.19150979458678249 0.1243728737611647 0 -0.17789558253256721 0.1368522929207025 0 -0.17749072232138041 0.1112547600218704 0 -0.17789558253256721 0.1368522929207025 0 -0.17749072232138041 0.1112547600218704 0 -0.16113979031376621 0.12743058591966341 0 -0.17749072232138041 0.1112547600218704 0 -0.15084139672814201 0.110160429760413 0 -0.16113979031376621 0.12743058591966341 0 -0.17749072232138041 0.1112547600218704 0 -0.1616157516695074 0.095139316102685473 0 -0.15084139672814201 0.110160429760413 0 -0.16945340910355561 0.089496265134995978 0 -0.17749072232138041 0.1112547600218704 0 -0.1616157516695074 0.095139316102685473 0 -0.1616157516695074 0.095139316102685473 0 -0.15084139672814201 0.110160429760413 0 -0.14767322655010931 0.084806545451415583 0 -0.15084139672814201 0.110160429760413 0 -0.1348328660863515 0.097215266237156234 0 -0.14767322655010931 0.084806545451415583 0 -0.15084139672814201 0.110160429760413 0 -0.13137241316615089 0.11357835761918721 0 -0.14300315410871919 0.1253406317882016 0 -0.15084139672814201 0.110160429760413 0 -0.16113979031376621 0.12743058591966341 0 -0.14300315410871919 0.1253406317882016 0 -0.13137241316615089 0.11357835761918721 0 -0.14300315410871919 0.1253406317882016 0 -0.12687331202938101 0.13192737382428379 0 -0.13137241316615089 0.11357835761918721 0 -0.1348328660863515 0.097215266237156234 0 -0.1198812247159142 0.095002477965890675 0 -0.15084139672814201 0.110160429760413 0 -0.13137241316615089 0.11357835761918721 0 -0.1348328660863515 0.097215266237156234 0 -0.1348328660863515 0.097215266237156234 0 -0.12533951967512769 0.078274991835817334 0 -0.1198812247159142 0.095002477965890675 0 -0.1348328660863515 0.097215266237156234 0 -0.12533951967512769 0.078274991835817334 0 -0.14767322655010931 0.084806545451415583 0 -0.1618062267740645 0.07958177760614682 0 -0.14767322655010931 0.084806545451415583 0 -0.15517576509654349 0.068304766057398533 0 -0.14767322655010931 0.084806545451415583 0 -0.15517576509654349 0.068304766057398533 0 -0.14001017723872511 0.063978020277280875 0 -0.12533951967512769 0.078274991835817334 0 -0.14767322655010931 0.084806545451415583 0 -0.14001017723872511 0.063978020277280875 0 -0.12533951967512769 0.078274991835817334 0 -0.14001017723872511 0.063978020277280875 0 -0.1248745965026067 0.059896082918310993 0 -0.14001017723872511 0.063978020277280875 0 -0.13626681081840961 0.042829268155062397 0 -0.1248745965026067 0.059896082918310993 0 -0.13626681081840961 0.042829268155062397 0 -0.1339340902388827 0.022300844741854581 0 -0.1180188049733784 0.030804183747700629 0 -0.13626681081840961 0.042829268155062397 0 -0.1339340902388827 0.022300844741854581 0 -0.15968783393996419 0.037567277286728401 0 -0.13626681081840961 0.042829268155062397 0 -0.15351002702878311 0.053877414325468623 0 -0.15968783393996419 0.037567277286728401 0 -0.13626681081840961 0.042829268155062397 0 -0.15968783393996419 0.037567277286728401 0 -0.14001017723872511 0.063978020277280875 0 -0.13626681081840961 0.042829268155062397 0 -0.15351002702878311 0.053877414325468623 0 -0.15517576509654349 0.068304766057398533 0 -0.14001017723872511 0.063978020277280875 0 -0.15351002702878311 0.053877414325468623 0 -0.12735709500343681 0.004015926865657337 0 -0.15177498865293759 0.016606981474429749 0 -0.12735709500343681 0.004015926865657337 0 -0.1339340902388827 0.022300844741854581 0 -0.15177498865293759 0.016606981474429749 0 -0.12735709500343681 0.004015926865657337 0 -0.1339340902388827 0.022300844741854581 0 -0.11835839359799651 0.016938700943610479 0 -0.1339340902388827 0.022300844741854581 0 -0.15177498865293759 0.016606981474429749 0 -0.15968783393996419 0.037567277286728401 0 -0.1339340902388827 0.022300844741854581 0 -0.15968783393996419 0.037567277286728401 0 -0.12735709500343681 0.004015926865657337 0 -0.15177498865293759 0.016606981474429749 0 -0.14801408494475049 0.0031182785745780331 0 -0.15177498865293759 0.016606981474429749 0 -0.14801408494475049 0.0031182785745780331 0 -0.1619193683370386 0.0066468078375689294 0 -0.15773416148281841 -0.0035868741371463562 0 -0.14801408494475049 0.0031182785745780331 0 -0.1619193683370386 0.0066468078375689294 0 -0.15177498865293759 0.016606981474429749 0 -0.1619193683370386 0.0066468078375689294 0 -0.16760309597538539 0.015861310899326669 0 -0.16716832075785379 -0.0032078365625175 0 -0.1619193683370386 0.0066468078375689294 0 -0.17584419881677341 0.0071523107965592754 0 -0.1619193683370386 0.0066468078375689294 0 -0.16760309597538539 0.015861310899326669 0 -0.17584419881677341 0.0071523107965592754 0 -0.15177498865293759 0.016606981474429749 0 -0.17619288230243149 0.029198036083215671 0 -0.15177498865293759 0.016606981474429749 0 -0.17619288230243149 0.029198036083215671 0 -0.15968783393996419 0.037567277286728401 0 -0.15177498865293759 0.016606981474429749 0 -0.16760309597538539 0.015861310899326669 0 -0.17619288230243149 0.029198036083215671 0 -0.17619288230243149 0.029198036083215671 0 -0.1852069371874478 0.015311100034367831 0 -0.17584419881677341 0.0071523107965592754 0 -0.17619288230243149 0.029198036083215671 0 -0.17584419881677341 0.0071523107965592754 0 -0.16760309597538539 0.015861310899326669 0 -0.17619288230243149 0.029198036083215671 0 -0.17584419881677341 0.0071523107965592754 0 -0.17619288230243149 0.029198036083215671 0 -0.19572946351785711 0.039272048382664133 0 -0.19029700863621521 0.024089069561314659 0 -0.17619288230243149 0.029198036083215671 0 -0.1852069371874478 0.015311100034367831 0 -0.19029700863621521 0.024089069561314659 0 -0.1852069371874478 0.015311100034367831 0 -0.18717715497560061 0.0062623078557712403 0 -0.17584419881677341 0.0071523107965592754 0 -0.18154179604087481 -0.0036104187285780349 0 -0.18717715497560061 0.0062623078557712403 0 -0.17584419881677341 0.0071523107965592754 0 -0.15351002702878311 0.053877414325468623 0 -0.1659033968134131 0.050269055427132232 0 -0.15968783393996419 0.037567277286728401 0 -0.1659033968134131 0.050269055427132232 0 -0.16451238623864939 0.061110077383343737 0 -0.17656426821359539 0.052679136019797047 0 -0.17354141001077031 0.063798093567348918 0 -0.16451238623864939 0.061110077383343737 0 -0.17656426821359539 0.052679136019797047 0 -0.16451238623864939 0.061110077383343737 0 -0.17656426821359539 0.052679136019797047 0 -0.15351002702878311 0.053877414325468623 0 -0.1659033968134131 0.050269055427132232 0 -0.16451238623864939 0.061110077383343737 0 -0.15517576509654349 0.068304766057398533 0 -0.15351002702878311 0.053877414325468623 0 -0.16451238623864939 0.061110077383343737 0 -0.15968783393996419 0.037567277286728401 0 -0.1762663423330757 0.033842591165095401 0 -0.1659033968134131 0.050269055427132232 0 -0.15968783393996419 0.037567277286728401 0 -0.1764827173319595 0.047523031967639129 0 -0.17619288230243149 0.029198036083215671 0 -0.15968783393996419 0.037567277286728401 0 -0.1762663423330757 0.033842591165095401 0 -0.15968783393996419 0.037567277286728401 0 -0.1764827173319595 0.047523031967639129 0 -0.15968783393996419 0.037567277286728401 0 -0.1762663423330757 0.033842591165095401 0 -0.1764827173319595 0.047523031967639129 0 -0.17619288230243149 0.029198036083215671 0 -0.19572946351785711 0.039272048382664133 0 -0.181281627628781 0.040827380692469641 0 -0.18051660755046151 0.049914261515807259 0 -0.1764827173319595 0.047523031967639129 0 -0.17619288230243149 0.029198036083215671 0 -0.1762663423330757 0.033842591165095401 0 -0.19572946351785711 0.039272048382664133 0 -0.1762663423330757 0.033842591165095401 0 -0.181281627628781 0.040827380692469641 0 -0.19572946351785711 0.039272048382664133 0 -0.1762663423330757 0.033842591165095401 0 -0.181281627628781 0.040827380692469641 0 -0.1764827173319595 0.047523031967639129 0 -0.1762663423330757 0.033842591165095401 0 -0.1764827173319595 0.047523031967639129 0 -0.17619288230243149 0.029198036083215671 0 -0.1762663423330757 0.033842591165095401 0 -0.181281627628781 0.040827380692469641 0 -0.18051660755046151 0.049914261515807259 0 -0.19572946351785711 0.039272048382664133 0 -0.18051660755046151 0.049914261515807259 0 -0.17656426821359539 0.052679136019797047 0 -0.1853153676200878 0.058850167416455039 0 -0.18051660755046151 0.049914261515807259 0 -0.1764827173319595 0.047523031967639129 0 -0.1764827173319595 0.047523031967639129 0 -0.17656426821359539 0.052679136019797047 0 -0.1659033968134131 0.050269055427132232 0 -0.1764827173319595 0.047523031967639129 0 -0.17656426821359539 0.052679136019797047 0 -0.18051660755046151 0.049914261515807259 0 -0.1764827173319595 0.047523031967639129 0 -0.17656426821359539 0.052679136019797047 0 -0.18051660755046151 0.049914261515807259 0 -0.17656426821359539 0.052679136019797047 0 -0.18185637422210199 0.067243003367259677 0 -0.17656426821359539 0.052679136019797047 0 -0.1853153676200878 0.058850167416455039 0 -0.1853153676200878 0.058850167416455039 0 -0.19803765617450109 0.060300476042091433 0 -0.18892740292417859 0.064703221589215376 0 -0.18051660755046151 0.049914261515807259 0 -0.19803765617450109 0.060300476042091433 0 -0.1977866825790292 0.05007637869738242 0 -0.18051660755046151 0.049914261515807259 0 -0.1853153676200878 0.058850167416455039 0 -0.19803765617450109 0.060300476042091433 0 -0.18051660755046151 0.049914261515807259 0 -0.19803765617450109 0.060300476042091433 0 -0.19803765617450109 0.060300476042091433 0 -0.1977866825790292 0.05007637869738242 0 -0.2066297839190599 0.054855205218219752 0 -0.18051660755046151 0.049914261515807259 0 -0.1977866825790292 0.05007637869738242 0 -0.19572946351785711 0.039272048382664133 0 -0.18051660755046151 0.049914261515807259 0 -0.19572946351785711 0.039272048382664133 0 -0.19572946351785711 0.039272048382664133 0 -0.2098237389609823 0.029412342647955388 0 -0.1977866825790292 0.05007637869738242 0 -0.19572946351785711 0.039272048382664133 0 -0.2073344650466164 0.045256152092875389 0 -0.19572946351785711 0.039272048382664133 0 -0.2073344650466164 0.045256152092875389 0 -0.2073344650466164 0.045256152092875389 0 -0.21702036639386221 0.038769314305699548 0 -0.2098237389609823 0.029412342647955388 0 -0.19572946351785711 0.039272048382664133 0 -0.2073344650466164 0.045256152092875389 0 -0.2098237389609823 0.029412342647955388 0 -0.21702036639386221 0.038769314305699548 0 -0.2098237389609823 0.029412342647955388 0 -0.2284051488343061 0.035137669629428533 0 -0.2073344650466164 0.045256152092875389 0 -0.21702036639386221 0.038769314305699548 0 -0.22251811273354419 0.045271092852538893 0 -0.2073344650466164 0.045256152092875389 0 -0.21769334509658461 0.055951218203848879 0 -0.22251811273354419 0.045271092852538893 0 -0.21769334509658461 0.055951218203848879 0 -0.20947987249717179 0.060448397508133619 0 -0.2066297839190599 0.054855205218219752 0 -0.21769334509658461 0.055951218203848879 0 -0.20947987249717179 0.060448397508133619 0 -0.2155587047985415 0.070686690568374386 0 -0.19803765617450109 0.060300476042091433 0 -0.20947987249717179 0.060448397508133619 0 -0.2066297839190599 0.054855205218219752 0 -0.1977866825790292 0.05007637869738242 0 -0.2073344650466164 0.045256152092875389 0 -0.2066297839190599 0.054855205218219752 0 -0.2073344650466164 0.045256152092875389 0 -0.21769334509658461 0.055951218203848879 0 -0.2066297839190599 0.054855205218219752 0 -0.1989264366345522 -0.0080023544535597537 0 -0.1965234412062255 0.0098537758749781944 0 -0.20713549204565579 6.5395444916274768e-05 0 -0.19066530249761049 -0.0041303576494283751 0 -0.18717715497560061 0.0062623078557712403 0 -0.1965234412062255 0.0098537758749781944 0 -0.1852069371874478 0.015311100034367831 0 -0.18717715497560061 0.0062623078557712403 0 -0.1965234412062255 0.0098537758749781944 0 -0.1965234412062255 0.0098537758749781944 0 -0.20113962024173071 0.02227838771243261 0 -0.2107847094499361 0.011405203725301251 0 -0.19572946351785711 0.039272048382664133 0 -0.20113962024173071 0.02227838771243261 0 -0.2098237389609823 0.029412342647955388 0 -0.19572946351785711 0.039272048382664133 0 -0.20113962024173071 0.02227838771243261 0 -0.19029700863621521 0.024089069561314659 0 -0.1965234412062255 0.0098537758749781944 0 -0.20113962024173071 0.02227838771243261 0 -0.19029700863621521 0.024089069561314659 0 -0.1852069371874478 0.015311100034367831 0 -0.1965234412062255 0.0098537758749781944 0 -0.19029700863621521 0.024089069561314659 0 -0.2098237389609823 0.029412342647955388 0 -0.2107847094499361 0.011405203725301251 0 -0.22391801440410891 0.019552636913248388 0 -0.20113962024173071 0.02227838771243261 0 -0.2098237389609823 0.029412342647955388 0 -0.2107847094499361 0.011405203725301251 0 -0.2098237389609823 0.029412342647955388 0 -0.22391801440410891 0.019552636913248388 0 -0.21702438745170211 -0.0043907958627755336 0 -0.2107847094499361 0.011405203725301251 0 -0.20713549204565579 6.5395444916274768e-05 0 -0.21702438745170211 -0.0043907958627755336 0 -0.2107847094499361 0.011405203725301251 0 -0.22391801440410891 0.019552636913248388 0 -0.1965234412062255 0.0098537758749781944 0 -0.2107847094499361 0.011405203725301251 0 -0.20713549204565579 6.5395444916274768e-05 0 -0.22867745033346079 0.0038692188645070222 0 -0.22391801440410891 0.019552636913248388 0 -0.2344599051246074 0.012178015861532989 0 -0.21702438745170211 -0.0043907958627755336 0 -0.22391801440410891 0.019552636913248388 0 -0.21702438745170211 -0.0043907958627755336 0 -0.22867745033346079 0.0038692188645070222 0 -0.22391801440410891 0.019552636913248388 0 -0.22391801440410891 0.019552636913248388 0 -0.2403792472176362 0.02548084658656756 0 -0.2344599051246074 0.012178015861532989 0 -0.2098237389609823 0.029412342647955388 0 -0.22391801440410891 0.019552636913248388 0 -0.2284051488343061 0.035137669629428533 0 -0.22391801440410891 0.019552636913248388 0 -0.2403792472176362 0.02548084658656756 0 -0.2284051488343061 0.035137669629428533 0 -0.22391801440410891 0.019552636913248388 0 -0.2344599051246074 0.012178015861532989 0 -0.22391801440410891 0.019552636913248388 0 -0.2284051488343061 0.035137669629428533 0 -0.2522816967992324 0.037264740289820159 0 -0.25157722050270093 0.012682655753942951 0 -0.2403792472176362 0.02548084658656756 0 -0.25157722050270093 0.012682655753942951 0 -0.2403792472176362 0.02548084658656756 0 -0.2344599051246074 0.012178015861532989 0 -0.25267499080189931 -0.0034516002120552492 0 -0.25157722050270093 0.012682655753942951 0 -0.2401015516947359 0.00075261550232862703 0 -0.25157722050270093 0.012682655753942951 0 -0.2344599051246074 0.012178015861532989 0 -0.2401015516947359 0.00075261550232862703 0 -0.22867745033346079 0.0038692188645070222 0 -0.2344599051246074 0.012178015861532989 0 -0.2401015516947359 0.00075261550232862703 0 -0.21769334509658461 0.055951218203848879 0 -0.23255980098598539 0.056775429521547523 0 -0.2155587047985415 0.070686690568374386 0 -0.23289228326450309 0.050722702345608793 0 -0.22641588552015429 0.052180110730886013 0 -0.22251811273354419 0.045271092852538893 0 -0.23289228326450309 0.050722702345608793 0 -0.23255980098598539 0.056775429521547523 0 -0.22641588552015429 0.052180110730886013 0 -0.21769334509658461 0.055951218203848879 0 -0.23255980098598539 0.056775429521547523 0 -0.22641588552015429 0.052180110730886013 0 -0.21769334509658461 0.055951218203848879 0 -0.22641588552015429 0.052180110730886013 0 -0.22251811273354419 0.045271092852538893 0 -0.21702036639386221 0.038769314305699548 0 -0.22251811273354419 0.045271092852538893 0 -0.2284051488343061 0.035137669629428533 0 -0.23289228326450309 0.050722702345608793 0 -0.22251811273354419 0.045271092852538893 0 -0.2284051488343061 0.035137669629428533 0 -0.23289228326450309 0.050722702345608793 0 -0.2284051488343061 0.035137669629428533 0 -0.2522816967992324 0.037264740289820159 0 -0.2403792472176362 0.02548084658656756 0 -0.2284051488343061 0.035137669629428533 0 -0.2522816967992324 0.037264740289820159 0 -0.23289228326450309 0.050722702345608793 0 -0.2284051488343061 0.035137669629428533 0 -0.2522816967992324 0.037264740289820159 0 -0.23289228326450309 0.050722702345608793 0 -0.23255980098598539 0.056775429521547523 0 -0.2522816967992324 0.037264740289820159 0 -0.23255980098598539 0.056775429521547523 0 -0.2522816967992324 0.037264740289820159 0 -0.23255980098598539 0.056775429521547523 0 -0.24906194248509719 0.058488871325365822 0 -0.23255980098598539 0.056775429521547523 0 -0.24906194248509719 0.058488871325365822 0 -0.23770452364983391 0.071010308971772351 0 -0.26257114212692878 0.06573449919026883 0 -0.24906194248509719 0.058488871325365822 0 -0.23770452364983391 0.071010308971772351 0 -0.25261226255175379 0.080423606239198905 0 -0.23770452364983391 0.071010308971772351 0 -0.23158356521460469 0.085326977986282804 0 -0.25261226255175379 0.080423606239198905 0 -0.23158356521460469 0.085326977986282804 0 -0.24377998071086901 0.096378574065869249 0 -0.23158356521460469 0.085326977986282804 0 -0.21283790517273879 0.076286118753275345 0 -0.22135706029896429 0.097751395037259853 0 -0.23158356521460469 0.085326977986282804 0 -0.22135706029896429 0.097751395037259853 0 -0.24377998071086901 0.096378574065869249 0 -0.23255980098598539 0.056775429521547523 0 -0.21283790517273879 0.076286118753275345 0 -0.23770452364983391 0.071010308971772351 0 -0.23158356521460469 0.085326977986282804 0 -0.21283790517273879 0.076286118753275345 0 -0.23255980098598539 0.056775429521547523 0 -0.23770452364983391 0.071010308971772351 0 -0.21283790517273879 0.076286118753275345 0 -0.23255980098598539 0.056775429521547523 0 -0.21283790517273879 0.076286118753275345 0 -0.2155587047985415 0.070686690568374386 0 -0.23770452364983391 0.071010308971772351 0 -0.21283790517273879 0.076286118753275345 0 -0.19803765617450109 0.060300476042091433 0 -0.20947987249717179 0.060448397508133619 0 -0.2155587047985415 0.070686690568374386 0 -0.19803765617450109 0.060300476042091433 0 -0.20333782300263301 0.070680183335342567 0 -0.2155587047985415 0.070686690568374386 0 -0.19803765617450109 0.060300476042091433 0 -0.2155587047985415 0.070686690568374386 0 -0.21283790517273879 0.076286118753275345 0 -0.19766176801088831 0.079505953929404904 0 -0.20333782300263301 0.070680183335342567 0 -0.21283790517273879 0.076286118753275345 0 -0.19766176801088831 0.079505953929404904 0 -0.20333782300263301 0.070680183335342567 0 -0.21283790517273879 0.076286118753275345 0 -0.2155587047985415 0.070686690568374386 0 -0.21283790517273879 0.076286118753275345 0 -0.1951643137470572 0.093770439387570487 0 -0.22135706029896429 0.097751395037259853 0 -0.21283790517273879 0.076286118753275345 0 -0.1951643137470572 0.093770439387570487 0 -0.21283790517273879 0.076286118753275345 0 -0.19766176801088831 0.079505953929404904 0 -0.1951643137470572 0.093770439387570487 0 -0.18248563084903771 0.082725789105533951 0 -0.19766176801088831 0.079505953929404904 0 -0.1951643137470572 0.093770439387570487 0 -0.1867192510276118 0.077748512173410014 0 -0.18248563084903771 0.082725789105533951 0 -0.19766176801088831 0.079505953929404904 0 -0.18248563084903771 0.082725789105533951 0 -0.19766176801088831 0.079505953929404904 0 -0.1867192510276118 0.077748512173410014 0 -0.19766176801088831 0.079505953929404904 0 -0.19050021368002351 0.072419239531055349 0 -0.19803765617450109 0.060300476042091433 0 -0.19050021368002351 0.072419239531055349 0 -0.18892740292417859 0.064703221589215376 0 -0.19803765617450109 0.060300476042091433 0 -0.20333782300263301 0.070680183335342567 0 -0.19050021368002351 0.072419239531055349 0 -0.20333782300263301 0.070680183335342567 0 -0.19766176801088831 0.079505953929404904 0 -0.19050021368002351 0.072419239531055349 0 -0.17749072232138041 0.1112547600218704 0 -0.19150979458678249 0.1243728737611647 0 -0.1951643137470572 0.093770439387570487 0 -0.19150979458678249 0.1243728737611647 0 -0.1951643137470572 0.093770439387570487 0 -0.20994497012605751 0.11823125198409511 0 -0.1951643137470572 0.093770439387570487 0 -0.20994497012605751 0.11823125198409511 0 -0.22135706029896429 0.097751395037259853 0 -0.20994497012605751 0.11823125198409511 0 -0.2348316268224595 0.11651500804646669 0 -0.2235388627286797 0.12965651036182041 0 -0.20994497012605751 0.11823125198409511 0 -0.22135706029896429 0.097751395037259853 0 -0.2348316268224595 0.11651500804646669 0 -0.22135706029896429 0.097751395037259853 0 -0.24377998071086901 0.096378574065869249 0 -0.2348316268224595 0.11651500804646669 0 -0.25136603029008331 0.1103208693098497 0 -0.24377998071086901 0.096378574065869249 0 -0.2348316268224595 0.11651500804646669 0 -0.25922316449870308 0.12628093809151891 0 -0.25136603029008331 0.1103208693098497 0 -0.2348316268224595 0.11651500804646669 0 -0.25922316449870308 0.12628093809151891 0 -0.2348316268224595 0.11651500804646669 0 -0.2369615480924761 0.1404602413506009 0 -0.2369615480924761 0.1404602413506009 0 -0.2235388627286797 0.12965651036182041 0 -0.2124173058737257 0.14341954006611901 0 -0.2348316268224595 0.11651500804646669 0 -0.2369615480924761 0.1404602413506009 0 -0.2235388627286797 0.12965651036182041 0 -0.2369615480924761 0.1404602413506009 0 -0.22679867445049531 0.16064067306310431 0 -0.2124173058737257 0.14341954006611901 0 -0.2369615480924761 0.1404602413506009 0 -0.247018622616726 0.15992587597476091 0 -0.22679867445049531 0.16064067306310431 0 -0.25846103874104392 0.14702121199507179 0 -0.2369615480924761 0.1404602413506009 0 -0.247018622616726 0.15992587597476091 0 -0.247018622616726 0.15992587597476091 0 -0.23359887481107691 0.1809086922627815 0 -0.247018622616726 0.15992587597476091 0 -0.23359887481107691 0.1809086922627815 0 -0.22679867445049531 0.16064067306310431 0 -0.26439180367967152 0.18225540552070321 0 -0.247018622616726 0.15992587597476091 0 -0.23359887481107691 0.1809086922627815 0 -0.23359887481107691 0.1809086922627815 0 -0.20517995294037331 0.17379218369948349 0 -0.2201791270054278 0.2018915085508021 0 -0.23359887481107691 0.1809086922627815 0 -0.22679867445049531 0.16064067306310431 0 -0.20517995294037331 0.17379218369948349 0 -0.22679867445049531 0.16064067306310431 0 -0.20517995294037331 0.17379218369948349 0 -0.2124173058737257 0.14341954006611901 0 -0.20517995294037331 0.17379218369948349 0 -0.19274338499996449 0.14807478539393409 0 -0.17830044274374979 0.16244982581953471 0 -0.19150979458678249 0.1243728737611647 0 -0.19274338499996449 0.14807478539393409 0 -0.2124173058737257 0.14341954006611901 0 -0.20994497012605751 0.11823125198409511 0 -0.2235388627286797 0.12965651036182041 0 -0.2124173058737257 0.14341954006611901 0 -0.19150979458678249 0.1243728737611647 0 -0.20994497012605751 0.11823125198409511 0 -0.2124173058737257 0.14341954006611901 0 -0.20517995294037331 0.17379218369948349 0 -0.19274338499996449 0.14807478539393409 0 -0.2124173058737257 0.14341954006611901 0 -0.22371849106378741 0.2462845034026982 0 -0.23019370483249479 0.22382880503591951 0 -0.2066863838603582 0.24242880758937649 0 -0.22371849106378741 0.2462845034026982 0 -0.23951274761537589 0.2474853768326048 0 -0.23019370483249479 0.22382880503591951 0 -0.25272375818517617 0.22994970808158929 0 -0.25621817608628389 0.2460965770837312 0 -0.23951274761537589 0.2474853768326048 0 -0.25370102580463139 0.2052288024824625 0 -0.25272375818517617 0.22994970808158929 0 -0.23019370483249479 0.22382880503591951 0 -0.25272375818517617 0.22994970808158929 0 -0.23951274761537589 0.2474853768326048 0 -0.23019370483249479 0.22382880503591951 0 -0.25370102580463139 0.2052288024824625 0 -0.23359887481107691 0.1809086922627815 0 -0.2201791270054278 0.2018915085508021 0 -0.25370102580463139 0.2052288024824625 0 -0.23019370483249479 0.22382880503591951 0 -0.2201791270054278 0.2018915085508021 0 -0.23019370483249479 0.22382880503591951 0 -0.2201791270054278 0.2018915085508021 0 -0.20675937919977869 0.22287432483882261 0 -0.25370102580463139 0.2052288024824625 0 -0.23019370483249479 0.22382880503591951 0 -0.23359887481107691 0.1809086922627815 0 -0.2201791270054278 0.2018915085508021 0 -0.20517995294037331 0.17379218369948349 0 -0.2201791270054278 0.2018915085508021 0 -0.19686056424972551 0.20437535499954981 0 -0.20517995294037331 0.17379218369948349 0 -0.19686056424972551 0.20437535499954981 0 -0.17870530295493239 0.18804735871836689 0 -0.19686056424972551 0.20437535499954981 0 -0.20675937919977869 0.22287432483882261 0 -0.19122946023172571 0.22600186257262461 0 -0.19686056424972551 0.20437535499954981 0 -0.19122946023172571 0.22600186257262461 0 -0.179110163166115 0.21364489161719899 0 -0.2201791270054278 0.2018915085508021 0 -0.19686056424972551 0.20437535499954981 0 -0.20675937919977869 0.22287432483882261 0 -0.2201791270054278 0.2018915085508021 0 -0.20675937919977869 0.22287432483882261 0 -0.23019370483249479 0.22382880503591951 0 -0.2066863838603582 0.24242880758937649 0 -0.23019370483249479 0.22382880503591951 0 -0.20675937919977869 0.22287432483882261 0 -0.2066863838603582 0.24242880758937649 0 -0.20675937919977869 0.22287432483882261 0 -0.19333963139412971 0.24385714112684301 0 -0.20675937919977869 0.22287432483882261 0 -0.19122946023172571 0.22600186257262461 0 -0.19333963139412971 0.24385714112684301 0 -0.19122946023172571 0.22600186257262461 0 -0.19333963139412971 0.24385714112684301 0 -0.17951502337729761 0.2392424245160312 0 -0.20675937919977869 0.22287432483882261 0 -0.19333963139412971 0.24385714112684301 0 -0.2066863838603582 0.24242880758937649 0 -0.18259587964237009 0.2606558300825601 0 -0.19333963139412971 0.24385714112684301 0 -0.2066863838603582 0.24242880758937649 0 -0.21408768962570049 0.25938306782852782 0 -0.22371849106378741 0.2462845034026982 0 -0.2066863838603582 0.24242880758937649 0 -0.1532221513837192 0.25419418888983192 0 -0.17951502337729761 0.2392424245160312 0 -0.15110003921584569 0.22881829817408891 0 -0.18259587964237009 0.2606558300825601 0 -0.19333963139412971 0.24385714112684301 0 -0.17951502337729761 0.2392424245160312 0 -0.17951502337729761 0.2392424245160312 0 -0.1619547442009632 0.2162214427956837 0 -0.179110163166115 0.21364489161719899 0 -0.19122946023172571 0.22600186257262461 0 -0.17951502337729761 0.2392424245160312 0 -0.179110163166115 0.21364489161719899 0 -0.17951502337729761 0.2392424245160312 0 -0.179110163166115 0.21364489161719899 0 -0.17951502337729761 0.2392424245160312 0 -0.1619547442009632 0.2162214427956837 0 -0.15110003921584569 0.22881829817408891 0 -0.1619547442009632 0.2162214427956837 0 -0.179110163166115 0.21364489161719899 0 -0.17870530295493239 0.18804735871836689 0 -0.19686056424972551 0.20437535499954981 0 -0.179110163166115 0.21364489161719899 0 -0.17870530295493239 0.18804735871836689 0 -0.179110163166115 0.21364489161719899 0 -0.17870530295493239 0.18804735871836689 0 -0.1619547442009632 0.2162214427956837 0 -0.17870530295493239 0.18804735871836689 0 -0.15775407484820861 0.18727827749961631 0 -0.14804225966403101 0.20585853828705919 0 -0.15775407484820861 0.18727827749961631 0 -0.13876353146598761 0.18223131465273959 0 -0.1619547442009632 0.2162214427956837 0 -0.14804225966403101 0.20585853828705919 0 -0.15775407484820861 0.18727827749961631 0 -0.13876353146598761 0.18223131465273959 0 -0.1245765098090509 0.17966052017845999 0 -0.1190175871807343 0.20067046473278771 0 -0.14804225966403101 0.20585853828705919 0 -0.13876353146598761 0.18223131465273959 0 -0.1190175871807343 0.20067046473278771 0 -0.14804225966403101 0.20585853828705919 0 -0.13479108425045189 0.2189379304695287 0 -0.1190175871807343 0.20067046473278771 0 -0.13479108425045189 0.2189379304695287 0 -0.12594818007053379 0.2253828658525201 0 -0.1190175871807343 0.20067046473278771 0 -0.1619547442009632 0.2162214427956837 0 -0.14804225966403101 0.20585853828705919 0 -0.15110003921584569 0.22881829817408891 0 -0.14804225966403101 0.20585853828705919 0 -0.15110003921584569 0.22881829817408891 0 -0.13479108425045189 0.2189379304695287 0 -0.15110003921584569 0.22881829817408891 0 -0.13479108425045189 0.2189379304695287 0 -0.1378537507735782 0.22769286600650679 0 -0.15110003921584569 0.22881829817408891 0 -0.1378537507735782 0.22769286600650679 0 -0.13827307027013019 0.2362506378269415 0 -0.13479108425045189 0.2189379304695287 0 -0.12594818007053379 0.2253828658525201 0 -0.1378537507735782 0.22769286600650679 0 -0.12594818007053379 0.2253828658525201 0 -0.1378537507735782 0.22769286600650679 0 -0.13827307027013019 0.2362506378269415 0 -0.12594818007053379 0.2253828658525201 0 -0.13827307027013019 0.2362506378269415 0 -0.1327712538659816 0.24971188635390451 0 -0.12594818007053379 0.2253828658525201 0 -0.1327712538659816 0.24971188635390451 0 -0.1532221513837192 0.25419418888983192 0 -0.15110003921584569 0.22881829817408891 0 -0.13827307027013019 0.2362506378269415 0 -0.1532221513837192 0.25419418888983192 0 -0.13827307027013019 0.2362506378269415 0 -0.1327712538659816 0.24971188635390451 0 -0.16317411874061041 0.14897554401654969 0 -0.16113979031376621 0.12743058591966341 0 -0.1447888583061562 0.1436064118174607 0 -0.16317411874061041 0.14897554401654969 0 -0.16113979031376621 0.12743058591966341 0 -0.17789558253256721 0.1368522929207025 0 -0.17749072232138041 0.1112547600218704 0 -0.16113979031376621 0.12743058591966341 0 -0.17789558253256721 0.1368522929207025 0 -0.19150979458678249 0.1243728737611647 0 -0.19274338499996449 0.14807478539393409 0 -0.17789558253256721 0.1368522929207025 0 -0.16317411874061041 0.14897554401654969 0 -0.17789558253256721 0.1368522929207025 0 -0.17830044274374979 0.16244982581953471 0 -0.17789558253256721 0.1368522929207025 0 -0.17830044274374979 0.16244982581953471 0 -0.19274338499996449 0.14807478539393409 0 -0.17789558253256721 0.1368522929207025 0 -0.17830044274374979 0.16244982581953471 0 -0.20517995294037331 0.17379218369948349 0 -0.17870530295493239 0.18804735871836689 0 -0.17830044274374979 0.16244982581953471 0 -0.17870530295493239 0.18804735871836689 0 -0.17830044274374979 0.16244982581953471 0 -0.17870530295493239 0.18804735871836689 0 -0.17830044274374979 0.16244982581953471 0 -0.15775407484820861 0.18727827749961631 0 -0.17830044274374979 0.16244982581953471 0 -0.15775407484820861 0.18727827749961631 0 -0.15245232938168229 0.1648839185887534 0 -0.16317411874061041 0.14897554401654969 0 -0.17830044274374979 0.16244982581953471 0 -0.15245232938168229 0.1648839185887534 0 -0.15775407484820861 0.18727827749961631 0 -0.15245232938168229 0.1648839185887534 0 -0.13876353146598761 0.18223131465273959 0 -0.13876353146598761 0.18223131465273959 0 -0.12843792629854631 0.15978223771525801 0 -0.1245765098090509 0.17966052017845999 0 -0.15245232938168229 0.1648839185887534 0 -0.13876353146598761 0.18223131465273959 0 -0.12843792629854631 0.15978223771525801 0 -0.12843792629854631 0.15978223771525801 0 -0.1447888583061562 0.1436064118174607 0 -0.12843792629854631 0.15978223771525801 0 -0.1447888583061562 0.1436064118174607 0 -0.1204435081575875 0.14623213693654391 0 -0.16317411874061041 0.14897554401654969 0 -0.15245232938168229 0.1648839185887534 0 -0.1447888583061562 0.1436064118174607 0 -0.15245232938168229 0.1648839185887534 0 -0.12843792629854631 0.15978223771525801 0 -0.1447888583061562 0.1436064118174607 0 -0.16113979031376621 0.12743058591966341 0 -0.1447888583061562 0.1436064118174607 0 -0.14300315410871919 0.1253406317882016 0 -0.16113979031376621 0.12743058591966341 0 -0.1447888583061562 0.1436064118174607 0 -0.1447888583061562 0.1436064118174607 0 -0.12687331202938101 0.13192737382428379 0 -0.1204435081575875 0.14623213693654391 0 -0.1447888583061562 0.1436064118174607 0 -0.14300315410871919 0.1253406317882016 0 -0.12687331202938101 0.13192737382428379 0 -0.12687331202938101 0.13192737382428379 0 -0.1130049083687871 0.13722853083192951 0 -0.10667563132183119 0.1260080396076822 0 -0.12687331202938101 0.13192737382428379 0 -0.1130049083687871 0.13722853083192951 0 -0.1204435081575875 0.14623213693654391 0 -0.10667563132183119 0.1260080396076822 0 -0.081978849477511453 0.1384377215961772 0 -0.096577670607123245 0.1239972751083621 0 -0.10667563132183119 0.1260080396076822 0 -0.1008242758955458 0.1385116675773613 0 -0.081978849477511453 0.1384377215961772 0 -0.10667563132183119 0.1260080396076822 0 -0.081978849477511453 0.1384377215961772 0 -0.1130049083687871 0.13722853083192951 0 -0.10667563132183119 0.1260080396076822 0 -0.1008242758955458 0.1385116675773613 0 -0.1130049083687871 0.13722853083192951 0 -0.1008242758955458 0.1385116675773613 0 -0.1078791741402548 0.14587794917826699 0 -0.094422293866394627 0.1556947047027778 0 -0.094582816169344081 0.14500609667275041 0 -0.1078791741402548 0.14587794917826699 0 -0.1008242758955458 0.1385116675773613 0 -0.094582816169344081 0.14500609667275041 0 -0.1078791741402548 0.14587794917826699 0 -0.12843792629854631 0.15978223771525801 0 -0.1204435081575875 0.14623213693654391 0 -0.1073217141416921 0.15896651377475199 0 -0.1078791741402548 0.14587794917826699 0 -0.1204435081575875 0.14623213693654391 0 -0.1073217141416921 0.15896651377475199 0 -0.1130049083687871 0.13722853083192951 0 -0.1078791741402548 0.14587794917826699 0 -0.1204435081575875 0.14623213693654391 0 -0.12843792629854631 0.15978223771525801 0 -0.1245765098090509 0.17966052017845999 0 -0.1120869942909358 0.17595806361305491 0 -0.1120869942909358 0.17595806361305491 0 -0.1073217141416921 0.15896651377475199 0 -0.12843792629854631 0.15978223771525801 0 -0.1120869942909358 0.17595806361305491 0 -0.12843792629854631 0.15978223771525801 0 -0.1120869942909358 0.17595806361305491 0 -0.1073217141416921 0.15896651377475199 0 -0.1245765098090509 0.17966052017845999 0 -0.1120869942909358 0.17595806361305491 0 -0.1190175871807343 0.20067046473278771 0 -0.1120869942909358 0.17595806361305491 0 -0.1020860412129876 0.1687304780430319 0 -0.095149617161195271 0.19271405424946009 0 -0.1020860412129876 0.1687304780430319 0 -0.095149617161195271 0.19271405424946009 0 -0.1120869942909358 0.17595806361305491 0 -0.095149617161195271 0.19271405424946009 0 -0.1020860412129876 0.1687304780430319 0 -0.093279947424905002 0.17994671451597891 0 -0.095149617161195271 0.19271405424946009 0 -0.1020860412129876 0.1687304780430319 0 -0.089956478385260899 0.16811851343374709 0 -0.093279947424905002 0.17994671451597891 0 -0.094422293866394627 0.1556947047027778 0 -0.1078791741402548 0.14587794917826699 0 -0.1020860412129876 0.1687304780430319 0 -0.1078791741402548 0.14587794917826699 0 -0.1073217141416921 0.15896651377475199 0 -0.1020860412129876 0.1687304780430319 0 -0.1120869942909358 0.17595806361305491 0 -0.1073217141416921 0.15896651377475199 0 -0.1020860412129876 0.1687304780430319 0 -0.1078791741402548 0.14587794917826699 0 -0.1020860412129876 0.1687304780430319 0 -0.094422293866394627 0.1556947047027778 0 -0.1020860412129876 0.1687304780430319 0 -0.089956478385260899 0.16811851343374709 0 -0.094422293866394627 0.1556947047027778 0 -0.089956478385260899 0.16811851343374709 0 -0.084742563178951485 0.15922574422532609 0 -0.089956478385260899 0.16811851343374709 0 -0.080023232193096983 0.1657260639694961 0 -0.084742563178951485 0.15922574422532609 0 -0.089956478385260899 0.16811851343374709 0 -0.080023232193096983 0.1657260639694961 0 -0.081293191825158789 0.17801619480298669 0 -0.080023232193096983 0.1657260639694961 0 -0.084742563178951485 0.15922574422532609 0 -0.074930767296401246 0.15918989644816289 0 -0.081293191825158789 0.17801619480298669 0 -0.095149617161195271 0.19271405424946009 0 -0.073474196407973841 0.19079473501472519 0 -0.081293191825158789 0.17801619480298669 0 -0.095149617161195271 0.19271405424946009 0 -0.093279947424905002 0.17994671451597891 0 -0.081293191825158789 0.17801619480298669 0 -0.095149617161195271 0.19271405424946009 0 -0.089956478385260899 0.16811851343374709 0 -0.093279947424905002 0.17994671451597891 0 -0.081293191825158789 0.17801619480298669 0 -0.064604308801312821 0.18244611143699499 0 -0.069549912031587807 0.17131438064227461 0 -0.073474196407973841 0.19079473501472519 0 -0.081293191825158789 0.17801619480298669 0 -0.069549912031587807 0.17131438064227461 0 -0.073474196407973841 0.19079473501472519 0 -0.069549912031587807 0.17131438064227461 0 -0.073474196407973841 0.19079473501472519 0 -0.064604308801312821 0.18244611143699499 0 -0.069549912031587807 0.17131438064227461 0 -0.062041409668937363 0.1723934095439342 0 -0.084742563178951485 0.15922574422532609 0 -0.074930767296401246 0.15918989644816289 0 -0.074588176879671189 0.15080810715310269 0 -0.080023232193096983 0.1657260639694961 0 -0.074930767296401246 0.15918989644816289 0 -0.06743676648912228 0.16331833535651319 0 -0.081293191825158789 0.17801619480298669 0 -0.069549912031587807 0.17131438064227461 0 -0.06743676648912228 0.16331833535651319 0 -0.080023232193096983 0.1657260639694961 0 -0.081293191825158789 0.17801619480298669 0 -0.06743676648912228 0.16331833535651319 0 -0.081293191825158789 0.17801619480298669 0 -0.06743676648912228 0.16331833535651319 0 -0.069549912031587807 0.17131438064227461 0 -0.062031688412593149 0.16441565219234799 0 -0.062041409668937363 0.1723934095439342 0 -0.069549912031587807 0.17131438064227461 0 -0.06743676648912228 0.16331833535651319 0 -0.062031688412593149 0.16441565219234799 0 -0.06743676648912228 0.16331833535651319 0 -0.06725389334219653 0.15771987894696021 0 -0.062031688412593149 0.16441565219234799 0 -0.074930767296401246 0.15918989644816289 0 -0.06743676648912228 0.16331833535651319 0 -0.06725389334219653 0.15771987894696021 0 -0.081978849477511453 0.1384377215961772 0 -0.05728206763319247 0.1508674035846734 0 -0.06725389334219653 0.15771987894696021 0 -0.074588176879671189 0.15080810715310269 0 -0.05728206763319247 0.1508674035846734 0 -0.074588176879671189 0.15080810715310269 0 -0.081978849477511453 0.1384377215961772 0 -0.05728206763319247 0.1508674035846734 0 -0.081978849477511453 0.1384377215961772 0 -0.06070043620975589 0.134524720015781 0 -0.05728206763319247 0.1508674035846734 0 -0.074930767296401246 0.15918989644816289 0 -0.06725389334219653 0.15771987894696021 0 -0.074588176879671189 0.15080810715310269 0 -0.071786582042575819 0.1280585334591178 0 -0.081978849477511453 0.1384377215961772 0 -0.08034823769671974 0.121089655777625 0 -0.071786582042575819 0.1280585334591178 0 -0.081978849477511453 0.1384377215961772 0 -0.06070043620975589 0.134524720015781 0 -0.071786582042575819 0.1280585334591178 0 -0.06070043620975589 0.134524720015781 0 -0.06411880478631618 0.11818203644688791 0 -0.081978849477511453 0.1384377215961772 0 -0.08034823769671974 0.121089655777625 0 -0.096577670607123245 0.1239972751083621 0 -0.1008242758955458 0.1385116675773613 0 -0.094582816169344081 0.14500609667275041 0 -0.081978849477511453 0.1384377215961772 0 -0.094582816169344081 0.14500609667275041 0 -0.081978849477511453 0.1384377215961772 0 -0.0854808471676783 0.14892295327365951 0 -0.094422293866394627 0.1556947047027778 0 -0.084742563178951485 0.15922574422532609 0 -0.0854808471676783 0.14892295327365951 0 -0.094422293866394627 0.1556947047027778 0 -0.094582816169344081 0.14500609667275041 0 -0.0854808471676783 0.14892295327365951 0 -0.084742563178951485 0.15922574422532609 0 -0.074588176879671189 0.15080810715310269 0 -0.0854808471676783 0.14892295327365951 0 -0.074588176879671189 0.15080810715310269 0 -0.081978849477511453 0.1384377215961772 0 -0.0854808471676783 0.14892295327365951 0 -0.1045487088169635 0.24438495162540061 0 -0.11455994162881621 0.23631135170566109 0 -0.098826177075254387 0.23394696074010041 0 -0.10005120432924321 0.25626016583208688 0 -0.094679029848152713 0.24609146959404629 0 -0.1045487088169635 0.24438495162540061 0 -0.094679029848152713 0.24609146959404629 0 -0.1045487088169635 0.24438495162540061 0 -0.098826177075254387 0.23394696074010041 0 -0.116744543106582 0.25728181003509248 0 -0.1045487088169635 0.24438495162540061 0 -0.11455994162881621 0.23631135170566109 0 -0.116744543106582 0.25728181003509248 0 -0.1327712538659816 0.24971188635390451 0 -0.11455994162881621 0.23631135170566109 0 -0.12594818007053379 0.2253828658525201 0 -0.1327712538659816 0.24971188635390451 0 -0.11455994162881621 0.23631135170566109 0 -0.11455994162881621 0.23631135170566109 0 -0.1144435087069731 0.2232582902708152 0 -0.1063794885369051 0.22193246116811141 0 -0.12594818007053379 0.2253828658525201 0 -0.1144435087069731 0.2232582902708152 0 -0.1108864245916369 0.20940648235696879 0 -0.12594818007053379 0.2253828658525201 0 -0.11455994162881621 0.23631135170566109 0 -0.1144435087069731 0.2232582902708152 0 -0.11455994162881621 0.23631135170566109 0 -0.1063794885369051 0.22193246116811141 0 -0.098826177075254387 0.23394696074010041 0 -0.1063794885369051 0.22193246116811141 0 -0.098826177075254387 0.23394696074010041 0 -0.089950704149474564 0.21660149084549701 0 -0.1063794885369051 0.22193246116811141 0 -0.089950704149474564 0.21660149084549701 0 -0.10053720550511509 0.21148400771379949 0 -0.095149617161195271 0.19271405424946009 0 -0.089950704149474564 0.21660149084549701 0 -0.1063794885369051 0.22193246116811141 0 -0.10053720550511509 0.21148400771379949 0 -0.089950704149474564 0.21660149084549701 0 -0.10053720550511509 0.21148400771379949 0 -0.1108864245916369 0.20940648235696879 0 -0.095149617161195271 0.19271405424946009 0 -0.1063794885369051 0.22193246116811141 0 -0.10053720550511509 0.21148400771379949 0 -0.1108864245916369 0.20940648235696879 0 -0.12594818007053379 0.2253828658525201 0 -0.1190175871807343 0.20067046473278771 0 -0.12594818007053379 0.2253828658525201 0 -0.1108864245916369 0.20940648235696879 0 -0.1190175871807343 0.20067046473278771 0 -0.12594818007053379 0.2253828658525201 0 -0.1108864245916369 0.20940648235696879 0 -0.1144435087069731 0.2232582902708152 0 -0.1063794885369051 0.22193246116811141 0 -0.1108864245916369 0.20940648235696879 0 -0.1120869942909358 0.17595806361305491 0 -0.1190175871807343 0.20067046473278771 0 -0.1108864245916369 0.20940648235696879 0 -0.1190175871807343 0.20067046473278771 0 -0.10682171669235439 0.1942096232944058 0 -0.1120869942909358 0.17595806361305491 0 -0.1190175871807343 0.20067046473278771 0 -0.10682171669235439 0.1942096232944058 0 -0.1108864245916369 0.20940648235696879 0 -0.095149617161195271 0.19271405424946009 0 -0.1108864245916369 0.20940648235696879 0 -0.10682171669235439 0.1942096232944058 0 -0.095149617161195271 0.19271405424946009 0 -0.1120869942909358 0.17595806361305491 0 -0.10682171669235439 0.1942096232944058 0 -0.095149617161195271 0.19271405424946009 0 -0.095149617161195271 0.19271405424946009 0 -0.077398480784349299 0.2102750893871779 0 -0.095149617161195271 0.19271405424946009 0 -0.073474196407973841 0.19079473501472519 0 -0.077398480784349299 0.2102750893871779 0 -0.095149617161195271 0.19271405424946009 0 -0.077398480784349299 0.2102750893871779 0 -0.087241526055590657 0.20514135106535239 0 -0.073474196407973841 0.19079473501472519 0 -0.077398480784349299 0.2102750893871779 0 -0.073474196407973841 0.19079473501472519 0 -0.077398480784349299 0.2102750893871779 0 -0.068984895145132993 0.20348567813270921 0 -0.064604308801312821 0.18244611143699499 0 -0.073474196407973841 0.19079473501472519 0 -0.062951628171730722 0.19451437844324071 0 -0.073474196407973841 0.19079473501472519 0 -0.062951628171730722 0.19451437844324071 0 -0.068984895145132993 0.20348567813270921 0 -0.062951628171730722 0.19451437844324071 0 -0.068984895145132993 0.20348567813270921 0 -0.057478398324341332 0.20606456403591589 0 -0.068984895145132993 0.20348567813270921 0 -0.075683327299925024 0.21197187487555791 0 -0.057478398324341332 0.20606456403591589 0 -0.075683327299925024 0.21197187487555791 0 -0.060700713784132942 0.2267940359372384 0 -0.057478398324341332 0.20606456403591589 0 -0.075683327299925024 0.21197187487555791 0 -0.057478398324341332 0.20606456403591589 0 -0.077398480784349299 0.2102750893871779 0 -0.068984895145132993 0.20348567813270921 0 -0.075683327299925024 0.21197187487555791 0 -0.075683327299925024 0.21197187487555791 0 -0.077884159070199604 0.2126860219832131 0 -0.060700713784132942 0.2267940359372384 0 -0.075683327299925024 0.21197187487555791 0 -0.077884159070199604 0.2126860219832131 0 -0.077398480784349299 0.2102750893871779 0 -0.075683327299925024 0.21197187487555791 0 -0.077884159070199604 0.2126860219832131 0 -0.077398480784349299 0.2102750893871779 0 -0.077884159070199604 0.2126860219832131 0 -0.077398480784349299 0.2102750893871779 0 -0.075683327299925024 0.21197187487555791 0 -0.077884159070199604 0.2126860219832131 0 -0.089950704149474564 0.21660149084549701 0 -0.077884159070199604 0.2126860219832131 0 -0.087241526055590657 0.20514135106535239 0 -0.089950704149474564 0.21660149084549701 0 -0.095149617161195271 0.19271405424946009 0 -0.087241526055590657 0.20514135106535239 0 -0.089950704149474564 0.21660149084549701 0 -0.095149617161195271 0.19271405424946009 0 -0.089950704149474564 0.21660149084549701 0 -0.077398480784349299 0.2102750893871779 0 -0.077884159070199604 0.2126860219832131 0 -0.087241526055590657 0.20514135106535239 0 -0.077884159070199604 0.2126860219832131 0 -0.083666647235009842 0.24139059785004849 0 -0.089950704149474564 0.21660149084549701 0 -0.083666647235009842 0.24139059785004849 0 -0.077884159070199604 0.2126860219832131 0 -0.089950704149474564 0.21660149084549701 0 -0.083666647235009842 0.24139059785004849 0 -0.098826177075254387 0.23394696074010041 0 -0.089950704149474564 0.21660149084549701 0 -0.083666647235009842 0.24139059785004849 0 -0.077884159070199604 0.2126860219832131 0 -0.083666647235009842 0.24139059785004849 0 -0.060700713784132942 0.2267940359372384 0 -0.075683327299925024 0.21197187487555791 0 -0.060700713784132942 0.2267940359372384 0 -0.064077212627390134 0.24851538469076631 0 -0.083666647235009842 0.24139059785004849 0 -0.060700713784132942 0.2267940359372384 0 -0.086302411784292182 0.25447467192259482 0 -0.083666647235009842 0.24139059785004849 0 -0.094679029848152713 0.24609146959404629 0 -0.098826177075254387 0.23394696074010041 0 -0.083666647235009842 0.24139059785004849 0 -0.086302411784292182 0.25447467192259482 0 -0.094679029848152713 0.24609146959404629 0 -0.083666647235009842 0.24139059785004849 0 -0.03068766995985707 0.25286978792993342 0 -0.034335222642673788 0.23481172099035691 0 -0.046578861792199937 0.24361118962503389 0 -0.034335222642673788 0.23481172099035691 0 -0.046578861792199937 0.24361118962503389 0 -0.045510089746351297 0.2289623102588538 0 -0.064077212627390134 0.24851538469076631 0 -0.046578861792199937 0.24361118962503389 0 -0.055802081643016588 0.23164020743468811 0 -0.064077212627390134 0.24851538469076631 0 -0.055802081643016588 0.23164020743468811 0 -0.060700713784132942 0.2267940359372384 0 -0.064077212627390134 0.24851538469076631 0 -0.060700713784132942 0.2267940359372384 0 -0.046578861792199937 0.24361118962503389 0 -0.055802081643016588 0.23164020743468811 0 -0.045510089746351297 0.2289623102588538 0 -0.055802081643016588 0.23164020743468811 0 -0.053252725762674542 0.2222055350902031 0 -0.045510089746351297 0.2289623102588538 0 -0.055802081643016588 0.23164020743468811 0 -0.060700713784132942 0.2267940359372384 0 -0.053252725762674542 0.2222055350902031 0 -0.055802081643016588 0.23164020743468811 0 -0.060700713784132942 0.2267940359372384 0 -0.053252725762674542 0.2222055350902031 0 -0.045510089746351297 0.2289623102588538 0 -0.046772345315528908 0.21756655778431969 0 -0.045510089746351297 0.2289623102588538 0 -0.036443083940353373 0.22210497005765251 0 -0.046772345315528908 0.21756655778431969 0 -0.034335222642673788 0.23481172099035691 0 -0.045510089746351297 0.2289623102588538 0 -0.036443083940353373 0.22210497005765251 0 -0.034335222642673788 0.23481172099035691 0 -0.036443083940353373 0.22210497005765251 0 -0.024866254401544021 0.22078734426404351 0 -0.036443083940353373 0.22210497005765251 0 -0.046772345315528908 0.21756655778431969 0 -0.031637039445344017 0.19767931081015269 0 -0.046772345315528908 0.21756655778431969 0 -0.057478398324341332 0.20606456403591589 0 -0.031637039445344017 0.19767931081015269 0 -0.060700713784132942 0.2267940359372384 0 -0.053252725762674542 0.2222055350902031 0 -0.057478398324341332 0.20606456403591589 0 -0.060700713784132942 0.2267940359372384 0 -0.057478398324341332 0.20606456403591589 0 -0.053252725762674542 0.2222055350902031 0 -0.046772345315528908 0.21756655778431969 0 -0.057478398324341332 0.20606456403591589 0 -0.062951628171730722 0.19451437844324071 0 -0.057478398324341332 0.20606456403591589 0 -0.054948738746262903 0.1897910154656581 0 -0.057478398324341332 0.20606456403591589 0 -0.054948738746262903 0.1897910154656581 0 -0.031637039445344017 0.19767931081015269 0 -0.057478398324341332 0.20606456403591589 0 -0.054948738746262903 0.1897910154656581 0 -0.054948738746262903 0.1897910154656581 0 -0.031637039445344017 0.19767931081015269 0 -0.039999697082172873 0.18418677263352329 0 -0.057478398324341332 0.20606456403591589 0 -0.031637039445344017 0.19767931081015269 0 -0.031637039445344017 0.19767931081015269 0 -0.0057956805663459468 0.1892940575843915 0 -0.031637039445344017 0.19767931081015269 0 -0.0057956805663459468 0.1892940575843915 0 -0.024775833668462071 0.17590936267321361 0 -0.031637039445344017 0.19767931081015269 0 -0.0057956805663459468 0.1892940575843915 0 -0.01019634689217482 0.20814994011246479 0 -0.0057956805663459468 0.1892940575843915 0 -0.01019634689217482 0.20814994011246479 0 0.0090806704795409685 0.20996839310177981 0 -0.01019634689217482 0.20814994011246479 0 0.00014186162909880781 0.2338185852574263 0 0.0090806704795409685 0.20996839310177981 0 -0.036443083940353373 0.22210497005765251 0 -0.031637039445344017 0.19767931081015269 0 -0.024866254401544021 0.22078734426404351 0 -0.031637039445344017 0.19767931081015269 0 -0.01019634689217482 0.20814994011246479 0 -0.024866254401544021 0.22078734426404351 0 -0.034335222642673788 0.23481172099035691 0 -0.024866254401544021 0.22078734426404351 0 -0.01991034591062427 0.239405390953495 0 -0.024866254401544021 0.22078734426404351 0 0.00014186162909880781 0.2338185852574263 0 -0.024866254401544021 0.22078734426404351 0 -0.01991034591062427 0.239405390953495 0 0.00014186162909880781 0.2338185852574263 0 -0.01019634689217482 0.20814994011246479 0 -0.024866254401544021 0.22078734426404351 0 0.00014186162909880781 0.2338185852574263 0 -0.0098044441781452579 0.25473951632571468 0 0.00014186162909880781 0.2338185852574263 0 0.0073806355134042019 0.25529449578482938 0 -0.0098044441781452579 0.25473951632571468 0 -0.01991034591062427 0.239405390953495 0 0.00014186162909880781 0.2338185852574263 0 -0.03068766995985707 0.25286978792993342 0 -0.034335222642673788 0.23481172099035691 0 -0.01991034591062427 0.239405390953495 0 -0.03068766995985707 0.25286978792993342 0 -0.0098044441781452579 0.25473951632571468 0 -0.01991034591062427 0.239405390953495 0 -0.045513089216113363 0.1481501368583191 0 -0.039963318838929777 0.1583549670989208 0 -0.028048700007850699 0.14601834090005769 0 -0.045513089216113363 0.1481501368583191 0 -0.037584816749385713 0.12707105787504261 0 -0.028048700007850699 0.14601834090005769 0 -0.037584816749385713 0.12707105787504261 0 -0.028048700007850699 0.14601834090005769 0 -0.045513089216113363 0.1481501368583191 0 -0.037584816749385713 0.12707105787504261 0 -0.045513089216113363 0.1481501368583191 0 -0.037584816749385713 0.12707105787504261 0 -0.049753839012929922 0.13582205838018921 0 -0.037584816749385713 0.12707105787504261 0 -0.049753839012929922 0.13582205838018921 0 -0.051208231868337763 0.1260313133231428 0 -0.049753839012929922 0.13582205838018921 0 -0.06070043620975589 0.134524720015781 0 -0.052276118599972977 0.1457036522838337 0 -0.051208231868337763 0.1260313133231428 0 -0.06070043620975589 0.134524720015781 0 -0.06411880478631618 0.11818203644688791 0 -0.06070043620975589 0.134524720015781 0 -0.06411880478631618 0.11818203644688791 0 -0.049753839012929922 0.13582205838018921 0 -0.051208231868337763 0.1260313133231428 0 -0.06070043620975589 0.134524720015781 0 -0.06070043620975589 0.134524720015781 0 -0.052276118599972977 0.1457036522838337 0 -0.05728206763319247 0.1508674035846734 0 -0.06070043620975589 0.134524720015781 0 -0.05728206763319247 0.1508674035846734 0 -0.045513089216113363 0.1481501368583191 0 -0.049753839012929922 0.13582205838018921 0 -0.052276118599972977 0.1457036522838337 0 -0.045513089216113363 0.1481501368583191 0 -0.052276118599972977 0.1457036522838337 0 -0.053440893212920608 0.15280063427064891 0 -0.052276118599972977 0.1457036522838337 0 -0.053440893212920608 0.15280063427064891 0 -0.05728206763319247 0.1508674035846734 0 -0.053440893212920608 0.15280063427064891 0 -0.05728206763319247 0.1508674035846734 0 -0.05728206763319247 0.1508674035846734 0 -0.062031688412593149 0.16441565219234799 0 -0.053441361682841117 0.16922921584159559 0 -0.053440893212920608 0.15280063427064891 0 -0.05728206763319247 0.1508674035846734 0 -0.053441361682841117 0.16922921584159559 0 -0.045513089216113363 0.1481501368583191 0 -0.053440893212920608 0.15280063427064891 0 -0.053441361682841117 0.16922921584159559 0 -0.045513089216113363 0.1481501368583191 0 -0.053441361682841117 0.16922921584159559 0 -0.05728206763319247 0.1508674035846734 0 -0.053441361682841117 0.16922921584159559 0 -0.06725389334219653 0.15771987894696021 0 -0.05728206763319247 0.1508674035846734 0 -0.062031688412593149 0.16441565219234799 0 -0.062031688412593149 0.16441565219234799 0 -0.053441361682841117 0.16922921584159559 0 -0.062041409668937363 0.1723934095439342 0 -0.053441361682841117 0.16922921584159559 0 -0.047633738945979477 0.17108968717192211 0 -0.039963318838929777 0.1583549670989208 0 -0.052991971448818453 0.17137768000779441 0 -0.053441361682841117 0.16922921584159559 0 -0.047633738945979477 0.17108968717192211 0 -0.052991971448818453 0.17137768000779441 0 -0.053441361682841117 0.16922921584159559 0 -0.054948738746262903 0.1897910154656581 0 -0.052419079168185397 0.17351746689540021 0 -0.046888846475854867 0.17837904804597579 0 -0.062951628171730722 0.19451437844324071 0 -0.054948738746262903 0.1897910154656581 0 -0.052419079168185397 0.17351746689540021 0 -0.062951628171730722 0.19451437844324071 0 -0.052991971448818453 0.17137768000779441 0 -0.052419079168185397 0.17351746689540021 0 -0.064604308801312821 0.18244611143699499 0 -0.062951628171730722 0.19451437844324071 0 -0.053441361682841117 0.16922921584159559 0 -0.062951628171730722 0.19451437844324071 0 -0.052991971448818453 0.17137768000779441 0 -0.053441361682841117 0.16922921584159559 0 -0.054948738746262903 0.1897910154656581 0 -0.052419079168185397 0.17351746689540021 0 -0.062951628171730722 0.19451437844324071 0 -0.053441361682841117 0.16922921584159559 0 -0.064604308801312821 0.18244611143699499 0 -0.053441361682841117 0.16922921584159559 0 -0.062041409668937363 0.1723934095439342 0 -0.052991971448818453 0.17137768000779441 0 -0.047633738945979477 0.17108968717192211 0 -0.052419079168185397 0.17351746689540021 0 -0.047633738945979477 0.17108968717192211 0 -0.052419079168185397 0.17351746689540021 0 -0.046888846475854867 0.17837904804597579 0 -0.054948738746262903 0.1897910154656581 0 -0.046888846475854867 0.17837904804597579 0 -0.039999697082172873 0.18418677263352329 0 -0.031637039445344017 0.19767931081015269 0 -0.039999697082172873 0.18418677263352329 0 -0.024775833668462071 0.17590936267321361 0 -0.046888846475854867 0.17837904804597579 0 -0.039999697082172873 0.18418677263352329 0 -0.039442978436673673 0.17331029806337539 0 -0.047633738945979477 0.17108968717192211 0 -0.046888846475854867 0.17837904804597579 0 -0.039442978436673673 0.17331029806337539 0 -0.039442978436673673 0.17331029806337539 0 -0.032139483942643897 0.16694135859911591 0 -0.024775833668462071 0.17590936267321361 0 -0.039999697082172873 0.18418677263352329 0 -0.039442978436673673 0.17331029806337539 0 -0.024775833668462071 0.17590936267321361 0 -0.045513089216113363 0.1481501368583191 0 -0.053441361682841117 0.16922921584159559 0 -0.039963318838929777 0.1583549670989208 0 -0.039963318838929777 0.1583549670989208 0 -0.032139483942643897 0.16694135859911591 0 -0.02343924065842673 0.15869802647678349 0 -0.047633738945979477 0.17108968717192211 0 -0.039442978436673673 0.17331029806337539 0 -0.039963318838929777 0.1583549670989208 0 -0.039442978436673673 0.17331029806337539 0 -0.039963318838929777 0.1583549670989208 0 -0.032139483942643897 0.16694135859911591 0 -0.032139483942643897 0.16694135859911591 0 -0.02343924065842673 0.15869802647678349 0 -0.024775833668462071 0.17590936267321361 0 -0.02343924065842673 0.15869802647678349 0 -0.024775833668462071 0.17590936267321361 0 -0.0048034666842798916 0.1614245706846468 0 -0.0057956805663459468 0.1892940575843915 0 -0.024775833668462071 0.17590936267321361 0 -0.0048034666842798916 0.1614245706846468 0 -0.0048034666842798916 0.1614245706846468 0 -0.01090464080839405 0.14353955890474629 0 0.011098566836083609 0.13484946890849181 0 -0.02343924065842673 0.15869802647678349 0 -0.0048034666842798916 0.1614245706846468 0 -0.01090464080839405 0.14353955890474629 0 -0.039963318838929777 0.1583549670989208 0 -0.02343924065842673 0.15869802647678349 0 -0.028048700007850699 0.14601834090005769 0 -0.02343924065842673 0.15869802647678349 0 -0.01090464080839405 0.14353955890474629 0 -0.028048700007850699 0.14601834090005769 0 -0.037584816749385713 0.12707105787504261 0 -0.0187932077553963 0.1304023687453105 0 -0.02482114599867602 0.1199028763409456 0 -0.01090464080839405 0.14353955890474629 0 -0.028048700007850699 0.14601834090005769 0 -0.0187932077553963 0.1304023687453105 0 -0.037584816749385713 0.12707105787504261 0 -0.028048700007850699 0.14601834090005769 0 -0.0187932077553963 0.1304023687453105 0 -0.0064436606074630637 0.13109611639504981 0 -0.007175360702145514 0.1155930690216506 0 0.011098566836083609 0.13484946890849181 0 -0.01090464080839405 0.14353955890474629 0 -0.0064436606074630637 0.13109611639504981 0 0.011098566836083609 0.13484946890849181 0 -0.0187932077553963 0.1304023687453105 0 -0.0064436606074630637 0.13109611639504981 0 -0.007175360702145514 0.1155930690216506 0 -0.01090464080839405 0.14353955890474629 0 -0.0187932077553963 0.1304023687453105 0 -0.0064436606074630637 0.13109611639504981 0 -0.007175360702145514 0.1155930690216506 0 -0.0040088977147468936 0.097024336429998151 0 -0.013655752966245171 0.094180689311720855 0 -0.007175360702145514 0.1155930690216506 0 -0.0040088977147468936 0.097024336429998151 0 0.0025937760044158291 0.1064596481343341 0 -0.007175360702145514 0.1155930690216506 0 -0.013655752966245171 0.094180689311720855 0 -0.02544928824037461 0.096336669134809427 0 -0.029459919491476121 0.1011230655410132 0 -0.021580178673492881 0.1105609364200745 0 -0.037915498494119543 0.10215930426450601 0 -0.007175360702145514 0.1155930690216506 0 -0.02544928824037461 0.096336669134809427 0 -0.007175360702145514 0.1155930690216506 0 -0.02544928824037461 0.096336669134809427 0 -0.0241566231860777 0.1021061234229471 0 -0.02544928824037461 0.096336669134809427 0 -0.029459919491476121 0.1011230655410132 0 -0.035034026511796899 0.0954599165668297 0 -0.02544928824037461 0.096336669134809427 0 -0.029459919491476121 0.1011230655410132 0 -0.0241566231860777 0.1021061234229471 0 -0.02544928824037461 0.096336669134809427 0 -0.0241566231860777 0.1021061234229471 0 -0.029459919491476121 0.1011230655410132 0 -0.0241566231860777 0.1021061234229471 0 -0.021580178673492881 0.1105609364200745 0 -0.02482114599867602 0.1199028763409456 0 -0.021580178673492881 0.1105609364200745 0 -0.032585978911933711 0.11378053360982859 0 -0.007175360702145514 0.1155930690216506 0 -0.0241566231860777 0.1021061234229471 0 -0.021580178673492881 0.1105609364200745 0 -0.0187932077553963 0.1304023687453105 0 -0.007175360702145514 0.1155930690216506 0 -0.02482114599867602 0.1199028763409456 0 -0.007175360702145514 0.1155930690216506 0 -0.02482114599867602 0.1199028763409456 0 -0.021580178673492881 0.1105609364200745 0 -0.01109578586274463 0.07592966442077155 0 -0.01963881101933795 0.057650575484614511 0 -0.0089029190745683329 0.062319161291970238 0 -0.0031702267477386531 0.067180855403790804 0 -0.01109578586274463 0.07592966442077155 0 0.0065236609159091173 0.071671444604676282 0 -0.0031702267477386531 0.067180855403790804 0 -0.0089029190745683329 0.062319161291970238 0 0.00079413703044923156 0.058803151297745167 0 -0.0031702267477386531 0.067180855403790804 0 -0.01109578586274463 0.07592966442077155 0 -0.0089029190745683329 0.062319161291970238 0 -0.0040088977147468936 0.097024336429998151 0 -0.01109578586274463 0.07592966442077155 0 0.011643404763696401 0.092949868607662828 0 -0.0040088977147468936 0.097024336429998151 0 -0.013655752966245171 0.094180689311720855 0 -0.01109578586274463 0.07592966442077155 0 -0.013655752966245171 0.094180689311720855 0 -0.01109578586274463 0.07592966442077155 0 -0.02054943231121421 0.086019707551374502 0 -0.02544928824037461 0.096336669134809427 0 -0.02054943231121421 0.086019707551374502 0 -0.029642132364781061 0.077623064684345475 0 -0.02544928824037461 0.096336669134809427 0 -0.029642132364781061 0.077623064684345475 0 -0.036673455980692451 0.084509049595857907 0 -0.01109578586274463 0.07592966442077155 0 -0.02054943231121421 0.086019707551374502 0 -0.029642132364781061 0.077623064684345475 0 -0.02544928824037461 0.096336669134809427 0 -0.029642132364781061 0.077623064684345475 0 -0.013655752966245171 0.094180689311720855 0 -0.02544928824037461 0.096336669134809427 0 -0.02054943231121421 0.086019707551374502 0 -0.02544928824037461 0.096336669134809427 0 -0.036673455980692451 0.084509049595857907 0 -0.01109578586274463 0.07592966442077155 0 -0.033834976489186493 0.058909460233881362 0 -0.01109578586274463 0.07592966442077155 0 -0.029642132364781061 0.077623064684345475 0 -0.033834976489186493 0.058909460233881362 0 -0.01109578586274463 0.07592966442077155 0 -0.033834976489186493 0.058909460233881362 0 -0.01963881101933795 0.057650575484614511 0 -0.029642132364781061 0.077623064684345475 0 -0.033834976489186493 0.058909460233881362 0 -0.029642132364781061 0.077623064684345475 0 -0.036732086871232597 0.066761861307427367 0 -0.033834976489186493 0.058909460233881362 0 -0.042969512877196837 0.063698159366550891 0 -0.036732086871232597 0.066761861307427367 0 -0.038306240480512441 0.072768089837317376 0 -0.042969512877196837 0.063698159366550891 0 -0.038306240480512441 0.072768089837317376 0 -0.046136221960229658 0.070392563092827029 0 -0.042969512877196837 0.063698159366550891 0 -0.036732086871232597 0.066761861307427367 0 -0.038907572144486188 0.060810532415041758 0 -0.029642132364781061 0.077623064684345475 0 -0.036732086871232597 0.066761861307427367 0 -0.038306240480512441 0.072768089837317376 0 -0.038306240480512441 0.072768089837317376 0 -0.046136221960229658 0.070392563092827029 0 -0.043586306971417507 0.077534071189344175 0 -0.038306240480512441 0.072768089837317376 0 -0.043586306971417507 0.077534071189344175 0 -0.036673455980692451 0.084509049595857907 0 -0.043586306971417507 0.077534071189344175 0 -0.036673455980692451 0.084509049595857907 0 -0.046978765451358998 0.084182386091036676 0 -0.029642132364781061 0.077623064684345475 0 -0.038306240480512441 0.072768089837317376 0 -0.036673455980692451 0.084509049595857907 0 -0.02544928824037461 0.096336669134809427 0 -0.036673455980692451 0.084509049595857907 0 -0.035034026511796899 0.0954599165668297 0 -0.036673455980692451 0.084509049595857907 0 -0.044089979176562301 0.093675305350012283 0 -0.035034026511796899 0.0954599165668297 0 -0.036673455980692451 0.084509049595857907 0 -0.044089979176562301 0.093675305350012283 0 -0.046978765451358998 0.084182386091036676 0 -0.044089979176562301 0.093675305350012283 0 -0.057144835734191893 0.088207312209507505 0 -0.046978765451358998 0.084182386091036676 0 -0.057144835734191893 0.088207312209507505 0 -0.046978765451358998 0.084182386091036676 0 -0.053399249393930842 0.076986192110461482 0 -0.043586306971417507 0.077534071189344175 0 -0.046978765451358998 0.084182386091036676 0 -0.053399249393930842 0.076986192110461482 0 -0.053399249393930842 0.076986192110461482 0 -0.070406408885084593 0.061857930521202607 0 -0.059815066152941319 0.061788281472960463 0 -0.057144835734191893 0.088207312209507505 0 -0.053399249393930842 0.076986192110461482 0 -0.070406408885084593 0.061857930521202607 0 -0.046136221960229658 0.070392563092827029 0 -0.043586306971417507 0.077534071189344175 0 -0.053399249393930842 0.076986192110461482 0 -0.046136221960229658 0.070392563092827029 0 -0.053399249393930842 0.076986192110461482 0 -0.05257832837313995 0.068950164376806455 0 -0.053399249393930842 0.076986192110461482 0 -0.05257832837313995 0.068950164376806455 0 -0.059815066152941319 0.061788281472960463 0 -0.05257832837313995 0.068950164376806455 0 -0.052166049838275927 0.062310195238599278 0 -0.059815066152941319 0.061788281472960463 0 -0.046136221960229658 0.070392563092827029 0 -0.05257832837313995 0.068950164376806455 0 -0.052166049838275927 0.062310195238599278 0 -0.042969512877196837 0.063698159366550891 0 -0.046136221960229658 0.070392563092827029 0 -0.052166049838275927 0.062310195238599278 0 -0.021580178673492881 0.1105609364200745 0 -0.043883262583300407 0.11455669389781301 0 -0.021580178673492881 0.1105609364200745 0 -0.043883262583300407 0.11455669389781301 0 -0.032585978911933711 0.11378053360982859 0 -0.037584816749385713 0.12707105787504261 0 -0.051208231868337763 0.1260313133231428 0 -0.043883262583300407 0.11455669389781301 0 -0.037584816749385713 0.12707105787504261 0 -0.043883262583300407 0.11455669389781301 0 -0.037584816749385713 0.12707105787504261 0 -0.032585978911933711 0.11378053360982859 0 -0.037584816749385713 0.12707105787504261 0 -0.043883262583300407 0.11455669389781301 0 -0.032585978911933711 0.11378053360982859 0 -0.037584816749385713 0.12707105787504261 0 -0.02482114599867602 0.1199028763409456 0 -0.032585978911933711 0.11378053360982859 0 -0.021580178673492881 0.1105609364200745 0 -0.043883262583300407 0.11455669389781301 0 -0.037915498494119543 0.10215930426450601 0 -0.044089979176562301 0.093675305350012283 0 -0.043883262583300407 0.11455669389781301 0 -0.037915498494119543 0.10215930426450601 0 -0.044089979176562301 0.093675305350012283 0 -0.037915498494119543 0.10215930426450601 0 -0.035034026511796899 0.0954599165668297 0 -0.029459919491476121 0.1011230655410132 0 -0.037915498494119543 0.10215930426450601 0 -0.035034026511796899 0.0954599165668297 0 -0.044089979176562301 0.093675305350012283 0 -0.057144835734191893 0.088207312209507505 0 -0.043883262583300407 0.11455669389781301 0 -0.057144835734191893 0.088207312209507505 0 -0.043883262583300407 0.11455669389781301 0 -0.057144835734191893 0.088207312209507505 0 -0.043883262583300407 0.11455669389781301 0 -0.056175626513735713 0.104231459755559 0 -0.056175626513735713 0.104231459755559 0 -0.061770267295803899 0.1005995653590098 0 -0.06411880478631618 0.11818203644688791 0 -0.057144835734191893 0.088207312209507505 0 -0.056175626513735713 0.104231459755559 0 -0.061770267295803899 0.1005995653590098 0 -0.043883262583300407 0.11455669389781301 0 -0.06411880478631618 0.11818203644688791 0 -0.051208231868337763 0.1260313133231428 0 -0.043883262583300407 0.11455669389781301 0 -0.06411880478631618 0.11818203644688791 0 -0.043883262583300407 0.11455669389781301 0 -0.056175626513735713 0.104231459755559 0 -0.06411880478631618 0.11818203644688791 0 -0.071786582042575819 0.1280585334591178 0 -0.06411880478631618 0.11818203644688791 0 -0.08034823769671974 0.121089655777625 0 -0.06411880478631618 0.11818203644688791 0 -0.08034823769671974 0.121089655777625 0 -0.075381325115152609 0.106019298300689 0 -0.06411880478631618 0.11818203644688791 0 -0.08034823769671974 0.121089655777625 0 -0.08034823769671974 0.121089655777625 0 -0.096577670607123245 0.1239972751083621 0 -0.08034823769671974 0.121089655777625 0 -0.092569001324263961 0.1124699312803344 0 -0.096577670607123245 0.1239972751083621 0 -0.08034823769671974 0.121089655777625 0 -0.083967771981719092 0.1102844810624737 0 -0.092569001324263961 0.1124699312803344 0 -0.08034823769671974 0.121089655777625 0 -0.083967771981719092 0.1102844810624737 0 -0.075381325115152609 0.106019298300689 0 -0.087572523790740042 0.10155903889124659 0 -0.082071947835387321 0.094412947715560025 0 -0.09233625647768956 0.091651488650119919 0 -0.083967771981719092 0.1102844810624737 0 -0.092569001324263961 0.1124699312803344 0 -0.087572523790740042 0.10155903889124659 0 -0.083967771981719092 0.1102844810624737 0 -0.087572523790740042 0.10155903889124659 0 -0.075381325115152609 0.106019298300689 0 -0.087572523790740042 0.10155903889124659 0 -0.082071947835387321 0.094412947715560025 0 -0.075381325115152609 0.106019298300689 0 -0.06411880478631618 0.11818203644688791 0 -0.06964180214897181 0.091777453024084701 0 -0.082071947835387321 0.094412947715560025 0 -0.075381325115152609 0.106019298300689 0 -0.06964180214897181 0.091777453024084701 0 -0.06411880478631618 0.11818203644688791 0 -0.075381325115152609 0.106019298300689 0 -0.06964180214897181 0.091777453024084701 0 -0.061770267295803899 0.1005995653590098 0 -0.06411880478631618 0.11818203644688791 0 -0.06964180214897181 0.091777453024084701 0 -0.057144835734191893 0.088207312209507505 0 -0.061770267295803899 0.1005995653590098 0 -0.06964180214897181 0.091777453024084701 0 -0.06964180214897181 0.091777453024084701 0 -0.075164799511626648 0.065372869601281192 0 -0.057144835734191893 0.088207312209507505 0 -0.06964180214897181 0.091777453024084701 0 -0.068089461569968729 0.076803891339018993 0 -0.06964180214897181 0.091777453024084701 0 -0.068089461569968729 0.076803891339018993 0 -0.075164799511626648 0.065372869601281192 0 -0.057144835734191893 0.088207312209507505 0 -0.068089461569968729 0.076803891339018993 0 -0.070406408885084593 0.061857930521202607 0 -0.06964180214897181 0.091777453024084701 0 -0.075164799511626648 0.065372869601281192 0 -0.08073347634316104 0.073575546631144614 0 -0.057144835734191893 0.088207312209507505 0 -0.070406408885084593 0.061857930521202607 0 -0.068089461569968729 0.076803891339018993 0 -0.075164799511626648 0.065372869601281192 0 -0.070406408885084593 0.061857930521202607 0 -0.089923560922876636 0.068178037636278263 0 -0.08578586832533959 0.082170087930996366 0 -0.103675070998617 0.083967309240415983 0 -0.08073347634316104 0.073575546631144614 0 -0.089923560922876636 0.068178037636278263 0 -0.083186879645449088 0.059889597987781727 0 -0.075164799511626648 0.065372869601281192 0 -0.08073347634316104 0.073575546631144614 0 -0.083186879645449088 0.059889597987781727 0 -0.08073347634316104 0.073575546631144614 0 -0.089923560922876636 0.068178037636278263 0 -0.08578586832533959 0.082170087930996366 0 -0.06964180214897181 0.091777453024084701 0 -0.08073347634316104 0.073575546631144614 0 -0.08578586832533959 0.082170087930996366 0 -0.082071947835387321 0.094412947715560025 0 -0.06964180214897181 0.091777453024084701 0 -0.08578586832533959 0.082170087930996366 0 -0.082071947835387321 0.094412947715560025 0 -0.08578586832533959 0.082170087930996366 0 -0.09233625647768956 0.091651488650119919 0 -0.09233625647768956 0.091651488650119919 0 -0.103675070998617 0.083967309240415983 0 -0.10429444750695741 0.1014886749251958 0 -0.08578586832533959 0.082170087930996366 0 -0.09233625647768956 0.091651488650119919 0 -0.103675070998617 0.083967309240415983 0 -0.103675070998617 0.083967309240415983 0 -0.1198812247159142 0.095002477965890675 0 -0.10429444750695741 0.1014886749251958 0 -0.089923560922876636 0.068178037636278263 0 -0.103675070998617 0.083967309240415983 0 -0.10785209906359081 0.065371441260914459 0 -0.12533951967512769 0.078274991835817334 0 -0.103675070998617 0.083967309240415983 0 -0.10785209906359081 0.065371441260914459 0 -0.12533951967512769 0.078274991835817334 0 -0.10785209906359081 0.065371441260914459 0 -0.1248745965026067 0.059896082918310993 0 -0.12533951967512769 0.078274991835817334 0 -0.103675070998617 0.083967309240415983 0 -0.1198812247159142 0.095002477965890675 0 -0.13137241316615089 0.11357835761918721 0 -0.1198812247159142 0.095002477965890675 0 -0.10429444750695741 0.1014886749251958 0 -0.13137241316615089 0.11357835761918721 0 -0.12687331202938101 0.13192737382428379 0 -0.10667563132183119 0.1260080396076822 0 -0.13137241316615089 0.11357835761918721 0 -0.10667563132183119 0.1260080396076822 0 -0.1062978327852654 0.11550845570815239 0 -0.13137241316615089 0.11357835761918721 0 -0.1062978327852654 0.11550845570815239 0 -0.10429444750695741 0.1014886749251958 0 -0.13137241316615089 0.11357835761918721 0 -0.10667563132183119 0.1260080396076822 0 -0.10667563132183119 0.1260080396076822 0 -0.1062978327852654 0.11550845570815239 0 -0.096577670607123245 0.1239972751083621 0 -0.092569001324263961 0.1124699312803344 0 -0.1062978327852654 0.11550845570815239 0 -0.096577670607123245 0.1239972751083621 0 -0.092569001324263961 0.1124699312803344 0 -0.1062978327852654 0.11550845570815239 0 -0.10429444750695741 0.1014886749251958 0 -0.092569001324263961 0.1124699312803344 0 -0.087572523790740042 0.10155903889124659 0 -0.10429444750695741 0.1014886749251958 0 -0.087572523790740042 0.10155903889124659 0 -0.09233625647768956 0.091651488650119919 0 -0.10429444750695741 0.1014886749251958 0 -0.10370969952600501 0.019997694726909911 0 -0.098524362227562057 0.035744340183224317 0 -0.08645931971955316 0.02325136753113614 0 -0.10370969952600501 0.019997694726909911 0 -0.08645931971955316 0.02325136753113614 0 -0.091682611010439896 0.0063963380850077774 0 -0.10370969952600501 0.019997694726909911 0 -0.1180188049733784 0.030804183747700629 0 -0.098524362227562057 0.035744340183224317 0 -0.10370969952600501 0.019997694726909911 0 -0.10877227824827949 0.0075748546359299482 0 -0.091682611010439896 0.0063963380850077774 0 -0.1029392013539359 -0.0085751277431150782 0 -0.10877227824827949 0.0075748546359299482 0 -0.091682611010439896 0.0063963380850077774 0 -0.10370969952600501 0.019997694726909911 0 -0.10877227824827949 0.0075748546359299482 0 -0.11835839359799651 0.016938700943610479 0 -0.1029392013539359 -0.0085751277431150782 0 -0.12735709500343681 0.004015926865657337 0 -0.10877227824827949 0.0075748546359299482 0 -0.12735709500343681 0.004015926865657337 0 -0.10877227824827949 0.0075748546359299482 0 -0.11835839359799651 0.016938700943610479 0 -0.1339340902388827 0.022300844741854581 0 -0.11835839359799651 0.016938700943610479 0 -0.1180188049733784 0.030804183747700629 0 -0.10370969952600501 0.019997694726909911 0 -0.11835839359799651 0.016938700943610479 0 -0.1180188049733784 0.030804183747700629 0 -0.1180188049733784 0.030804183747700629 0 -0.1128457876968547 0.048091259023394652 0 -0.098524362227562057 0.035744340183224317 0 -0.13626681081840961 0.042829268155062397 0 -0.1128457876968547 0.048091259023394652 0 -0.13626681081840961 0.042829268155062397 0 -0.1180188049733784 0.030804183747700629 0 -0.1128457876968547 0.048091259023394652 0 -0.13626681081840961 0.042829268155062397 0 -0.1128457876968547 0.048091259023394652 0 -0.1248745965026067 0.059896082918310993 0 -0.10785209906359081 0.065371441260914459 0 -0.1128457876968547 0.048091259023394652 0 -0.1248745965026067 0.059896082918310993 0 -0.1128457876968547 0.048091259023394652 0 -0.089424764575299687 0.053353249891726941 0 -0.089923560922876636 0.068178037636278263 0 -0.10785209906359081 0.065371441260914459 0 -0.089424764575299687 0.053353249891726941 0 -0.10785209906359081 0.065371441260914459 0 -0.1128457876968547 0.048091259023394652 0 -0.089424764575299687 0.053353249891726941 0 -0.1128457876968547 0.048091259023394652 0 -0.098524362227562057 0.035744340183224317 0 -0.089424764575299687 0.053353249891726941 0 -0.098524362227562057 0.035744340183224317 0 -0.080687796874281473 0.038968286178477703 0 -0.08645931971955316 0.02325136753113614 0 -0.098524362227562057 0.035744340183224317 0 -0.080687796874281473 0.038968286178477703 0 -0.089424764575299687 0.053353249891726941 0 -0.080687796874281473 0.038968286178477703 0 -0.089424764575299687 0.053353249891726941 0 -0.083186879645449088 0.059889597987781727 0 -0.075164799511626648 0.065372869601281192 0 -0.080687796874281473 0.038968286178477703 0 -0.083186879645449088 0.059889597987781727 0 -0.089923560922876636 0.068178037636278263 0 -0.089424764575299687 0.053353249891726941 0 -0.083186879645449088 0.059889597987781727 0 -0.075164799511626648 0.065372869601281192 0 -0.080687796874281473 0.038968286178477703 0 -0.071303082845968715 0.053347503409362687 0 -0.075164799511626648 0.065372869601281192 0 -0.080687796874281473 0.038968286178477703 0 -0.075164799511626648 0.065372869601281192 0 -0.070406408885084593 0.061857930521202607 0 -0.071303082845968715 0.053347503409362687 0 -0.071303082845968715 0.053347503409362687 0 -0.064856269609628314 0.055117702274744398 0 -0.065400139349222536 0.045420728471107522 0 -0.070406408885084593 0.061857930521202607 0 -0.071303082845968715 0.053347503409362687 0 -0.064856269609628314 0.055117702274744398 0 -0.070406408885084593 0.061857930521202607 0 -0.064856269609628314 0.055117702274744398 0 -0.059815066152941319 0.061788281472960463 0 -0.080687796874281473 0.038968286178477703 0 -0.065400139349222536 0.045420728471107522 0 -0.063264057366842208 0.031259222641012697 0 -0.080687796874281473 0.038968286178477703 0 -0.063264057366842208 0.031259222641012697 0 -0.073460039823911166 0.024685388153665749 0 -0.080687796874281473 0.038968286178477703 0 -0.071303082845968715 0.053347503409362687 0 -0.065400139349222536 0.045420728471107522 0 -0.063264057366842208 0.031259222641012697 0 -0.073460039823911166 0.024685388153665749 0 -0.061440697951084179 0.017621877449499421 0 -0.073460039823911166 0.024685388153665749 0 -0.076769634387976737 0.01135693610240161 0 -0.061440697951084179 0.017621877449499421 0 -0.080687796874281473 0.038968286178477703 0 -0.073460039823911166 0.024685388153665749 0 -0.08645931971955316 0.02325136753113614 0 -0.073460039823911166 0.024685388153665749 0 -0.08645931971955316 0.02325136753113614 0 -0.076769634387976737 0.01135693610240161 0 -0.08645931971955316 0.02325136753113614 0 -0.091682611010439896 0.0063963380850077774 0 -0.076769634387976737 0.01135693610240161 0 -0.091682611010439896 0.0063963380850077774 0 -0.078933949510919491 0.00072378658541613432 0 -0.076769634387976737 0.01135693610240161 0 -0.086097875964997059 -0.0058870606910941042 0 -0.091682611010439896 0.0063963380850077774 0 -0.078933949510919491 0.00072378658541613432 0 -0.078933949510919491 0.00072378658541613432 0 -0.076769634387976737 0.01135693610240161 0 -0.068462160169621672 0.0025537029525893409 0 -0.068462160169621672 0.0025537029525893409 0 -0.057836245250817257 0.0062936453779614283 0 -0.061440697951084179 0.017621877449499421 0 -0.076769634387976737 0.01135693610240161 0 -0.068462160169621672 0.0025537029525893409 0 -0.061440697951084179 0.017621877449499421 0 -0.057836245250817257 0.0062936453779614283 0 -0.061440697951084179 0.017621877449499421 0 -0.042678209040760022 0.019440128409622049 0 -0.057836245250817257 0.0062936453779614283 0 -0.042678209040760022 0.019440128409622049 0 -0.044352522143416888 0.0050416822031405977 0 -0.063264057366842208 0.031259222641012697 0 -0.042678209040760022 0.019440128409622049 0 -0.05195897498334151 0.039592758420259042 0 -0.063264057366842208 0.031259222641012697 0 -0.061440697951084179 0.017621877449499421 0 -0.042678209040760022 0.019440128409622049 0 -0.042678209040760022 0.019440128409622049 0 -0.038256592764973757 0.039174794321751791 0 -0.042678209040760022 0.019440128409622049 0 -0.038256592764973757 0.039174794321751791 0 -0.027511467414372541 0.03001296694831072 0 -0.042678209040760022 0.019440128409622049 0 -0.028180513839983729 0.018098474401369 0 -0.027511467414372541 0.03001296694831072 0 -0.042678209040760022 0.019440128409622049 0 -0.032770024037711037 0.0084985419153508525 0 -0.028180513839983729 0.018098474401369 0 -0.032770024037711037 0.0084985419153508525 0 -0.03614709390981162 0.0015378833132510439 0 -0.044352522143416888 0.0050416822031405977 0 -0.029539197120254941 -0.00051038393964639519 0 -0.032770024037711037 0.0084985419153508525 0 -0.03614709390981162 0.0015378833132510439 0 -0.042678209040760022 0.019440128409622049 0 -0.032770024037711037 0.0084985419153508525 0 -0.044352522143416888 0.0050416822031405977 0 -0.042969512877196837 0.063698159366550891 0 -0.047980875447113908 0.056604040506729722 0 -0.052166049838275927 0.062310195238599278 0 -0.047980875447113908 0.056604040506729722 0 -0.052166049838275927 0.062310195238599278 0 -0.055804220694704088 0.051985500715961808 0 -0.064856269609628314 0.055117702274744398 0 -0.059815066152941319 0.061788281472960463 0 -0.055804220694704088 0.051985500715961808 0 -0.052166049838275927 0.062310195238599278 0 -0.059815066152941319 0.061788281472960463 0 -0.055804220694704088 0.051985500715961808 0 -0.064856269609628314 0.055117702274744398 0 -0.065400139349222536 0.045420728471107522 0 -0.055804220694704088 0.051985500715961808 0 -0.047980875447113908 0.056604040506729722 0 -0.055804220694704088 0.051985500715961808 0 -0.046350630683546529 0.050276175962098407 0 -0.055804220694704088 0.051985500715961808 0 -0.05195897498334151 0.039592758420259042 0 -0.046350630683546529 0.050276175962098407 0 -0.065400139349222536 0.045420728471107522 0 -0.055804220694704088 0.051985500715961808 0 -0.05195897498334151 0.039592758420259042 0 -0.065400139349222536 0.045420728471107522 0 -0.063264057366842208 0.031259222641012697 0 -0.05195897498334151 0.039592758420259042 0 -0.042678209040760022 0.019440128409622049 0 -0.05195897498334151 0.039592758420259042 0 -0.038256592764973757 0.039174794321751791 0 -0.05195897498334151 0.039592758420259042 0 -0.038256592764973757 0.039174794321751791 0 -0.046350630683546529 0.050276175962098407 0 -0.038256592764973757 0.039174794321751791 0 -0.033834976489186493 0.058909460233881362 0 -0.038256592764973757 0.039174794321751791 0 -0.038513274033404883 0.055407770980391423 0 -0.033834976489186493 0.058909460233881362 0 -0.038256592764973757 0.039174794321751791 0 -0.046350630683546529 0.050276175962098407 0 -0.038513274033404883 0.055407770980391423 0 -0.038256592764973757 0.039174794321751791 0 -0.033834976489186493 0.058909460233881362 0 -0.02879531395286377 0.050132256585483953 0 -0.046350630683546529 0.050276175962098407 0 -0.038513274033404883 0.055407770980391423 0 -0.042914570065583427 0.057802329486214707 0 -0.036732086871232597 0.066761861307427367 0 -0.033834976489186493 0.058909460233881362 0 -0.038907572144486188 0.060810532415041758 0 -0.038513274033404883 0.055407770980391423 0 -0.033834976489186493 0.058909460233881362 0 -0.038513274033404883 0.055407770980391423 0 -0.033834976489186493 0.058909460233881362 0 -0.038907572144486188 0.060810532415041758 0 -0.042969512877196837 0.063698159366550891 0 -0.038907572144486188 0.060810532415041758 0 -0.042914570065583427 0.057802329486214707 0 -0.038513274033404883 0.055407770980391423 0 -0.038907572144486188 0.060810532415041758 0 -0.042914570065583427 0.057802329486214707 0 -0.047980875447113908 0.056604040506729722 0 -0.046350630683546529 0.050276175962098407 0 -0.042914570065583427 0.057802329486214707 0 -0.042969512877196837 0.063698159366550891 0 -0.047980875447113908 0.056604040506729722 0 -0.042914570065583427 0.057802329486214707 0 -0.033834976489186493 0.058909460233881362 0 -0.01963881101933795 0.057650575484614511 0 -0.02879531395286377 0.050132256585483953 0 -0.01963881101933795 0.057650575484614511 0 -0.02879531395286377 0.050132256585483953 0 -0.02345087553795689 0.044794196301688183 0 -0.01963881101933795 0.057650575484614511 0 -0.02345087553795689 0.044794196301688183 0 -0.012175026131353321 0.050402421608982242 0 -0.02345087553795689 0.044794196301688183 0 -0.014695186475719159 0.0359408453649432 0 -0.012175026131353321 0.050402421608982242 0 -0.038256592764973757 0.039174794321751791 0 -0.02879531395286377 0.050132256585483953 0 -0.02345087553795689 0.044794196301688183 0 -0.038256592764973757 0.039174794321751791 0 -0.02345087553795689 0.044794196301688183 0 -0.027511467414372541 0.03001296694831072 0 -0.02345087553795689 0.044794196301688183 0 -0.014695186475719159 0.0359408453649432 0 -0.027511467414372541 0.03001296694831072 0 -0.014695186475719159 0.0359408453649432 0 -0.0023331541944977092 0.045311556235899067 0 0.00074240361007229996 0.028778475488121531 0 -0.014695186475719159 0.0359408453649432 0 -0.0023331541944977092 0.045311556235899067 0 -0.012175026131353321 0.050402421608982242 0 -0.0023331541944977092 0.045311556235899067 0 -0.012175026131353321 0.050402421608982242 0 0.00079413703044923156 0.058803151297745167 0 -0.012175026131353321 0.050402421608982242 0 -0.0089029190745683329 0.062319161291970238 0 0.00079413703044923156 0.058803151297745167 0 -0.01963881101933795 0.057650575484614511 0 -0.012175026131353321 0.050402421608982242 0 -0.0089029190745683329 0.062319161291970238 0 -0.021996997598287969 0.010981086364913869 0 -0.02112675760807068 0.0030512678310729521 0 -0.0083058662928979787 0.012079608812324741 0 -0.021996997598287969 0.010981086364913869 0 -0.01661374249992489 0.02103319015209278 0 -0.0083058662928979787 0.012079608812324741 0 -0.021996997598287969 0.010981086364913869 0 -0.02112675760807068 0.0030512678310729521 0 -0.02631380729169577 0.0053104208567875946 0 -0.029539197120254941 -0.00051038393964639519 0 -0.02112675760807068 0.0030512678310729521 0 -0.02631380729169577 0.0053104208567875946 0 -0.029539197120254941 -0.00051038393964639519 0 -0.032770024037711037 0.0084985419153508525 0 -0.02631380729169577 0.0053104208567875946 0 -0.032770024037711037 0.0084985419153508525 0 -0.021996997598287969 0.010981086364913869 0 -0.02631380729169577 0.0053104208567875946 0 -0.032770024037711037 0.0084985419153508525 0 -0.021996997598287969 0.010981086364913869 0 -0.028180513839983729 0.018098474401369 0 -0.028180513839983729 0.018098474401369 0 -0.027511467414372541 0.03001296694831072 0 -0.01661374249992489 0.02103319015209278 0 -0.014695186475719159 0.0359408453649432 0 -0.027511467414372541 0.03001296694831072 0 -0.01661374249992489 0.02103319015209278 0 -0.021996997598287969 0.010981086364913869 0 -0.028180513839983729 0.018098474401369 0 -0.01661374249992489 0.02103319015209278 0 -0.01661374249992489 0.02103319015209278 0 0.00074240361007229996 0.028778475488121531 0 -0.0083058662928979787 0.012079608812324741 0 0.0060294939382754481 0.01286563290641534 0 0.00074240361007229996 0.028778475488121531 0 -0.014695186475719159 0.0359408453649432 0 -0.01661374249992489 0.02103319015209278 0 0.00074240361007229996 0.028778475488121531 0 -0.0083058662928979787 0.012079608812324741 0 0.00074240361007229996 0.028778475488121531 0 -0.01661374249992489 0.02103319015209278 0 -0.0083058662928979787 0.012079608812324741 0 0.00074240361007229996 0.028778475488121531 0 -0.0072764121498596901 -0.0036325873431357339 0 -0.0083058662928979787 0.012079608812324741 0 0.0012074066645448821 -0.00065723147797176382 0 -0.0072764121498596901 -0.0036325873431357339 0 -0.013607688627124061 -0.00178224205395049 0 -0.0083058662928979787 0.012079608812324741 0 -0.017354136195868258 -0.0046192578634720229 0 -0.0083058662928979787 0.012079608812324741 0 -0.017354136195868258 -0.0046192578634720229 0 -0.013607688627124061 -0.00178224205395049 0 -0.0083058662928979787 0.012079608812324741 0 -0.0083058662928979787 0.012079608812324741 0 0.0060294939382754481 0.01286563290641534 0 0.0012074066645448821 -0.00065723147797176382 0 -0.017354136195868258 -0.0046192578634720229 0 -0.02112675760807068 0.0030512678310729521 0 -0.0083058662928979787 0.012079608812324741 0 0.0060294939382754481 0.01286563290641534 0 0.0012074066645448821 -0.00065723147797176382 0 0.01265631079038235 -0.01012693536007268 0 0.0060294939382754481 0.01286563290641534 0 0.020311547060899309 0.014329649790385431 0 0.01265631079038235 -0.01012693536007268 0 0.00074240361007229996 0.028778475488121531 0 0.015746539320639769 0.024046632949657649 0 0.022626785018342459 0.038544513255683338 0 0.0060294939382754481 0.01286563290641534 0 0.00074240361007229996 0.028778475488121531 0 0.015746539320639769 0.024046632949657649 0 0.0060294939382754481 0.01286563290641534 0 0.015746539320639769 0.024046632949657649 0 0.020311547060899309 0.014329649790385431 0 0.015746539320639769 0.024046632949657649 0 0.029022466975609298 0.02571489330768258 0 0.020311547060899309 0.014329649790385431 0 0.015746539320639769 0.024046632949657649 0 0.029022466975609298 0.02571489330768258 0 0.022626785018342459 0.038544513255683338 0 0.020311547060899309 0.014329649790385431 0 0.034885408484197772 0.0062912350017927032 0 0.01265631079038235 -0.01012693536007268 0 0.029022466975609298 0.02571489330768258 0 0.020311547060899309 0.014329649790385431 0 0.034885408484197772 0.0062912350017927032 0 0.00079413703044923156 0.058803151297745167 0 0.01366790099406239 0.052632887419703241 0 0.0065236609159091173 0.071671444604676282 0 -0.0023331541944977092 0.045311556235899067 0 0.00079413703044923156 0.058803151297745167 0 0.01366790099406239 0.052632887419703241 0 0.00074240361007229996 0.028778475488121531 0 0.01366790099406239 0.052632887419703241 0 0.022626785018342459 0.038544513255683338 0 0.00074240361007229996 0.028778475488121531 0 0.022626785018342459 0.038544513255683338 0 -0.0023331541944977092 0.045311556235899067 0 0.00074240361007229996 0.028778475488121531 0 0.01366790099406239 0.052632887419703241 0 0.00074240361007229996 0.028778475488121531 0 0.01366790099406239 0.052632887419703241 0 0.029022466975609298 0.02571489330768258 0 0.022626785018342459 0.038544513255683338 0 0.037630953216902623 0.033668105561091018 0 0.01366790099406239 0.052632887419703241 0 0.022626785018342459 0.038544513255683338 0 0.025434983742737761 0.055249644843112657 0 0.022626785018342459 0.038544513255683338 0 0.025434983742737761 0.055249644843112657 0 0.034616451435572633 0.051242168749322393 0 0.025434983742737761 0.055249644843112657 0 0.034062632092931817 0.061255223706808547 0 0.02703491536905472 0.067401080742933134 0 0.01366790099406239 0.052632887419703241 0 0.025434983742737761 0.055249644843112657 0 0.02703491536905472 0.067401080742933134 0 0.034616451435572633 0.051242168749322393 0 0.044511166426612833 0.04831055102324476 0 0.060132464308973767 0.062986029428160187 0 0.034616451435572633 0.051242168749322393 0 0.060132464308973767 0.062986029428160187 0 0.044258496001147778 0.063884183083345675 0 0.034062632092931817 0.061255223706808547 0 0.034616451435572633 0.051242168749322393 0 0.044258496001147778 0.063884183083345675 0 0.025434983742737761 0.055249644843112657 0 0.034062632092931817 0.061255223706808547 0 0.034616451435572633 0.051242168749322393 0 0.022626785018342459 0.038544513255683338 0 0.044511166426612833 0.04831055102324476 0 0.022626785018342459 0.038544513255683338 0 0.034616451435572633 0.051242168749322393 0 0.044511166426612833 0.04831055102324476 0 0.022626785018342459 0.038544513255683338 0 0.044511166426612833 0.04831055102324476 0 0.037630953216902623 0.033668105561091018 0 0.044511166426612833 0.04831055102324476 0 0.037630953216902623 0.033668105561091018 0 0.0484135161167236 0.034205204957136963 0 0.0484135161167236 0.034205204957136963 0 0.060669767880595721 0.038134724015348051 0 0.0518117103670514 0.042737821036878322 0 0.0484135161167236 0.034205204957136963 0 0.060669767880595721 0.038134724015348051 0 0.057623658326613529 0.02352368721002385 0 0.060669767880595721 0.038134724015348051 0 0.0518117103670514 0.042737821036878322 0 0.059559274975242667 0.047504887075434543 0 0.044511166426612833 0.04831055102324476 0 0.0518117103670514 0.042737821036878322 0 0.059559274975242667 0.047504887075434543 0 0.044511166426612833 0.04831055102324476 0 0.0484135161167236 0.034205204957136963 0 0.0518117103670514 0.042737821036878322 0 0.044511166426612833 0.04831055102324476 0 0.066395547834883203 0.05807658879080619 0 0.060132464308973767 0.062986029428160187 0 0.034616451435572633 0.051242168749322393 0 0.060132464308973767 0.062986029428160187 0 0.044511166426612833 0.04831055102324476 0 0.066395547834883203 0.05807658879080619 0 0.044511166426612833 0.04831055102324476 0 0.059559274975242667 0.047504887075434543 0 0.066395547834883203 0.05807658879080619 0 0.034885408484197772 0.0062912350017927032 0 0.052968053050369737 0.0090809173488315582 0 0.042517259973231587 -0.011683923625132649 0 0.034885408484197772 0.0062912350017927032 0 0.043580831547224863 0.021565365261707499 0 0.052968053050369737 0.0090809173488315582 0 0.029022466975609298 0.02571489330768258 0 0.034885408484197772 0.0062912350017927032 0 0.043580831547224863 0.021565365261707499 0 0.029022466975609298 0.02571489330768258 0 0.037630953216902623 0.033668105561091018 0 0.043580831547224863 0.021565365261707499 0 0.037630953216902623 0.033668105561091018 0 0.0484135161167236 0.034205204957136963 0 0.043580831547224863 0.021565365261707499 0 0.057623658326613529 0.02352368721002385 0 0.052968053050369737 0.0090809173488315582 0 0.071708216805815503 0.016768608491387289 0 0.043580831547224863 0.021565365261707499 0 0.057623658326613529 0.02352368721002385 0 0.052968053050369737 0.0090809173488315582 0 0.0484135161167236 0.034205204957136963 0 0.043580831547224863 0.021565365261707499 0 0.057623658326613529 0.02352368721002385 0 0.052968053050369737 0.0090809173488315582 0 0.071708216805815503 0.016768608491387289 0 0.067492943165135169 -0.0019794682467893379 0 0.083930998993742512 0.0059737405228527038 0 0.071708216805815503 0.016768608491387289 0 0.067492943165135169 -0.0019794682467893379 0 0.083930998993742512 0.0059737405228527038 0 0.098495163759696414 0.0029673617968291321 0 0.094917995650245529 0.021722354499223519 0 0.083930998993742512 0.0059737405228527038 0 0.071708216805815503 0.016768608491387289 0 0.094917995650245529 0.021722354499223519 0 0.071708216805815503 0.016768608491387289 0 0.07449934060461412 0.03258063005354956 0 0.094917995650245529 0.021722354499223519 0 0.07449934060461412 0.03258063005354956 0 0.087237150257314613 0.037926204838731957 0 0.094917995650245529 0.021722354499223519 0 0.057623658326613529 0.02352368721002385 0 0.071708216805815503 0.016768608491387289 0 0.07449934060461412 0.03258063005354956 0 0.060669767880595721 0.038134724015348051 0 0.057623658326613529 0.02352368721002385 0 0.07449934060461412 0.03258063005354956 0 0.060669767880595721 0.038134724015348051 0 0.069155187538762042 0.045022305850501279 0 0.07449934060461412 0.03258063005354956 0 0.060669767880595721 0.038134724015348051 0 0.059559274975242667 0.047504887075434543 0 0.069155187538762042 0.045022305850501279 0 0.069155187538762042 0.045022305850501279 0 0.07449934060461412 0.03258063005354956 0 0.079692196512252927 0.044953406994506007 0 0.059559274975242667 0.047504887075434543 0 0.069155187538762042 0.045022305850501279 0 0.067326156772233525 0.050603546620565112 0 0.059559274975242667 0.047504887075434543 0 0.066395547834883203 0.05807658879080619 0 0.067326156772233525 0.050603546620565112 0 0.066395547834883203 0.05807658879080619 0 0.067326156772233525 0.050603546620565112 0 0.074194616740046182 0.051810404765518438 0 0.069155187538762042 0.045022305850501279 0 0.067326156772233525 0.050603546620565112 0 0.074194616740046182 0.051810404765518438 0 0.069155187538762042 0.045022305850501279 0 0.074194616740046182 0.051810404765518438 0 0.079692196512252927 0.044953406994506007 0 0.066395547834883203 0.05807658879080619 0 0.074194616740046182 0.051810404765518438 0 0.080343143758095259 0.058335218209008277 0 0.066395547834883203 0.05807658879080619 0 0.080343143758095259 0.058335218209008277 0 0.08827992924315356 0.067842626558367619 0 0.080343143758095259 0.058335218209008277 0 0.083306510346727383 0.05351440315152866 0 0.090416084875221875 0.058235299142909973 0 0.074194616740046182 0.051810404765518438 0 0.083306510346727383 0.05351440315152866 0 0.079692196512252927 0.044953406994506007 0 0.083306510346727383 0.05351440315152866 0 0.089760373586053266 0.048866493307206167 0 0.079692196512252927 0.044953406994506007 0 0.074194616740046182 0.051810404765518438 0 0.080343143758095259 0.058335218209008277 0 0.083306510346727383 0.05351440315152866 0 0.083306510346727383 0.05351440315152866 0 0.089760373586053266 0.048866493307206167 0 0.090416084875221875 0.058235299142909973 0 0.089760373586053266 0.048866493307206167 0 0.090416084875221875 0.058235299142909973 0 0.099395501669828634 0.055681054702382278 0 0.080343143758095259 0.058335218209008277 0 0.090416084875221875 0.058235299142909973 0 0.08827992924315356 0.067842626558367619 0 0.087237150257314613 0.037926204838731957 0 0.098930039005792711 0.04227996871225087 0 0.094917995650245529 0.021722354499223519 0 0.07449934060461412 0.03258063005354956 0 0.079692196512252927 0.044953406994506007 0 0.087237150257314613 0.037926204838731957 0 0.089760373586053266 0.048866493307206167 0 0.079692196512252927 0.044953406994506007 0 0.087237150257314613 0.037926204838731957 0 0.089760373586053266 0.048866493307206167 0 0.087237150257314613 0.037926204838731957 0 0.098930039005792711 0.04227996871225087 0 0.10894092886672049 0.033503019923715648 0 0.098930039005792711 0.04227996871225087 0 0.11550376979223601 0.054551475820320147 0 0.10894092886672049 0.033503019923715648 0 0.098930039005792711 0.04227996871225087 0 0.094917995650245529 0.021722354499223519 0 0.098930039005792711 0.04227996871225087 0 0.099395501669828634 0.055681054702382278 0 0.11550376979223601 0.054551475820320147 0 0.099395501669828634 0.055681054702382278 0 0.11550376979223601 0.054551475820320147 0 0.10561354398445311 0.069921878226714862 0 0.090416084875221875 0.058235299142909973 0 0.099395501669828634 0.055681054702382278 0 0.095618088847860577 0.065038419849084594 0 0.089760373586053266 0.048866493307206167 0 0.098930039005792711 0.04227996871225087 0 0.099395501669828634 0.055681054702382278 0 0.10894092886672049 0.033503019923715648 0 0.11961069471150609 0.02296590295220987 0 0.12977361784467401 0.039215218793308727 0 0.10894092886672049 0.033503019923715648 0 0.11550376979223601 0.054551475820320147 0 0.12977361784467401 0.039215218793308727 0 0.11961069471150609 0.02296590295220987 0 0.1158546052028349 0.0064685721448778594 0 0.094917995650245529 0.021722354499223519 0 0.11961069471150609 0.02296590295220987 0 0.1158546052028349 0.0064685721448778594 0 0.13894824890776639 0.02136224913872127 0 0.1158546052028349 0.0064685721448778594 0 0.098495163759696414 0.0029673617968291321 0 0.094917995650245529 0.021722354499223519 0 0.10894092886672049 0.033503019923715648 0 0.11961069471150609 0.02296590295220987 0 0.094917995650245529 0.021722354499223519 0 0.097728221435088053 0.099184528615223033 0 0.110275064223293 0.10236359857942121 0 0.11116449005577619 0.086473750785835857 0 0.099894961061174667 0.1104201015940532 0 0.11150799601301251 0.1117412241471519 0 0.110275064223293 0.10236359857942121 0 0.097728221435088053 0.099184528615223033 0 0.099894961061174667 0.1104201015940532 0 0.110275064223293 0.10236359857942121 0 0.097728221435088053 0.099184528615223033 0 0.099894961061174667 0.1104201015940532 0 0.084925795867796111 0.1103515185161017 0 0.099894961061174667 0.1104201015940532 0 0.096984900528893664 0.1212489081817222 0 0.084925795867796111 0.1103515185161017 0 0.099894961061174667 0.1104201015940532 0 0.096984900528893664 0.1212489081817222 0 0.10712684862241641 0.1210429748963526 0 0.096984900528893664 0.1212489081817222 0 0.10712684862241641 0.1210429748963526 0 0.10589272808503949 0.13156516273042271 0 0.099894961061174667 0.1104201015940532 0 0.10712684862241641 0.1210429748963526 0 0.11150799601301251 0.1117412241471519 0 0.10712684862241641 0.1210429748963526 0 0.11150799601301251 0.1117412241471519 0 0.1187293914863337 0.1182846474287873 0 0.11150799601301251 0.1117412241471519 0 0.1187293914863337 0.1182846474287873 0 0.1197878353292403 0.1092484053650479 0 0.10712684862241641 0.1210429748963526 0 0.1187293914863337 0.1182846474287873 0 0.114987521205969 0.1268010028982309 0 0.1187293914863337 0.1182846474287873 0 0.12813823657366311 0.12049833089676459 0 0.12624189261331301 0.1140678077034443 0 0.1187293914863337 0.1182846474287873 0 0.12212988809696081 0.1249307776834532 0 0.12813823657366311 0.12049833089676459 0 0.1187293914863337 0.1182846474287873 0 0.12212988809696081 0.1249307776834532 0 0.114987521205969 0.1268010028982309 0 0.1187293914863337 0.1182846474287873 0 0.1197878353292403 0.1092484053650479 0 0.12624189261331301 0.1140678077034443 0 0.1216961693062274 0.1020981758197984 0 0.110275064223293 0.10236359857942121 0 0.11116449005577619 0.086473750785835857 0 0.1197878353292403 0.1092484053650479 0 0.1216961693062274 0.1020981758197984 0 0.1302764983332621 0.10693497851168419 0 0.1216961693062274 0.1020981758197984 0 0.11116449005577619 0.086473750785835857 0 0.13668050292917741 0.098217611464673699 0 0.1197878353292403 0.1092484053650479 0 0.1216961693062274 0.1020981758197984 0 0.110275064223293 0.10236359857942121 0 0.11150799601301251 0.1117412241471519 0 0.1197878353292403 0.1092484053650479 0 0.110275064223293 0.10236359857942121 0 0.11116449005577619 0.086473750785835857 0 0.1207366242219714 0.074251990558816788 0 0.1300820653953097 0.084166932106396392 0 0.11116449005577619 0.086473750785835857 0 0.13668050292917741 0.098217611464673699 0 0.11116449005577619 0.086473750785835857 0 0.1207366242219714 0.074251990558816788 0 0.10561354398445311 0.069921878226714862 0 0.11550376979223601 0.054551475820320147 0 0.1207366242219714 0.074251990558816788 0 0.13255022158949201 0.068763676371196639 0 0.11550376979223601 0.054551475820320147 0 0.1207366242219714 0.074251990558816788 0 0.10561354398445311 0.069921878226714862 0 0.11116449005577619 0.086473750785835857 0 0.10561354398445311 0.069921878226714862 0 0.085648477182374977 0.074729890106998029 0 0.10561354398445311 0.069921878226714862 0 0.095618088847860577 0.065038419849084594 0 0.085648477182374977 0.074729890106998029 0 0.099395501669828634 0.055681054702382278 0 0.10561354398445311 0.069921878226714862 0 0.095618088847860577 0.065038419849084594 0 0.11116449005577619 0.086473750785835857 0 0.085648477182374977 0.074729890106998029 0 0.11116449005577619 0.086473750785835857 0 0.090808031879269946 0.087622927320568048 0 0.085648477182374977 0.074729890106998029 0 0.097728221435088053 0.099184528615223033 0 0.11116449005577619 0.086473750785835857 0 0.090808031879269946 0.087622927320568048 0 0.097728221435088053 0.099184528615223033 0 0.090808031879269946 0.087622927320568048 0 0.080235742217082393 0.093435287859391092 0 0.090808031879269946 0.087622927320568048 0 0.078675001300488379 0.083882301042573534 0 0.085648477182374977 0.074729890106998029 0 0.090808031879269946 0.087622927320568048 0 0.078675001300488379 0.083882301042573534 0 0.080235742217082393 0.093435287859391092 0 0.066395547834883203 0.05807658879080619 0 0.08827992924315356 0.067842626558367619 0 0.085648477182374977 0.074729890106998029 0 0.095618088847860577 0.065038419849084594 0 0.08827992924315356 0.067842626558367619 0 0.085648477182374977 0.074729890106998029 0 0.090416084875221875 0.058235299142909973 0 0.095618088847860577 0.065038419849084594 0 0.08827992924315356 0.067842626558367619 0 0.066395547834883203 0.05807658879080619 0 0.085648477182374977 0.074729890106998029 0 0.060132464308973767 0.062986029428160187 0 0.066395547834883203 0.05807658879080619 0 0.08827992924315356 0.067842626558367619 0 0.085648477182374977 0.074729890106998029 0 0.068637102026180674 0.07792917868559901 0 0.060132464308973767 0.062986029428160187 0 0.085648477182374977 0.074729890106998029 0 0.060132464308973767 0.062986029428160187 0 0.078675001300488379 0.083882301042573534 0 0.085648477182374977 0.074729890106998029 0 0.068637102026180674 0.07792917868559901 0 0.080235742217082393 0.093435287859391092 0 0.069503799956795384 0.087722797055870286 0 0.068523875558259784 0.095111972458496966 0 0.078675001300488379 0.083882301042573534 0 0.080235742217082393 0.093435287859391092 0 0.069503799956795384 0.087722797055870286 0 0.078675001300488379 0.083882301042573534 0 0.068637102026180674 0.07792917868559901 0 0.069503799956795384 0.087722797055870286 0 0.068637102026180674 0.07792917868559901 0 0.069503799956795384 0.087722797055870286 0 0.060111091978902922 0.083782113849914977 0 0.069503799956795384 0.087722797055870286 0 0.06135777996986308 0.093915161513068182 0 0.060111091978902922 0.083782113849914977 0 0.069503799956795384 0.087722797055870286 0 0.068523875558259784 0.095111972458496966 0 0.06135777996986308 0.093915161513068182 0 0.068523875558259784 0.095111972458496966 0 0.071520258741129425 0.10189571548122769 0 0.062413973273008162 0.1018934272394761 0 0.068523875558259784 0.095111972458496966 0 0.062413973273008162 0.1018934272394761 0 0.06135777996986308 0.093915161513068182 0 0.071520258741129425 0.10189571548122769 0 0.072821304814728441 0.1108529925529516 0 0.063718101814298073 0.11016590081819259 0 0.071520258741129425 0.10189571548122769 0 0.063718101814298073 0.11016590081819259 0 0.062413973273008162 0.1018934272394761 0 0.071520258741129425 0.10189571548122769 0 0.084925795867796111 0.1103515185161017 0 0.072821304814728441 0.1108529925529516 0 0.080235742217082393 0.093435287859391092 0 0.068523875558259784 0.095111972458496966 0 0.071520258741129425 0.10189571548122769 0 0.097728221435088053 0.099184528615223033 0 0.080235742217082393 0.093435287859391092 0 0.084925795867796111 0.1103515185161017 0 0.080235742217082393 0.093435287859391092 0 0.071520258741129425 0.10189571548122769 0 0.084925795867796111 0.1103515185161017 0 0.084925795867796111 0.1103515185161017 0 0.074154959480044275 0.1204842858357125 0 0.087075880893963842 0.12621803440601359 0 0.096984900528893664 0.1212489081817222 0 0.084925795867796111 0.1103515185161017 0 0.087075880893963842 0.12621803440601359 0 0.084925795867796111 0.1103515185161017 0 0.074154959480044275 0.1204842858357125 0 0.072821304814728441 0.1108529925529516 0 0.074154959480044275 0.1204842858357125 0 0.072821304814728441 0.1108529925529516 0 0.063718101814298073 0.11016590081819259 0 0.074154959480044275 0.1204842858357125 0 0.063718101814298073 0.11016590081819259 0 0.060124536552058239 0.11864948812996751 0 0.074154959480044275 0.1204842858357125 0 0.060124536552058239 0.11864948812996751 0 0.061109117960118017 0.12720913792676911 0 0.060124536552058239 0.11864948812996751 0 0.052595679859244633 0.1236025024456274 0 0.054913207086597561 0.11271600588853189 0 0.060124536552058239 0.11864948812996751 0 0.052595679859244633 0.1236025024456274 0 0.061109117960118017 0.12720913792676911 0 0.052595679859244633 0.1236025024456274 0 0.054913207086597561 0.11271600588853189 0 0.046771683079868627 0.1089772416004138 0 0.063718101814298073 0.11016590081819259 0 0.060124536552058239 0.11864948812996751 0 0.054913207086597561 0.11271600588853189 0 0.063718101814298073 0.11016590081819259 0 0.062413973273008162 0.1018934272394761 0 0.053620768430252298 0.1031656988462608 0 0.063718101814298073 0.11016590081819259 0 0.054913207086597561 0.11271600588853189 0 0.053620768430252298 0.1031656988462608 0 0.06135777996986308 0.093915161513068182 0 0.053620768430252298 0.1031656988462608 0 0.051535176025136201 0.090416251810209708 0 0.062413973273008162 0.1018934272394761 0 0.06135777996986308 0.093915161513068182 0 0.053620768430252298 0.1031656988462608 0 0.053620768430252298 0.1031656988462608 0 0.042875633238578528 0.09739353282270094 0 0.051535176025136201 0.090416251810209708 0 0.053620768430252298 0.1031656988462608 0 0.046771683079868627 0.1089772416004138 0 0.042875633238578528 0.09739353282270094 0 0.054913207086597561 0.11271600588853189 0 0.053620768430252298 0.1031656988462608 0 0.046771683079868627 0.1089772416004138 0 0.046771683079868627 0.1089772416004138 0 0.042875633238578528 0.09739353282270094 0 0.034382595390138257 0.1099700727945534 0 0.042875633238578528 0.09739353282270094 0 0.034382595390138257 0.1099700727945534 0 0.030708755379597181 0.088685576768743155 0 0.034382595390138257 0.1099700727945534 0 0.030708755379597181 0.088685576768743155 0 0.052595679859244633 0.1236025024456274 0 0.046771683079868627 0.1089772416004138 0 0.034382595390138257 0.1099700727945534 0 0.034382595390138257 0.1099700727945534 0 0.02520709702204247 0.1232263280856261 0 0.037354296692750887 0.12718670835402709 0 0.052595679859244633 0.1236025024456274 0 0.034382595390138257 0.1099700727945534 0 0.037354296692750887 0.12718670835402709 0 0.034382595390138257 0.1099700727945534 0 0.037354296692750887 0.12718670835402709 0 0.052595679859244633 0.1236025024456274 0 0.034382595390138257 0.1099700727945534 0 0.060132464308973767 0.062986029428160187 0 0.051537231586459821 0.0703604747810012 0 0.044258496001147778 0.063884183083345675 0 0.051537231586459821 0.0703604747810012 0 0.045053238281461433 0.071665999821029613 0 0.044258496001147778 0.063884183083345675 0 0.060132464308973767 0.062986029428160187 0 0.058160070023191839 0.074213970699792686 0 0.051537231586459821 0.0703604747810012 0 0.068637102026180674 0.07792917868559901 0 0.060132464308973767 0.062986029428160187 0 0.058160070023191839 0.074213970699792686 0 0.051537231586459821 0.0703604747810012 0 0.049495561811348857 0.078896267932753172 0 0.045053238281461433 0.071665999821029613 0 0.058160070023191839 0.074213970699792686 0 0.051537231586459821 0.0703604747810012 0 0.049495561811348857 0.078896267932753172 0 0.049495561811348857 0.078896267932753172 0 0.051535176025136201 0.090416251810209708 0 0.041750220721871581 0.085344735896560275 0 0.049495561811348857 0.078896267932753172 0 0.060111091978902922 0.083782113849914977 0 0.051535176025136201 0.090416251810209708 0 0.068637102026180674 0.07792917868559901 0 0.058160070023191839 0.074213970699792686 0 0.060111091978902922 0.083782113849914977 0 0.058160070023191839 0.074213970699792686 0 0.049495561811348857 0.078896267932753172 0 0.060111091978902922 0.083782113849914977 0 0.06135777996986308 0.093915161513068182 0 0.060111091978902922 0.083782113849914977 0 0.051535176025136201 0.090416251810209708 0 0.042875633238578528 0.09739353282270094 0 0.051535176025136201 0.090416251810209708 0 0.041750220721871581 0.085344735896560275 0 0.042875633238578528 0.09739353282270094 0 0.041750220721871581 0.085344735896560275 0 0.030708755379597181 0.088685576768743155 0 0.041750220721871581 0.085344735896560275 0 0.037489048909448763 0.07466528487264068 0 0.030708755379597181 0.088685576768743155 0 0.049495561811348857 0.078896267932753172 0 0.041750220721871581 0.085344735896560275 0 0.037489048909448763 0.07466528487264068 0 0.037489048909448763 0.07466528487264068 0 0.02703491536905472 0.067401080742933134 0 0.030708755379597181 0.088685576768743155 0 0.049495561811348857 0.078896267932753172 0 0.045053238281461433 0.071665999821029613 0 0.037489048909448763 0.07466528487264068 0 0.045053238281461433 0.071665999821029613 0 0.037489048909448763 0.07466528487264068 0 0.037579666130808903 0.067774354445351542 0 0.034062632092931817 0.061255223706808547 0 0.037579666130808903 0.067774354445351542 0 0.02703491536905472 0.067401080742933134 0 0.037489048909448763 0.07466528487264068 0 0.037579666130808903 0.067774354445351542 0 0.02703491536905472 0.067401080742933134 0 0.034062632092931817 0.061255223706808547 0 0.037579666130808903 0.067774354445351542 0 0.044258496001147778 0.063884183083345675 0 0.045053238281461433 0.071665999821029613 0 0.037579666130808903 0.067774354445351542 0 0.044258496001147778 0.063884183083345675 0 0.02703491536905472 0.067401080742933134 0 0.030708755379597181 0.088685576768743155 0 0.01366790099406239 0.052632887419703241 0 0.026593398378051959 0.076487299351285121 0 0.01366790099406239 0.052632887419703241 0 0.02703491536905472 0.067401080742933134 0 0.026593398378051959 0.076487299351285121 0 0.02703491536905472 0.067401080742933134 0 0.026593398378051959 0.076487299351285121 0 0.030708755379597181 0.088685576768743155 0 0.01366790099406239 0.052632887419703241 0 0.026593398378051959 0.076487299351285121 0 0.01611389888654503 0.070322973248010373 0 0.026593398378051959 0.076487299351285121 0 0.01611389888654503 0.070322973248010373 0 0.01767063525815666 0.080500261616376856 0 0.01767063525815666 0.080500261616376856 0 0.030708755379597181 0.088685576768743155 0 0.011643404763696401 0.092949868607662828 0 0.026593398378051959 0.076487299351285121 0 0.01767063525815666 0.080500261616376856 0 0.030708755379597181 0.088685576768743155 0 0.01767063525815666 0.080500261616376856 0 0.011643404763696401 0.092949868607662828 0 0.0065236609159091173 0.071671444604676282 0 -0.01109578586274463 0.07592966442077155 0 0.011643404763696401 0.092949868607662828 0 0.0065236609159091173 0.071671444604676282 0 -0.01109578586274463 0.07592966442077155 0 0.011643404763696401 0.092949868607662828 0 0.01366790099406239 0.052632887419703241 0 0.01611389888654503 0.070322973248010373 0 0.0065236609159091173 0.071671444604676282 0 0.01611389888654503 0.070322973248010373 0 0.01767063525815666 0.080500261616376856 0 0.0065236609159091173 0.071671444604676282 0 -0.0031702267477386531 0.067180855403790804 0 0.00079413703044923156 0.058803151297745167 0 0.0065236609159091173 0.071671444604676282 0 0.034382595390138257 0.1099700727945534 0 0.02520709702204247 0.1232263280856261 0 0.01356063639681436 0.11371506303709419 0 0.02520709702204247 0.1232263280856261 0 0.01356063639681436 0.11371506303709419 0 0.011098566836083609 0.13484946890849181 0 0.034382595390138257 0.1099700727945534 0 0.011643404763696401 0.092949868607662828 0 0.01356063639681436 0.11371506303709419 0 0.034382595390138257 0.1099700727945534 0 0.011643404763696401 0.092949868607662828 0 0.034382595390138257 0.1099700727945534 0 0.030708755379597181 0.088685576768743155 0 0.011643404763696401 0.092949868607662828 0 -0.0040088977147468936 0.097024336429998151 0 0.011643404763696401 0.092949868607662828 0 0.0025937760044158291 0.1064596481343341 0 0.011643404763696401 0.092949868607662828 0 0.0025937760044158291 0.1064596481343341 0 0.01356063639681436 0.11371506303709419 0 -0.007175360702145514 0.1155930690216506 0 0.0025937760044158291 0.1064596481343341 0 0.01356063639681436 0.11371506303709419 0 -0.007175360702145514 0.1155930690216506 0 0.01356063639681436 0.11371506303709419 0 0.011098566836083609 0.13484946890849181 0 -0.007175360702145514 0.1155930690216506 0 0.011098566836083609 0.13484946890849181 0 0.02520709702204247 0.1232263280856261 0 0.011098566836083609 0.13484946890849181 0 0.028759663239593541 0.13617761485890201 0 0.02520709702204247 0.1232263280856261 0 0.028759663239593541 0.13617761485890201 0 0.037354296692750887 0.12718670835402709 0 0.011098566836083609 0.13484946890849181 0 0.029372494374312729 0.15410586879533311 0 0.013538337341477229 0.1636201682865295 0 0.011098566836083609 0.13484946890849181 0 0.028759663239593541 0.13617761485890201 0 0.029372494374312729 0.15410586879533311 0 0.011098566836083609 0.13484946890849181 0 0.029372494374312729 0.15410586879533311 0 -0.0048034666842798916 0.1614245706846468 0 0.011098566836083609 0.13484946890849181 0 0.013538337341477229 0.1636201682865295 0 -0.0057956805663459468 0.1892940575843915 0 -0.0048034666842798916 0.1614245706846468 0 0.013538337341477229 0.1636201682865295 0 -0.0057956805663459468 0.1892940575843915 0 0.013538337341477229 0.1636201682865295 0 0.020045678312652242 0.18090880435863019 0 -0.0057956805663459468 0.1892940575843915 0 0.020045678312652242 0.18090880435863019 0 0.029372494374312729 0.15410586879533311 0 0.013538337341477229 0.1636201682865295 0 0.020045678312652242 0.18090880435863019 0 0.029372494374312729 0.15410586879533311 0 0.045887037191650451 0.17252355113286891 0 0.04813315871709322 0.1541455757588851 0 0.029372494374312729 0.15410586879533311 0 0.020045678312652242 0.18090880435863019 0 0.045887037191650451 0.17252355113286891 0 0.020045678312652242 0.18090880435863019 0 0.045887037191650451 0.17252355113286891 0 0.020045678312652242 0.18090880435863019 0 0.045887037191650451 0.17252355113286891 0 0.041991232206495782 0.1919910870650737 0 0.045887037191650451 0.17252355113286891 0 0.060802696405823108 0.1787365445376432 0 0.041991232206495782 0.1919910870650737 0 0.045887037191650451 0.17252355113286891 0 0.071728396070648653 0.1641382979071076 0 0.045887037191650451 0.17252355113286891 0 0.060802696405823108 0.1787365445376432 0 0.071728396070648653 0.1641382979071076 0 0.045887037191650451 0.17252355113286891 0 0.059657673584757237 0.15824269734654939 0 0.04813315871709322 0.1541455757588851 0 0.045887037191650451 0.17252355113286891 0 0.059657673584757237 0.15824269734654939 0 0.071728396070648653 0.1641382979071076 0 0.059657673584757237 0.15824269734654939 0 0.04813315871709322 0.1541455757588851 0 0.060329678829100349 0.1474246815113264 0 0.04813315871709322 0.1541455757588851 0 0.050215372913412007 0.1458935282758238 0 0.060329678829100349 0.1474246815113264 0 0.050215372913412007 0.1458935282758238 0 0.060329678829100349 0.1474246815113264 0 0.052072656112092337 0.13760051191958289 0 0.050215372913412007 0.1458935282758238 0 0.052072656112092337 0.13760051191958289 0 0.040325997995362128 0.14440334391350099 0 0.060329678829100349 0.1474246815113264 0 0.062159468211553673 0.13737243366585769 0 0.052072656112092337 0.13760051191958289 0 0.062159468211553673 0.13737243366585769 0 0.054733357378362921 0.13083888414419281 0 0.052072656112092337 0.13760051191958289 0 0.052595679859244633 0.1236025024456274 0 0.054733357378362921 0.13083888414419281 0 0.061109117960118017 0.12720913792676911 0 0.062159468211553673 0.13737243366585769 0 0.054733357378362921 0.13083888414419281 0 0.061109117960118017 0.12720913792676911 0 0.052595679859244633 0.1236025024456274 0 0.054733357378362921 0.13083888414419281 0 0.046346625143134958 0.1312929959830558 0 0.054733357378362921 0.13083888414419281 0 0.052072656112092337 0.13760051191958289 0 0.046346625143134958 0.1312929959830558 0 0.037354296692750887 0.12718670835402709 0 0.040325997995362128 0.14440334391350099 0 0.046346625143134958 0.1312929959830558 0 0.037354296692750887 0.12718670835402709 0 0.040325997995362128 0.14440334391350099 0 0.028759663239593541 0.13617761485890201 0 0.037354296692750887 0.12718670835402709 0 0.040325997995362128 0.14440334391350099 0 0.052072656112092337 0.13760051191958289 0 0.046346625143134958 0.1312929959830558 0 0.040325997995362128 0.14440334391350099 0 0.052595679859244633 0.1236025024456274 0 0.046346625143134958 0.1312929959830558 0 0.037354296692750887 0.12718670835402709 0 0.028759663239593541 0.13617761485890201 0 0.029372494374312729 0.15410586879533311 0 0.040325997995362128 0.14440334391350099 0 0.029372494374312729 0.15410586879533311 0 0.04813315871709322 0.1541455757588851 0 0.040325997995362128 0.14440334391350099 0 0.04813315871709322 0.1541455757588851 0 0.050215372913412007 0.1458935282758238 0 0.040325997995362128 0.14440334391350099 0 0.025149977659741599 0.24684982625080901 0 0.00014186162909880781 0.2338185852574263 0 0.02177620002751179 0.22559840920251981 0 0.025149977659741599 0.24684982625080901 0 0.00014186162909880781 0.2338185852574263 0 0.025149977659741599 0.24684982625080901 0 0.00014186162909880781 0.2338185852574263 0 0.0073806355134042019 0.25529449578482938 0 0.00014186162909880781 0.2338185852574263 0 0.02177620002751179 0.22559840920251981 0 0.0090806704795409685 0.20996839310177981 0 0.025149977659741599 0.24684982625080901 0 0.02177620002751179 0.22559840920251981 0 0.039960986899899173 0.22780444499479169 0 0.02177620002751179 0.22559840920251981 0 0.0090806704795409685 0.20996839310177981 0 0.034547503469278373 0.20955079640779209 0 0.0090806704795409685 0.20996839310177981 0 0.02162293693503077 0.1981024475624624 0 0.034547503469278373 0.20955079640779209 0 -0.0057956805663459468 0.1892940575843915 0 0.0090806704795409685 0.20996839310177981 0 0.02162293693503077 0.1981024475624624 0 -0.0057956805663459468 0.1892940575843915 0 0.020045678312652242 0.18090880435863019 0 0.02162293693503077 0.1981024475624624 0 0.020045678312652242 0.18090880435863019 0 0.02162293693503077 0.1981024475624624 0 0.041991232206495782 0.1919910870650737 0 0.02162293693503077 0.1981024475624624 0 0.041991232206495782 0.1919910870650737 0 0.034547503469278373 0.20955079640779209 0 0.041991232206495782 0.1919910870650737 0 0.05849467095877426 0.1965416733816682 0 0.050764695011206777 0.20916964222725651 0 0.060802696405823108 0.1787365445376432 0 0.041991232206495782 0.1919910870650737 0 0.05849467095877426 0.1965416733816682 0 0.050764695011206777 0.20916964222725651 0 0.066981886553135278 0.20878848804672309 0 0.05849467095877426 0.1965416733816682 0 0.050764695011206777 0.20916964222725651 0 0.066981886553135278 0.20878848804672309 0 0.050764695011206777 0.20916964222725651 0 0.061514006406540499 0.23071042489022231 0 0.066981886553135278 0.20878848804672309 0 0.050764695011206777 0.20916964222725651 0 0.034547503469278373 0.20955079640779209 0 0.039960986899899173 0.22780444499479169 0 0.050764695011206777 0.20916964222725651 0 0.034547503469278373 0.20955079640779209 0 0.041991232206495782 0.1919910870650737 0 0.050764695011206777 0.20916964222725651 0 0.034547503469278373 0.20955079640779209 0 0.02177620002751179 0.22559840920251981 0 0.034547503469278373 0.20955079640779209 0 0.039960986899899173 0.22780444499479169 0 0.039960986899899173 0.22780444499479169 0 0.061514006406540499 0.23071042489022231 0 0.045472231705318063 0.24424317023843681 0 0.050764695011206777 0.20916964222725651 0 0.039960986899899173 0.22780444499479169 0 0.061514006406540499 0.23071042489022231 0 0.061514006406540499 0.23071042489022231 0 0.056046126259945157 0.25263236173372139 0 0.061514006406540499 0.23071042489022231 0 0.056046126259945157 0.25263236173372139 0 0.067905867336300579 0.25358800162702 0 0.061514006406540499 0.23071042489022231 0 0.045472231705318063 0.24424317023843681 0 0.056046126259945157 0.25263236173372139 0 0.025149977659741599 0.24684982625080901 0 0.039960986899899173 0.22780444499479169 0 0.045472231705318063 0.24424317023843681 0 0.092857250133516089 0.24175825718487831 0 0.078525547080241467 0.2465942846531784 0 0.093798877441032588 0.2579700649065903 0 0.092857250133516089 0.24175825718487831 0 0.078525547080241467 0.2465942846531784 0 0.081986142109724491 0.22560265144644431 0 0.061514006406540499 0.23071042489022231 0 0.078525547080241467 0.2465942846531784 0 0.067905867336300579 0.25358800162702 0 0.061514006406540499 0.23071042489022231 0 0.078525547080241467 0.2465942846531784 0 0.081986142109724491 0.22560265144644431 0 0.061514006406540499 0.23071042489022231 0 0.081986142109724491 0.22560265144644431 0 0.066981886553135278 0.20878848804672309 0 0.061514006406540499 0.23071042489022231 0 0.066981886553135278 0.20878848804672309 0 0.081986142109724491 0.22560265144644431 0 0.09236794217301933 0.20819183719001669 0 0.066981886553135278 0.20878848804672309 0 0.09236794217301933 0.20819183719001669 0 0.066981886553135278 0.20878848804672309 0 0.09236794217301933 0.20819183719001669 0 0.066981886553135278 0.20878848804672309 0 0.071445073857882777 0.19089458628000441 0 0.060802696405823108 0.1787365445376432 0 0.05849467095877426 0.1965416733816682 0 0.071445073857882777 0.19089458628000441 0 0.066981886553135278 0.20878848804672309 0 0.071445073857882777 0.19089458628000441 0 0.05849467095877426 0.1965416733816682 0 0.066981886553135278 0.20878848804672309 0 0.071445073857882777 0.19089458628000441 0 0.09236794217301933 0.20819183719001669 0 0.071445073857882777 0.19089458628000441 0 0.086464584236575506 0.1862285865309723 0 0.09236794217301933 0.20819183719001669 0 0.086464584236575506 0.1862285865309723 0 0.1023855527362314 0.18749689463882899 0 0.09236794217301933 0.20819183719001669 0 0.11775399779290339 0.20759518633331239 0 0.1023855527362314 0.18749689463882899 0 0.11775399779290339 0.20759518633331239 0 0.1023855527362314 0.18749689463882899 0 0.12550986450034471 0.186594373040398 0 0.09236794217301933 0.20819183719001669 0 0.11775399779290339 0.20759518633331239 0 0.09236794217301933 0.20819183719001669 0 0.11775399779290339 0.20759518633331239 0 0.10906069526472741 0.22998953009969161 0 0.092857250133516089 0.24175825718487831 0 0.081986142109724491 0.22560265144644431 0 0.10906069526472741 0.22998953009969161 0 0.081986142109724491 0.22560265144644431 0 0.09236794217301933 0.20819183719001669 0 0.10906069526472741 0.22998953009969161 0 0.11775399779290339 0.20759518633331239 0 0.10906069526472741 0.22998953009969161 0 0.1382648444377183 0.22719855966067881 0 0.10906069526472741 0.22998953009969161 0 0.12787711237058769 0.24521089126939841 0 0.1100607559553454 0.25396994184181759 0 0.092857250133516089 0.24175825718487831 0 0.10906069526472741 0.22998953009969161 0 0.1100607559553454 0.25396994184181759 0 0.081151633673542972 0.15313158297098389 0 0.083920606388658545 0.14050817004821939 0 0.0975697549496468 0.15575304468134629 0 0.081151633673542972 0.15313158297098389 0 0.083920606388658545 0.14050817004821939 0 0.071387777285217918 0.15212681924726251 0 0.074154959480044275 0.1204842858357125 0 0.087075880893963842 0.12621803440601359 0 0.083920606388658545 0.14050817004821939 0 0.087075880893963842 0.12621803440601359 0 0.083920606388658545 0.14050817004821939 0 0.097906888154765004 0.1362305538396491 0 0.062159468211553673 0.13737243366585769 0 0.061109117960118017 0.12720913792676911 0 0.083920606388658545 0.14050817004821939 0 0.074154959480044275 0.1204842858357125 0 0.061109117960118017 0.12720913792676911 0 0.083920606388658545 0.14050817004821939 0 0.061109117960118017 0.12720913792676911 0 0.083920606388658545 0.14050817004821939 0 0.062159468211553673 0.13737243366585769 0 0.083920606388658545 0.14050817004821939 0 0.069449382678632612 0.1443580261181665 0 0.060329678829100349 0.1474246815113264 0 0.062159468211553673 0.13737243366585769 0 0.069449382678632612 0.1443580261181665 0 0.060329678829100349 0.1474246815113264 0 0.069449382678632612 0.1443580261181665 0 0.071387777285217918 0.15212681924726251 0 0.083920606388658545 0.14050817004821939 0 0.069449382678632612 0.1443580261181665 0 0.071387777285217918 0.15212681924726251 0 0.059657673584757237 0.15824269734654939 0 0.060329678829100349 0.1474246815113264 0 0.071387777285217918 0.15212681924726251 0 0.059657673584757237 0.15824269734654939 0 0.071387777285217918 0.15212681924726251 0 0.071728396070648653 0.1641382979071076 0 0.081151633673542972 0.15313158297098389 0 0.071387777285217918 0.15212681924726251 0 0.071728396070648653 0.1641382979071076 0 0.071445073857882777 0.19089458628000441 0 0.075908261162629706 0.17300068451328551 0 0.086464584236575506 0.1862285865309723 0 0.060802696405823108 0.1787365445376432 0 0.071445073857882777 0.19089458628000441 0 0.075908261162629706 0.17300068451328551 0 0.071445073857882777 0.19089458628000441 0 0.075908261162629706 0.17300068451328551 0 0.060802696405823108 0.1787365445376432 0 0.071728396070648653 0.1641382979071076 0 0.075908261162629706 0.17300068451328551 0 0.086464584236575506 0.1862285865309723 0 0.090216091253114361 0.17155893003272579 0 0.1023855527362314 0.18749689463882899 0 0.075908261162629706 0.17300068451328551 0 0.086464584236575506 0.1862285865309723 0 0.090216091253114361 0.17155893003272579 0 0.081151633673542972 0.15313158297098389 0 0.071728396070648653 0.1641382979071076 0 0.0975697549496468 0.15575304468134629 0 0.071728396070648653 0.1641382979071076 0 0.090216091253114361 0.17155893003272579 0 0.0975697549496468 0.15575304468134629 0 0.071728396070648653 0.1641382979071076 0 0.075908261162629706 0.17300068451328551 0 0.090216091253114361 0.17155893003272579 0 0.071728396070648653 0.1641382979071076 0 0.0975697549496468 0.15575304468134629 0 0.090216091253114361 0.17155893003272579 0 0.1064810698159025 0.16893633516972181 0 0.0975697549496468 0.15575304468134629 0 0.1064810698159025 0.16893633516972181 0 0.1067320948171991 0.1538072021696697 0 0.0975697549496468 0.15575304468134629 0 0.090216091253114361 0.17155893003272579 0 0.1064810698159025 0.16893633516972181 0 0.1023855527362314 0.18749689463882899 0 0.1064810698159025 0.16893633516972181 0 0.12954358324573961 0.16710623429112001 0 0.12550986450034471 0.186594373040398 0 0.1064810698159025 0.16893633516972181 0 0.1023855527362314 0.18749689463882899 0 0.12550986450034471 0.186594373040398 0 0.1064810698159025 0.16893633516972181 0 0.1067320948171991 0.1538072021696697 0 0.12954358324573961 0.16710623429112001 0 0.1067320948171991 0.1538072021696697 0 0.1262856736452258 0.1537478882528979 0 0.12954358324573961 0.16710623429112001 0 0.1067320948171991 0.1538072021696697 0 0.12954358324573961 0.16710623429112001 0 0.1148569119608701 0.14824987142416859 0 0.1067320948171991 0.1538072021696697 0 0.1262856736452258 0.1537478882528979 0 0.118317888191051 0.14254191757659121 0 0.1148569119608701 0.14824987142416859 0 0.1262856736452258 0.1537478882528979 0 0.118317888191051 0.14254191757659121 0 0.12756241452120801 0.13893694775055651 0 0.1262856736452258 0.1537478882528979 0 0.1148569119608701 0.14824987142416859 0 0.1067320948171991 0.1538072021696697 0 0.1080919911900045 0.14290247769751591 0 0.118317888191051 0.14254191757659121 0 0.1148569119608701 0.14824987142416859 0 0.1080919911900045 0.14290247769751591 0 0.083920606388658545 0.14050817004821939 0 0.1067320948171991 0.1538072021696697 0 0.1067320948171991 0.1538072021696697 0 0.1080919911900045 0.14290247769751591 0 0.097906888154765004 0.1362305538396491 0 0.083920606388658545 0.14050817004821939 0 0.1067320948171991 0.1538072021696697 0 0.097906888154765004 0.1362305538396491 0 0.083920606388658545 0.14050817004821939 0 0.1067320948171991 0.1538072021696697 0 0.0975697549496468 0.15575304468134629 0 0.096984900528893664 0.1212489081817222 0 0.097906888154765004 0.1362305538396491 0 0.10589272808503949 0.13156516273042271 0 0.096984900528893664 0.1212489081817222 0 0.087075880893963842 0.12621803440601359 0 0.097906888154765004 0.1362305538396491 0 0.1080919911900045 0.14290247769751591 0 0.097906888154765004 0.1362305538396491 0 0.10589272808503949 0.13156516273042271 0 0.1080919911900045 0.14290247769751591 0 0.10589272808503949 0.13156516273042271 0 0.11327312463209829 0.13597294690712769 0 0.10712684862241641 0.1210429748963526 0 0.10589272808503949 0.13156516273042271 0 0.114987521205969 0.1268010028982309 0 0.10589272808503949 0.13156516273042271 0 0.114987521205969 0.1268010028982309 0 0.11327312463209829 0.13597294690712769 0 0.114987521205969 0.1268010028982309 0 0.11327312463209829 0.13597294690712769 0 0.1203000125167645 0.13336293759413789 0 0.118317888191051 0.14254191757659121 0 0.1080919911900045 0.14290247769751591 0 0.11327312463209829 0.13597294690712769 0 0.118317888191051 0.14254191757659121 0 0.1203000125167645 0.13336293759413789 0 0.12756241452120801 0.13893694775055651 0 0.118317888191051 0.14254191757659121 0 0.11327312463209829 0.13597294690712769 0 0.1203000125167645 0.13336293759413789 0 0.12212988809696081 0.1249307776834532 0 0.114987521205969 0.1268010028982309 0 0.1203000125167645 0.13336293759413789 0 0.12212988809696081 0.1249307776834532 0 0.1203000125167645 0.13336293759413789 0 0.12788127083107459 0.1291064789800366 0 0.12788127083107459 0.1291064789800366 0 0.13409394305489639 0.1257339851238449 0 0.12813823657366311 0.12049833089676459 0 0.12788127083107459 0.1291064789800366 0 0.13410827310584911 0.13282331674432049 0 0.13409394305489639 0.1257339851238449 0 0.12788127083107459 0.1291064789800366 0 0.12756241452120801 0.13893694775055651 0 0.13410827310584911 0.13282331674432049 0 0.1203000125167645 0.13336293759413789 0 0.12788127083107459 0.1291064789800366 0 0.12756241452120801 0.13893694775055651 0 0.13410827310584911 0.13282331674432049 0 0.14295710802469111 0.12768772724150559 0 0.13848136883728299 0.14203914735535511 0 0.12756241452120801 0.13893694775055651 0 0.13410827310584911 0.13282331674432049 0 0.13848136883728299 0.14203914735535511 0 0.13410827310584911 0.13282331674432049 0 0.13409394305489639 0.1257339851238449 0 0.14295710802469111 0.12768772724150559 0 0.14295710802469111 0.12768772724150559 0 0.15698787762036359 0.14007723406829989 0 0.15364605026385231 0.1227496740475859 0 0.14295710802469111 0.12768772724150559 0 0.13848136883728299 0.14203914735535511 0 0.15698787762036359 0.14007723406829989 0 0.13848136883728299 0.14203914735535511 0 0.1441447949138806 0.1573716891147208 0 0.15698787762036359 0.14007723406829989 0 0.1441447949138806 0.1573716891147208 0 0.1598153361361678 0.15982657838785511 0 0.15698787762036359 0.14007723406829989 0 0.13848136883728299 0.14203914735535511 0 0.1262856736452258 0.1537478882528979 0 0.1441447949138806 0.1573716891147208 0 0.12756241452120801 0.13893694775055651 0 0.13848136883728299 0.14203914735535511 0 0.1262856736452258 0.1537478882528979 0 0.1262856736452258 0.1537478882528979 0 0.12954358324573961 0.16710623429112001 0 0.1441447949138806 0.1573716891147208 0 0.12954358324573961 0.16710623429112001 0 0.12550986450034471 0.186594373040398 0 0.15375492999850379 0.1814330523327968 0 0.12954358324573961 0.16710623429112001 0 0.15375492999850379 0.1814330523327968 0 0.1441447949138806 0.1573716891147208 0 0.15375492999850379 0.1814330523327968 0 0.1441447949138806 0.1573716891147208 0 0.1598153361361678 0.15982657838785511 0 0.1598153361361678 0.15982657838785511 0 0.17205847002769489 0.1711246398383999 0 0.17247097746626519 0.1464629757798975 0 0.15375492999850379 0.1814330523327968 0 0.1598153361361678 0.15982657838785511 0 0.17205847002769489 0.1711246398383999 0 0.15375492999850379 0.1814330523327968 0 0.17205847002769489 0.1711246398383999 0 0.18411838942066619 0.18828130780555291 0 0.17205847002769489 0.1711246398383999 0 0.18411838942066619 0.18828130780555291 0 0.19050902449260759 0.164433536692701 0 0.17205847002769489 0.1711246398383999 0 0.17247097746626519 0.1464629757798975 0 0.19050902449260759 0.164433536692701 0 0.17247097746626519 0.1464629757798975 0 0.1903693880120208 0.14015559280000461 0 0.19050902449260759 0.164433536692701 0 0.17247097746626519 0.1464629757798975 0 0.18002451345814399 0.12716596121819479 0 0.1903693880120208 0.14015559280000461 0 0.17247097746626519 0.1464629757798975 0 0.18002451345814399 0.12716596121819479 0 0.16417220099380411 0.12505127510387981 0 0.15698787762036359 0.14007723406829989 0 0.16417220099380411 0.12505127510387981 0 0.15364605026385231 0.1227496740475859 0 0.17247097746626519 0.1464629757798975 0 0.15698787762036359 0.14007723406829989 0 0.16417220099380411 0.12505127510387981 0 0.1598153361361678 0.15982657838785511 0 0.17247097746626519 0.1464629757798975 0 0.15698787762036359 0.14007723406829989 0 0.14702044576598061 0.2478904659134552 0 0.1382648444377183 0.22719855966067881 0 0.15828943790025421 0.22969507774947781 0 0.14702044576598061 0.2478904659134552 0 0.12787711237058769 0.24521089126939841 0 0.1382648444377183 0.22719855966067881 0 0.10906069526472741 0.22998953009969161 0 0.12787711237058769 0.24521089126939841 0 0.1382648444377183 0.22719855966067881 0 0.1382648444377183 0.22719855966067881 0 0.14314005341278749 0.20699853547660821 0 0.15828943790025421 0.22969507774947781 0 0.14314005341278749 0.20699853547660821 0 0.16852610903267151 0.206401884619904 0 0.11775399779290339 0.20759518633331239 0 0.1382648444377183 0.22719855966067881 0 0.14314005341278749 0.20699853547660821 0 0.11775399779290339 0.20759518633331239 0 0.14314005341278749 0.20699853547660821 0 0.11775399779290339 0.20759518633331239 0 0.12550986450034471 0.186594373040398 0 0.14314005341278749 0.20699853547660821 0 0.15375492999850379 0.1814330523327968 0 0.14314005341278749 0.20699853547660821 0 0.16852610903267151 0.206401884619904 0 0.12550986450034471 0.186594373040398 0 0.15375492999850379 0.1814330523327968 0 0.14314005341278749 0.20699853547660821 0 0.15375492999850379 0.1814330523327968 0 0.18411838942066619 0.18828130780555291 0 0.16852610903267151 0.206401884619904 0 0.18411838942066619 0.18828130780555291 0 0.16852610903267151 0.206401884619904 0 0.1878214256448299 0.20672411698152671 0 0.16852610903267151 0.206401884619904 0 0.17766068788986381 0.23020170431202469 0 0.1878214256448299 0.20672411698152671 0 0.14314005341278749 0.20699853547660821 0 0.16852610903267151 0.206401884619904 0 0.15828943790025421 0.22969507774947781 0 0.16852610903267151 0.206401884619904 0 0.15828943790025421 0.22969507774947781 0 0.17766068788986381 0.23020170431202469 0 0.17766068788986381 0.23020170431202469 0 0.19353513124668931 0.22246748781277501 0 0.1878214256448299 0.20672411698152671 0 0.17766068788986381 0.23020170431202469 0 0.18692125413578081 0.24552837502103991 0 0.19379669244916639 0.23440003217329089 0 0.17766068788986381 0.23020170431202469 0 0.18692125413578081 0.24552837502103991 0 0.16774616909827719 0.2460930353984315 0 0.15828943790025421 0.22969507774947781 0 0.17766068788986381 0.23020170431202469 0 0.16774616909827719 0.2460930353984315 0 0.14702044576598061 0.2478904659134552 0 0.15828943790025421 0.22969507774947781 0 0.16774616909827719 0.2460930353984315 0 0.21557305570370441 0.24515722135805329 0 0.2029257889591993 0.24295866219667439 0 0.23007231546290949 0.2334513308517342 0 0.2029257889591993 0.24295866219667439 0 0.23007231546290949 0.2334513308517342 0 0.21557305570370441 0.24515722135805329 0 0.2029257889591993 0.24295866219667439 0 0.20107379594449931 0.25686311186437227 0 0.18692125413578081 0.24552837502103991 0 0.2029257889591993 0.24295866219667439 0 0.20107379594449931 0.25686311186437227 0 0.18692125413578081 0.24552837502103991 0 0.19379669244916639 0.23440003217329089 0 0.2029257889591993 0.24295866219667439 0 0.17766068788986381 0.23020170431202469 0 0.19379669244916639 0.23440003217329089 0 0.19353513124668931 0.22246748781277501 0 0.19379669244916639 0.23440003217329089 0 0.2029257889591993 0.24295866219667439 0 0.20920449219815451 0.22515354045629349 0 0.19379669244916639 0.23440003217329089 0 0.19353513124668931 0.22246748781277501 0 0.20920449219815451 0.22515354045629349 0 0.2029257889591993 0.24295866219667439 0 0.20920449219815451 0.22515354045629349 0 0.23007231546290949 0.2334513308517342 0 0.19353513124668931 0.22246748781277501 0 0.20920449219815451 0.22515354045629349 0 0.20732414099141369 0.20672295990195361 0 0.20920449219815451 0.22515354045629349 0 0.20732414099141369 0.20672295990195361 0 0.22783619495118521 0.20973527166224001 0 0.19353513124668931 0.22246748781277501 0 0.20732414099141369 0.20672295990195361 0 0.1878214256448299 0.20672411698152671 0 0.18411838942066619 0.18828130780555291 0 0.1878214256448299 0.20672411698152671 0 0.20343121377691101 0.18825927067945539 0 0.20732414099141369 0.20672295990195361 0 0.1878214256448299 0.20672411698152671 0 0.20343121377691101 0.18825927067945539 0 0.20732414099141369 0.20672295990195361 0 0.20343121377691101 0.18825927067945539 0 0.2219787971027708 0.18678942035429349 0 0.20732414099141369 0.20672295990195361 0 0.22783619495118521 0.20973527166224001 0 0.2219787971027708 0.18678942035429349 0 0.24528107816237801 0.1907036486386274 0 0.22783619495118521 0.20973527166224001 0 0.2219787971027708 0.18678942035429349 0 0.24528107816237801 0.1907036486386274 0 0.25242827713160498 0.21540237912569379 0 0.24528107816237801 0.1907036486386274 0 0.22783619495118521 0.20973527166224001 0 0.25242827713160498 0.21540237912569379 0 0.20920449219815451 0.22515354045629349 0 0.22783619495118521 0.20973527166224001 0 0.23007231546290949 0.2334513308517342 0 0.23007231546290949 0.2334513308517342 0 0.25242827713160498 0.21540237912569379 0 0.23007231546290949 0.2334513308517342 0 0.25511338863332461 0.22468137717712711 0 0.25242827713160498 0.21540237912569379 0 0.23007231546290949 0.2334513308517342 0 0.25511338863332461 0.22468137717712711 0 0.23007231546290949 0.2334513308517342 0 0.2457442494512444 0.24022391879071339 0 0.25511338863332461 0.22468137717712711 0 0.22783619495118521 0.20973527166224001 0 0.23007231546290949 0.2334513308517342 0 0.25242827713160498 0.21540237912569379 0 0.2457442494512444 0.24022391879071339 0 0.23628031136540401 0.25597328662156199 0 0.26221447651104962 0.2479993693513689 0 0.23007231546290949 0.2334513308517342 0 0.2457442494512444 0.24022391879071339 0 0.23628031136540401 0.25597328662156199 0 0.21557305570370441 0.24515722135805329 0 0.23007231546290949 0.2334513308517342 0 0.23628031136540401 0.25597328662156199 0 0.21557305570370441 0.24515722135805329 0 0.23007231546290949 0.2334513308517342 0 0.21023583046185859 0.14706018503428281 0 0.22521494488481819 0.12557893006429149 0 0.2001236667938262 0.1180422718546187 0 0.18002451345814399 0.12716596121819479 0 0.1903693880120208 0.14015559280000461 0 0.2001236667938262 0.1180422718546187 0 0.21023583046185859 0.14706018503428281 0 0.1903693880120208 0.14015559280000461 0 0.2001236667938262 0.1180422718546187 0 0.21023583046185859 0.14706018503428281 0 0.1903693880120208 0.14015559280000461 0 0.19050902449260759 0.164433536692701 0 0.18411838942066619 0.18828130780555291 0 0.20343121377691101 0.18825927067945539 0 0.19050902449260759 0.164433536692701 0 0.20343121377691101 0.18825927067945539 0 0.19050902449260759 0.164433536692701 0 0.20962662881846919 0.1707346457134423 0 0.20343121377691101 0.18825927067945539 0 0.20962662881846919 0.1707346457134423 0 0.2219787971027708 0.18678942035429349 0 0.21023583046185859 0.14706018503428281 0 0.20962662881846919 0.1707346457134423 0 0.2254160648188453 0.164078398330023 0 0.21023583046185859 0.14706018503428281 0 0.19050902449260759 0.164433536692701 0 0.20962662881846919 0.1707346457134423 0 0.20962662881846919 0.1707346457134423 0 0.2254160648188453 0.164078398330023 0 0.2219787971027708 0.18678942035429349 0 0.2254160648188453 0.164078398330023 0 0.2219787971027708 0.18678942035429349 0 0.23714843650665229 0.1758398884969993 0 0.24528107816237801 0.1907036486386274 0 0.2219787971027708 0.18678942035429349 0 0.23714843650665229 0.1758398884969993 0 0.24528107816237801 0.1907036486386274 0 0.23714843650665229 0.1758398884969993 0 0.25292738168467233 0.17649485219682931 0 0.2254160648188453 0.164078398330023 0 0.24653130607993951 0.16237692388552691 0 0.23688534306575301 0.1458043597726891 0 0.23714843650665229 0.1758398884969993 0 0.24653130607993951 0.16237692388552691 0 0.25292738168467233 0.17649485219682931 0 0.2254160648188453 0.164078398330023 0 0.23714843650665229 0.1758398884969993 0 0.24653130607993951 0.16237692388552691 0 0.24653130607993951 0.16237692388552691 0 0.2496536413094039 0.15044712256699261 0 0.23688534306575301 0.1458043597726891 0 0.2496536413094039 0.15044712256699261 0 0.23688534306575301 0.1458043597726891 0 0.25004344172447263 0.14019424959050239 0 0.21023583046185859 0.14706018503428281 0 0.2254160648188453 0.164078398330023 0 0.23688534306575301 0.1458043597726891 0 0.21023583046185859 0.14706018503428281 0 0.23688534306575301 0.1458043597726891 0 0.22521494488481819 0.12557893006429149 0 0.22521494488481819 0.12557893006429149 0 0.25030622297580962 0.13311558827396619 0 0.23688534306575301 0.1458043597726891 0 0.22521494488481819 0.12557893006429149 0 0.25030622297580962 0.13311558827396619 0 0.23688534306575301 0.1458043597726891 0 0.25004344172447263 0.14019424959050239 0 0.25030622297580962 0.13311558827396619 0 0.22521494488481819 0.12557893006429149 0 0.2369469616243938 0.1144798656387125 0 0.25030622297580962 0.13311558827396619 0 0.2369469616243938 0.1144798656387125 0 0.25094552198087999 0.11589449234768209 0 0.25030622297580962 0.13311558827396619 0 0.2369469616243938 0.1144798656387125 0 0.25158482098595109 0.098673396421397969 0 0.25094552198087999 0.11589449234768209 0 0.2369469616243938 0.1144798656387125 0 0.2308580048349978 0.09939168424622695 0 0.25158482098595109 0.098673396421397969 0 0.2308580048349978 0.09939168424622695 0 0.2177667053289645 0.10879872465146249 0 0.21723881235993189 0.092441087960636145 0 0.2369469616243938 0.1144798656387125 0 0.2308580048349978 0.09939168424622695 0 0.2177667053289645 0.10879872465146249 0 0.22521494488481819 0.12557893006429149 0 0.2369469616243938 0.1144798656387125 0 0.2177667053289645 0.10879872465146249 0 0.2177667053289645 0.10879872465146249 0 0.1970849337058638 0.1019164286603922 0 0.2001236667938262 0.1180422718546187 0 0.22521494488481819 0.12557893006429149 0 0.2177667053289645 0.10879872465146249 0 0.2001236667938262 0.1180422718546187 0 0.22521494488481819 0.12557893006429149 0 0.2001236667938262 0.1180422718546187 0 0.1970849337058638 0.1019164286603922 0 0.20420713705815571 0.090978010823124941 0 0.21723881235993189 0.092441087960636145 0 0.1970849337058638 0.1019164286603922 0 0.21723881235993189 0.092441087960636145 0 0.2177667053289645 0.10879872465146249 0 0.1970849337058638 0.1019164286603922 0 0.21723881235993189 0.092441087960636145 0 0.1970849337058638 0.1019164286603922 0 0.1916307843626972 0.08827444688259839 0 0.17503238870283441 0.11050561364494491 0 0.2001236667938262 0.1180422718546187 0 0.17503238870283441 0.11050561364494491 0 0.1970849337058638 0.1019164286603922 0 0.2001236667938262 0.1180422718546187 0 0.17503238870283441 0.11050561364494491 0 0.1916307843626972 0.08827444688259839 0 0.2082291800225603 0.066043280120252124 0 0.19067723801237901 0.065525043857756982 0 0.1916307843626972 0.08827444688259839 0 0.2082291800225603 0.066043280120252124 0 0.1916307843626972 0.08827444688259839 0 0.21087401780412959 0.081280079788873041 0 0.20420713705815571 0.090978010823124941 0 0.1970849337058638 0.1019164286603922 0 0.1916307843626972 0.08827444688259839 0 0.20420713705815571 0.090978010823124941 0 0.1916307843626972 0.08827444688259839 0 0.21087401780412959 0.081280079788873041 0 0.2082291800225603 0.066043280120252124 0 0.21087401780412959 0.081280079788873041 0 0.20420713705815571 0.090978010823124941 0 0.21723881235993189 0.092441087960636145 0 0.21087401780412959 0.081280079788873041 0 0.21723881235993189 0.092441087960636145 0 0.22613356481757629 0.0775902723280468 0 0.21087401780412959 0.081280079788873041 0 0.2082291800225603 0.066043280120252124 0 0.22613356481757629 0.0775902723280468 0 0.2082291800225603 0.066043280120252124 0 0.22613356481757629 0.0775902723280468 0 0.2082291800225603 0.066043280120252124 0 0.2259496113806885 0.070300708218039992 0 0.21450653174737461 0.057635669175196122 0 0.2259496113806885 0.070300708218039992 0 0.21450653174737461 0.057635669175196122 0 0.2082291800225603 0.066043280120252124 0 0.2259496113806885 0.070300708218039992 0 0.22613356481757629 0.0775902723280468 0 0.2259496113806885 0.070300708218039992 0 0.2248665156508784 0.061611733455129589 0 0.21450653174737461 0.057635669175196122 0 0.2259496113806885 0.070300708218039992 0 0.22613356481757629 0.0775902723280468 0 0.23739269101400209 0.082965747260884265 0 0.2259496113806885 0.070300708218039992 0 0.23739269101400209 0.082965747260884265 0 0.237967452106535 0.070105640596903412 0 0.2259496113806885 0.070300708218039992 0 0.23739269101400209 0.082965747260884265 0 0.2259496113806885 0.070300708218039992 0 0.2330718446673557 0.064441819436705627 0 0.2248665156508784 0.061611733455129589 0 0.2259496113806885 0.070300708218039992 0 0.2330718446673557 0.064441819436705627 0 0.237967452106535 0.070105640596903412 0 0.2308580048349978 0.09939168424622695 0 0.21723881235993189 0.092441087960636145 0 0.23739269101400209 0.082965747260884265 0 0.21723881235993189 0.092441087960636145 0 0.22613356481757629 0.0775902723280468 0 0.23739269101400209 0.082965747260884265 0 0.21723881235993189 0.092441087960636145 0 0.23739269101400209 0.082965747260884265 0 0.23739269101400209 0.082965747260884265 0 0.25158482098595109 0.098673396421397969 0 0.23739269101400209 0.082965747260884265 0 0.25243039498113262 0.075895774732197205 0 0.25158482098595109 0.098673396421397969 0 0.2308580048349978 0.09939168424622695 0 0.23739269101400209 0.082965747260884265 0 0.25158482098595109 0.098673396421397969 0 0.23739269101400209 0.082965747260884265 0 0.25243039498113262 0.075895774732197205 0 0.23934469018649959 0.064583282500140851 0 0.237967452106535 0.070105640596903412 0 0.24496427956833819 0.066036472520138348 0 0.2330718446673557 0.064441819436705627 0 0.23934469018649959 0.064583282500140851 0 0.2376257901407148 0.059976102198904507 0 0.2330718446673557 0.064441819436705627 0 0.23934469018649959 0.064583282500140851 0 0.237967452106535 0.070105640596903412 0 0.23739269101400209 0.082965747260884265 0 0.237967452106535 0.070105640596903412 0 0.24429048066179679 0.072622021298478806 0 0.24429048066179679 0.072622021298478806 0 0.24842415088314279 0.069033451464499671 0 0.25243039498113262 0.075895774732197205 0 0.23739269101400209 0.082965747260884265 0 0.24429048066179679 0.072622021298478806 0 0.25243039498113262 0.075895774732197205 0 0.24842415088314279 0.069033451464499671 0 0.24853219730195361 0.063845178725116872 0 0.25274476311700622 0.067427493409812952 0 0.237967452106535 0.070105640596903412 0 0.24429048066179679 0.072622021298478806 0 0.24496427956833819 0.066036472520138348 0 0.24429048066179679 0.072622021298478806 0 0.24842415088314279 0.069033451464499671 0 0.24496427956833819 0.066036472520138348 0 0.23934469018649959 0.064583282500140851 0 0.24496427956833819 0.066036472520138348 0 0.24309408444955441 0.062356377748052388 0 0.24496427956833819 0.066036472520138348 0 0.24602681454492631 0.062964227281045088 0 0.24309408444955441 0.062356377748052388 0 0.24496427956833819 0.066036472520138348 0 0.24602681454492631 0.062964227281045088 0 0.24853219730195361 0.063845178725116872 0 0.24842415088314279 0.069033451464499671 0 0.24496427956833819 0.066036472520138348 0 0.24853219730195361 0.063845178725116872 0 0.24751669685985911 0.059618880130872708 0 0.24309408444955441 0.062356377748052388 0 0.2376257901407148 0.059976102198904507 0 0.24751669685985911 0.059618880130872708 0 0.24426241142214139 0.049994713685017962 0 0.2310385276818335 0.053106641608170198 0 0.24751669685985911 0.059618880130872708 0 0.2376257901407148 0.059976102198904507 0 0.2310385276818335 0.053106641608170198 0 0.24751669685985911 0.059618880130872708 0 0.2310385276818335 0.053106641608170198 0 0.24853219730195361 0.063845178725116872 0 0.24751669685985911 0.059618880130872708 0 0.2530174900015254 0.0600809219264858 0 0.24602681454492631 0.062964227281045088 0 0.24853219730195361 0.063845178725116872 0 0.24751669685985911 0.059618880130872708 0 0.24602681454492631 0.062964227281045088 0 0.24751669685985911 0.059618880130872708 0 0.24309408444955441 0.062356377748052388 0 0.23934469018649959 0.064583282500140851 0 0.24309408444955441 0.062356377748052388 0 0.2376257901407148 0.059976102198904507 0 0.24426241142214139 0.049994713685017962 0 0.23928634064401511 0.040096757013566242 0 0.2310385276818335 0.053106641608170198 0 0.24751669685985911 0.059618880130872708 0 0.24426241142214139 0.049994713685017962 0 0.25102243244437311 0.053297338652025752 0 0.24426241142214139 0.049994713685017962 0 0.25174039047255609 0.044464402284776217 0 0.25102243244437311 0.053297338652025752 0 0.23928634064401511 0.040096757013566242 0 0.2320502206633881 0.021165953515508481 0 0.25044211127373811 0.032849993626191502 0 0.23928634064401511 0.040096757013566242 0 0.25044211127373811 0.032849993626191502 0 0.25174039047255609 0.044464402284776217 0 0.24426241142214139 0.049994713685017962 0 0.23928634064401511 0.040096757013566242 0 0.25174039047255609 0.044464402284776217 0 0.22618438235043381 0.038998837361733103 0 0.2320502206633881 0.021165953515508481 0 0.20963369093729961 0.03941564640516447 0 0.23928634064401511 0.040096757013566242 0 0.22618438235043381 0.038998837361733103 0 0.2320502206633881 0.021165953515508481 0 0.22618438235043381 0.038998837361733103 0 0.2310385276818335 0.053106641608170198 0 0.21456035850380811 0.046594403085467223 0 0.23928634064401511 0.040096757013566242 0 0.22618438235043381 0.038998837361733103 0 0.2310385276818335 0.053106641608170198 0 0.2310385276818335 0.053106641608170198 0 0.21456035850380811 0.046594403085467223 0 0.2248665156508784 0.061611733455129589 0 0.2310385276818335 0.053106641608170198 0 0.21456035850380811 0.046594403085467223 0 0.2248665156508784 0.061611733455129589 0 0.21456035850380811 0.046594403085467223 0 0.2330718446673557 0.064441819436705627 0 0.2248665156508784 0.061611733455129589 0 0.23150027442910881 0.059501590197602497 0 0.2248665156508784 0.061611733455129589 0 0.23150027442910881 0.059501590197602497 0 0.2310385276818335 0.053106641608170198 0 0.2330718446673557 0.064441819436705627 0 0.2376257901407148 0.059976102198904507 0 0.23150027442910881 0.059501590197602497 0 0.2376257901407148 0.059976102198904507 0 0.23150027442910881 0.059501590197602497 0 0.2310385276818335 0.053106641608170198 0 0.2320502206633881 0.021165953515508481 0 0.22999165343287109 0.0038227322559807589 0 0.25446675038947358 0.0029162606258486688 0 0.2320502206633881 0.021165953515508481 0 0.2600935707136679 0.019574361616358959 0 0.25446675038947358 0.0029162606258486688 0 0.22999165343287109 0.0038227322559807589 0 0.25446675038947358 0.0029162606258486688 0 0.24138147174972829 -0.0061427828714447699 0 0.2320502206633881 0.021165953515508481 0 0.25446675038947358 0.0029162606258486688 0 0.2320502206633881 0.021165953515508481 0 0.2600935707136679 0.019574361616358959 0 0.25044211127373811 0.032849993626191502 0 0.2320502206633881 0.021165953515508481 0 0.20963369093729961 0.03941564640516447 0 0.22999165343287109 0.0038227322559807589 0 0.21340461703840111 0.0096506044731711187 0 0.21351355446813719 -0.0021103410187178909 0 0.2320502206633881 0.021165953515508481 0 0.22999165343287109 0.0038227322559807589 0 0.21340461703840111 0.0096506044731711187 0 0.21340461703840111 0.0096506044731711187 0 0.1998105265397013 0.00335350757378736 0 0.21351355446813719 -0.0021103410187178909 0 0.21340461703840111 0.0096506044731711187 0 0.20371525389429951 0.01279949030761077 0 0.2082588668535221 0.02245160931237615 0 0.21340461703840111 0.0096506044731711187 0 0.20371525389429951 0.01279949030761077 0 0.1998105265397013 0.00335350757378736 0 0.2320502206633881 0.021165953515508481 0 0.2082588668535221 0.02245160931237615 0 0.20963369093729961 0.03941564640516447 0 0.2320502206633881 0.021165953515508481 0 0.21340461703840111 0.0096506044731711187 0 0.2082588668535221 0.02245160931237615 0 0.2082588668535221 0.02245160931237615 0 0.19338700514557339 0.015742239871108451 0 0.20963369093729961 0.03941564640516447 0 0.19338700514557339 0.015742239871108451 0 0.1989601287501698 0.040429129743079398 0 0.18048502430789731 0.01998114488410483 0 0.1989601287501698 0.040429129743079398 0 0.18048502430789731 0.01998114488410483 0 0.19338700514557339 0.015742239871108451 0 0.20963369093729961 0.03941564640516447 0 0.20371525389429951 0.01279949030761077 0 0.2082588668535221 0.02245160931237615 0 0.19338700514557339 0.015742239871108451 0 0.19338700514557339 0.015742239871108451 0 0.1998105265397013 0.00335350757378736 0 0.17714031935384769 -0.0079311666629475405 0 0.20371525389429951 0.01279949030761077 0 0.19338700514557339 0.015742239871108451 0 0.1998105265397013 0.00335350757378736 0 0.21450653174737461 0.057635669175196122 0 0.2029561920580818 0.044851916216142339 0 0.21450653174737461 0.057635669175196122 0 0.2029561920580818 0.044851916216142339 0 0.2021088015620611 0.053433964061651712 0 0.21450653174737461 0.057635669175196122 0 0.21456035850380811 0.046594403085467223 0 0.2029561920580818 0.044851916216142339 0 0.2082291800225603 0.066043280120252124 0 0.21450653174737461 0.057635669175196122 0 0.2021088015620611 0.053433964061651712 0 0.2248665156508784 0.061611733455129589 0 0.21450653174737461 0.057635669175196122 0 0.21456035850380811 0.046594403085467223 0 0.2082291800225603 0.066043280120252124 0 0.21450653174737461 0.057635669175196122 0 0.22618438235043381 0.038998837361733103 0 0.21456035850380811 0.046594403085467223 0 0.20963369093729961 0.03941564640516447 0 0.21456035850380811 0.046594403085467223 0 0.20963369093729961 0.03941564640516447 0 0.21456035850380811 0.046594403085467223 0 0.20530753189452691 0.042937648913457381 0 0.2029561920580818 0.044851916216142339 0 0.20963369093729961 0.03941564640516447 0 0.20530753189452691 0.042937648913457381 0 0.1989601287501698 0.040429129743079398 0 0.21456035850380811 0.046594403085467223 0 0.20530753189452691 0.042937648913457381 0 0.21456035850380811 0.046594403085467223 0 0.20963369093729961 0.03941564640516447 0 0.20530753189452691 0.042937648913457381 0 0.20963369093729961 0.03941564640516447 0 0.20530753189452691 0.042937648913457381 0 0.20530753189452691 0.042937648913457381 0 0.2029561920580818 0.044851916216142339 0 0.1989601287501698 0.040429129743079398 0 0.1774654858828027 0.031934360706524292 0 0.2029561920580818 0.044851916216142339 0 0.1989601287501698 0.040429129743079398 0 0.19971656766465989 0.047489351670260083 0 0.1989601287501698 0.040429129743079398 0 0.19133087755196571 0.045131483978966998 0 0.19971656766465989 0.047489351670260083 0 0.2029561920580818 0.044851916216142339 0 0.19971656766465989 0.047489351670260083 0 0.19338700514557339 0.015742239871108451 0 0.20963369093729961 0.03941564640516447 0 0.1989601287501698 0.040429129743079398 0 0.1989601287501698 0.040429129743079398 0 0.19133087755196571 0.045131483978966998 0 0.18298678422305309 0.040980100737508622 0 0.20530753189452691 0.042937648913457381 0 0.2029561920580818 0.044851916216142339 0 0.1989601287501698 0.040429129743079398 0 0.20530753189452691 0.042937648913457381 0 0.1989601287501698 0.040429129743079398 0 0.2029561920580818 0.044851916216142339 0 0.1989601287501698 0.040429129743079398 0 0.2082291800225603 0.066043280120252124 0 0.18513553631762919 0.051149603126408108 0 0.2021088015620611 0.053433964061651712 0 0.19971656766465989 0.047489351670260083 0 0.18513553631762919 0.051149603126408108 0 0.2082291800225603 0.066043280120252124 0 0.2021088015620611 0.053433964061651712 0 0.18513553631762919 0.051149603126408108 0 0.19067723801237901 0.065525043857756982 0 0.2082291800225603 0.066043280120252124 0 0.18513553631762919 0.051149603126408108 0 0.19133087755196571 0.045131483978966998 0 0.19971656766465989 0.047489351670260083 0 0.18513553631762919 0.051149603126408108 0 0.2029561920580818 0.044851916216142339 0 0.2021088015620611 0.053433964061651712 0 0.19971656766465989 0.047489351670260083 0 0.17734631865053521 0.060730067185729229 0 0.18513553631762919 0.051149603126408108 0 0.16725106424272049 0.052894846580172288 0 0.19067723801237901 0.065525043857756982 0 0.17734631865053521 0.060730067185729229 0 0.18513553631762919 0.051149603126408108 0 0.18298678422305309 0.040980100737508622 0 0.1774654858828027 0.031934360706524292 0 0.1620418926126978 0.036255926132564682 0 0.19133087755196571 0.045131483978966998 0 0.18513553631762919 0.051149603126408108 0 0.18298678422305309 0.040980100737508622 0 0.18513553631762919 0.051149603126408108 0 0.18298678422305309 0.040980100737508622 0 0.1620418926126978 0.036255926132564682 0 0.1989601287501698 0.040429129743079398 0 0.18298678422305309 0.040980100737508622 0 0.1774654858828027 0.031934360706524292 0 0.18513553631762919 0.051149603126408108 0 0.1620418926126978 0.036255926132564682 0 0.1620418926126978 0.036255926132564682 0 0.16725106424272049 0.052894846580172288 0 0.15541952745182569 0.04677658384696623 0 0.18513553631762919 0.051149603126408108 0 0.1620418926126978 0.036255926132564682 0 0.16725106424272049 0.052894846580172288 0 0.16725106424272049 0.052894846580172288 0 0.15507694825043991 0.057889849327421902 0 0.15541952745182569 0.04677658384696623 0 0.16725106424272049 0.052894846580172288 0 0.15507694825043991 0.057889849327421902 0 0.1653937448538241 0.067538194789913991 0 0.17734631865053521 0.060730067185729229 0 0.16725106424272049 0.052894846580172288 0 0.1653937448538241 0.067538194789913991 0 0.18048502430789731 0.01998114488410483 0 0.1657030786406338 0.0084270166623369204 0 0.17714031935384769 -0.0079311666629475405 0 0.19338700514557339 0.015742239871108451 0 0.17714031935384769 -0.0079311666629475405 0 0.19338700514557339 0.015742239871108451 0 0.18048502430789731 0.01998114488410483 0 0.17714031935384769 -0.0079311666629475405 0 0.1989601287501698 0.040429129743079398 0 0.1774654858828027 0.031934360706524292 0 0.18048502430789731 0.01998114488410483 0 0.1774654858828027 0.031934360706524292 0 0.18048502430789731 0.01998114488410483 0 0.16935520337559401 0.020657770454092759 0 0.1774654858828027 0.031934360706524292 0 0.15597084301543529 0.02343959166996953 0 0.1774654858828027 0.031934360706524292 0 0.1620418926126978 0.036255926132564682 0 0.15597084301543529 0.02343959166996953 0 0.1774654858828027 0.031934360706524292 0 0.16935520337559401 0.020657770454092759 0 0.15597084301543529 0.02343959166996953 0 0.16935520337559401 0.020657770454092759 0 0.1657030786406338 0.0084270166623369204 0 0.15597084301543529 0.02343959166996953 0 0.18048502430789731 0.01998114488410483 0 0.16935520337559401 0.020657770454092759 0 0.1657030786406338 0.0084270166623369204 0 0.1657030786406338 0.0084270166623369204 0 0.14883794818754281 0.01110572894874149 0 0.15480995508657039 -0.001084596553268768 0 0.1657030786406338 0.0084270166623369204 0 0.14883794818754281 0.01110572894874149 0 0.15597084301543529 0.02343959166996953 0 0.14883794818754281 0.01110572894874149 0 0.13464870039648349 0.00080453217212592717 0 0.15480995508657039 -0.001084596553268768 0 0.14883794818754281 0.01110572894874149 0 0.13894824890776639 0.02136224913872127 0 0.13464870039648349 0.00080453217212592717 0 0.1620418926126978 0.036255926132564682 0 0.13894824890776639 0.02136224913872127 0 0.14883794818754281 0.01110572894874149 0 0.15597084301543529 0.02343959166996953 0 0.13894824890776639 0.02136224913872127 0 0.1620418926126978 0.036255926132564682 0 0.15597084301543529 0.02343959166996953 0 0.13894824890776639 0.02136224913872127 0 0.11961069471150609 0.02296590295220987 0 0.13894824890776639 0.02136224913872127 0 0.12977361784467401 0.039215218793308727 0 0.1158546052028349 0.0064685721448778594 0 0.13894824890776639 0.02136224913872127 0 0.1158546052028349 0.0064685721448778594 0 0.13894824890776639 0.02136224913872127 0 0.13464870039648349 0.00080453217212592717 0 0.14278372382386809 0.048416123664777412 0 0.1428601767931531 0.062084067640591357 0 0.15507694825043991 0.057889849327421902 0 0.14278372382386809 0.048416123664777412 0 0.15507694825043991 0.057889849327421902 0 0.15541952745182569 0.04677658384696623 0 0.1620418926126978 0.036255926132564682 0 0.13894824890776639 0.02136224913872127 0 0.14579340212816641 0.038405220315267663 0 0.1620418926126978 0.036255926132564682 0 0.15541952745182569 0.04677658384696623 0 0.14579340212816641 0.038405220315267663 0 0.14278372382386809 0.048416123664777412 0 0.15541952745182569 0.04677658384696623 0 0.14579340212816641 0.038405220315267663 0 0.14278372382386809 0.048416123664777412 0 0.14579340212816641 0.038405220315267663 0 0.12977361784467401 0.039215218793308727 0 0.13894824890776639 0.02136224913872127 0 0.14579340212816641 0.038405220315267663 0 0.12977361784467401 0.039215218793308727 0 0.11550376979223601 0.054551475820320147 0 0.12977361784467401 0.039215218793308727 0 0.1326943019686847 0.054606112458038862 0 0.11550376979223601 0.054551475820320147 0 0.1326943019686847 0.054606112458038862 0 0.13255022158949201 0.068763676371196639 0 0.14278372382386809 0.048416123664777412 0 0.12977361784467401 0.039215218793308727 0 0.1326943019686847 0.054606112458038862 0 0.14278372382386809 0.048416123664777412 0 0.1428601767931531 0.062084067640591357 0 0.1326943019686847 0.054606112458038862 0 0.1428601767931531 0.062084067640591357 0 0.1326943019686847 0.054606112458038862 0 0.13255022158949201 0.068763676371196639 0 0.1207366242219714 0.074251990558816788 0 0.13255022158949201 0.068763676371196639 0 0.13578085374332971 0.077614708003019631 0 0.13255022158949201 0.068763676371196639 0 0.13578085374332971 0.077614708003019631 0 0.1430759120552613 0.073085192731263071 0 0.1428601767931531 0.062084067640591357 0 0.13255022158949201 0.068763676371196639 0 0.1430759120552613 0.073085192731263071 0 0.1428601767931531 0.062084067640591357 0 0.1430759120552613 0.073085192731263071 0 0.15260580868734391 0.069203578475014266 0 0.1430759120552613 0.073085192731263071 0 0.14969883640752091 0.076610515579137797 0 0.14563192422462459 0.083183778073064013 0 0.13578085374332971 0.077614708003019631 0 0.1430759120552613 0.073085192731263071 0 0.14563192422462459 0.083183778073064013 0 0.1430759120552613 0.073085192731263071 0 0.14969883640752091 0.076610515579137797 0 0.15260580868734391 0.069203578475014266 0 0.14969883640752091 0.076610515579137797 0 0.15260580868734391 0.069203578475014266 0 0.15677919641446331 0.080277826610221981 0 0.1428601767931531 0.062084067640591357 0 0.15507694825043991 0.057889849327421902 0 0.15260580868734391 0.069203578475014266 0 0.1506819444987289 0.088437751930635633 0 0.14868901735932749 0.09586058707093438 0 0.157853861938485 0.092527754269896317 0 0.1506819444987289 0.088437751930635633 0 0.15677919641446331 0.080277826610221981 0 0.157853861938485 0.092527754269896317 0 0.14969883640752091 0.076610515579137797 0 0.14563192422462459 0.083183778073064013 0 0.15677919641446331 0.080277826610221981 0 0.1506819444987289 0.088437751930635633 0 0.14563192422462459 0.083183778073064013 0 0.15677919641446331 0.080277826610221981 0 0.14563192422462459 0.083183778073064013 0 0.1444557225567443 0.090338813629061501 0 0.13888671887288589 0.088270852986767859 0 0.1506819444987289 0.088437751930635633 0 0.14563192422462459 0.083183778073064013 0 0.1444557225567443 0.090338813629061501 0 0.1444557225567443 0.090338813629061501 0 0.14209274384079601 0.094639397504520467 0 0.14868901735932749 0.09586058707093438 0 0.1506819444987289 0.088437751930635633 0 0.1444557225567443 0.090338813629061501 0 0.14868901735932749 0.09586058707093438 0 0.1444557225567443 0.090338813629061501 0 0.13888671887288589 0.088270852986767859 0 0.14209274384079601 0.094639397504520467 0 0.13888671887288589 0.088270852986767859 0 0.13668050292917741 0.098217611464673699 0 0.14209274384079601 0.094639397504520467 0 0.13888671887288589 0.088270852986767859 0 0.1300820653953097 0.084166932106396392 0 0.13668050292917741 0.098217611464673699 0 0.11116449005577619 0.086473750785835857 0 0.1300820653953097 0.084166932106396392 0 0.13668050292917741 0.098217611464673699 0 0.13578085374332971 0.077614708003019631 0 0.13888671887288589 0.088270852986767859 0 0.1300820653953097 0.084166932106396392 0 0.13578085374332971 0.077614708003019631 0 0.14563192422462459 0.083183778073064013 0 0.13888671887288589 0.088270852986767859 0 0.1207366242219714 0.074251990558816788 0 0.13578085374332971 0.077614708003019631 0 0.1300820653953097 0.084166932106396392 0 0.1216961693062274 0.1020981758197984 0 0.1302764983332621 0.10693497851168419 0 0.13668050292917741 0.098217611464673699 0 0.1302764983332621 0.10693497851168419 0 0.13758713408363871 0.1043360441680015 0 0.13668050292917741 0.098217611464673699 0 0.1302764983332621 0.10693497851168419 0 0.1360833458267342 0.1084620534226548 0 0.13758713408363871 0.1043360441680015 0 0.1360833458267342 0.1084620534226548 0 0.13758713408363871 0.1043360441680015 0 0.14314356584317489 0.10755645506983 0 0.13758713408363871 0.1043360441680015 0 0.13668050292917741 0.098217611464673699 0 0.14175175748584509 0.1005091223711649 0 0.13668050292917741 0.098217611464673699 0 0.14209274384079601 0.094639397504520467 0 0.14175175748584509 0.1005091223711649 0 0.12813823657366311 0.12049833089676459 0 0.13246275659848361 0.1130811342378658 0 0.13708322035591489 0.118794437000363 0 0.12212988809696081 0.1249307776834532 0 0.12788127083107459 0.1291064789800366 0 0.12813823657366311 0.12049833089676459 0 0.1197878353292403 0.1092484053650479 0 0.1302764983332621 0.10693497851168419 0 0.12624189261331301 0.1140678077034443 0 0.12813823657366311 0.12049833089676459 0 0.12624189261331301 0.1140678077034443 0 0.13246275659848361 0.1130811342378658 0 0.1302764983332621 0.10693497851168419 0 0.12624189261331301 0.1140678077034443 0 0.13246275659848361 0.1130811342378658 0 0.138866780176991 0.11235807520418389 0 0.13708322035591489 0.118794437000363 0 0.14572099158606311 0.1154247658161887 0 0.1360833458267342 0.1084620534226548 0 0.13246275659848361 0.1130811342378658 0 0.138866780176991 0.11235807520418389 0 0.1302764983332621 0.10693497851168419 0 0.1360833458267342 0.1084620534226548 0 0.13246275659848361 0.1130811342378658 0 0.1360833458267342 0.1084620534226548 0 0.138866780176991 0.11235807520418389 0 0.14314356584317489 0.10755645506983 0 0.13246275659848361 0.1130811342378658 0 0.138866780176991 0.11235807520418389 0 0.13708322035591489 0.118794437000363 0 0.13409394305489639 0.1257339851238449 0 0.14295710802469111 0.12768772724150559 0 0.13708322035591489 0.118794437000363 0 0.13409394305489639 0.1257339851238449 0 0.12813823657366311 0.12049833089676459 0 0.13708322035591489 0.118794437000363 0 0.14572099158606311 0.1154247658161887 0 0.15364605026385231 0.1227496740475859 0 0.15839207309433961 0.10550736800805539 0 0.14295710802469111 0.12768772724150559 0 0.13708322035591489 0.118794437000363 0 0.14572099158606311 0.1154247658161887 0 0.14295710802469111 0.12768772724150559 0 0.14572099158606311 0.1154247658161887 0 0.15364605026385231 0.1227496740475859 0 0.138866780176991 0.11235807520418389 0 0.14572099158606311 0.1154247658161887 0 0.14314356584317489 0.10755645506983 0 0.14572099158606311 0.1154247658161887 0 0.14314356584317489 0.10755645506983 0 0.15839207309433961 0.10550736800805539 0 0.14175175748584509 0.1005091223711649 0 0.15839207309433961 0.10550736800805539 0 0.14175175748584509 0.1005091223711649 0 0.14314356584317489 0.10755645506983 0 0.15839207309433961 0.10550736800805539 0 0.14175175748584509 0.1005091223711649 0 0.14868901735932749 0.09586058707093438 0 0.15839207309433961 0.10550736800805539 0 0.14209274384079601 0.094639397504520467 0 0.14175175748584509 0.1005091223711649 0 0.14868901735932749 0.09586058707093438 0 0.13758713408363871 0.1043360441680015 0 0.14175175748584509 0.1005091223711649 0 0.14314356584317489 0.10755645506983 0 0.14868901735932749 0.09586058707093438 0 0.15839207309433961 0.10550736800805539 0 0.157853861938485 0.092527754269896317 0 0.15839207309433961 0.10550736800805539 0 0.17503238870283441 0.11050561364494491 0 0.15839207309433961 0.10550736800805539 0 0.1705578526620479 0.095927182961129481 0 0.157853861938485 0.092527754269896317 0 0.15839207309433961 0.10550736800805539 0 0.1705578526620479 0.095927182961129481 0 0.17503238870283441 0.11050561364494491 0 0.16417220099380411 0.12505127510387981 0 0.15839207309433961 0.10550736800805539 0 0.17503238870283441 0.11050561364494491 0 0.16417220099380411 0.12505127510387981 0 0.15364605026385231 0.1227496740475859 0 0.15839207309433961 0.10550736800805539 0 0.16417220099380411 0.12505127510387981 0 0.17503238870283441 0.11050561364494491 0 0.18002451345814399 0.12716596121819479 0 0.16417220099380411 0.12505127510387981 0 0.17503238870283441 0.11050561364494491 0 0.18002451345814399 0.12716596121819479 0 0.2001236667938262 0.1180422718546187 0 0.17503238870283441 0.11050561364494491 0 0.1916307843626972 0.08827444688259839 0 0.1705578526620479 0.095927182961129481 0 0.17503238870283441 0.11050561364494491 0 0.1916307843626972 0.08827444688259839 0 0.17503238870283441 0.11050561364494491 0 0.1916307843626972 0.08827444688259839 0 0.17935943521264269 0.07135827912697662 0 0.16988015521188329 0.08282073200015258 0 0.1916307843626972 0.08827444688259839 0 0.1705578526620479 0.095927182961129481 0 0.16988015521188329 0.08282073200015258 0 0.19067723801237901 0.065525043857756982 0 0.1916307843626972 0.08827444688259839 0 0.17935943521264269 0.07135827912697662 0 0.19067723801237901 0.065525043857756982 0 0.17734631865053521 0.060730067185729229 0 0.17935943521264269 0.07135827912697662 0 0.17734631865053521 0.060730067185729229 0 0.17935943521264269 0.07135827912697662 0 0.1653937448538241 0.067538194789913991 0 0.17935943521264269 0.07135827912697662 0 0.1653937448538241 0.067538194789913991 0 0.16988015521188329 0.08282073200015258 0 0.15507694825043991 0.057889849327421902 0 0.15260580868734391 0.069203578475014266 0 0.1653937448538241 0.067538194789913991 0 0.15260580868734391 0.069203578475014266 0 0.1653937448538241 0.067538194789913991 0 0.15677919641446331 0.080277826610221981 0 0.1653937448538241 0.067538194789913991 0 0.15677919641446331 0.080277826610221981 0 0.16988015521188329 0.08282073200015258 0 0.15677919641446331 0.080277826610221981 0 0.157853861938485 0.092527754269896317 0 0.16988015521188329 0.08282073200015258 0 0.1705578526620479 0.095927182961129481 0 0.157853861938485 0.092527754269896317 0 0.16988015521188329 0.08282073200015258 0 0.099456207782380623 0.4822659283708195 0 0.1141892196830592 0.48396198267476093 0 0.11304725129434449 0.46767028325629811 0 0.099456207782380623 0.4822659283708195 0 0.11304725129434449 0.46767028325629811 0 0.096803680563272876 0.46646214520586099 0 0.099456207782380623 0.4822659283708195 0 0.10782601469385079 0.5 0 0.078267650747156567 0.50000000000000133 0 0.099456207782380623 0.4822659283708195 0 0.10782601469385079 0.5 0 0.1141892196830592 0.48396198267476093 0 0.10782601469385079 0.5 0 0.1249193769550877 0.49369376296818718 0 0.1141892196830592 0.48396198267476093 0 0.1249193769550877 0.49369376296818718 0 0.1141892196830592 0.48396198267476093 0 0.12569724768963239 0.47617993877849962 0 0.10782601469385079 0.5 0 0.1249193769550877 0.49369376296818718 0 0.13738437864054501 0.5 0 0.1141892196830592 0.48396198267476093 0 0.11304725129434449 0.46767028325629811 0 0.12569724768963239 0.47617993877849962 0 0.11304725129434449 0.46767028325629811 0 0.1267882431275838 0.46370707134437261 0 0.12569724768963239 0.47617993877849962 0 0.11304725129434449 0.46767028325629811 0 0.1221607865463437 0.4507156547582637 0 0.1004821270038239 0.44949914822431608 0 0.11304725129434449 0.46767028325629811 0 0.1221607865463437 0.4507156547582637 0 0.1267882431275838 0.46370707134437261 0 0.1221607865463437 0.4507156547582637 0 0.1004821270038239 0.44949914822431608 0 0.12259086230274099 0.42947812748907283 0 0.1004821270038239 0.44949914822431608 0 0.096803680563272876 0.46646214520586099 0 0.084307548883437972 0.45862843933572522 0 0.11304725129434449 0.46767028325629811 0 0.1004821270038239 0.44949914822431608 0 0.096803680563272876 0.46646214520586099 0 0.084307548883437972 0.45862843933572522 0 0.070120974899159305 0.46867166915081548 0 0.08254081050968877 0.47642281665818748 0 0.096803680563272876 0.46646214520586099 0 0.084307548883437972 0.45862843933572522 0 0.08254081050968877 0.47642281665818748 0 0.084307548883437972 0.45862843933572522 0 0.083205653112744402 0.44008551456546158 0 0.070599818540594342 0.45171728711773013 0 0.1004821270038239 0.44949914822431608 0 0.084307548883437972 0.45862843933572522 0 0.083205653112744402 0.44008551456546158 0 0.1004821270038239 0.44949914822431608 0 0.083205653112744402 0.44008551456546158 0 0.095892719888732866 0.42453745382262881 0 0.070599818540594342 0.45171728711773013 0 0.057347956450285731 0.44480695268810438 0 0.068330088192809502 0.43602814955066621 0 0.083205653112744402 0.44008551456546158 0 0.070599818540594342 0.45171728711773013 0 0.068330088192809502 0.43602814955066621 0 0.070599818540594342 0.45171728711773013 0 0.070120974899159305 0.46867166915081548 0 0.05832870883015126 0.45973880463956351 0 0.084307548883437972 0.45862843933572522 0 0.070599818540594342 0.45171728711773013 0 0.070120974899159305 0.46867166915081548 0 0.070120974899159305 0.46867166915081548 0 0.08254081050968877 0.47642281665818748 0 0.061557047466102868 0.48310025102256282 0 0.070120974899159305 0.46867166915081548 0 0.061557047466102868 0.48310025102256282 0 0.05832870883015126 0.45973880463956351 0 0.099456207782380623 0.4822659283708195 0 0.096803680563272876 0.46646214520586099 0 0.08254081050968877 0.47642281665818748 0 0.099456207782380623 0.4822659283708195 0 0.08254081050968877 0.47642281665818748 0 0.078267650747156567 0.50000000000000133 0 0.078267650747156567 0.50000000000000133 0 0.049166882519808157 0.5 0 0.061557047466102868 0.48310025102256282 0 0.08254081050968877 0.47642281665818748 0 0.078267650747156567 0.50000000000000133 0 0.061557047466102868 0.48310025102256282 0 0.078267650747156567 0.50000000000000133 0 0.061557047466102868 0.48310025102256282 0 0.049166882519808157 0.5 0 0.061557047466102868 0.48310025102256282 0 0.038208171894904559 0.48286056860770488 0 0.061557047466102868 0.48310025102256282 0 0.044846444185049857 0.46620050204512359 0 0.05832870883015126 0.45973880463956351 0 0.061557047466102868 0.48310025102256282 0 0.044846444185049857 0.46620050204512359 0 0.061557047466102868 0.48310025102256282 0 0.038208171894904559 0.48286056860770488 0 0.044846444185049857 0.46620050204512359 0 0.038208171894904559 0.48286056860770488 0 0.029572045059576241 0.469060477695939 0 0.044846444185049857 0.46620050204512359 0 0.049166882519808157 0.5 0 0.038208171894904559 0.48286056860770488 0 0.020066114292459799 0.5 0 0.038208171894904559 0.48286056860770488 0 0.020066114292459799 0.5 0 0.021055159894441029 0.48095839664786189 0 0.038208171894904559 0.48286056860770488 0 0.029572045059576241 0.469060477695939 0 0.021055159894441029 0.48095839664786189 0 0.029572045059576241 0.469060477695939 0 0.021055159894441029 0.48095839664786189 0 0.01561460841948897 0.46598216811131982 0 0.021055159894441029 0.48095839664786189 0 0.0030933759349822849 0.48266358315495572 0 0.01561460841948897 0.46598216811131982 0 0.0030933759349822849 0.48266358315495572 0 0.01561460841948897 0.46598216811131982 0 0.0036787250480955699 0.47408322248379448 0 0.0030933759349822849 0.48266358315495572 0 0.01561460841948897 0.46598216811131982 0 -0.0016340076521478781 0.48633642657919801 0 0.0036787250480955699 0.47408322248379448 0 0.0030933759349822849 0.48266358315495572 0 0.020066114292459799 0.5 0 0.021055159894441029 0.48095839664786189 0 0.0030933759349822849 0.48266358315495572 0 -0.0090346539348886701 0.5 0 -0.0016340076521478781 0.48633642657919801 0 0.020066114292459799 0.5 0 -0.0016340076521478781 0.48633642657919801 0 0.020066114292459799 0.5 0 0.0030933759349822849 0.48266358315495572 0 -0.0030841453677343121 0.43636499760021141 0 -0.002359076509941094 0.46135071208970457 0 0.010470448459028871 0.45111158928184719 0 -0.0030841453677343121 0.43636499760021141 0 0.010470448459028871 0.45111158928184719 0 0.017893296784651399 0.43894227458572882 0 -0.002359076509941094 0.46135071208970457 0 0.010470448459028871 0.45111158928184719 0 0.01561460841948897 0.46598216811131982 0 -0.002359076509941094 0.46135071208970457 0 0.0036787250480955699 0.47408322248379448 0 0.01561460841948897 0.46598216811131982 0 0.010470448459028871 0.45111158928184719 0 0.01561460841948897 0.46598216811131982 0 0.0281358409039968 0.44930075306768458 0 0.029572045059576241 0.469060477695939 0 0.01561460841948897 0.46598216811131982 0 0.0281358409039968 0.44930075306768458 0 0.01561460841948897 0.46598216811131982 0 0.0281358409039968 0.44930075306768458 0 0.010470448459028871 0.45111158928184719 0 0.0281358409039968 0.44930075306768458 0 0.017893296784651399 0.43894227458572882 0 0.0281358409039968 0.44930075306768458 0 0.017893296784651399 0.43894227458572882 0 0.03800042812263172 0.43615865433005307 0 0.0281358409039968 0.44930075306768458 0 0.017893296784651399 0.43894227458572882 0 0.0281358409039968 0.44930075306768458 0 0.04587361322417214 0.448769157871174 0 0.03800042812263172 0.43615865433005307 0 0.0281358409039968 0.44930075306768458 0 0.03800042812263172 0.43615865433005307 0 0.04587361322417214 0.448769157871174 0 0.049411209704934803 0.43621283219101809 0 0.03800042812263172 0.43615865433005307 0 0.029572045059576241 0.469060477695939 0 0.0281358409039968 0.44930075306768458 0 0.044846444185049857 0.46620050204512359 0 0.0281358409039968 0.44930075306768458 0 0.04587361322417214 0.448769157871174 0 0.044846444185049857 0.46620050204512359 0 0.0281358409039968 0.44930075306768458 0 0.044846444185049857 0.46620050204512359 0 0.04587361322417214 0.448769157871174 0 0.044846444185049857 0.46620050204512359 0 0.05832870883015126 0.45973880463956351 0 0.04587361322417214 0.448769157871174 0 0.057347956450285731 0.44480695268810438 0 0.049411209704934803 0.43621283219101809 0 0.04587361322417214 0.448769157871174 0 0.05832870883015126 0.45973880463956351 0 0.057347956450285731 0.44480695268810438 0 0.070599818540594342 0.45171728711773013 0 0.05832870883015126 0.45973880463956351 0 0.057347956450285731 0.44480695268810438 0 0.057347956450285731 0.44480695268810438 0 0.058238482531349368 0.43512174465279091 0 0.068330088192809502 0.43602814955066621 0 0.057347956450285731 0.44480695268810438 0 0.058238482531349368 0.43512174465279091 0 0.049411209704934803 0.43621283219101809 0 0.058238482531349368 0.43512174465279091 0 0.05412352915042095 0.42739076434297479 0 0.063786863135573219 0.4234822836218442 0 0.05412352915042095 0.42739076434297479 0 0.047865015341267358 0.42301655559242213 0 0.049411209704934803 0.43621283219101809 0 0.05412352915042095 0.42739076434297479 0 0.047865015341267358 0.42301655559242213 0 0.058238482531349368 0.43512174465279091 0 0.05412352915042095 0.42739076434297479 0 0.049411209704934803 0.43621283219101809 0 0.047865015341267358 0.42301655559242213 0 0.055388731832649349 0.41299308245440008 0 0.044385004541519633 0.40583709082877739 0 0.055388731832649349 0.41299308245440008 0 0.057103340742871267 0.4006394318358022 0 0.0691327228978319 0.40699071288372829 0 0.05412352915042095 0.42739076434297479 0 0.055388731832649349 0.41299308245440008 0 0.063786863135573219 0.4234822836218442 0 0.047865015341267358 0.42301655559242213 0 0.055388731832649349 0.41299308245440008 0 0.05412352915042095 0.42739076434297479 0 0.047865015341267358 0.42301655559242213 0 0.055388731832649349 0.41299308245440008 0 0.055388731832649349 0.41299308245440008 0 0.044385004541519633 0.40583709082877739 0 0.057103340742871267 0.4006394318358022 0 0.047865015341267358 0.42301655559242213 0 0.030398582533070099 0.41080889326869052 0 0.044385004541519633 0.40583709082877739 0 0.047865015341267358 0.42301655559242213 0 0.035686717363660143 0.42423985257235269 0 0.030398582533070099 0.41080889326869052 0 0.047865015341267358 0.42301655559242213 0 0.030398582533070099 0.41080889326869052 0 0.047865015341267358 0.42301655559242213 0 0.049411209704934803 0.43621283219101809 0 0.03800042812263172 0.43615865433005307 0 0.047865015341267358 0.42301655559242213 0 0.03800042812263172 0.43615865433005307 0 0.047865015341267358 0.42301655559242213 0 0.035686717363660143 0.42423985257235269 0 0.03800042812263172 0.43615865433005307 0 0.035686717363660143 0.42423985257235269 0 0.03800042812263172 0.43615865433005307 0 0.0264828434576714 0.42697530709824522 0 0.017893296784651399 0.43894227458572882 0 0.0264828434576714 0.42697530709824522 0 0.013451351612083251 0.42022136891186163 0 0.017893296784651399 0.43894227458572882 0 0.03800042812263172 0.43615865433005307 0 0.0264828434576714 0.42697530709824522 0 0.030398582533070099 0.41080889326869052 0 0.013451351612083251 0.42022136891186163 0 0.012932149724872831 0.39860123094495892 0 0.0264828434576714 0.42697530709824522 0 0.030398582533070099 0.41080889326869052 0 0.013451351612083251 0.42022136891186163 0 0.035686717363660143 0.42423985257235269 0 0.0264828434576714 0.42697530709824522 0 0.030398582533070099 0.41080889326869052 0 -0.0038092142255275289 0.41137928311071797 0 0.013451351612083251 0.42022136891186163 0 0.012932149724872831 0.39860123094495892 0 -0.0030841453677343121 0.43636499760021141 0 0.017893296784651399 0.43894227458572882 0 0.013451351612083251 0.42022136891186163 0 -0.0030841453677343121 0.43636499760021141 0 -0.0038092142255275289 0.41137928311071797 0 0.013451351612083251 0.42022136891186163 0 -0.0045342830833226501 0.3863935686212247 0 0.012932149724872831 0.39860123094495892 0 0.0079023355216259559 0.37348921158265391 0 0.012932149724872831 0.39860123094495892 0 0.025375843575522711 0.38021681034322929 0 0.0079023355216259559 0.37348921158265391 0 -0.0045342830833226501 0.3863935686212247 0 0.012932149724872831 0.39860123094495892 0 -0.0045342830833226501 0.3863935686212247 0 -0.0038092142255275289 0.41137928311071797 0 0.012932149724872831 0.39860123094495892 0 0.030398582533070099 0.41080889326869052 0 0.012932149724872831 0.39860123094495892 0 0.030398582533070099 0.41080889326869052 0 0.012932149724872831 0.39860123094495892 0 0.030218872497922818 0.39559608178221078 0 0.012932149724872831 0.39860123094495892 0 0.030218872497922818 0.39559608178221078 0 0.025375843575522711 0.38021681034322929 0 0.025375843575522711 0.38021681034322929 0 0.045236422390978262 0.39339421550307069 0 0.045418656597819553 0.37354288132317159 0 0.030218872497922818 0.39559608178221078 0 0.025375843575522711 0.38021681034322929 0 0.045236422390978262 0.39339421550307069 0 0.030398582533070099 0.41080889326869052 0 0.030218872497922818 0.39559608178221078 0 0.044385004541519633 0.40583709082877739 0 0.030218872497922818 0.39559608178221078 0 0.045236422390978262 0.39339421550307069 0 0.044385004541519633 0.40583709082877739 0 0.045236422390978262 0.39339421550307069 0 0.057103340742871267 0.4006394318358022 0 0.06607043693335328 0.38973814947632979 0 0.045236422390978262 0.39339421550307069 0 0.044385004541519633 0.40583709082877739 0 0.057103340742871267 0.4006394318358022 0 0.045236422390978262 0.39339421550307069 0 0.06607043693335328 0.38973814947632979 0 0.045418656597819553 0.37354288132317159 0 0.06607043693335328 0.38973814947632979 0 0.066778362586220691 0.36264744131756171 0 0.045418656597819553 0.37354288132317159 0 0.06607043693335328 0.38973814947632979 0 0.086713905658550791 0.37461406501925459 0 0.066778362586220691 0.36264744131756171 0 0.091303312773641829 0.3995757594209417 0 0.1025776524751303 0.38486691706586951 0 0.086713905658550791 0.37461406501925459 0 0.06607043693335328 0.38973814947632979 0 0.091303312773641829 0.3995757594209417 0 0.086713905658550791 0.37461406501925459 0 0.091303312773641829 0.3995757594209417 0 0.086713905658550791 0.37461406501925459 0 0.06607043693335328 0.38973814947632979 0 0.091303312773641829 0.3995757594209417 0 0.0691327228978319 0.40699071288372829 0 0.057103340742871267 0.4006394318358022 0 0.06607043693335328 0.38973814947632979 0 0.0691327228978319 0.40699071288372829 0 0.055388731832649349 0.41299308245440008 0 0.0691327228978319 0.40699071288372829 0 0.063786863135573219 0.4234822836218442 0 0.0691327228978319 0.40699071288372829 0 0.077714875811277062 0.4214876261871765 0 0.063786863135573219 0.4234822836218442 0 0.083205653112744402 0.44008551456546158 0 0.077714875811277062 0.4214876261871765 0 0.068330088192809502 0.43602814955066621 0 0.058238482531349368 0.43512174465279091 0 0.068330088192809502 0.43602814955066621 0 0.063786863135573219 0.4234822836218442 0 0.077714875811277062 0.4214876261871765 0 0.068330088192809502 0.43602814955066621 0 0.063786863135573219 0.4234822836218442 0 0.083205653112744402 0.44008551456546158 0 0.077714875811277062 0.4214876261871765 0 0.095892719888732866 0.42453745382262881 0 0.091303312773641829 0.3995757594209417 0 0.0691327228978319 0.40699071288372829 0 0.077714875811277062 0.4214876261871765 0 0.091303312773641829 0.3995757594209417 0 0.095892719888732866 0.42453745382262881 0 0.091303312773641829 0.3995757594209417 0 0.077714875811277062 0.4214876261871765 0 0.095892719888732866 0.42453745382262881 0 0.091303312773641829 0.3995757594209417 0 0.095892719888732866 0.42453745382262881 0 0.115428724103706 0.40267530492779557 0 0.1004821270038239 0.44949914822431608 0 0.095892719888732866 0.42453745382262881 0 0.12259086230274099 0.42947812748907283 0 0.1004821270038239 0.44949914822431608 0 0.095892719888732866 0.42453745382262881 0 0.095892719888732866 0.42453745382262881 0 0.12259086230274099 0.42947812748907283 0 0.115428724103706 0.40267530492779557 0 0.115428724103706 0.40267530492779557 0 0.119448870245615 0.38256434187866972 0 0.13692284990477191 0.38930777957628943 0 0.119448870245615 0.38256434187866972 0 0.1025776524751303 0.38486691706586951 0 0.1087205780393706 0.3656269003386084 0 0.115428724103706 0.40267530492779557 0 0.119448870245615 0.38256434187866972 0 0.1025776524751303 0.38486691706586951 0 0.1025776524751303 0.38486691706586951 0 0.1087205780393706 0.3656269003386084 0 0.086713905658550791 0.37461406501925459 0 0.091303312773641829 0.3995757594209417 0 0.115428724103706 0.40267530492779557 0 0.1025776524751303 0.38486691706586951 0 0.1087205780393706 0.3656269003386084 0 0.1202868522871179 0.34060046584014031 0 0.0915497208986496 0.34709204532757532 0 0.1087205780393706 0.3656269003386084 0 0.0915497208986496 0.34709204532757532 0 0.086713905658550791 0.37461406501925459 0 0.119448870245615 0.38256434187866972 0 0.1087205780393706 0.3656269003386084 0 0.13274728415341139 0.36410634055334368 0 0.1087205780393706 0.3656269003386084 0 0.1202868522871179 0.34060046584014031 0 0.13274728415341139 0.36410634055334368 0 0.1202868522871179 0.34060046584014031 0 0.1104734498024164 0.31171603628350752 0 0.14183880654046921 0.32250528078568202 0 0.1202868522871179 0.34060046584014031 0 0.1016552612267161 0.33013161519950079 0 0.1104734498024164 0.31171603628350752 0 0.1016552612267161 0.33013161519950079 0 0.081254576285268804 0.3210829637434266 0 0.1104734498024164 0.31171603628350752 0 0.1202868522871179 0.34060046584014031 0 0.1016552612267161 0.33013161519950079 0 0.0915497208986496 0.34709204532757532 0 0.081254576285268804 0.3210829637434266 0 0.072654821413094289 0.33942743407960763 0 0.0915497208986496 0.34709204532757532 0 0.1016552612267161 0.33013161519950079 0 0.081254576285268804 0.3210829637434266 0 0.0915497208986496 0.34709204532757532 0 0.081254576285268804 0.3210829637434266 0 0.06358813508901956 0.32234581427363851 0 0.071244474661197085 0.3036312559279935 0 0.081254576285268804 0.3210829637434266 0 0.06358813508901956 0.32234581427363851 0 0.072654821413094289 0.33942743407960763 0 0.06358813508901956 0.32234581427363851 0 0.072654821413094289 0.33942743407960763 0 0.055199983679349987 0.34246375673151652 0 0.072654821413094289 0.33942743407960763 0 0.066778362586220691 0.36264744131756171 0 0.055199983679349987 0.34246375673151652 0 0.072654821413094289 0.33942743407960763 0 0.0915497208986496 0.34709204532757532 0 0.066778362586220691 0.36264744131756171 0 0.0915497208986496 0.34709204532757532 0 0.086713905658550791 0.37461406501925459 0 0.066778362586220691 0.36264744131756171 0 0.066778362586220691 0.36264744131756171 0 0.044951457965310811 0.3555124197003488 0 0.045418656597819553 0.37354288132317159 0 0.066778362586220691 0.36264744131756171 0 0.044951457965310811 0.3555124197003488 0 0.055199983679349987 0.34246375673151652 0 0.044951457965310811 0.3555124197003488 0 0.021903196078839001 0.35746348141110651 0 0.035457090884324839 0.34144453771838768 0 0.044951457965310811 0.3555124197003488 0 0.035457090884324839 0.34144453771838768 0 0.055199983679349987 0.34246375673151652 0 0.044951457965310811 0.3555124197003488 0 0.045418656597819553 0.37354288132317159 0 0.021903196078839001 0.35746348141110651 0 0.025375843575522711 0.38021681034322929 0 0.021903196078839001 0.35746348141110651 0 0.0079023355216259559 0.37348921158265391 0 0.025375843575522711 0.38021681034322929 0 0.045418656597819553 0.37354288132317159 0 0.021903196078839001 0.35746348141110651 0 0.021903196078839001 0.35746348141110651 0 0.017151683724365509 0.3376665205351736 0 0.035457090884324839 0.34144453771838768 0 0.021903196078839001 0.35746348141110651 0 0.0095650341834115256 0.34490192427506011 0 0.017151683724365509 0.3376665205351736 0 0.021903196078839001 0.35746348141110651 0 0.0095650341834115256 0.34490192427506011 0 0.0061318462344260851 0.35417601161121459 0 -0.0050552824635438226 0.34569829691311771 0 0.0095650341834115256 0.34490192427506011 0 0.0061318462344260851 0.35417601161121459 0 0.021903196078839001 0.35746348141110651 0 0.0061318462344260851 0.35417601161121459 0 0.0079023355216259559 0.37348921158265391 0 -0.0052616759920083916 0.36132776784546622 0 0.0061318462344260851 0.35417601161121459 0 0.0079023355216259559 0.37348921158265391 0 0.0087281755863181168 0.33049580891976171 0 0.020410497070949891 0.30832150289807031 0 0.0056044744337335906 0.31412092038659428 0 0.0087281755863181168 0.33049580891976171 0 0.020410497070949891 0.30832150289807031 0 -0.003280447873963227 0.32161399115684158 0 0.0056044744337335906 0.31412092038659428 0 0.0087281755863181168 0.33049580891976171 0 0.0064742168078369342 0.3347740657525386 0 0.0087281755863181168 0.33049580891976171 0 -0.0050552824635438226 0.34569829691311771 0 0.0095650341834115256 0.34490192427506011 0 0.0064742168078369342 0.3347740657525386 0 0.0095650341834115256 0.34490192427506011 0 0.0064742168078369342 0.3347740657525386 0 0.017151683724365509 0.3376665205351736 0 0.0064742168078369342 0.3347740657525386 0 0.0087281755863181168 0.33049580891976171 0 0.017151683724365509 0.3376665205351736 0 0.0087281755863181168 0.33049580891976171 0 0.025353163704189718 0.33024288796319817 0 0.017151683724365509 0.3376665205351736 0 0.0087281755863181168 0.33049580891976171 0 0.025353163704189718 0.33024288796319817 0 0.025353163704189718 0.33024288796319817 0 0.017151683724365509 0.3376665205351736 0 0.035457090884324839 0.34144453771838768 0 0.0087281755863181168 0.33049580891976171 0 0.025353163704189718 0.33024288796319817 0 0.020410497070949891 0.30832150289807031 0 0.025353163704189718 0.33024288796319817 0 0.038017806832533571 0.30672300381527179 0 0.020410497070949891 0.30832150289807031 0 0.025353163704189718 0.33024288796319817 0 0.045812945845809312 0.32351293560108041 0 0.038017806832533571 0.30672300381527179 0 0.025353163704189718 0.33024288796319817 0 0.045812945845809312 0.32351293560108041 0 0.035457090884324839 0.34144453771838768 0 0.045812945845809312 0.32351293560108041 0 0.035457090884324839 0.34144453771838768 0 0.055199983679349987 0.34246375673151652 0 0.06358813508901956 0.32234581427363851 0 0.045812945845809312 0.32351293560108041 0 0.055199983679349987 0.34246375673151652 0 0.06358813508901956 0.32234581427363851 0 0.045812945845809312 0.32351293560108041 0 0.055148108477292443 0.3057593846019967 0 0.055148108477292443 0.3057593846019967 0 0.047586914097201803 0.29032131063477928 0 0.038017806832533571 0.30672300381527179 0 0.055148108477292443 0.3057593846019967 0 0.047586914097201803 0.29032131063477928 0 0.066935962560195753 0.28615893812798288 0 0.047586914097201803 0.29032131063477928 0 0.050578246113349837 0.27455429857722041 0 0.066935962560195753 0.28615893812798288 0 0.047586914097201803 0.29032131063477928 0 0.032092818555581597 0.28614719687637868 0 0.038017806832533571 0.30672300381527179 0 0.047586914097201803 0.29032131063477928 0 0.032092818555581597 0.28614719687637868 0 0.050578246113349837 0.27455429857722041 0 0.045812945845809312 0.32351293560108041 0 0.055148108477292443 0.3057593846019967 0 0.038017806832533571 0.30672300381527179 0 0.032092818555581597 0.28614719687637868 0 0.038017806832533571 0.30672300381527179 0 0.020410497070949891 0.30832150289807031 0 0.032092818555581597 0.28614719687637868 0 0.020410497070949891 0.30832150289807031 0 0.032092818555581597 0.28614719687637868 0 0.020410497070949891 0.30832150289807031 0 0.0083336089875100904 0.29343585490586271 0 0.032092818555581597 0.28614719687637868 0 0.0083336089875100904 0.29343585490586271 0 0.021382191810826279 0.2686960609189637 0 -0.0088759444352828343 0.31092800175718183 0 0.0056044744337335906 0.31412092038659428 0 0.0083336089875100904 0.29343585490586271 0 0.0056044744337335906 0.31412092038659428 0 0.020410497070949891 0.30832150289807031 0 0.0083336089875100904 0.29343585490586271 0 0.0073806355134042019 0.25529449578482938 0 3.3590645499582607e-05 0.27236849017123349 0 0.021382191810826279 0.2686960609189637 0 0.0083336089875100904 0.29343585490586271 0 3.3590645499582607e-05 0.27236849017123349 0 0.021382191810826279 0.2686960609189637 0 0.025149977659741599 0.24684982625080901 0 0.0073806355134042019 0.25529449578482938 0 0.021382191810826279 0.2686960609189637 0 0.025149977659741599 0.24684982625080901 0 0.021382191810826279 0.2686960609189637 0 0.043775140040213267 0.26397289085468728 0 0.025149977659741599 0.24684982625080901 0 0.045472231705318063 0.24424317023843681 0 0.050158093690384618 0.2598810672441918 0 0.025149977659741599 0.24684982625080901 0 0.050158093690384618 0.2598810672441918 0 0.025149977659741599 0.24684982625080901 0 0.043775140040213267 0.26397289085468728 0 0.050158093690384618 0.2598810672441918 0 0.032092818555581597 0.28614719687637868 0 0.043775140040213267 0.26397289085468728 0 0.032092818555581597 0.28614719687637868 0 0.021382191810826279 0.2686960609189637 0 0.043775140040213267 0.26397289085468728 0 0.032092818555581597 0.28614719687637868 0 0.043775140040213267 0.26397289085468728 0 0.050578246113349837 0.27455429857722041 0 0.050578246113349837 0.27455429857722041 0 0.063875668081316214 0.2678607518654692 0 0.066935962560195753 0.28615893812798288 0 0.043775140040213267 0.26397289085468728 0 0.050578246113349837 0.27455429857722041 0 0.050158093690384618 0.2598810672441918 0 0.050578246113349837 0.27455429857722041 0 0.056046126259945157 0.25263236173372139 0 0.063875668081316214 0.2678607518654692 0 0.050578246113349837 0.27455429857722041 0 0.050158093690384618 0.2598810672441918 0 0.056046126259945157 0.25263236173372139 0 0.045472231705318063 0.24424317023843681 0 0.050158093690384618 0.2598810672441918 0 0.056046126259945157 0.25263236173372139 0 0.050578246113349837 0.27455429857722041 0 0.056046126259945157 0.25263236173372139 0 0.078525547080241467 0.2465942846531784 0 0.067905867336300579 0.25358800162702 0 0.079567988853459573 0.27014218499250892 0 0.067905867336300579 0.25358800162702 0 0.079567988853459573 0.27014218499250892 0 0.063875668081316214 0.2678607518654692 0 0.056046126259945157 0.25263236173372139 0 0.067905867336300579 0.25358800162702 0 0.063875668081316214 0.2678607518654692 0 0.078525547080241467 0.2465942846531784 0 0.079567988853459573 0.27014218499250892 0 0.093798877441032588 0.2579700649065903 0 0.079567988853459573 0.27014218499250892 0 0.063875668081316214 0.2678607518654692 0 0.066935962560195753 0.28615893812798288 0 0.079567988853459573 0.27014218499250892 0 0.066935962560195753 0.28615893812798288 0 0.087430381393448858 0.29852998767476718 0 0.066935962560195753 0.28615893812798288 0 0.071244474661197085 0.3036312559279935 0 0.087430381393448858 0.29852998767476718 0 0.055148108477292443 0.3057593846019967 0 0.066935962560195753 0.28615893812798288 0 0.071244474661197085 0.3036312559279935 0 0.06358813508901956 0.32234581427363851 0 0.055148108477292443 0.3057593846019967 0 0.071244474661197085 0.3036312559279935 0 0.081254576285268804 0.3210829637434266 0 0.087430381393448858 0.29852998767476718 0 0.1104734498024164 0.31171603628350752 0 0.081254576285268804 0.3210829637434266 0 0.071244474661197085 0.3036312559279935 0 0.087430381393448858 0.29852998767476718 0 0.079567988853459573 0.27014218499250892 0 0.087430381393448858 0.29852998767476718 0 0.1079828451826004 0.27738565586056829 0 0.087430381393448858 0.29852998767476718 0 0.1104734498024164 0.31171603628350752 0 0.1079828451826004 0.27738565586056829 0 0.1104734498024164 0.31171603628350752 0 0.1079828451826004 0.27738565586056829 0 0.13401849175413849 0.29214957311260448 0 0.1079828451826004 0.27738565586056829 0 0.13401849175413849 0.29214957311260448 0 0.1100607559553454 0.25396994184181759 0 0.1079828451826004 0.27738565586056829 0 0.13366986361514199 0.26692500362740812 0 0.12787711237058769 0.24521089126939841 0 0.1100607559553454 0.25396994184181759 0 0.13366986361514199 0.26692500362740812 0 0.092857250133516089 0.24175825718487831 0 0.1100607559553454 0.25396994184181759 0 0.093798877441032588 0.2579700649065903 0 0.1100607559553454 0.25396994184181759 0 0.093798877441032588 0.2579700649065903 0 0.1079828451826004 0.27738565586056829 0 0.079567988853459573 0.27014218499250892 0 0.093798877441032588 0.2579700649065903 0 0.1079828451826004 0.27738565586056829 0 0.13366986361514199 0.26692500362740812 0 0.1558685034792309 0.28595093384994291 0 0.15959452244756481 0.26367036214955358 0 0.14702044576598061 0.2478904659134552 0 0.13366986361514199 0.26692500362740812 0 0.15959452244756481 0.26367036214955358 0 0.14702044576598061 0.2478904659134552 0 0.12787711237058769 0.24521089126939841 0 0.13366986361514199 0.26692500362740812 0 0.1079828451826004 0.27738565586056829 0 0.13366986361514199 0.26692500362740812 0 0.13401849175413849 0.29214957311260448 0 0.1104734498024164 0.31171603628350752 0 0.13401849175413849 0.29214957311260448 0 0.14183880654046921 0.32250528078568202 0 0.13401849175413849 0.29214957311260448 0 0.16005413832567669 0.30691349036464077 0 0.14183880654046921 0.32250528078568202 0 0.13401849175413849 0.29214957311260448 0 0.16005413832567669 0.30691349036464077 0 0.13401849175413849 0.29214957311260448 0 0.1558685034792309 0.28595093384994291 0 0.16005413832567669 0.30691349036464077 0 0.13366986361514199 0.26692500362740812 0 0.13401849175413849 0.29214957311260448 0 0.1558685034792309 0.28595093384994291 0 0.1558685034792309 0.28595093384994291 0 0.1700220001876428 0.28782965529906401 0 0.16005413832567669 0.30691349036464077 0 0.1558685034792309 0.28595093384994291 0 0.1700220001876428 0.28782965529906401 0 0.17370236977615991 0.27502287964280692 0 0.1700220001876428 0.28782965529906401 0 0.16005413832567669 0.30691349036464077 0 0.1764196225356903 0.29880027385689728 0 0.16005413832567669 0.30691349036464077 0 0.1764196225356903 0.29880027385689728 0 0.18686192329242929 0.31378732528256248 0 0.1764196225356903 0.29880027385689728 0 0.18674031124236579 0.30201460306836742 0 0.19086383386244751 0.2907864273273883 0 0.1764196225356903 0.29880027385689728 0 0.18674031124236579 0.30201460306836742 0 0.18686192329242929 0.31378732528256248 0 0.1700220001876428 0.28782965529906401 0 0.18013512871176271 0.28566990799825959 0 0.17370236977615991 0.27502287964280692 0 0.1700220001876428 0.28782965529906401 0 0.1764196225356903 0.29880027385689728 0 0.18013512871176271 0.28566990799825959 0 0.1764196225356903 0.29880027385689728 0 0.18013512871176271 0.28566990799825959 0 0.19086383386244751 0.2907864273273883 0 0.18013512871176271 0.28566990799825959 0 0.1896678171968729 0.27591030386514148 0 0.19086383386244751 0.2907864273273883 0 0.18251379545819379 0.26835647973838378 0 0.17370236977615991 0.27502287964280692 0 0.1896678171968729 0.27591030386514148 0 0.18013512871176271 0.28566990799825959 0 0.17370236977615991 0.27502287964280692 0 0.1896678171968729 0.27591030386514148 0 0.18251379545819379 0.26835647973838378 0 0.17370236977615991 0.27502287964280692 0 0.17699066645021869 0.2595722272450377 0 0.17370236977615991 0.27502287964280692 0 0.15959452244756481 0.26367036214955358 0 0.17699066645021869 0.2595722272450377 0 0.1558685034792309 0.28595093384994291 0 0.17370236977615991 0.27502287964280692 0 0.15959452244756481 0.26367036214955358 0 0.16774616909827719 0.2460930353984315 0 0.15959452244756481 0.26367036214955358 0 0.17699066645021869 0.2595722272450377 0 0.14702044576598061 0.2478904659134552 0 0.16774616909827719 0.2460930353984315 0 0.15959452244756481 0.26367036214955358 0 0.18692125413578081 0.24552837502103991 0 0.16774616909827719 0.2460930353984315 0 0.17699066645021869 0.2595722272450377 0 0.18692125413578081 0.24552837502103991 0 0.17699066645021869 0.2595722272450377 0 0.19242781921148469 0.26384338938458129 0 0.18251379545819379 0.26835647973838378 0 0.17699066645021869 0.2595722272450377 0 0.19242781921148469 0.26384338938458129 0 0.18692125413578081 0.24552837502103991 0 0.19242781921148469 0.26384338938458129 0 0.20107379594449931 0.25686311186437227 0 0.18692125413578081 0.24552837502103991 0 0.20107379594449931 0.25686311186437227 0 0.19242781921148469 0.26384338938458129 0 0.20107379594449931 0.25686311186437227 0 0.2008998280478862 0.26959186196165702 0 0.19242781921148469 0.26384338938458129 0 0.20107379594449931 0.25686311186437227 0 0.19242781921148469 0.26384338938458129 0 0.1896678171968729 0.27591030386514148 0 0.2008998280478862 0.26959186196165702 0 0.18251379545819379 0.26835647973838378 0 0.19242781921148469 0.26384338938458129 0 0.1896678171968729 0.27591030386514148 0 0.1896678171968729 0.27591030386514148 0 0.2008998280478862 0.26959186196165702 0 0.20354188417430641 0.281093168015905 0 0.2008998280478862 0.26959186196165702 0 0.2177878237122676 0.27024933667828532 0 0.20354188417430641 0.281093168015905 0 0.2177878237122676 0.27024933667828532 0 0.20354188417430641 0.281093168015905 0 0.2166033006779626 0.28924568688104418 0 0.21557305570370441 0.24515722135805329 0 0.20107379594449931 0.25686311186437227 0 0.2177878237122676 0.27024933667828532 0 0.20107379594449931 0.25686311186437227 0 0.2177878237122676 0.27024933667828532 0 0.20107379594449931 0.25686311186437227 0 0.2008998280478862 0.26959186196165702 0 0.2177878237122676 0.27024933667828532 0 0.21557305570370441 0.24515722135805329 0 0.20107379594449931 0.25686311186437227 0 0.21557305570370441 0.24515722135805329 0 0.2177878237122676 0.27024933667828532 0 0.23628031136540401 0.25597328662156199 0 0.2177878237122676 0.27024933667828532 0 0.23628031136540401 0.25597328662156199 0 0.23450185148003599 0.28363556149219821 0 0.2177878237122676 0.27024933667828532 0 0.23450185148003599 0.28363556149219821 0 0.2166033006779626 0.28924568688104418 0 0.2177878237122676 0.27024933667828532 0 0.23450185148003599 0.28363556149219821 0 0.23628031136540401 0.25597328662156199 0 0.23450185148003599 0.28363556149219821 0 0.25102838231212438 0.26850893423506528 0 0.23450185148003599 0.28363556149219821 0 0.25953152444998728 0.28294166139542631 0 0.25102838231212438 0.26850893423506528 0 0.23628031136540401 0.25597328662156199 0 0.25102838231212438 0.26850893423506528 0 0.26221447651104962 0.2479993693513689 0 0.2297645605960125 0.30261029929826411 0 0.25121587924780342 0.29702178630611242 0 0.2484846271056145 0.31037308609574782 0 0.2297645605960125 0.30261029929826411 0 0.23798581837376781 0.31938142953188831 0 0.2484846271056145 0.31037308609574782 0 0.2297645605960125 0.30261029929826411 0 0.25121587924780342 0.29702178630611242 0 0.23450185148003599 0.28363556149219821 0 0.2297645605960125 0.30261029929826411 0 0.25121587924780342 0.29702178630611242 0 0.23450185148003599 0.28363556149219821 0 0.25121587924780342 0.29702178630611242 0 0.23450185148003599 0.28363556149219821 0 0.25953152444998728 0.28294166139542631 0 0.25121587924780342 0.29702178630611242 0 0.23450185148003599 0.28363556149219821 0 0.2297645605960125 0.30261029929826411 0 0.2166033006779626 0.28924568688104418 0 0.2297645605960125 0.30261029929826411 0 0.20831324194422091 0.30819881229041318 0 0.2297645605960125 0.30261029929826411 0 0.20831324194422091 0.30819881229041318 0 0.21977364325038071 0.31928170538083578 0 0.20831324194422091 0.30819881229041318 0 0.2166033006779626 0.28924568688104418 0 0.20288664267638859 0.29424953150154581 0 0.2297645605960125 0.30261029929826411 0 0.20831324194422091 0.30819881229041318 0 0.2166033006779626 0.28924568688104418 0 0.20354188417430641 0.281093168015905 0 0.2166033006779626 0.28924568688104418 0 0.20288664267638859 0.29424953150154581 0 0.20354188417430641 0.281093168015905 0 0.20288664267638859 0.29424953150154581 0 0.19086383386244751 0.2907864273273883 0 0.20288664267638859 0.29424953150154581 0 0.19086383386244751 0.2907864273273883 0 0.19511095272300569 0.3019235629929784 0 0.1896678171968729 0.27591030386514148 0 0.20354188417430641 0.281093168015905 0 0.19086383386244751 0.2907864273273883 0 0.20831324194422091 0.30819881229041318 0 0.18686192329242929 0.31378732528256248 0 0.20831324194422091 0.30819881229041318 0 0.19511095272300569 0.3019235629929784 0 0.18686192329242929 0.31378732528256248 0 0.20831324194422091 0.30819881229041318 0 0.20288664267638859 0.29424953150154581 0 0.19511095272300569 0.3019235629929784 0 0.18674031124236579 0.30201460306836742 0 0.19086383386244751 0.2907864273273883 0 0.19511095272300569 0.3019235629929784 0 0.18674031124236579 0.30201460306836742 0 0.19511095272300569 0.3019235629929784 0 0.18686192329242929 0.31378732528256248 0 0.20141288137377081 0.31920030670374799 0 0.18686192329242929 0.31378732528256248 0 0.18608978489721489 0.32167740761667712 0 0.20831324194422091 0.30819881229041318 0 0.20141288137377081 0.31920030670374799 0 0.18686192329242929 0.31378732528256248 0 0.20141288137377081 0.31920030670374799 0 0.21212543146875301 0.33644132486871342 0 0.18608978489721489 0.32167740761667712 0 0.21212543146875301 0.33644132486871342 0 0.18608978489721489 0.32167740761667712 0 0.19231113454718349 0.34165597013868199 0 0.21212543146875301 0.33644132486871342 0 0.18608978489721489 0.32167740761667712 0 0.20831324194422091 0.30819881229041318 0 0.20141288137377081 0.31920030670374799 0 0.21977364325038071 0.31928170538083578 0 0.20141288137377081 0.31920030670374799 0 0.21212543146875301 0.33644132486871342 0 0.21977364325038071 0.31928170538083578 0 0.21977364325038071 0.31928170538083578 0 0.2290399257457596 0.32985805959198788 0 0.23798581837376781 0.31938142953188831 0 0.2297645605960125 0.30261029929826411 0 0.21977364325038071 0.31928170538083578 0 0.23798581837376781 0.31938142953188831 0 0.21212543146875301 0.33644132486871342 0 0.21977364325038071 0.31928170538083578 0 0.2290399257457596 0.32985805959198788 0 0.21212543146875301 0.33644132486871342 0 0.23060518033342339 0.33807106122714048 0 0.2290399257457596 0.32985805959198788 0 0.21212543146875301 0.33644132486871342 0 0.23060518033342339 0.33807106122714048 0 0.23816107804029091 0.35120524212074949 0 0.23060518033342339 0.33807106122714048 0 0.2290399257457596 0.32985805959198788 0 0.2430942860788903 0.33477961832711151 0 0.23060518033342339 0.33807106122714048 0 0.2430942860788903 0.33477961832711151 0 0.23816107804029091 0.35120524212074949 0 0.2484846271056145 0.31037308609574782 0 0.23798581837376781 0.31938142953188831 0 0.25508783524565293 0.32209220201309929 0 0.2430942860788903 0.33477961832711151 0 0.23798581837376781 0.31938142953188831 0 0.25508783524565293 0.32209220201309929 0 0.2290399257457596 0.32985805959198788 0 0.2430942860788903 0.33477961832711151 0 0.23798581837376781 0.31938142953188831 0 0.23439037865920059 0.35560025357312369 0 0.2386764282036242 0.37725286527910618 0 0.24311907173897271 0.36013203008567057 0 0.23439037865920059 0.35560025357312369 0 0.2386764282036242 0.37725286527910618 0 0.2492643002430574 0.365916522193315 0 0.24311907173897271 0.36013203008567057 0 0.2386764282036242 0.37725286527910618 0 0.2492643002430574 0.365916522193315 0 0.2386764282036242 0.37725286527910618 0 0.25383912625151372 0.37755129754335942 0 0.24311907173897271 0.36013203008567057 0 0.23816107804029091 0.35120524212074949 0 0.2641967246118288 0.36596915937278562 0 0.2430942860788903 0.33477961832711151 0 0.23816107804029091 0.35120524212074949 0 0.26173146881309822 0.35734024057335978 0 0.24311907173897271 0.36013203008567057 0 0.23816107804029091 0.35120524212074949 0 0.23439037865920059 0.35560025357312369 0 0.21212543146875301 0.33644132486871342 0 0.23816107804029091 0.35120524212074949 0 0.21848510057545151 0.35453686872473111 0 0.23816107804029091 0.35120524212074949 0 0.23439037865920059 0.35560025357312369 0 0.21848510057545151 0.35453686872473111 0 0.21212543146875301 0.33644132486871342 0 0.23816107804029091 0.35120524212074949 0 0.23439037865920059 0.35560025357312369 0 0.22513916990612379 0.36868200325308897 0 0.2386764282036242 0.37725286527910618 0 0.23439037865920059 0.35560025357312369 0 0.22513916990612379 0.36868200325308897 0 0.21848510057545151 0.35453686872473111 0 0.22513916990612379 0.36868200325308897 0 0.20931495008602691 0.36890180222237801 0 0.21961872799640589 0.38146559318592133 0 0.22513916990612379 0.36868200325308897 0 0.20931495008602691 0.36890180222237801 0 0.21848510057545151 0.35453686872473111 0 0.20931495008602691 0.36890180222237801 0 0.21848510057545151 0.35453686872473111 0 0.2018014651714847 0.35413555731190122 0 0.21212543146875301 0.33644132486871342 0 0.21848510057545151 0.35453686872473111 0 0.2018014651714847 0.35413555731190122 0 0.19231113454718349 0.34165597013868199 0 0.2018014651714847 0.35413555731190122 0 0.1832131523033072 0.3569188224833833 0 0.19231113454718349 0.34165597013868199 0 0.21212543146875301 0.33644132486871342 0 0.2018014651714847 0.35413555731190122 0 0.20931495008602691 0.36890180222237801 0 0.2018014651714847 0.35413555731190122 0 0.19217836357317111 0.36996972767433872 0 0.20931495008602691 0.36890180222237801 0 0.19217836357317111 0.36996972767433872 0 0.20289108470775991 0.38370682355227331 0 0.2018014651714847 0.35413555731190122 0 0.19217836357317111 0.36996972767433872 0 0.1832131523033072 0.3569188224833833 0 0.19217836357317111 0.36996972767433872 0 0.17197644233242751 0.37002706837148541 0 0.1832131523033072 0.3569188224833833 0 0.17197644233242751 0.37002706837148541 0 0.16866852787741549 0.35230522619665788 0 0.1832131523033072 0.3569188224833833 0 0.17197644233242751 0.37002706837148541 0 0.16866852787741549 0.35230522619665788 0 0.15186920095361911 0.35620033980905319 0 0.17197644233242751 0.37002706837148541 0 0.15186920095361911 0.35620033980905319 0 0.15185568245476189 0.37707061606136422 0 0.16866852787741549 0.35230522619665788 0 0.1579580049025659 0.33927316190663209 0 0.15186920095361911 0.35620033980905319 0 0.16866852787741549 0.35230522619665788 0 0.1832131523033072 0.3569188224833833 0 0.17832583889515771 0.33910673841273542 0 0.19231113454718349 0.34165597013868199 0 0.1832131523033072 0.3569188224833833 0 0.17832583889515771 0.33910673841273542 0 0.17832583889515771 0.33910673841273542 0 0.18608978489721489 0.32167740761667712 0 0.16647560889869609 0.32578562508456149 0 0.19231113454718349 0.34165597013868199 0 0.17832583889515771 0.33910673841273542 0 0.18608978489721489 0.32167740761667712 0 0.16005413832567669 0.30691349036464077 0 0.18608978489721489 0.32167740761667712 0 0.16005413832567669 0.30691349036464077 0 0.18686192329242929 0.31378732528256248 0 0.18608978489721489 0.32167740761667712 0 0.16005413832567669 0.30691349036464077 0 0.18608978489721489 0.32167740761667712 0 0.16647560889869609 0.32578562508456149 0 0.17832583889515771 0.33910673841273542 0 0.16647560889869609 0.32578562508456149 0 0.1579580049025659 0.33927316190663209 0 0.16866852787741549 0.35230522619665788 0 0.17832583889515771 0.33910673841273542 0 0.1579580049025659 0.33927316190663209 0 0.16647560889869609 0.32578562508456149 0 0.1579580049025659 0.33927316190663209 0 0.14183880654046921 0.32250528078568202 0 0.1579580049025659 0.33927316190663209 0 0.14183880654046921 0.32250528078568202 0 0.14054269679001921 0.34363296691054102 0 0.16005413832567669 0.30691349036464077 0 0.16647560889869609 0.32578562508456149 0 0.14183880654046921 0.32250528078568202 0 0.1202868522871179 0.34060046584014031 0 0.14183880654046921 0.32250528078568202 0 0.14054269679001921 0.34363296691054102 0 0.1202868522871179 0.34060046584014031 0 0.14054269679001921 0.34363296691054102 0 0.13274728415341139 0.36410634055334368 0 0.13274728415341139 0.36410634055334368 0 0.15186920095361911 0.35620033980905319 0 0.15185568245476189 0.37707061606136422 0 0.14054269679001921 0.34363296691054102 0 0.13274728415341139 0.36410634055334368 0 0.15186920095361911 0.35620033980905319 0 0.1579580049025659 0.33927316190663209 0 0.14054269679001921 0.34363296691054102 0 0.15186920095361911 0.35620033980905319 0 0.15352992747694119 0.40026604784697911 0 0.13692284990477191 0.38930777957628943 0 0.1397509022148696 0.40843688002483958 0 0.15352992747694119 0.40026604784697911 0 0.15185568245476189 0.37707061606136422 0 0.13692284990477191 0.38930777957628943 0 0.13274728415341139 0.36410634055334368 0 0.15185568245476189 0.37707061606136422 0 0.13692284990477191 0.38930777957628943 0 0.119448870245615 0.38256434187866972 0 0.13274728415341139 0.36410634055334368 0 0.13692284990477191 0.38930777957628943 0 0.115428724103706 0.40267530492779557 0 0.13692284990477191 0.38930777957628943 0 0.1397509022148696 0.40843688002483958 0 0.12259086230274099 0.42947812748907283 0 0.1397509022148696 0.40843688002483958 0 0.14363603346764281 0.42707530835579988 0 0.12259086230274099 0.42947812748907283 0 0.115428724103706 0.40267530492779557 0 0.1397509022148696 0.40843688002483958 0 0.12259086230274099 0.42947812748907283 0 0.14363603346764281 0.42707530835579988 0 0.13510526379757609 0.44116740875256688 0 0.14363603346764281 0.42707530835579988 0 0.16526304614212209 0.42908608809292892 0 0.1507341445198021 0.44370602134863157 0 0.14363603346764281 0.42707530835579988 0 0.15527295380072001 0.4153931176925994 0 0.16526304614212209 0.42908608809292892 0 0.14363603346764281 0.42707530835579988 0 0.1507341445198021 0.44370602134863157 0 0.13510526379757609 0.44116740875256688 0 0.1397509022148696 0.40843688002483958 0 0.14363603346764281 0.42707530835579988 0 0.15527295380072001 0.4153931176925994 0 0.15352992747694119 0.40026604784697911 0 0.1397509022148696 0.40843688002483958 0 0.15527295380072001 0.4153931176925994 0 0.15527295380072001 0.4153931176925994 0 0.1711416470664554 0.41062619466687539 0 0.16526304614212209 0.42908608809292892 0 0.15352992747694119 0.40026604784697911 0 0.15527295380072001 0.4153931176925994 0 0.1711416470664554 0.41062619466687539 0 0.16526304614212209 0.42908608809292892 0 0.1809560021812836 0.43814832633623357 0 0.16598328874466911 0.44273574664910909 0 0.16526304614212209 0.42908608809292892 0 0.18469425222239219 0.42125941149134333 0 0.1809560021812836 0.43814832633623357 0 0.1711416470664554 0.41062619466687539 0 0.16526304614212209 0.42908608809292892 0 0.18469425222239219 0.42125941149134333 0 0.1711416470664554 0.41062619466687539 0 0.18469425222239219 0.42125941149134333 0 0.1843100454414533 0.40126956181167389 0 0.1711416470664554 0.41062619466687539 0 0.1843100454414533 0.40126956181167389 0 0.16952276405911931 0.3912061138884545 0 0.1843100454414533 0.40126956181167389 0 0.16952276405911931 0.3912061138884545 0 0.18589276442329861 0.38606835492789338 0 0.15352992747694119 0.40026604784697911 0 0.1711416470664554 0.41062619466687539 0 0.16952276405911931 0.3912061138884545 0 0.15352992747694119 0.40026604784697911 0 0.15185568245476189 0.37707061606136422 0 0.16952276405911931 0.3912061138884545 0 0.17197644233242751 0.37002706837148541 0 0.15185568245476189 0.37707061606136422 0 0.16952276405911931 0.3912061138884545 0 0.17197644233242751 0.37002706837148541 0 0.16952276405911931 0.3912061138884545 0 0.18589276442329861 0.38606835492789338 0 0.19217836357317111 0.36996972767433872 0 0.17197644233242751 0.37002706837148541 0 0.18589276442329861 0.38606835492789338 0 0.18589276442329861 0.38606835492789338 0 0.20289108470775991 0.38370682355227331 0 0.19700705340585539 0.39579078134538831 0 0.19217836357317111 0.36996972767433872 0 0.18589276442329861 0.38606835492789338 0 0.20289108470775991 0.38370682355227331 0 0.19700705340585539 0.39579078134538831 0 0.21316338490038089 0.39704202397260657 0 0.19877798755638451 0.41086714246249401 0 0.1843100454414533 0.40126956181167389 0 0.19700705340585539 0.39579078134538831 0 0.19877798755638451 0.41086714246249401 0 0.1843100454414533 0.40126956181167389 0 0.18589276442329861 0.38606835492789338 0 0.19700705340585539 0.39579078134538831 0 0.20289108470775991 0.38370682355227331 0 0.19700705340585539 0.39579078134538831 0 0.21316338490038089 0.39704202397260657 0 0.20931495008602691 0.36890180222237801 0 0.20289108470775991 0.38370682355227331 0 0.21961872799640589 0.38146559318592133 0 0.20289108470775991 0.38370682355227331 0 0.21316338490038089 0.39704202397260657 0 0.21961872799640589 0.38146559318592133 0 0.22513916990612379 0.36868200325308897 0 0.21961872799640589 0.38146559318592133 0 0.2386764282036242 0.37725286527910618 0 0.21961872799640589 0.38146559318592133 0 0.22852735017452019 0.39320804083607441 0 0.2386764282036242 0.37725286527910618 0 0.21316338490038089 0.39704202397260657 0 0.21961872799640589 0.38146559318592133 0 0.22852735017452019 0.39320804083607441 0 0.21316338490038089 0.39704202397260657 0 0.22852735017452019 0.39320804083607441 0 0.22983145469658259 0.40925978250573319 0 0.21316338490038089 0.39704202397260657 0 0.22983145469658259 0.40925978250573319 0 0.22852735017452019 0.39320804083607441 0 0.2429624777480478 0.39890547698508871 0 0.22983145469658259 0.40925978250573319 0 0.2429624777480478 0.39890547698508871 0 0.2386764282036242 0.37725286527910618 0 0.22852735017452019 0.39320804083607441 0 0.2429624777480478 0.39890547698508871 0 0.2386764282036242 0.37725286527910618 0 0.2429624777480478 0.39890547698508871 0 0.2386764282036242 0.37725286527910618 0 0.25341304662754638 0.38974012394171498 0 0.2386764282036242 0.37725286527910618 0 0.25383912625151372 0.37755129754335942 0 0.25341304662754638 0.38974012394171498 0 0.24649952449278431 0.42147754103885982 0 0.22996656543308741 0.44177288309861867 0 0.24946733303660301 0.43176723098649622 0 0.24649952449278431 0.42147754103885982 0 0.22996656543308741 0.44177288309861867 0 0.24649952449278431 0.42147754103885982 0 0.22738899126970491 0.42458926785457718 0 0.22996656543308741 0.44177288309861867 0 0.24946733303660301 0.43176723098649622 0 0.24649952449278431 0.42147754103885982 0 0.2429624777480478 0.39890547698508871 0 0.24649952449278431 0.42147754103885982 0 0.24649952449278431 0.42147754103885982 0 0.22983145469658259 0.40925978250573319 0 0.22738899126970491 0.42458926785457718 0 0.24649952449278431 0.42147754103885982 0 0.22983145469658259 0.40925978250573319 0 0.2429624777480478 0.39890547698508871 0 0.24649952449278431 0.42147754103885982 0 0.22983145469658259 0.40925978250573319 0 0.21316338490038089 0.39704202397260657 0 0.22983145469658259 0.40925978250573319 0 0.21370806227123909 0.41789950377956148 0 0.22983145469658259 0.40925978250573319 0 0.22738899126970491 0.42458926785457718 0 0.21370806227123909 0.41789950377956148 0 0.22738899126970491 0.42458926785457718 0 0.21739304288862979 0.43200563017257382 0 0.22996656543308741 0.44177288309861867 0 0.22738899126970491 0.42458926785457718 0 0.21739304288862979 0.43200563017257382 0 0.21370806227123909 0.41789950377956148 0 0.21739304288862979 0.43200563017257382 0 0.1999317510848099 0.43097584272053618 0 0.2111195299095035 0.44359306409302351 0 0.21739304288862979 0.43200563017257382 0 0.21370806227123909 0.41789950377956148 0 0.1999317510848099 0.43097584272053618 0 0.21370806227123909 0.41789950377956148 0 0.19877798755638451 0.41086714246249401 0 0.1999317510848099 0.43097584272053618 0 0.21316338490038089 0.39704202397260657 0 0.21370806227123909 0.41789950377956148 0 0.19877798755638451 0.41086714246249401 0 0.18469425222239219 0.42125941149134333 0 0.19877798755638451 0.41086714246249401 0 0.1999317510848099 0.43097584272053618 0 0.18469425222239219 0.42125941149134333 0 0.1843100454414533 0.40126956181167389 0 0.19877798755638451 0.41086714246249401 0 0.18469425222239219 0.42125941149134333 0 0.1999317510848099 0.43097584272053618 0 0.1809560021812836 0.43814832633623357 0 0.1999317510848099 0.43097584272053618 0 0.19479511809318301 0.4526549487178691 0 0.2111195299095035 0.44359306409302351 0 0.1999317510848099 0.43097584272053618 0 0.19479511809318301 0.4526549487178691 0 0.1809560021812836 0.43814832633623357 0 0.19479511809318301 0.4526549487178691 0 0.213169792932182 0.46047172596691099 0 0.19211155850092579 0.47790980627879082 0 0.19479511809318301 0.4526549487178691 0 0.19211155850092579 0.47790980627879082 0 0.18348770279874721 0.46143911161818069 0 0.213169792932182 0.46047172596691099 0 0.2111195299095035 0.44359306409302351 0 0.22996656543308741 0.44177288309861867 0 0.19479511809318301 0.4526549487178691 0 0.213169792932182 0.46047172596691099 0 0.2111195299095035 0.44359306409302351 0 0.21739304288862979 0.43200563017257382 0 0.2111195299095035 0.44359306409302351 0 0.22996656543308741 0.44177288309861867 0 0.22996656543308741 0.44177288309861867 0 0.22854105436186559 0.46372788353366717 0 0.24141841662185301 0.45603819576859073 0 0.213169792932182 0.46047172596691099 0 0.22854105436186559 0.46372788353366717 0 0.221321310837439 0.47674074212904899 0 0.213169792932182 0.46047172596691099 0 0.22996656543308741 0.44177288309861867 0 0.22854105436186559 0.46372788353366717 0 0.24141841662185301 0.45603819576859073 0 0.23645949407781469 0.47608243786178739 0 0.25047151807745072 0.47036873115219768 0 0.22854105436186559 0.46372788353366717 0 0.24141841662185301 0.45603819576859073 0 0.23645949407781469 0.47608243786178739 0 0.24141841662185301 0.45603819576859073 0 0.25047151807745072 0.47036873115219768 0 0.25477099823403621 0.45804476415031298 0 0.24141841662185301 0.45603819576859073 0 0.25282491994113748 0.44831200937164878 0 0.25477099823403621 0.45804476415031298 0 0.22996656543308741 0.44177288309861867 0 0.24141841662185301 0.45603819576859073 0 0.24583280085865111 0.44361242472787987 0 0.24946733303660301 0.43176723098649622 0 0.22996656543308741 0.44177288309861867 0 0.24583280085865111 0.44361242472787987 0 0.24141841662185301 0.45603819576859073 0 0.24583280085865111 0.44361242472787987 0 0.25282491994113748 0.44831200937164878 0 0.24904418528453851 0.48634810883828161 0 0.23645949407781469 0.47608243786178739 0 0.23352830384551029 0.49999999999999978 0 0.24904418528453851 0.48634810883828161 0 0.23352830384551029 0.49999999999999978 0 0.25181722630913472 0.5 0 0.24904418528453851 0.48634810883828161 0 0.23645949407781469 0.47608243786178739 0 0.25047151807745072 0.47036873115219768 0 0.23645949407781469 0.47608243786178739 0 0.221321310837439 0.47674074212904899 0 0.23352830384551029 0.49999999999999978 0 0.22854105436186559 0.46372788353366717 0 0.23645949407781469 0.47608243786178739 0 0.221321310837439 0.47674074212904899 0 0.23352830384551029 0.49999999999999978 0 0.2128199311732181 0.48895490313939532 0 0.21702906166474581 0.5 0 0.23352830384551029 0.49999999999999978 0 0.2128199311732181 0.48895490313939532 0 0.221321310837439 0.47674074212904899 0 0.23352830384551029 0.49999999999999978 0 0.2128199311732181 0.48895490313939532 0 0.2128199311732181 0.48895490313939532 0 0.21702906166474581 0.5 0 0.20052981948398141 0.49999999999999989 0 0.213169792932182 0.46047172596691099 0 0.221321310837439 0.47674074212904899 0 0.19211155850092579 0.47790980627879082 0 0.221321310837439 0.47674074212904899 0 0.2128199311732181 0.48895490313939532 0 0.19211155850092579 0.47790980627879082 0 0.2128199311732181 0.48895490313939532 0 0.19211155850092579 0.47790980627879082 0 0.2128199311732181 0.48895490313939532 0 0.20052981948398141 0.49999999999999989 0 0.19295831529489699 0.4905304616351287 0 0.2128199311732181 0.48895490313939532 0 0.19211155850092579 0.47790980627879082 0 0.19295831529489699 0.4905304616351287 0 0.20052981948398141 0.49999999999999989 0 0.1839227339461352 0.49861489743603538 0 0.20052981948398141 0.49999999999999989 0 0.19295831529489699 0.4905304616351287 0 0.1839227339461352 0.49861489743603538 0 0.19211155850092579 0.47790980627879082 0 0.19295831529489699 0.4905304616351287 0 0.1809625144841838 0.48570342190566712 0 0.1839227339461352 0.49861489743603538 0 0.1809625144841838 0.48570342190566712 0 0.16731564840828889 0.49722979487207219 0 0.1839227339461352 0.49861489743603538 0 0.16731564840828889 0.49722979487207219 0 0.1839227339461352 0.49861489743603538 0 0.1669427425872391 0.49999999999999922 0 0.16731564840828889 0.49722979487207219 0 0.19295831529489699 0.4905304616351287 0 0.1839227339461352 0.49861489743603538 0 0.1809625144841838 0.48570342190566712 0 0.1809625144841838 0.48570342190566712 0 0.16731564840828889 0.49722979487207219 0 0.16935941711846161 0.48204725214512889 0 0.16731564840828889 0.49722979487207219 0 0.157708884996551 0.48584061526662409 0 0.14611751268168829 0.49546177892012921 0 0.16731564840828889 0.49722979487207219 0 0.14611751268168829 0.49546177892012921 0 0.1669427425872391 0.49999999999999922 0 0.16731564840828889 0.49722979487207219 0 0.14611751268168829 0.49546177892012921 0 0.1669427425872391 0.49999999999999922 0 0.16731564840828889 0.49722979487207219 0 0.16731564840828889 0.49722979487207219 0 0.16935941711846161 0.48204725214512889 0 0.16731564840828889 0.49722979487207219 0 0.157708884996551 0.48584061526662409 0 0.16935941711846161 0.48204725214512889 0 0.16382575626869561 0.4735735187060508 0 0.15802571703479451 0.46684670821381258 0 0.1531189490294651 0.47544631339495541 0 0.157708884996551 0.48584061526662409 0 0.16382575626869561 0.4735735187060508 0 0.1531189490294651 0.47544631339495541 0 0.157708884996551 0.48584061526662409 0 0.16382575626869561 0.4735735187060508 0 0.16935941711846161 0.48204725214512889 0 0.16935941711846161 0.48204725214512889 0 0.17140318582863401 0.46686470941818559 0 0.16382575626869561 0.4735735187060508 0 0.16935941711846161 0.48204725214512889 0 0.17140318582863401 0.46686470941818559 0 0.1809625144841838 0.48570342190566712 0 0.16935941711846161 0.48204725214512889 0 0.17140318582863401 0.46686470941818559 0 0.19211155850092579 0.47790980627879082 0 0.1809625144841838 0.48570342190566712 0 0.17140318582863401 0.46686470941818559 0 0.19211155850092579 0.47790980627879082 0 0.17140318582863401 0.46686470941818559 0 0.19479511809318301 0.4526549487178691 0 0.18348770279874721 0.46143911161818069 0 0.17341546959919829 0.45191605883299152 0 0.19211155850092579 0.47790980627879082 0 0.18348770279874721 0.46143911161818069 0 0.17140318582863401 0.46686470941818559 0 0.18348770279874721 0.46143911161818069 0 0.17341546959919829 0.45191605883299152 0 0.17140318582863401 0.46686470941818559 0 0.17341546959919829 0.45191605883299152 0 0.17140318582863401 0.46686470941818559 0 0.19479511809318301 0.4526549487178691 0 0.1809560021812836 0.43814832633623357 0 0.17341546959919829 0.45191605883299152 0 0.1809560021812836 0.43814832633623357 0 0.17341546959919829 0.45191605883299152 0 0.16598328874466911 0.44273574664910909 0 0.17341546959919829 0.45191605883299152 0 0.16598328874466911 0.44273574664910909 0 0.15954778128093949 0.4508222386347599 0 0.16598328874466911 0.44273574664910909 0 0.15954778128093949 0.4508222386347599 0 0.1507341445198021 0.44370602134863157 0 0.16526304614212209 0.42908608809292892 0 0.16598328874466911 0.44273574664910909 0 0.1507341445198021 0.44370602134863157 0 0.16382575626869561 0.4735735187060508 0 0.1651762257979181 0.46354347419730452 0 0.17140318582863401 0.46686470941818559 0 0.1651762257979181 0.46354347419730452 0 0.17140318582863401 0.46686470941818559 0 0.17341546959919829 0.45191605883299152 0 0.1651762257979181 0.46354347419730452 0 0.17140318582863401 0.46686470941818559 0 0.17341546959919829 0.45191605883299152 0 0.15954778128093949 0.4508222386347599 0 0.1651762257979181 0.46354347419730452 0 0.15954778128093949 0.4508222386347599 0 0.1651762257979181 0.46354347419730452 0 0.1582471669695637 0.45974252444074731 0 0.16382575626869561 0.4735735187060508 0 0.1651762257979181 0.46354347419730452 0 0.15802571703479451 0.46684670821381258 0 0.1651762257979181 0.46354347419730452 0 0.1582471669695637 0.45974252444074731 0 0.15802571703479451 0.46684670821381258 0 0.14976048710833001 0.46192771033000529 0 0.1507341445198021 0.44370602134863157 0 0.136404492151351 0.45486193181106682 0 0.1582471669695637 0.45974252444074731 0 0.15802571703479451 0.46684670821381258 0 0.14976048710833001 0.46192771033000529 0 0.15802571703479451 0.46684670821381258 0 0.14976048710833001 0.46192771033000529 0 0.1531189490294651 0.47544631339495541 0 0.15954778128093949 0.4508222386347599 0 0.1582471669695637 0.45974252444074731 0 0.14976048710833001 0.46192771033000529 0 0.14976048710833001 0.46192771033000529 0 0.136404492151351 0.45486193181106682 0 0.13663143795624749 0.46910754811773492 0 0.15954778128093949 0.4508222386347599 0 0.14976048710833001 0.46192771033000529 0 0.1507341445198021 0.44370602134863157 0 0.1507341445198021 0.44370602134863157 0 0.13510526379757609 0.44116740875256688 0 0.136404492151351 0.45486193181106682 0 0.1221607865463437 0.4507156547582637 0 0.12259086230274099 0.42947812748907283 0 0.13510526379757609 0.44116740875256688 0 0.1221607865463437 0.4507156547582637 0 0.13510526379757609 0.44116740875256688 0 0.136404492151351 0.45486193181106682 0 0.136404492151351 0.45486193181106682 0 0.1267882431275838 0.46370707134437261 0 0.13663143795624749 0.46910754811773492 0 0.1221607865463437 0.4507156547582637 0 0.136404492151351 0.45486193181106682 0 0.1267882431275838 0.46370707134437261 0 0.1267882431275838 0.46370707134437261 0 0.12569724768963239 0.47617993877849962 0 0.13663143795624749 0.46910754811773492 0 0.12569724768963239 0.47617993877849962 0 0.13663143795624749 0.46910754811773492 0 0.1364132019148096 0.48384982340983701 0 0.13663143795624749 0.46910754811773492 0 0.1364132019148096 0.48384982340983701 0 0.14361111091913481 0.47574478002545789 0 0.1249193769550877 0.49369376296818718 0 0.1364132019148096 0.48384982340983701 0 0.14611751268168829 0.49546177892012921 0 0.1249193769550877 0.49369376296818718 0 0.14611751268168829 0.49546177892012921 0 0.1249193769550877 0.49369376296818718 0 0.12569724768963239 0.47617993877849962 0 0.1364132019148096 0.48384982340983701 0 0.1249193769550877 0.49369376296818718 0 0.13738437864054501 0.5 0 0.14611751268168829 0.49546177892012921 0 0.1364132019148096 0.48384982340983701 0 0.14611751268168829 0.49546177892012921 0 0.14718343377546941 0.48347361591025501 0 0.1669427425872391 0.49999999999999922 0 0.13738437864054501 0.5 0 0.14611751268168829 0.49546177892012921 0 0.157708884996551 0.48584061526662409 0 0.14611751268168829 0.49546177892012921 0 0.14718343377546941 0.48347361591025501 0 0.157708884996551 0.48584061526662409 0 0.1531189490294651 0.47544631339495541 0 0.14718343377546941 0.48347361591025501 0 0.14976048710833001 0.46192771033000529 0 0.1531189490294651 0.47544631339495541 0 0.14361111091913481 0.47574478002545789 0 0.14976048710833001 0.46192771033000529 0 0.13663143795624749 0.46910754811773492 0 0.14361111091913481 0.47574478002545789 0 0.1364132019148096 0.48384982340983701 0 0.14361111091913481 0.47574478002545789 0 0.14718343377546941 0.48347361591025501 0 0.1531189490294651 0.47544631339495541 0 0.14361111091913481 0.47574478002545789 0 0.14718343377546941 0.48347361591025501 0 0.35832214194920592 0.47929915408112939 0 0.34611268429232461 0.46591887339206078 0 0.3375369348076922 0.4829399206954248 0 0.35832214194920592 0.47929915408112939 0 0.35850557312216419 0.5 0 0.3375369348076922 0.4829399206954248 0 0.35850557312216419 0.5 0 0.37801407526051067 0.48065415083330842 0 0.38797204790529932 0.5 0 0.35832214194920592 0.47929915408112939 0 0.35850557312216419 0.5 0 0.37801407526051067 0.48065415083330842 0 0.35832214194920592 0.47929915408112939 0 0.36980735363827261 0.46050290225189661 0 0.37801407526051067 0.48065415083330842 0 0.36980735363827261 0.46050290225189661 0 0.34502769605759259 0.44546544446971242 0 0.36959298495063608 0.43610817863788948 0 0.35832214194920592 0.47929915408112939 0 0.36980735363827261 0.46050290225189661 0 0.34611268429232461 0.46591887339206078 0 0.36980735363827261 0.46050290225189661 0 0.34502769605759259 0.44546544446971242 0 0.34611268429232461 0.46591887339206078 0 0.36980735363827261 0.46050290225189661 0 0.34611268429232461 0.46591887339206078 0 0.34611268429232461 0.46591887339206078 0 0.3317687487832644 0.45597005559148451 0 0.32241801494637662 0.47133484453222518 0 0.34502769605759259 0.44546544446971242 0 0.34611268429232461 0.46591887339206078 0 0.3317687487832644 0.45597005559148451 0 0.34611268429232461 0.46591887339206078 0 0.32241801494637662 0.47133484453222518 0 0.34502769605759259 0.44546544446971242 0 0.3317687487832644 0.45597005559148451 0 0.32480939915707069 0.44218818576869201 0 0.34502769605759259 0.44546544446971242 0 0.32480939915707069 0.44218818576869201 0 0.33523501366627878 0.43221560569608392 0 0.3107318966111981 0.4514989769174147 0 0.3227404476219688 0.42624713816244092 0 0.3317687487832644 0.45597005559148451 0 0.32480939915707069 0.44218818576869201 0 0.3107318966111981 0.4514989769174147 0 0.32480939915707069 0.44218818576869201 0 0.3107318966111981 0.4514989769174147 0 0.3227404476219688 0.42624713816244092 0 0.3317687487832644 0.45597005559148451 0 0.32241801494637662 0.47133484453222518 0 0.3107318966111981 0.4514989769174147 0 0.32241801494637662 0.47133484453222518 0 0.3375369348076922 0.4829399206954248 0 0.31372501333874958 0.48784291822244708 0 0.34611268429232461 0.46591887339206078 0 0.32241801494637662 0.47133484453222518 0 0.3375369348076922 0.4829399206954248 0 0.35850557312216419 0.5 0 0.3375369348076922 0.4829399206954248 0 0.32903909833902928 0.5 0 0.32903909833902928 0.5 0 0.31372501333874958 0.48784291822244708 0 0.29957262355589431 0.5 0 0.3375369348076922 0.4829399206954248 0 0.32903909833902928 0.5 0 0.31372501333874958 0.48784291822244708 0 0.31372501333874958 0.48784291822244708 0 0.30130976803097798 0.48891801032572652 0 0.29957262355589431 0.5 0 0.31372501333874958 0.48784291822244708 0 0.30130976803097798 0.48891801032572652 0 0.29872334560042851 0.47675081567238892 0 0.30130976803097798 0.48891801032572652 0 0.29957262355589431 0.5 0 0.28978827390519868 0.49553967616935518 0 0.32241801494637662 0.47133484453222518 0 0.29872334560042851 0.47675081567238892 0 0.32241801494637662 0.47133484453222518 0 0.31372501333874958 0.48784291822244708 0 0.29872334560042851 0.47675081567238892 0 0.29872334560042851 0.47675081567238892 0 0.28397488520641462 0.48012192141307769 0 0.28978827390519868 0.49553967616935518 0 0.29872334560042851 0.47675081567238892 0 0.28929399795500932 0.47058792179259418 0 0.29703527816799058 0.46117092995693892 0 0.29872334560042851 0.47675081567238892 0 0.28929399795500932 0.47058792179259418 0 0.28397488520641462 0.48012192141307769 0 0.29872334560042851 0.47675081567238892 0 0.28397488520641462 0.48012192141307769 0 0.28929399795500932 0.47058792179259418 0 0.28397488520641462 0.48012192141307769 0 0.27920072977811172 0.47805830749059319 0 0.28397488520641462 0.48012192141307769 0 0.28978827390519868 0.49553967616935518 0 0.27010614877275918 0.50000000000000067 0 0.29957262355589431 0.5 0 0.28978827390519868 0.49553967616935518 0 0.27010614877275918 0.50000000000000067 0 0.30130976803097798 0.48891801032572652 0 0.29872334560042851 0.47675081567238892 0 0.28978827390519868 0.49553967616935518 0 0.29872334560042851 0.47675081567238892 0 0.28978827390519868 0.49553967616935518 0 0.28397488520641462 0.48012192141307769 0 0.27010614877275918 0.50000000000000067 0 0.27920072977811172 0.47805830749059319 0 0.27010614877275918 0.50000000000000067 0 0.26909437115437917 0.48384867389528768 0 0.26130641782501518 0.49139676135406141 0 0.27010614877275918 0.50000000000000067 0 0.27920072977811172 0.47805830749059319 0 0.26909437115437917 0.48384867389528768 0 0.27010614877275918 0.50000000000000067 0 0.27920072977811172 0.47805830749059319 0 0.27920072977811172 0.47805830749059319 0 0.27306774476234302 0.47644699960251641 0 0.26909437115437917 0.48384867389528768 0 0.27920072977811172 0.47805830749059319 0 0.27306774476234302 0.47644699960251641 0 0.27643472525740193 0.46726539210963169 0 0.26824582816420722 0.47348896141386071 0 0.27306774476234302 0.47644699960251641 0 0.27643472525740193 0.46726539210963169 0 0.26824582816420722 0.47348896141386071 0 0.26909437115437917 0.48384867389528768 0 0.25993240985832161 0.47939275616227872 0 0.26824582816420722 0.47348896141386071 0 0.27306774476234302 0.47644699960251641 0 0.26909437115437917 0.48384867389528768 0 0.24904418528453851 0.48634810883828161 0 0.25993240985832161 0.47939275616227872 0 0.25047151807745072 0.47036873115219768 0 0.26824582816420722 0.47348896141386071 0 0.25993240985832161 0.47939275616227872 0 0.26165523792153211 0.46576309323832682 0 0.25993240985832161 0.47939275616227872 0 0.25047151807745072 0.47036873115219768 0 0.26165523792153211 0.46576309323832682 0 0.27010614877275918 0.50000000000000067 0 0.25181722630913472 0.5 0 0.26130641782501518 0.49139676135406141 0 0.24904418528453851 0.48634810883828161 0 0.25993240985832161 0.47939275616227872 0 0.26130641782501518 0.49139676135406141 0 0.24904418528453851 0.48634810883828161 0 0.25181722630913472 0.5 0 0.26130641782501518 0.49139676135406141 0 0.26909437115437917 0.48384867389528768 0 0.25993240985832161 0.47939275616227872 0 0.26130641782501518 0.49139676135406141 0 0.26490489917960358 0.45079530358348557 0 0.25548676926057468 0.44017180441404491 0 0.26331147225899149 0.43380076267102891 0 0.24946733303660301 0.43176723098649622 0 0.24583280085865111 0.44361242472787987 0 0.25548676926057468 0.44017180441404491 0 0.24583280085865111 0.44361242472787987 0 0.25548676926057468 0.44017180441404491 0 0.25282491994113748 0.44831200937164878 0 0.26490489917960358 0.45079530358348557 0 0.25548676926057468 0.44017180441404491 0 0.25282491994113748 0.44831200937164878 0 0.26490489917960358 0.45079530358348557 0 0.25282491994113748 0.44831200937164878 0 0.25477099823403621 0.45804476415031298 0 0.25047151807745072 0.47036873115219768 0 0.25477099823403621 0.45804476415031298 0 0.26165523792153211 0.46576309323832682 0 0.26490489917960358 0.45079530358348557 0 0.25477099823403621 0.45804476415031298 0 0.26165523792153211 0.46576309323832682 0 0.26490489917960358 0.45079530358348557 0 0.27160577401557351 0.46248804296782559 0 0.27679169795675967 0.45600994403837303 0 0.26490489917960358 0.45079530358348557 0 0.26165523792153211 0.46576309323832682 0 0.27160577401557351 0.46248804296782559 0 0.26824582816420722 0.47348896141386071 0 0.27160577401557351 0.46248804296782559 0 0.27643472525740193 0.46726539210963169 0 0.26824582816420722 0.47348896141386071 0 0.26165523792153211 0.46576309323832682 0 0.27160577401557351 0.46248804296782559 0 0.27160577401557351 0.46248804296782559 0 0.27643472525740193 0.46726539210963169 0 0.27679169795675967 0.45600994403837303 0 0.27643472525740193 0.46726539210963169 0 0.27679169795675967 0.45600994403837303 0 0.28829531078346382 0.45611661498118572 0 0.27903440424894049 0.4453257315987294 0 0.26331147225899149 0.43380076267102891 0 0.26490489917960358 0.45079530358348557 0 0.27903440424894049 0.4453257315987294 0 0.26331147225899149 0.43380076267102891 0 0.26490489917960358 0.45079530358348557 0 0.27679169795675967 0.45600994403837303 0 0.27903440424894049 0.4453257315987294 0 0.27903440424894049 0.4453257315987294 0 0.2917470315179379 0.44281751567604499 0 0.28179675760275558 0.42932557237874241 0 0.27679169795675967 0.45600994403837303 0 0.27903440424894049 0.4453257315987294 0 0.28829531078346382 0.45611661498118572 0 0.27903440424894049 0.4453257315987294 0 0.2917470315179379 0.44281751567604499 0 0.28829531078346382 0.45611661498118572 0 0.2917470315179379 0.44281751567604499 0 0.28829531078346382 0.45611661498118572 0 0.29813183988985342 0.45090032042111128 0 0.27920072977811172 0.47805830749059319 0 0.27643472525740193 0.46726539210963169 0 0.28829531078346382 0.45611661498118572 0 0.28929399795500932 0.47058792179259418 0 0.27920072977811172 0.47805830749059319 0 0.28829531078346382 0.45611661498118572 0 0.27920072977811172 0.47805830749059319 0 0.28829531078346382 0.45611661498118572 0 0.28829531078346382 0.45611661498118572 0 0.29703527816799058 0.46117092995693892 0 0.29813183988985342 0.45090032042111128 0 0.28929399795500932 0.47058792179259418 0 0.28829531078346382 0.45611661498118572 0 0.29703527816799058 0.46117092995693892 0 0.29872334560042851 0.47675081567238892 0 0.29703527816799058 0.46117092995693892 0 0.3107318966111981 0.4514989769174147 0 0.29872334560042851 0.47675081567238892 0 0.3107318966111981 0.4514989769174147 0 0.32241801494637662 0.47133484453222518 0 0.29872334560042851 0.47675081567238892 0 0.3107318966111981 0.4514989769174147 0 0.29703527816799058 0.46117092995693892 0 0.29813183988985342 0.45090032042111128 0 0.3107318966111981 0.4514989769174147 0 0.30159082278473881 0.44219288247638061 0 0.3107318966111981 0.4514989769174147 0 0.30884109342504262 0.43428586920116352 0 0.2917470315179379 0.44281751567604499 0 0.30159082278473881 0.44219288247638061 0 0.29850225247966211 0.43146173016616862 0 0.2917470315179379 0.44281751567604499 0 0.30159082278473881 0.44219288247638061 0 0.29813183988985342 0.45090032042111128 0 0.30159082278473881 0.44219288247638061 0 0.29813183988985342 0.45090032042111128 0 0.3107318966111981 0.4514989769174147 0 0.30884109342504262 0.43428586920116352 0 0.29850225247966211 0.43146173016616862 0 0.30862162828234507 0.42004495563460759 0 0.29850225247966211 0.43146173016616862 0 0.30862162828234507 0.42004495563460759 0 0.29547148538100448 0.41817397575591742 0 0.30159082278473881 0.44219288247638061 0 0.30884109342504262 0.43428586920116352 0 0.29850225247966211 0.43146173016616862 0 0.30862162828234507 0.42004495563460759 0 0.30304430461131138 0.40735012112542651 0 0.3196782615082488 0.40265332564926309 0 0.30862162828234507 0.42004495563460759 0 0.30304430461131138 0.40735012112542651 0 0.29547148538100448 0.41817397575591742 0 0.30304430461131138 0.40735012112542651 0 0.29062365375375682 0.40708788978866228 0 0.29547148538100448 0.41817397575591742 0 0.29062365375375682 0.40708788978866228 0 0.29547148538100448 0.41817397575591742 0 0.28288479604298378 0.41446876034122271 0 0.29547148538100448 0.41817397575591742 0 0.28288479604298378 0.41446876034122271 0 0.28179675760275558 0.42932557237874241 0 0.29062365375375682 0.40708788978866228 0 0.28288479604298378 0.41446876034122271 0 0.28001120465417539 0.40182109974822727 0 0.29850225247966211 0.43146173016616862 0 0.29547148538100448 0.41817397575591742 0 0.28179675760275558 0.42932557237874241 0 0.2917470315179379 0.44281751567604499 0 0.29850225247966211 0.43146173016616862 0 0.28179675760275558 0.42932557237874241 0 0.28179675760275558 0.42932557237874241 0 0.27042562322166658 0.41684269204638819 0 0.26331147225899149 0.43380076267102891 0 0.27903440424894049 0.4453257315987294 0 0.28179675760275558 0.42932557237874241 0 0.26331147225899149 0.43380076267102891 0 0.27042562322166658 0.41684269204638819 0 0.26380858941988822 0.4002294757553399 0 0.28001120465417539 0.40182109974822727 0 0.28288479604298378 0.41446876034122271 0 0.28179675760275558 0.42932557237874241 0 0.27042562322166658 0.41684269204638819 0 0.28288479604298378 0.41446876034122271 0 0.27042562322166658 0.41684269204638819 0 0.28001120465417539 0.40182109974822727 0 0.24649952449278431 0.42147754103885982 0 0.25492995388566009 0.41993008507457552 0 0.26380858941988822 0.4002294757553399 0 0.27042562322166658 0.41684269204638819 0 0.25492995388566009 0.41993008507457552 0 0.26380858941988822 0.4002294757553399 0 0.24649952449278431 0.42147754103885982 0 0.26380858941988822 0.4002294757553399 0 0.2429624777480478 0.39890547698508871 0 0.24649952449278431 0.42147754103885982 0 0.26380858941988822 0.4002294757553399 0 0.24946733303660301 0.43176723098649622 0 0.24649952449278431 0.42147754103885982 0 0.26331147225899149 0.43380076267102891 0 0.24649952449278431 0.42147754103885982 0 0.25492995388566009 0.41993008507457552 0 0.26331147225899149 0.43380076267102891 0 0.24649952449278431 0.42147754103885982 0 0.26331147225899149 0.43380076267102891 0 0.27042562322166658 0.41684269204638819 0 0.25492995388566009 0.41993008507457552 0 0.26331147225899149 0.43380076267102891 0 0.24946733303660301 0.43176723098649622 0 0.25548676926057468 0.44017180441404491 0 0.26331147225899149 0.43380076267102891 0 0.26350653962281989 0.38010735630523079 0 0.25341304662754638 0.38974012394171498 0 0.26380858941988822 0.4002294757553399 0 0.26350653962281989 0.38010735630523079 0 0.25383912625151372 0.37755129754335942 0 0.25710864090743918 0.37145542319719338 0 0.26350653962281989 0.38010735630523079 0 0.25383912625151372 0.37755129754335942 0 0.25341304662754638 0.38974012394171498 0 0.2429624777480478 0.39890547698508871 0 0.25341304662754638 0.38974012394171498 0 0.26380858941988822 0.4002294757553399 0 0.26380858941988822 0.4002294757553399 0 0.28001120465417539 0.40182109974822727 0 0.28036865154730628 0.37990086281960789 0 0.26350653962281989 0.38010735630523079 0 0.28036865154730628 0.37990086281960789 0 0.2641967246118288 0.36596915937278562 0 0.26380858941988822 0.4002294757553399 0 0.28036865154730628 0.37990086281960789 0 0.26350653962281989 0.38010735630523079 0 0.26380858941988822 0.4002294757553399 0 0.28036865154730628 0.37990086281960789 0 0.28036865154730628 0.37990086281960789 0 0.29170647807930872 0.39362549197251728 0 0.2987730087010142 0.37934426936791982 0 0.28036865154730628 0.37990086281960789 0 0.29170647807930872 0.39362549197251728 0 0.28001120465417539 0.40182109974822727 0 0.28036865154730628 0.37990086281960789 0 0.29170647807930872 0.39362549197251728 0 0.29062365375375682 0.40708788978866228 0 0.28001120465417539 0.40182109974822727 0 0.29170647807930872 0.39362549197251728 0 0.30304430461131138 0.40735012112542651 0 0.29062365375375682 0.40708788978866228 0 0.29170647807930872 0.39362549197251728 0 0.30304430461131138 0.40735012112542651 0 0.30637452063024528 0.39219955594670219 0 0.3196782615082488 0.40265332564926309 0 0.30304430461131138 0.40735012112542651 0 0.29170647807930872 0.39362549197251728 0 0.30304430461131138 0.40735012112542651 0 0.29170647807930872 0.39362549197251728 0 0.30637452063024528 0.39219955594670219 0 0.30637452063024528 0.39219955594670219 0 0.2987730087010142 0.37934426936791982 0 0.31661607539452802 0.37905951313608538 0 0.29170647807930872 0.39362549197251728 0 0.30637452063024528 0.39219955594670219 0 0.2987730087010142 0.37934426936791982 0 0.31661607539452802 0.37905951313608538 0 0.32905198958534931 0.38831461949406398 0 0.3196782615082488 0.40265332564926309 0 0.31661607539452802 0.37905951313608538 0 0.32905198958534931 0.38831461949406398 0 0.33389487655237682 0.3658352592629312 0 0.32905198958534931 0.38831461949406398 0 0.34270248502322931 0.38427053755298168 0 0.33389487655237682 0.3658352592629312 0 0.32905198958534931 0.38831461949406398 0 0.34270248502322931 0.38427053755298168 0 0.33272146632259869 0.40525883785771122 0 0.34270248502322931 0.38427053755298168 0 0.33272146632259869 0.40525883785771122 0 0.34270248502322931 0.38427053755298168 0 0.33272146632259869 0.40525883785771122 0 0.34670895149724801 0.40816004440777182 0 0.31661607539452802 0.37905951313608538 0 0.3196782615082488 0.40265332564926309 0 0.32905198958534931 0.38831461949406398 0 0.33272146632259869 0.40525883785771122 0 0.3196782615082488 0.40265332564926309 0 0.30637452063024528 0.39219955594670219 0 0.31661607539452802 0.37905951313608538 0 0.3196782615082488 0.40265332564926309 0 0.3196782615082488 0.40265332564926309 0 0.3227404476219688 0.42624713816244092 0 0.30862162828234507 0.42004495563460759 0 0.3196782615082488 0.40265332564926309 0 0.3227404476219688 0.42624713816244092 0 0.33272146632259869 0.40525883785771122 0 0.3196782615082488 0.40265332564926309 0 0.3227404476219688 0.42624713816244092 0 0.33272146632259869 0.40525883785771122 0 0.3227404476219688 0.42624713816244092 0 0.32480939915707069 0.44218818576869201 0 0.3227404476219688 0.42624713816244092 0 0.3107318966111981 0.4514989769174147 0 0.30884109342504262 0.43428586920116352 0 0.3227404476219688 0.42624713816244092 0 0.32480939915707069 0.44218818576869201 0 0.3227404476219688 0.42624713816244092 0 0.33523501366627878 0.43221560569608392 0 0.30884109342504262 0.43428586920116352 0 0.30862162828234507 0.42004495563460759 0 0.3227404476219688 0.42624713816244092 0 0.34502769605759259 0.44546544446971242 0 0.33523501366627878 0.43221560569608392 0 0.34795858503051302 0.425881111768525 0 0.3227404476219688 0.42624713816244092 0 0.33523501366627878 0.43221560569608392 0 0.33659904832278342 0.4201421825902541 0 0.33523501366627878 0.43221560569608392 0 0.33659904832278342 0.4201421825902541 0 0.34795858503051302 0.425881111768525 0 0.33272146632259869 0.40525883785771122 0 0.3227404476219688 0.42624713816244092 0 0.33659904832278342 0.4201421825902541 0 0.33272146632259869 0.40525883785771122 0 0.33659904832278342 0.4201421825902541 0 0.34670895149724801 0.40816004440777182 0 0.33659904832278342 0.4201421825902541 0 0.34670895149724801 0.40816004440777182 0 0.34795858503051302 0.425881111768525 0 0.34670895149724801 0.40816004440777182 0 0.34795858503051302 0.425881111768525 0 0.36336601300371613 0.41450991002864218 0 0.34670895149724801 0.40816004440777182 0 0.36336601300371613 0.41450991002864218 0 0.35690611128064731 0.3988976866485166 0 0.34502769605759259 0.44546544446971242 0 0.34795858503051302 0.425881111768525 0 0.36959298495063608 0.43610817863788948 0 0.34795858503051302 0.425881111768525 0 0.36959298495063608 0.43610817863788948 0 0.36336601300371613 0.41450991002864218 0 0.36959298495063608 0.43610817863788948 0 0.36336601300371613 0.41450991002864218 0 0.38530342098431941 0.41064856824057122 0 0.36336601300371613 0.41450991002864218 0 0.3736470799201031 0.39378130610698531 0 0.38530342098431941 0.41064856824057122 0 0.3736470799201031 0.39378130610698531 0 0.3601059063978746 0.38125551426405008 0 0.35690611128064731 0.3988976866485166 0 0.36336601300371613 0.41450991002864218 0 0.3736470799201031 0.39378130610698531 0 0.35690611128064731 0.3988976866485166 0 0.3736470799201031 0.39378130610698531 0 0.3601059063978746 0.38125551426405008 0 0.37414389550204002 0.36898578533419818 0 0.34270248502322931 0.38427053755298168 0 0.3601059063978746 0.38125551426405008 0 0.35690611128064731 0.3988976866485166 0 0.34270248502322931 0.38427053755298168 0 0.3601059063978746 0.38125551426405008 0 0.35268350372385993 0.36328223724825232 0 0.34270248502322931 0.38427053755298168 0 0.34670895149724801 0.40816004440777182 0 0.35690611128064731 0.3988976866485166 0 0.35268350372385993 0.36328223724825232 0 0.36266452242448938 0.34229393694352239 0 0.35030182712711511 0.35130594720886232 0 0.35268350372385993 0.36328223724825232 0 0.36266452242448938 0.34229393694352239 0 0.35030182712711511 0.35130594720886232 0 0.35146565257524442 0.34420791440797271 0 0.36266452242448938 0.34229393694352239 0 0.35030182712711511 0.35130594720886232 0 0.35146565257524442 0.34420791440797271 0 0.34269927497721508 0.34493512072036142 0 0.35030182712711511 0.35130594720886232 0 0.35268350372385993 0.36328223724825232 0 0.33389487655237682 0.3658352592629312 0 0.34270248502322931 0.38427053755298168 0 0.35268350372385993 0.36328223724825232 0 0.3601059063978746 0.38125551426405008 0 0.35268350372385993 0.36328223724825232 0 0.37414389550204002 0.36898578533419818 0 0.35268350372385993 0.36328223724825232 0 0.37414389550204002 0.36898578533419818 0 0.36300645299402812 0.35604351837507042 0 0.37414389550204002 0.36898578533419818 0 0.37228166628853332 0.35471301169251829 0 0.36300645299402812 0.35604351837507042 0 0.35268350372385993 0.36328223724825232 0 0.36300645299402812 0.35604351837507042 0 0.36266452242448938 0.34229393694352239 0 0.37228166628853332 0.35471301169251829 0 0.36300645299402812 0.35604351837507042 0 0.36840829020790361 0.34668560051738673 0 0.36300645299402812 0.35604351837507042 0 0.36840829020790361 0.34668560051738673 0 0.36266452242448938 0.34229393694352239 0 0.36840829020790361 0.34668560051738673 0 0.36266452242448938 0.34229393694352239 0 0.36587418437400321 0.34278907974668538 0 0.37228166628853332 0.35471301169251829 0 0.36840829020790361 0.34668560051738673 0 0.37486749369974542 0.34694596905823039 0 0.37486749369974542 0.34694596905823039 0 0.37256750073976291 0.34304532959464751 0 0.37670219357667811 0.34177383067972761 0 0.36840829020790361 0.34668560051738673 0 0.37486749369974542 0.34694596905823039 0 0.37256750073976291 0.34304532959464751 0 0.36124897776362869 0.33531944770056321 0 0.36266452242448938 0.34229393694352239 0 0.36411885078159001 0.32644375487552563 0 0.37256750073976291 0.34304532959464751 0 0.36916640720496519 0.34145859007673351 0 0.37369311900952262 0.33836265764115908 0 0.37256750073976291 0.34304532959464751 0 0.37369311900952262 0.33836265764115908 0 0.37670219357667811 0.34177383067972761 0 0.36266452242448938 0.34229393694352239 0 0.37014896644917339 0.316543878568457 0 0.36770298492566261 0.33637877995368609 0 0.36266452242448938 0.34229393694352239 0 0.37368960646642962 0.31911015363466272 0 0.36770298492566261 0.33637877995368609 0 0.36985494237623989 0.33311962493185521 0 0.37368960646642962 0.31911015363466272 0 0.36266452242448938 0.34229393694352239 0 0.37368960646642962 0.31911015363466272 0 0.36266452242448938 0.34229393694352239 0 0.37014896644917339 0.316543878568457 0 0.36411885078159001 0.32644375487552563 0 0.36840829020790361 0.34668560051738673 0 0.36916640720496519 0.34145859007673351 0 0.36587418437400321 0.34278907974668538 0 0.36840829020790361 0.34668560051738673 0 0.37256750073976291 0.34304532959464751 0 0.36916640720496519 0.34145859007673351 0 0.36916640720496519 0.34145859007673351 0 0.36587418437400321 0.34278907974668538 0 0.36708394454210669 0.33994961910346172 0 0.36916640720496519 0.34145859007673351 0 0.37010024416019238 0.33739894816112592 0 0.36708394454210669 0.33994961910346172 0 0.36916640720496519 0.34145859007673351 0 0.37010024416019238 0.33739894816112592 0 0.37369311900952262 0.33836265764115908 0 0.36770298492566261 0.33637877995368609 0 0.37010024416019238 0.33739894816112592 0 0.36708394454210669 0.33994961910346172 0 0.37010024416019238 0.33739894816112592 0 0.37369311900952262 0.33836265764115908 0 0.3722735272100694 0.33425106354392481 0 0.3722735272100694 0.33425106354392481 0 0.37245621682226088 0.32924087979990557 0 0.375263113682131 0.33313320718557798 0 0.37369311900952262 0.33836265764115908 0 0.3722735272100694 0.33425106354392481 0 0.375263113682131 0.33313320718557798 0 0.3722735272100694 0.33425106354392481 0 0.37245621682226088 0.32924087979990557 0 0.36985494237623989 0.33311962493185521 0 0.37245621682226088 0.32924087979990557 0 0.37577016905582622 0.32787937856968757 0 0.375263113682131 0.33313320718557798 0 0.37010024416019238 0.33739894816112592 0 0.3722735272100694 0.33425106354392481 0 0.36985494237623989 0.33311962493185521 0 0.36770298492566261 0.33637877995368609 0 0.37010024416019238 0.33739894816112592 0 0.36985494237623989 0.33311962493185521 0 0.36128237795215928 0.33126347269122047 0 0.36124897776362869 0.33531944770056321 0 0.36411885078159001 0.32644375487552563 0 0.36150631125237548 0.32912422255951068 0 0.36128237795215928 0.33126347269122047 0 0.36411885078159001 0.32644375487552563 0 0.36150631125237548 0.32912422255951068 0 0.35994194411877378 0.32646204206530971 0 0.35835984371964152 0.33045614064968309 0 0.36128237795215928 0.33126347269122047 0 0.35899626180536931 0.33430086833413269 0 0.35835984371964152 0.33045614064968309 0 0.36150631125237548 0.32912422255951068 0 0.36128237795215928 0.33126347269122047 0 0.35835984371964152 0.33045614064968309 0 0.36128237795215928 0.33126347269122047 0 0.36124897776362869 0.33531944770056321 0 0.35899626180536931 0.33430086833413269 0 0.36124897776362869 0.33531944770056321 0 0.36001134864139028 0.33778823672905661 0 0.35899626180536931 0.33430086833413269 0 0.36124897776362869 0.33531944770056321 0 0.36001134864139028 0.33778823672905661 0 0.36266452242448938 0.34229393694352239 0 0.36001134864139028 0.33778823672905661 0 0.36266452242448938 0.34229393694352239 0 0.3582225103283424 0.33883319475427592 0 0.36266452242448938 0.34229393694352239 0 0.36587418437400321 0.34278907974668538 0 0.36708394454210669 0.33994961910346172 0 0.36770298492566261 0.33637877995368609 0 0.36266452242448938 0.34229393694352239 0 0.36708394454210669 0.33994961910346172 0 0.36266452242448938 0.34229393694352239 0 0.37368960646642962 0.31911015363466272 0 0.37014896644917339 0.316543878568457 0 0.37014896644917339 0.316543878568457 0 0.36604953812300478 0.31497278055865852 0 0.36630954626425261 0.31087512405144152 0 0.37499251130121058 0.31593455150060828 0 0.37014896644917339 0.316543878568457 0 0.37695808612291098 0.31120865645681561 0 0.37499251130121058 0.31593455150060828 0 0.37368960646642962 0.31911015363466272 0 0.37014896644917339 0.316543878568457 0 0.37014896644917339 0.316543878568457 0 0.36646072203027302 0.32009490443849897 0 0.3659238024377004 0.31770243144255911 0 0.37014896644917339 0.316543878568457 0 0.3659238024377004 0.31770243144255911 0 0.36604953812300478 0.31497278055865852 0 0.37245621682226088 0.32924087979990557 0 0.36985494237623989 0.33311962493185521 0 0.37368960646642962 0.31911015363466272 0 0.37245621682226088 0.32924087979990557 0 0.37368960646642962 0.31911015363466272 0 0.37506056064123422 0.32471797871916308 0 0.37245621682226088 0.32924087979990557 0 0.37577016905582622 0.32787937856968757 0 0.37506056064123422 0.32471797871916308 0 0.37014896644917339 0.316543878568457 0 0.36411885078159001 0.32644375487552563 0 0.36646072203027302 0.32009490443849897 0 0.36411885078159001 0.32644375487552563 0 0.35994194411877378 0.32646204206530971 0 0.36132202517978662 0.32303080634539388 0 0.36150631125237548 0.32912422255951068 0 0.36411885078159001 0.32644375487552563 0 0.35994194411877378 0.32646204206530971 0 0.36132202517978662 0.32303080634539388 0 0.36348301458407639 0.32047903077872458 0 0.35962675317161102 0.31893041505789499 0 0.36411885078159001 0.32644375487552563 0 0.36132202517978662 0.32303080634539388 0 0.36348301458407639 0.32047903077872458 0 0.36411885078159001 0.32644375487552563 0 0.36348301458407639 0.32047903077872458 0 0.36646072203027302 0.32009490443849897 0 0.36348301458407639 0.32047903077872458 0 0.36646072203027302 0.32009490443849897 0 0.3659238024377004 0.31770243144255911 0 0.3659238024377004 0.31770243144255911 0 0.36344593390349789 0.31667187251247519 0 0.36604953812300478 0.31497278055865852 0 0.36348301458407639 0.32047903077872458 0 0.3659238024377004 0.31770243144255911 0 0.36344593390349789 0.31667187251247519 0 0.36348301458407639 0.32047903077872458 0 0.36344593390349789 0.31667187251247519 0 0.35962675317161102 0.31893041505789499 0 0.36344593390349789 0.31667187251247519 0 0.35962675317161102 0.31893041505789499 0 0.35878641637012221 0.31305233625990619 0 0.36344593390349789 0.31667187251247519 0 0.36331333565659901 0.31283202127524651 0 0.35878641637012221 0.31305233625990619 0 0.36331333565659901 0.31283202127524651 0 0.36604953812300478 0.31497278055865852 0 0.36630954626425261 0.31087512405144152 0 0.36344593390349789 0.31667187251247519 0 0.36331333565659901 0.31283202127524651 0 0.36604953812300478 0.31497278055865852 0 0.35878641637012221 0.31305233625990619 0 0.35512602374864599 0.31718053618965047 0 0.35090510471213721 0.31152713165908658 0 0.35512602374864599 0.31718053618965047 0 0.34983435518440159 0.31943204998396652 0 0.35090510471213721 0.31152713165908658 0 0.35962675317161102 0.31893041505789499 0 0.35878641637012221 0.31305233625990619 0 0.35512602374864599 0.31718053618965047 0 0.35962675317161102 0.31893041505789499 0 0.35512602374864599 0.31718053618965047 0 0.35673455485560862 0.32229528426682241 0 0.35512602374864599 0.31718053618965047 0 0.35673455485560862 0.32229528426682241 0 0.34983435518440159 0.31943204998396652 0 0.35673455485560862 0.32229528426682241 0 0.35060422568955008 0.32587015674736058 0 0.34983435518440159 0.31943204998396652 0 0.35994194411877378 0.32646204206530971 0 0.36132202517978662 0.32303080634539388 0 0.35673455485560862 0.32229528426682241 0 0.36132202517978662 0.32303080634539388 0 0.35962675317161102 0.31893041505789499 0 0.35673455485560862 0.32229528426682241 0 0.35994194411877378 0.32646204206530971 0 0.35673455485560862 0.32229528426682241 0 0.35627338036128769 0.32705738058013539 0 0.35994194411877378 0.32646204206530971 0 0.35627338036128769 0.32705738058013539 0 0.35835984371964152 0.33045614064968309 0 0.35627338036128769 0.32705738058013539 0 0.35060422568955008 0.32587015674736058 0 0.35398721241228231 0.33095327650953749 0 0.35673455485560862 0.32229528426682241 0 0.35627338036128769 0.32705738058013539 0 0.35060422568955008 0.32587015674736058 0 0.35060422568955008 0.32587015674736058 0 0.34514221143703899 0.32919058107390442 0 0.34284551192874652 0.32364904383841531 0 0.35060422568955008 0.32587015674736058 0 0.34983435518440159 0.31943204998396652 0 0.34284551192874652 0.32364904383841531 0 0.34983435518440159 0.31943204998396652 0 0.34480088275632298 0.31606258733578418 0 0.35090510471213721 0.31152713165908658 0 0.34983435518440159 0.31943204998396652 0 0.34480088275632298 0.31606258733578418 0 0.34284551192874652 0.32364904383841531 0 0.35146565257524442 0.34420791440797271 0 0.36266452242448938 0.34229393694352239 0 0.35562031764263757 0.34031424282986023 0 0.35302683950207769 0.33602013814058929 0 0.35562031764263757 0.34031424282986023 0 0.35672120529774148 0.33684362974708199 0 0.35202203774268331 0.33965573310897551 0 0.35302683950207769 0.33602013814058929 0 0.35562031764263757 0.34031424282986023 0 0.35146565257524442 0.34420791440797271 0 0.35202203774268331 0.33965573310897551 0 0.35562031764263757 0.34031424282986023 0 0.36266452242448938 0.34229393694352239 0 0.35562031764263757 0.34031424282986023 0 0.3582225103283424 0.33883319475427592 0 0.35562031764263757 0.34031424282986023 0 0.3582225103283424 0.33883319475427592 0 0.35672120529774148 0.33684362974708199 0 0.36001134864139028 0.33778823672905661 0 0.3582225103283424 0.33883319475427592 0 0.35672120529774148 0.33684362974708199 0 0.36001134864139028 0.33778823672905661 0 0.35672120529774148 0.33684362974708199 0 0.35899626180536931 0.33430086833413269 0 0.35899626180536931 0.33430086833413269 0 0.35641212776078268 0.33381706902087938 0 0.35835984371964152 0.33045614064968309 0 0.35672120529774148 0.33684362974708199 0 0.35899626180536931 0.33430086833413269 0 0.35641212776078268 0.33381706902087938 0 0.35627338036128769 0.32705738058013539 0 0.35835984371964152 0.33045614064968309 0 0.35398721241228231 0.33095327650953749 0 0.35641212776078268 0.33381706902087938 0 0.35835984371964152 0.33045614064968309 0 0.35398721241228231 0.33095327650953749 0 0.35302683950207769 0.33602013814058929 0 0.35641212776078268 0.33381706902087938 0 0.35398721241228231 0.33095327650953749 0 0.35302683950207769 0.33602013814058929 0 0.35398721241228231 0.33095327650953749 0 0.34924685744035389 0.33249877391857741 0 0.35302683950207769 0.33602013814058929 0 0.35672120529774148 0.33684362974708199 0 0.35641212776078268 0.33381706902087938 0 0.35302683950207769 0.33602013814058929 0 0.34924685744035389 0.33249877391857741 0 0.34788509595764172 0.33882226599831611 0 0.35060422568955008 0.32587015674736058 0 0.34924685744035389 0.33249877391857741 0 0.34514221143703899 0.32919058107390442 0 0.35060422568955008 0.32587015674736058 0 0.35398721241228231 0.33095327650953749 0 0.34924685744035389 0.33249877391857741 0 0.34924685744035389 0.33249877391857741 0 0.34514221143703899 0.32919058107390442 0 0.34474234507332802 0.33433591834825649 0 0.34924685744035389 0.33249877391857741 0 0.34474234507332802 0.33433591834825649 0 0.34788509595764172 0.33882226599831611 0 0.34474234507332802 0.33433591834825649 0 0.34788509595764172 0.33882226599831611 0 0.34057592936449049 0.33809639891542392 0 0.35146565257524442 0.34420791440797271 0 0.34788509595764172 0.33882226599831611 0 0.34269927497721508 0.34493512072036142 0 0.35202203774268331 0.33965573310897551 0 0.35302683950207769 0.33602013814058929 0 0.34788509595764172 0.33882226599831611 0 0.35146565257524442 0.34420791440797271 0 0.35202203774268331 0.33965573310897551 0 0.34788509595764172 0.33882226599831611 0 0.34057592936449049 0.33809639891542392 0 0.33318390910610529 0.34358855052096038 0 0.34269927497721508 0.34493512072036142 0 0.34788509595764172 0.33882226599831611 0 0.34057592936449049 0.33809639891542392 0 0.34269927497721508 0.34493512072036142 0 0.34474234507332802 0.33433591834825649 0 0.34057592936449049 0.33809639891542392 0 0.33946855119551672 0.33096103471374028 0 0.34514221143703899 0.32919058107390442 0 0.34474234507332802 0.33433591834825649 0 0.33946855119551672 0.33096103471374028 0 0.34057592936449049 0.33809639891542392 0 0.33946855119551672 0.33096103471374028 0 0.33283637980140879 0.33469331179832718 0 0.33946855119551672 0.33096103471374028 0 0.33283637980140879 0.33469331179832718 0 0.33464693517381472 0.32630086361949601 0 0.33283637980140879 0.33469331179832718 0 0.33464693517381472 0.32630086361949601 0 0.3250964778074269 0.32978689602061512 0 0.34057592936449049 0.33809639891542392 0 0.33283637980140879 0.33469331179832718 0 0.33318390910610529 0.34358855052096038 0 0.33283637980140879 0.33469331179832718 0 0.33318390910610529 0.34358855052096038 0 0.32611481079287369 0.33974729713420021 0 0.34480088275632298 0.31606258733578418 0 0.33769186663180051 0.31814262317354819 0 0.34192449374142192 0.30753297203612773 0 0.34480088275632298 0.31606258733578418 0 0.33769186663180051 0.31814262317354819 0 0.34284551192874652 0.32364904383841531 0 0.33946855119551672 0.33096103471374028 0 0.34284551192874652 0.32364904383841531 0 0.33464693517381472 0.32630086361949601 0 0.33769186663180051 0.31814262317354819 0 0.34284551192874652 0.32364904383841531 0 0.33464693517381472 0.32630086361949601 0 0.34514221143703899 0.32919058107390442 0 0.33946855119551672 0.33096103471374028 0 0.34284551192874652 0.32364904383841531 0 0.33769186663180051 0.31814262317354819 0 0.33464693517381472 0.32630086361949601 0 0.32994282367798861 0.32057227217232959 0 0.33464693517381472 0.32630086361949601 0 0.32994282367798861 0.32057227217232959 0 0.3250964778074269 0.32978689602061512 0 0.33769186663180051 0.31814262317354819 0 0.32994282367798861 0.32057227217232959 0 0.32867162081685902 0.31028670060733149 0 0.32176892132522322 0.32006025561378759 0 0.31440941436971798 0.31242774502049953 0 0.32867162081685902 0.31028670060733149 0 0.32994282367798861 0.32057227217232959 0 0.32176892132522322 0.32006025561378759 0 0.32867162081685902 0.31028670060733149 0 0.32176892132522322 0.32006025561378759 0 0.31484893044661 0.32778579360563193 0 0.3250964778074269 0.32978689602061512 0 0.32994282367798861 0.32057227217232959 0 0.32176892132522322 0.32006025561378759 0 0.3250964778074269 0.32978689602061512 0 0.32176892132522322 0.32006025561378759 0 0.31484893044661 0.32778579360563193 0 0.31440941436971798 0.31242774502049953 0 0.32611481079287369 0.33974729713420021 0 0.3250964778074269 0.32978689602061512 0 0.31767498628904178 0.33862919533695518 0 0.32611481079287369 0.33974729713420021 0 0.31767498628904178 0.33862919533695518 0 0.32336406622478242 0.34852958887145069 0 0.33283637980140879 0.33469331179832718 0 0.32611481079287369 0.33974729713420021 0 0.3250964778074269 0.32978689602061512 0 0.31484893044661 0.32778579360563193 0 0.31767498628904178 0.33862919533695518 0 0.30654896287530792 0.34033791233229299 0 0.31484893044661 0.32778579360563193 0 0.3250964778074269 0.32978689602061512 0 0.31767498628904178 0.33862919533695518 0 0.31767498628904178 0.33862919533695518 0 0.31315570067328902 0.3464643712977632 0 0.32336406622478242 0.34852958887145069 0 0.31315570067328902 0.3464643712977632 0 0.31355388928080707 0.35546570062290778 0 0.32336406622478242 0.34852958887145069 0 0.32336406622478242 0.34852958887145069 0 0.33442175170730049 0.35218858713626039 0 0.32437013183195901 0.3602157298059272 0 0.31355388928080707 0.35546570062290778 0 0.32336406622478242 0.34852958887145069 0 0.32437013183195901 0.3602157298059272 0 0.33318390910610529 0.34358855052096038 0 0.32611481079287369 0.33974729713420021 0 0.32336406622478242 0.34852958887145069 0 0.35030182712711511 0.35130594720886232 0 0.33442175170730049 0.35218858713626039 0 0.33389487655237682 0.3658352592629312 0 0.33318390910610529 0.34358855052096038 0 0.32336406622478242 0.34852958887145069 0 0.33442175170730049 0.35218858713626039 0 0.35030182712711511 0.35130594720886232 0 0.33442175170730049 0.35218858713626039 0 0.34269927497721508 0.34493512072036142 0 0.33318390910610529 0.34358855052096038 0 0.33442175170730049 0.35218858713626039 0 0.34269927497721508 0.34493512072036142 0 0.34270248502322931 0.38427053755298168 0 0.35268350372385993 0.36328223724825232 0 0.33389487655237682 0.3658352592629312 0 0.33442175170730049 0.35218858713626039 0 0.33389487655237682 0.3658352592629312 0 0.32437013183195901 0.3602157298059272 0 0.31661607539452802 0.37905951313608538 0 0.33389487655237682 0.3658352592629312 0 0.32437013183195901 0.3602157298059272 0 0.31661607539452802 0.37905951313608538 0 0.31355388928080707 0.35546570062290778 0 0.32437013183195901 0.3602157298059272 0 0.31661607539452802 0.37905951313608538 0 0.31355388928080707 0.35546570062290778 0 0.31661607539452802 0.37905951313608538 0 0.31355388928080707 0.35546570062290778 0 0.30541822204374358 0.36584678197342768 0 0.2987730087010142 0.37934426936791982 0 0.31661607539452802 0.37905951313608538 0 0.30541822204374358 0.36584678197342768 0 0.30541822204374358 0.36584678197342768 0 0.30393955747459928 0.35096595789874813 0 0.29215410451095353 0.36543341035917859 0 0.2987730087010142 0.37934426936791982 0 0.30541822204374358 0.36584678197342768 0 0.29215410451095353 0.36543341035917859 0 0.31315570067328902 0.3464643712977632 0 0.30393955747459928 0.35096595789874813 0 0.30654896287530792 0.34033791233229299 0 0.31315570067328902 0.3464643712977632 0 0.31355388928080707 0.35546570062290778 0 0.30393955747459928 0.35096595789874813 0 0.31355388928080707 0.35546570062290778 0 0.30541822204374358 0.36584678197342768 0 0.30393955747459928 0.35096595789874813 0 0.30393955747459928 0.35096595789874813 0 0.29215410451095353 0.36543341035917859 0 0.30393955747459928 0.35096595789874813 0 0.29720735802849829 0.34424744790442102 0 0.29027641861796738 0.35164951467646482 0 0.30393955747459928 0.35096595789874813 0 0.29720735802849829 0.34424744790442102 0 0.30654896287530792 0.34033791233229299 0 0.29720735802849829 0.34424744790442102 0 0.29027641861796738 0.35164951467646482 0 0.28998304713239348 0.34105976447064218 0 0.30393955747459928 0.35096595789874813 0 0.29027641861796738 0.35164951467646482 0 0.29215410451095353 0.36543341035917859 0 0.29027641861796738 0.35164951467646482 0 0.29215410451095353 0.36543341035917859 0 0.27920137084664282 0.3573603676334649 0 0.29027641861796738 0.35164951467646482 0 0.27920137084664282 0.3573603676334649 0 0.28068773357058369 0.34198453751068081 0 0.29027641861796738 0.35164951467646482 0 0.28068773357058369 0.34198453751068081 0 0.28998304713239348 0.34105976447064218 0 0.28036865154730628 0.37990086281960789 0 0.29215410451095353 0.36543341035917859 0 0.27920137084664282 0.3573603676334649 0 0.28036865154730628 0.37990086281960789 0 0.2987730087010142 0.37934426936791982 0 0.29215410451095353 0.36543341035917859 0 0.28036865154730628 0.37990086281960789 0 0.29215410451095353 0.36543341035917859 0 0.28036865154730628 0.37990086281960789 0 0.27920137084664282 0.3573603676334649 0 0.26173146881309822 0.35734024057335978 0 0.28036865154730628 0.37990086281960789 0 0.26173146881309822 0.35734024057335978 0 0.28036865154730628 0.37990086281960789 0 0.26173146881309822 0.35734024057335978 0 0.2641967246118288 0.36596915937278562 0 0.27920137084664282 0.3573603676334649 0 0.27030047393074008 0.3474963096498429 0 0.26173146881309822 0.35734024057335978 0 0.27920137084664282 0.3573603676334649 0 0.27030047393074008 0.3474963096498429 0 0.28068773357058369 0.34198453751068081 0 0.2430942860788903 0.33477961832711151 0 0.26173146881309822 0.35734024057335978 0 0.27030047393074008 0.3474963096498429 0 0.26173146881309822 0.35734024057335978 0 0.26240083601839698 0.33727672217147331 0 0.23816107804029091 0.35120524212074949 0 0.26173146881309822 0.35734024057335978 0 0.2641967246118288 0.36596915937278562 0 0.23816107804029091 0.35120524212074949 0 0.2641967246118288 0.36596915937278562 0 0.2492643002430574 0.365916522193315 0 0.24311907173897271 0.36013203008567057 0 0.2641967246118288 0.36596915937278562 0 0.2492643002430574 0.365916522193315 0 0.25710864090743918 0.37145542319719338 0 0.2641967246118288 0.36596915937278562 0 0.2492643002430574 0.365916522193315 0 0.25383912625151372 0.37755129754335942 0 0.25710864090743918 0.37145542319719338 0 0.26350653962281989 0.38010735630523079 0 0.25710864090743918 0.37145542319719338 0 0.2641967246118288 0.36596915937278562 0 0.2484846271056145 0.31037308609574782 0 0.25508783524565293 0.32209220201309929 0 0.26836904206483531 0.31075971332937607 0 0.25508783524565293 0.32209220201309929 0 0.26240083601839698 0.33727672217147331 0 0.26677092012209491 0.32204036282613252 0 0.25508783524565293 0.32209220201309929 0 0.26677092012209491 0.32204036282613252 0 0.26836904206483531 0.31075971332937607 0 0.2430942860788903 0.33477961832711151 0 0.25508783524565293 0.32209220201309929 0 0.26240083601839698 0.33727672217147331 0 0.2430942860788903 0.33477961832711151 0 0.26173146881309822 0.35734024057335978 0 0.26240083601839698 0.33727672217147331 0 0.26240083601839698 0.33727672217147331 0 0.27184092000699639 0.33891315949469752 0 0.27388917516664008 0.32964775149744319 0 0.26240083601839698 0.33727672217147331 0 0.27388917516664008 0.32964775149744319 0 0.26677092012209491 0.32204036282613252 0 0.27030047393074008 0.3474963096498429 0 0.26240083601839698 0.33727672217147331 0 0.27184092000699639 0.33891315949469752 0 0.27030047393074008 0.3474963096498429 0 0.27184092000699639 0.33891315949469752 0 0.28068773357058369 0.34198453751068081 0 0.27184092000699639 0.33891315949469752 0 0.28068773357058369 0.34198453751068081 0 0.27388917516664008 0.32964775149744319 0 0.28068773357058369 0.34198453751068081 0 0.27388917516664008 0.32964775149744319 0 0.28570907475377572 0.33188311037056872 0 0.27388917516664008 0.32964775149744319 0 0.26677092012209491 0.32204036282613252 0 0.28178409254690689 0.31684790712797722 0 0.27388917516664008 0.32964775149744319 0 0.28178409254690689 0.31684790712797722 0 0.28570907475377572 0.33188311037056872 0 0.26677092012209491 0.32204036282613252 0 0.28178409254690689 0.31684790712797722 0 0.26836904206483531 0.31075971332937607 0 0.28178409254690689 0.31684790712797722 0 0.29262159606390598 0.32453461147271162 0 0.29660332646403359 0.30785121346786842 0 0.28178409254690689 0.31684790712797722 0 0.29262159606390598 0.32453461147271162 0 0.28570907475377572 0.33188311037056872 0 0.28068773357058369 0.34198453751068081 0 0.28570907475377572 0.33188311037056872 0 0.28998304713239348 0.34105976447064218 0 0.29262159606390598 0.32453461147271162 0 0.28570907475377572 0.33188311037056872 0 0.29603465069114282 0.33553421189107618 0 0.29720735802849829 0.34424744790442102 0 0.29603465069114282 0.33553421189107618 0 0.28998304713239348 0.34105976447064218 0 0.28570907475377572 0.33188311037056872 0 0.29603465069114282 0.33553421189107618 0 0.28998304713239348 0.34105976447064218 0 0.29720735802849829 0.34424744790442102 0 0.29603465069114282 0.33553421189107618 0 0.30654896287530792 0.34033791233229299 0 0.29603465069114282 0.33553421189107618 0 0.30654896287530792 0.34033791233229299 0 0.30445412428221041 0.32558903425911379 0 0.29262159606390598 0.32453461147271162 0 0.29603465069114282 0.33553421189107618 0 0.30445412428221041 0.32558903425911379 0 0.31484893044661 0.32778579360563193 0 0.30654896287530792 0.34033791233229299 0 0.30445412428221041 0.32558903425911379 0 0.31767498628904178 0.33862919533695518 0 0.31315570067328902 0.3464643712977632 0 0.30654896287530792 0.34033791233229299 0 0.30445412428221041 0.32558903425911379 0 0.29660332646403359 0.30785121346786842 0 0.31440941436971798 0.31242774502049953 0 0.29262159606390598 0.32453461147271162 0 0.30445412428221041 0.32558903425911379 0 0.29660332646403359 0.30785121346786842 0 0.31484893044661 0.32778579360563193 0 0.30445412428221041 0.32558903425911379 0 0.31440941436971798 0.31242774502049953 0 0.30822946874662033 0.29998271616579031 0 0.29660332646403359 0.30785121346786842 0 0.31440941436971798 0.31242774502049953 0 0.30822946874662033 0.29998271616579031 0 0.30055108247350393 0.28416894361273021 0 0.29660332646403359 0.30785121346786842 0 0.30822946874662033 0.29998271616579031 0 0.30055108247350393 0.28416894361273021 0 0.32109763140443309 0.29547610107375327 0 0.30055108247350393 0.28416894361273021 0 0.29660332646403359 0.30785121346786842 0 0.27430616976337108 0.29100628718303567 0 0.30055108247350393 0.28416894361273021 0 0.27430616976337108 0.29100628718303567 0 0.28443506245096839 0.27205148705280008 0 0.30055108247350393 0.28416894361273021 0 0.27430616976337108 0.29100628718303567 0 0.28178409254690689 0.31684790712797722 0 0.29660332646403359 0.30785121346786842 0 0.27430616976337108 0.29100628718303567 0 0.28178409254690689 0.31684790712797722 0 0.26836904206483531 0.31075971332937607 0 0.27430616976337108 0.29100628718303567 0 0.28178409254690689 0.31684790712797722 0 0.27430616976337108 0.29100628718303567 0 0.27430616976337108 0.29100628718303567 0 0.25121587924780342 0.29702178630611242 0 0.27430616976337108 0.29100628718303567 0 0.25953152444998728 0.28294166139542631 0 0.25121587924780342 0.29702178630611242 0 0.26836904206483531 0.31075971332937607 0 0.27430616976337108 0.29100628718303567 0 0.25121587924780342 0.29702178630611242 0 0.26836904206483531 0.31075971332937607 0 0.25121587924780342 0.29702178630611242 0 0.2484846271056145 0.31037308609574782 0 0.26836904206483531 0.31075971332937607 0 0.25121587924780342 0.29702178630611242 0 0.25102838231212438 0.26850893423506528 0 0.26790857605335527 0.26889798384773289 0 0.26221447651104962 0.2479993693513689 0 0.26790857605335527 0.26889798384773289 0 0.26221447651104962 0.2479993693513689 0 0.25953152444998728 0.28294166139542631 0 0.25102838231212438 0.26850893423506528 0 0.26790857605335527 0.26889798384773289 0 0.27430616976337108 0.29100628718303567 0 0.26790857605335527 0.26889798384773289 0 0.28443506245096839 0.27205148705280008 0 0.27430616976337108 0.29100628718303567 0 0.25953152444998728 0.28294166139542631 0 0.26790857605335527 0.26889798384773289 0 0.27430616976337108 0.29100628718303567 0 0.26790857605335527 0.26889798384773289 0 0.26790857605335527 0.26889798384773289 0 0.28119448123381058 0.25405304303149878 0 0.26221447651104962 0.2479993693513689 0 0.26790857605335527 0.26889798384773289 0 0.28119448123381058 0.25405304303149878 0 0.28443506245096839 0.27205148705280008 0 0.28119448123381058 0.25405304303149878 0 0.28443506245096839 0.27205148705280008 0 0.2982150027308012 0.26213117758900317 0 0.28119448123381058 0.25405304303149878 0 0.2982150027308012 0.26213117758900317 0 0.30328699804120918 0.24394477185791469 0 0.30055108247350393 0.28416894361273021 0 0.28443506245096839 0.27205148705280008 0 0.2982150027308012 0.26213117758900317 0 0.30055108247350393 0.28416894361273021 0 0.2982150027308012 0.26213117758900317 0 0.31879452400631653 0.25919465198291952 0 0.2982150027308012 0.26213117758900317 0 0.31879452400631653 0.25919465198291952 0 0.30328699804120918 0.24394477185791469 0 0.31879452400631653 0.25919465198291952 0 0.33092809789354199 0.24744869965648561 0 0.31845456220733243 0.24449663650262579 0 0.31879452400631653 0.25919465198291952 0 0.33565265393095528 0.25675142138279861 0 0.33982225619875311 0.26765994074234428 0 0.31879452400631653 0.25919465198291952 0 0.33982225619875311 0.26765994074234428 0 0.31879452400631653 0.25919465198291952 0 0.33565265393095528 0.25675142138279861 0 0.33092809789354199 0.24744869965648561 0 0.33565265393095528 0.25675142138279861 0 0.33982225619875311 0.26765994074234428 0 0.34536281311255052 0.25941060478944128 0 0.33565265393095528 0.25675142138279861 0 0.3433555784436142 0.25004320974280247 0 0.33092809789354199 0.24744869965648561 0 0.33565265393095528 0.25675142138279861 0 0.3433555784436142 0.25004320974280247 0 0.34536281311255052 0.25941060478944128 0 0.31879452400631653 0.25919465198291952 0 0.33982225619875311 0.26765994074234428 0 0.32679599518363661 0.27733160004242491 0 0.33982225619875311 0.26765994074234428 0 0.32679599518363661 0.27733160004242491 0 0.34056182851336592 0.28206143899133118 0 0.30055108247350393 0.28416894361273021 0 0.32679599518363661 0.27733160004242491 0 0.30055108247350393 0.28416894361273021 0 0.31879452400631653 0.25919465198291952 0 0.32679599518363661 0.27733160004242491 0 0.32679599518363661 0.27733160004242491 0 0.32109763140443309 0.29547610107375327 0 0.33248404658197278 0.28876668272462419 0 0.30055108247350393 0.28416894361273021 0 0.32679599518363661 0.27733160004242491 0 0.32109763140443309 0.29547610107375327 0 0.32109763140443309 0.29547610107375327 0 0.31440941436971798 0.31242774502049953 0 0.32867162081685902 0.31028670060733149 0 0.30822946874662033 0.29998271616579031 0 0.32109763140443309 0.29547610107375327 0 0.31440941436971798 0.31242774502049953 0 0.32867162081685902 0.31028670060733149 0 0.33472549883669622 0.29791121211074773 0 0.34192449374142192 0.30753297203612773 0 0.32109763140443309 0.29547610107375327 0 0.32867162081685902 0.31028670060733149 0 0.33472549883669622 0.29791121211074773 0 0.33472549883669622 0.29791121211074773 0 0.34281583705185747 0.29966479619329672 0 0.34192449374142192 0.30753297203612773 0 0.33769186663180051 0.31814262317354819 0 0.32867162081685902 0.31028670060733149 0 0.34192449374142192 0.30753297203612773 0 0.32679599518363661 0.27733160004242491 0 0.33248404658197278 0.28876668272462419 0 0.34056182851336592 0.28206143899133118 0 0.32109763140443309 0.29547610107375327 0 0.33472549883669622 0.29791121211074773 0 0.33248404658197278 0.28876668272462419 0 0.33472549883669622 0.29791121211074773 0 0.33248404658197278 0.28876668272462419 0 0.34417327957572558 0.29277050597204329 0 0.33472549883669622 0.29791121211074773 0 0.34281583705185747 0.29966479619329672 0 0.34417327957572558 0.29277050597204329 0 0.33248404658197278 0.28876668272462419 0 0.34056182851336592 0.28206143899133118 0 0.34417327957572558 0.29277050597204329 0 0.34056182851336592 0.28206143899133118 0 0.34979868535227071 0.28728326233729501 0 0.34417327957572558 0.29277050597204329 0 0.34056182851336592 0.28206143899133118 0 0.34979868535227071 0.28728326233729501 0 0.35183199075491411 0.27966461044832719 0 0.34417327957572558 0.29277050597204329 0 0.35334053836337709 0.29410458558147129 0 0.34972900846361488 0.30172704795696642 0 0.34979868535227071 0.28728326233729501 0 0.34417327957572558 0.29277050597204329 0 0.35334053836337709 0.29410458558147129 0 0.34979868535227071 0.28728326233729501 0 0.35334053836337709 0.29410458558147129 0 0.35722235408413222 0.28831366276426512 0 0.35334053836337709 0.29410458558147129 0 0.35826071325737319 0.3003277240158499 0 0.36091512844171192 0.29433704443458902 0 0.35334053836337709 0.29410458558147129 0 0.35722235408413222 0.28831366276426512 0 0.36091512844171192 0.29433704443458902 0 0.34979868535227071 0.28728326233729501 0 0.35722235408413222 0.28831366276426512 0 0.35183199075491411 0.27966461044832719 0 0.35722235408413222 0.28831366276426512 0 0.36152496379752869 0.28359539021876212 0 0.35183199075491411 0.27966461044832719 0 0.34480088275632298 0.31606258733578418 0 0.34192449374142192 0.30753297203612773 0 0.35090510471213721 0.31152713165908658 0 0.34192449374142192 0.30753297203612773 0 0.35090510471213721 0.31152713165908658 0 0.34972900846361488 0.30172704795696642 0 0.34281583705185747 0.29966479619329672 0 0.34417327957572558 0.29277050597204329 0 0.34972900846361488 0.30172704795696642 0 0.34281583705185747 0.29966479619329672 0 0.34192449374142192 0.30753297203612773 0 0.34972900846361488 0.30172704795696642 0 0.34972900846361488 0.30172704795696642 0 0.35826071325737319 0.3003277240158499 0 0.35721607615581658 0.30656573559573969 0 0.35334053836337709 0.29410458558147129 0 0.34972900846361488 0.30172704795696642 0 0.35826071325737319 0.3003277240158499 0 0.35090510471213721 0.31152713165908658 0 0.34972900846361488 0.30172704795696642 0 0.35721607615581658 0.30656573559573969 0 0.35878641637012221 0.31305233625990619 0 0.35090510471213721 0.31152713165908658 0 0.35721607615581658 0.30656573559573969 0 0.37014896644917339 0.316543878568457 0 0.37763341047385651 0.29079382019339128 0 0.37014896644917339 0.316543878568457 0 0.37108481648816682 0.30013899891886681 0 0.36845835323010317 0.30596496181531441 0 0.37014896644917339 0.316543878568457 0 0.37763341047385651 0.29079382019339128 0 0.37695808612291098 0.31120865645681561 0 0.37014896644917339 0.316543878568457 0 0.37108481648816682 0.30013899891886681 0 0.37763341047385651 0.29079382019339128 0 0.36630954626425261 0.31087512405144152 0 0.36228941999803421 0.30896529616435242 0 0.36543096483439103 0.3064802843427199 0 0.36331333565659901 0.31283202127524651 0 0.36630954626425261 0.31087512405144152 0 0.36228941999803421 0.30896529616435242 0 0.36331333565659901 0.31283202127524651 0 0.35878641637012221 0.31305233625990619 0 0.36228941999803421 0.30896529616435242 0 0.35878641637012221 0.31305233625990619 0 0.35721607615581658 0.30656573559573969 0 0.36228941999803421 0.30896529616435242 0 0.35721607615581658 0.30656573559573969 0 0.36228941999803421 0.30896529616435242 0 0.36268018070702418 0.30398627546106088 0 0.36630954626425261 0.31087512405144152 0 0.36543096483439103 0.3064802843427199 0 0.36845835323010317 0.30596496181531441 0 0.36228941999803421 0.30896529616435242 0 0.36543096483439103 0.3064802843427199 0 0.36268018070702418 0.30398627546106088 0 0.36543096483439103 0.3064802843427199 0 0.36607900901995372 0.30349396637540749 0 0.36845835323010317 0.30596496181531441 0 0.36607900901995372 0.30349396637540749 0 0.36268018070702418 0.30398627546106088 0 0.36558719123160882 0.29969948119116269 0 0.36607900901995372 0.30349396637540749 0 0.36558719123160882 0.29969948119116269 0 0.36823835509664099 0.30133882906677939 0 0.36543096483439103 0.3064802843427199 0 0.36607900901995372 0.30349396637540749 0 0.36268018070702418 0.30398627546106088 0 0.35826071325737319 0.3003277240158499 0 0.35721607615581658 0.30656573559573969 0 0.36268018070702418 0.30398627546106088 0 0.35826071325737319 0.3003277240158499 0 0.36268018070702418 0.30398627546106088 0 0.36558719123160882 0.29969948119116269 0 0.35826071325737319 0.3003277240158499 0 0.36558719123160882 0.29969948119116269 0 0.36091512844171192 0.29433704443458902 0 0.36871223371641282 0.29817542324200702 0 0.37108481648816682 0.30013899891886681 0 0.37014933742706652 0.29575476169949788 0 0.36558719123160882 0.29969948119116269 0 0.36871223371641282 0.29817542324200702 0 0.36734652779664789 0.29411680932906442 0 0.36558719123160882 0.29969948119116269 0 0.36871223371641282 0.29817542324200702 0 0.36823835509664099 0.30133882906677939 0 0.36871223371641282 0.29817542324200702 0 0.37108481648816682 0.30013899891886681 0 0.36823835509664099 0.30133882906677939 0 0.37108481648816682 0.30013899891886681 0 0.36823835509664099 0.30133882906677939 0 0.36845835323010317 0.30596496181531441 0 0.36607900901995372 0.30349396637540749 0 0.36823835509664099 0.30133882906677939 0 0.36845835323010317 0.30596496181531441 0 0.37014896644917339 0.316543878568457 0 0.36630954626425261 0.31087512405144152 0 0.36845835323010317 0.30596496181531441 0 0.36812955944888692 0.28419813691800921 0 0.36084998839118931 0.2761252295017701 0 0.37969218042614078 0.28371066929036243 0 0.36152496379752869 0.28359539021876212 0 0.36812955944888692 0.28419813691800921 0 0.36084998839118931 0.2761252295017701 0 0.36414496955441777 0.28941104037434479 0 0.36911771796651938 0.28986917351547109 0 0.36812955944888692 0.28419813691800921 0 0.36152496379752869 0.28359539021876212 0 0.36414496955441777 0.28941104037434479 0 0.36812955944888692 0.28419813691800921 0 0.35722235408413222 0.28831366276426512 0 0.36152496379752869 0.28359539021876212 0 0.36414496955441777 0.28941104037434479 0 0.35722235408413222 0.28831366276426512 0 0.36091512844171192 0.29433704443458902 0 0.36414496955441777 0.28941104037434479 0 0.36558719123160882 0.29969948119116269 0 0.36091512844171192 0.29433704443458902 0 0.36734652779664789 0.29411680932906442 0 0.36091512844171192 0.29433704443458902 0 0.36414496955441777 0.28941104037434479 0 0.36734652779664789 0.29411680932906442 0 0.36414496955441777 0.28941104037434479 0 0.36911771796651938 0.28986917351547109 0 0.36734652779664789 0.29411680932906442 0 0.36911771796651938 0.28986917351547109 0 0.37026464520563152 0.29279186409727531 0 0.36734652779664789 0.29411680932906442 0 0.37108481648816682 0.30013899891886681 0 0.37306860395079622 0.29341917559567809 0 0.37763341047385651 0.29079382019339128 0 0.36911771796651938 0.28986917351547109 0 0.37026464520563152 0.29279186409727531 0 0.37237913536365119 0.29056320862162688 0 0.36871223371641282 0.29817542324200702 0 0.36734652779664789 0.29411680932906442 0 0.37014933742706652 0.29575476169949788 0 0.37026464520563152 0.29279186409727531 0 0.36734652779664789 0.29411680932906442 0 0.37014933742706652 0.29575476169949788 0 0.37108481648816682 0.30013899891886681 0 0.37014933742706652 0.29575476169949788 0 0.37306860395079622 0.29341917559567809 0 0.37026464520563152 0.29279186409727531 0 0.37014933742706652 0.29575476169949788 0 0.37306860395079622 0.29341917559567809 0 0.36911771796651938 0.28986917351547109 0 0.37237913536365119 0.29056320862162688 0 0.37333201972158658 0.2878654242033048 0 0.37306860395079622 0.29341917559567809 0 0.37237913536365119 0.29056320862162688 0 0.37763341047385651 0.29079382019339128 0 0.37237913536365119 0.29056320862162688 0 0.37333201972158658 0.2878654242033048 0 0.37763341047385651 0.29079382019339128 0 0.37026464520563152 0.29279186409727531 0 0.37306860395079622 0.29341917559567809 0 0.37237913536365119 0.29056320862162688 0 0.37333201972158658 0.2878654242033048 0 0.36812955944888692 0.28419813691800921 0 0.37969218042614078 0.28371066929036243 0 0.36911771796651938 0.28986917351547109 0 0.37333201972158658 0.2878654242033048 0 0.36812955944888692 0.28419813691800921 0 0.36084998839118931 0.2761252295017701 0 0.37969218042614078 0.28371066929036243 0 0.36084998839118931 0.2761252295017701 0 0.37017340450925651 0.266060206293324 0 0.3539366042426153 0.26554047293381039 0 0.36084998839118931 0.2761252295017701 0 0.38460708535355081 0.26680105137204091 0 0.36084998839118931 0.2761252295017701 0 0.37017340450925651 0.266060206293324 0 0.38460708535355081 0.26680105137204091 0 0.3539366042426153 0.26554047293381039 0 0.38129994004966872 0.25577407136566988 0 0.37169426656027921 0.24972740256563611 0 0.37017340450925651 0.266060206293324 0 0.3539366042426153 0.26554047293381039 0 0.38129994004966872 0.25577407136566988 0 0.3539366042426153 0.26554047293381039 0 0.37169426656027921 0.24972740256563611 0 0.36205361842742478 0.24882498742118489 0 0.3539366042426153 0.26554047293381039 0 0.38129994004966872 0.25577407136566988 0 0.3539366042426153 0.26554047293381039 0 0.35175757775775729 0.2532797976346674 0 0.36205361842742478 0.24882498742118489 0 0.3433555784436142 0.25004320974280247 0 0.35175757775775729 0.2532797976346674 0 0.34536281311255052 0.25941060478944128 0 0.33982225619875311 0.26765994074234428 0 0.3539366042426153 0.26554047293381039 0 0.34536281311255052 0.25941060478944128 0 0.3539366042426153 0.26554047293381039 0 0.35175757775775729 0.2532797976346674 0 0.34536281311255052 0.25941060478944128 0 0.33982225619875311 0.26765994074234428 0 0.36084998839118931 0.2761252295017701 0 0.33982225619875311 0.26765994074234428 0 0.36084998839118931 0.2761252295017701 0 0.3539366042426153 0.26554047293381039 0 0.33982225619875311 0.26765994074234428 0 0.36084998839118931 0.2761252295017701 0 0.35183199075491411 0.27966461044832719 0 0.33982225619875311 0.26765994074234428 0 0.34056182851336592 0.28206143899133118 0 0.35183199075491411 0.27966461044832719 0 0.36152496379752869 0.28359539021876212 0 0.36084998839118931 0.2761252295017701 0 0.35183199075491411 0.27966461044832719 0 0.36084998839118931 0.2761252295017701 0 0.35183199075491411 0.27966461044832719 0 0.39945440726228237 0.27350419034528239 0 0.38460708535355081 0.26680105137204091 0 0.40768566828284042 0.25774317622192677 0 0.39945440726228237 0.27350419034528239 0 0.4092682188351508 0.26816031590002881 0 0.40768566828284042 0.25774317622192677 0 0.39945440726228237 0.27350419034528239 0 0.38460708535355081 0.26680105137204091 0 0.3904751567012596 0.27530993325585928 0 0.39945440726228237 0.27350419034528239 0 0.3904751567012596 0.27530993325585928 0 0.39488150240831521 0.28173053148540511 0 0.39945440726228237 0.27350419034528239 0 0.40366985246608472 0.28285995447659418 0 0.40929088926209078 0.279020096056181 0 0.39945440726228237 0.27350419034528239 0 0.4092682188351508 0.26816031590002881 0 0.40929088926209078 0.279020096056181 0 0.39945440726228237 0.27350419034528239 0 0.39488150240831521 0.28173053148540511 0 0.40366985246608472 0.28285995447659418 0 0.38783836144724232 0.2556839199238965 0 0.38129994004966872 0.25577407136566988 0 0.40866327585672191 0.24600766979752939 0 0.38460708535355081 0.26680105137204091 0 0.40768566828284042 0.25774317622192677 0 0.38783836144724232 0.2556839199238965 0 0.40768566828284042 0.25774317622192677 0 0.40866327585672191 0.24600766979752939 0 0.38783836144724232 0.2556839199238965 0 0.38460708535355081 0.26680105137204091 0 0.40768566828284042 0.25774317622192677 0 0.38129994004966872 0.25577407136566988 0 0.40866327585672191 0.24600766979752939 0 0.38783836144724232 0.2556839199238965 0 0.38129994004966872 0.25577407136566988 0 0.38460708535355081 0.26680105137204091 0 0.38783836144724232 0.2556839199238965 0 0.38460708535355081 0.26680105137204091 0 0.38129994004966872 0.25577407136566988 0 0.37169426656027921 0.24972740256563611 0 0.38106847269238292 0.24536179082341181 0 0.37017340450925651 0.266060206293324 0 0.38129994004966872 0.25577407136566988 0 0.38460708535355081 0.26680105137204091 0 0.36084998839118931 0.2761252295017701 0 0.38460708535355081 0.26680105137204091 0 0.37969218042614078 0.28371066929036243 0 0.38460708535355081 0.26680105137204091 0 0.3904751567012596 0.27530993325585928 0 0.37969218042614078 0.28371066929036243 0 0.38460708535355081 0.26680105137204091 0 0.37969218042614078 0.28371066929036243 0 0.3904751567012596 0.27530993325585928 0 0.37969218042614078 0.28371066929036243 0 0.39488150240831521 0.28173053148540511 0 0.37969218042614078 0.28371066929036243 0 0.37763341047385651 0.29079382019339128 0 0.40259214502479168 0.29292967641552992 0 0.37763341047385651 0.29079382019339128 0 0.4027243230010164 0.30147339632314252 0 0.37969218042614078 0.28371066929036243 0 0.37763341047385651 0.29079382019339128 0 0.37333201972158658 0.2878654242033048 0 0.37969218042614078 0.28371066929036243 0 0.37763341047385651 0.29079382019339128 0 0.37763341047385651 0.29079382019339128 0 0.37695808612291098 0.31120865645681561 0 0.38599374742651271 0.30414296713942529 0 0.37763341047385651 0.29079382019339128 0 0.38599374742651271 0.30414296713942529 0 0.4027243230010164 0.30147339632314252 0 0.37695808612291098 0.31120865645681561 0 0.38599374742651271 0.30414296713942529 0 0.38754735899376969 0.31282171123814728 0 0.38599374742651271 0.30414296713942529 0 0.4027243230010164 0.30147339632314252 0 0.38754735899376969 0.31282171123814728 0 0.4027243230010164 0.30147339632314252 0 0.3956366020903157 0.32248231082130752 0 0.38754735899376969 0.31282171123814728 0 0.37969218042614078 0.28371066929036243 0 0.40259214502479168 0.29292967641552992 0 0.37969218042614078 0.28371066929036243 0 0.39488150240831521 0.28173053148540511 0 0.40259214502479168 0.29292967641552992 0 0.37763341047385651 0.29079382019339128 0 0.4027243230010164 0.30147339632314252 0 0.40259214502479168 0.29292967641552992 0 0.4027243230010164 0.30147339632314252 0 0.40259214502479168 0.29292967641552992 0 0.41139710839419091 0.29189735433941028 0 0.40259214502479168 0.29292967641552992 0 0.40366985246608472 0.28285995447659418 0 0.41139710839419091 0.29189735433941028 0 0.39488150240831521 0.28173053148540511 0 0.40259214502479168 0.29292967641552992 0 0.40366985246608472 0.28285995447659418 0 0.40366985246608472 0.28285995447659418 0 0.41139710839419091 0.29189735433941028 0 0.40929088926209078 0.279020096056181 0 0.41139710839419091 0.29189735433941028 0 0.42781523552817591 0.31215297245289481 0 0.42226183937510081 0.28327127115801121 0 0.41139710839419091 0.29189735433941028 0 0.42226183937510081 0.28327127115801121 0 0.40929088926209078 0.279020096056181 0 0.4027243230010164 0.30147339632314252 0 0.41139710839419091 0.29189735433941028 0 0.42781523552817591 0.31215297245289481 0 0.4027243230010164 0.30147339632314252 0 0.42781523552817591 0.31215297245289481 0 0.41357021602424721 0.32279281759874212 0 0.4027243230010164 0.30147339632314252 0 0.42781523552817591 0.31215297245289481 0 0.42781523552817591 0.31215297245289481 0 0.42226183937510081 0.28327127115801121 0 0.42781523552817591 0.31215297245289481 0 0.42226183937510081 0.28327127115801121 0 0.44120727567718632 0.28746005308771089 0 0.42226183937510081 0.28327127115801121 0 0.43023391716603732 0.27040224467912161 0 0.44120727567718632 0.28746005308771089 0 0.42226183937510081 0.28327127115801121 0 0.43023391716603732 0.27040224467912161 0 0.41664462513020523 0.25422696758609492 0 0.43023391716603732 0.27040224467912161 0 0.43692075095235122 0.26433370861442979 0 0.44373838257505849 0.27050131303512348 0 0.42226183937510081 0.28327127115801121 0 0.4092682188351508 0.26816031590002881 0 0.41664462513020523 0.25422696758609492 0 0.42226183937510081 0.28327127115801121 0 0.41664462513020523 0.25422696758609492 0 0.42226183937510081 0.28327127115801121 0 0.4092682188351508 0.26816031590002881 0 0.40929088926209078 0.279020096056181 0 0.40768566828284042 0.25774317622192677 0 0.41664462513020523 0.25422696758609492 0 0.40866327585672191 0.24600766979752939 0 0.40768566828284042 0.25774317622192677 0 0.41664462513020523 0.25422696758609492 0 0.4092682188351508 0.26816031590002881 0 0.40768566828284042 0.25774317622192677 0 0.41664462513020523 0.25422696758609492 0 0.42749544465446981 0.25699566217507153 0 0.45166362976964691 0.25106894999712381 0 0.43076425121212841 0.2486853010718087 0 0.41664462513020523 0.25422696758609492 0 0.42749544465446981 0.25699566217507153 0 0.43076425121212841 0.2486853010718087 0 0.43023391716603732 0.27040224467912161 0 0.41664462513020523 0.25422696758609492 0 0.42749544465446981 0.25699566217507153 0 0.41664462513020523 0.25422696758609492 0 0.43076425121212841 0.2486853010718087 0 0.42749544465446981 0.25699566217507153 0 0.43692075095235122 0.26433370861442979 0 0.44456450099631911 0.26043047377218492 0 0.43023391716603732 0.27040224467912161 0 0.42749544465446981 0.25699566217507153 0 0.43692075095235122 0.26433370861442979 0 0.42749544465446981 0.25699566217507153 0 0.45166362976964691 0.25106894999712381 0 0.42749544465446981 0.25699566217507153 0 0.44456450099631911 0.26043047377218492 0 0.45166362976964691 0.25106894999712381 0 0.43692075095235122 0.26433370861442979 0 0.44456450099631911 0.26043047377218492 0 0.44373838257505849 0.27050131303512348 0 0.44456450099631911 0.26043047377218492 0 0.44373838257505849 0.27050131303512348 0 0.45508065662597141 0.26402805921732958 0 0.44456450099631911 0.26043047377218492 0 0.45166362976964691 0.25106894999712381 0 0.45508065662597141 0.26402805921732958 0 0.44373838257505849 0.27050131303512348 0 0.45472874274978531 0.27586911806656422 0 0.44120727567718632 0.28746005308771089 0 0.43023391716603732 0.27040224467912161 0 0.44373838257505849 0.27050131303512348 0 0.44120727567718632 0.28746005308771089 0 0.44373838257505849 0.27050131303512348 0 0.45472874274978531 0.27586911806656422 0 0.45508065662597141 0.26402805921732958 0 0.45472874274978531 0.27586911806656422 0 0.46665275363318931 0.27127710252775639 0 0.46192346945889701 0.28817835066990299 0 0.45472874274978531 0.27586911806656422 0 0.46665275363318931 0.27127710252775639 0 0.45508065662597141 0.26402805921732958 0 0.45166362976964691 0.25106894999712381 0 0.46652816171208539 0.25830808769848879 0 0.47583181488482379 0.2451422378191761 0 0.45166362976964691 0.25106894999712381 0 0.45508065662597141 0.26402805921732958 0 0.46652816171208539 0.25830808769848879 0 0.46665275363318931 0.27127710252775639 0 0.45508065662597141 0.26402805921732958 0 0.46652816171208539 0.25830808769848879 0 0.46665275363318931 0.27127710252775639 0 0.46652816171208539 0.25830808769848879 0 0.48341195364679568 0.26002408893105827 0 0.46652816171208539 0.25830808769848879 0 0.48341195364679568 0.26002408893105827 0 0.47583181488482379 0.2451422378191761 0 0.46665275363318931 0.27127710252775639 0 0.48341195364679568 0.26002408893105827 0 0.48138518434246891 0.28130646820503019 0 0.46665275363318931 0.27127710252775639 0 0.48138518434246891 0.28130646820503019 0 0.46192346945889701 0.28817835066990299 0 0.5 0.26671351767664991 0 0.5 0.29421150971207138 0 0.48138518434246891 0.28130646820503019 0 0.48341195364679568 0.26002408893105827 0 0.5 0.26671351767664991 0 0.48138518434246891 0.28130646820503019 0 0.48341195364679568 0.26002408893105827 0 0.5 0.26671351767664991 0 0.50000000000000067 0.2392155256412283 0 0.5 0.29421150971207138 0 0.47556093647901088 0.30733800586058863 0 0.5 0.32170950174749302 0 0.5 0.29421150971207138 0 0.48138518434246891 0.28130646820503019 0 0.47556093647901088 0.30733800586058863 0 0.48138518434246891 0.28130646820503019 0 0.47556093647901088 0.30733800586058863 0 0.46192346945889701 0.28817835066990299 0 0.47556093647901088 0.30733800586058863 0 0.45214514511688908 0.30370412902975941 0 0.45421880844117613 0.32339126307769928 0 0.47556093647901088 0.30733800586058863 0 0.46192346945889701 0.28817835066990299 0 0.45214514511688908 0.30370412902975941 0 0.46192346945889701 0.28817835066990299 0 0.44120727567718632 0.28746005308771089 0 0.45214514511688908 0.30370412902975941 0 0.45472874274978531 0.27586911806656422 0 0.46192346945889701 0.28817835066990299 0 0.44120727567718632 0.28746005308771089 0 0.42781523552817591 0.31215297245289481 0 0.44120727567718632 0.28746005308771089 0 0.45214514511688908 0.30370412902975941 0 0.42781523552817591 0.31215297245289481 0 0.45421880844117613 0.32339126307769928 0 0.43298436918619881 0.33903622913929549 0 0.42781523552817591 0.31215297245289481 0 0.45214514511688908 0.30370412902975941 0 0.45421880844117613 0.32339126307769928 0 0.42781523552817591 0.31215297245289481 0 0.45421880844117613 0.32339126307769928 0 0.45421880844117613 0.32339126307769928 0 0.45970761232660212 0.34692044601787542 0 0.43298436918619881 0.33903622913929549 0 0.45421880844117613 0.32339126307769928 0 0.48062238135417568 0.33462955370250519 0 0.45421880844117613 0.32339126307769928 0 0.48062238135417568 0.33462955370250519 0 0.45970761232660212 0.34692044601787542 0 0.47556093647901088 0.30733800586058863 0 0.45421880844117613 0.32339126307769928 0 0.48062238135417568 0.33462955370250519 0 0.48062238135417568 0.33462955370250519 0 0.5 0.32170950174749302 0 0.5 0.34920749378291471 0 0.47556093647901088 0.30733800586058863 0 0.48062238135417568 0.33462955370250519 0 0.5 0.32170950174749302 0 0.5 0.34920749378291471 0 0.48254603458521478 0.3522402998402685 0 0.5 0.37670548581833618 0 0.48062238135417568 0.33462955370250519 0 0.5 0.34920749378291471 0 0.48254603458521478 0.3522402998402685 0 0.48254603458521478 0.3522402998402685 0 0.46972057754862501 0.36630584452178799 0 0.45970761232660212 0.34692044601787542 0 0.48062238135417568 0.33462955370250519 0 0.48254603458521478 0.3522402998402685 0 0.45970761232660212 0.34692044601787542 0 0.48254603458521478 0.3522402998402685 0 0.46972057754862501 0.36630584452178799 0 0.5 0.37670548581833618 0 0.46972057754862501 0.36630584452178799 0 0.43815350284422228 0.36591948582569622 0 0.45848938469160699 0.38276388730883248 0 0.46972057754862501 0.36630584452178799 0 0.45970761232660212 0.34692044601787542 0 0.43815350284422228 0.36591948582569622 0 0.45970761232660212 0.34692044601787542 0 0.43815350284422228 0.36591948582569622 0 0.43298436918619881 0.33903622913929549 0 0.43815350284422228 0.36591948582569622 0 0.4167242930516859 0.35972934744593471 0 0.42344095457037051 0.38268701701273461 0 0.4167242930516859 0.35972934744593471 0 0.40101385701800268 0.38518895784325291 0 0.4167242930516859 0.35972934744593471 0 0.40181680918128981 0.35947395412181382 0 0.40101385701800268 0.38518895784325291 0 0.4167242930516859 0.35972934744593471 0 0.40869055031553031 0.33881917925707022 0 0.40181680918128981 0.35947395412181382 0 0.4167242930516859 0.35972934744593471 0 0.43298436918619881 0.33903622913929549 0 0.40869055031553031 0.33881917925707022 0 0.43815350284422228 0.36591948582569622 0 0.4167242930516859 0.35972934744593471 0 0.43298436918619881 0.33903622913929549 0 0.43815350284422228 0.36591948582569622 0 0.43298436918619881 0.33903622913929549 0 0.42781523552817591 0.31215297245289481 0 0.43298436918619881 0.33903622913929549 0 0.42781523552817591 0.31215297245289481 0 0.43298436918619881 0.33903622913929549 0 0.41357021602424721 0.32279281759874212 0 0.43298436918619881 0.33903622913929549 0 0.41357021602424721 0.32279281759874212 0 0.40869055031553031 0.33881917925707022 0 0.40869055031553031 0.33881917925707022 0 0.39369601167170543 0.33564153172070438 0 0.39209274976778918 0.34814598654190299 0 0.40869055031553031 0.33881917925707022 0 0.39369601167170543 0.33564153172070438 0 0.3956366020903157 0.32248231082130752 0 0.39369601167170543 0.33564153172070438 0 0.3956366020903157 0.32248231082130752 0 0.38362385659697051 0.32926172455430031 0 0.39369601167170543 0.33564153172070438 0 0.38635485741833753 0.33883185827426582 0 0.39209274976778918 0.34814598654190299 0 0.41357021602424721 0.32279281759874212 0 0.40869055031553031 0.33881917925707022 0 0.3956366020903157 0.32248231082130752 0 0.4027243230010164 0.30147339632314252 0 0.41357021602424721 0.32279281759874212 0 0.3956366020903157 0.32248231082130752 0 0.3956366020903157 0.32248231082130752 0 0.38754735899376969 0.31282171123814728 0 0.38479800915553353 0.32074741934569512 0 0.38754735899376969 0.31282171123814728 0 0.38479800915553353 0.32074741934569512 0 0.37917338616632867 0.3168755173424983 0 0.3956366020903157 0.32248231082130752 0 0.38479800915553353 0.32074741934569512 0 0.38362385659697051 0.32926172455430031 0 0.38479800915553353 0.32074741934569512 0 0.37832625022041982 0.32264150287239662 0 0.38362385659697051 0.32926172455430031 0 0.37577016905582622 0.32787937856968757 0 0.37832625022041982 0.32264150287239662 0 0.38362385659697051 0.32926172455430031 0 0.37577016905582622 0.32787937856968757 0 0.37506056064123422 0.32471797871916308 0 0.37832625022041982 0.32264150287239662 0 0.37368960646642962 0.31911015363466272 0 0.37506056064123422 0.32471797871916308 0 0.37832625022041982 0.32264150287239662 0 0.37695808612291098 0.31120865645681561 0 0.38754735899376969 0.31282171123814728 0 0.37917338616632867 0.3168755173424983 0 0.38479800915553353 0.32074741934569512 0 0.37832625022041982 0.32264150287239662 0 0.37917338616632867 0.3168755173424983 0 0.37368960646642962 0.31911015363466272 0 0.37832625022041982 0.32264150287239662 0 0.37917338616632867 0.3168755173424983 0 0.37499251130121058 0.31593455150060828 0 0.37368960646642962 0.31911015363466272 0 0.37917338616632867 0.3168755173424983 0 0.37499251130121058 0.31593455150060828 0 0.37695808612291098 0.31120865645681561 0 0.37917338616632867 0.3168755173424983 0 0.38635485741833753 0.33883185827426582 0 0.3795813787571668 0.3363772241379393 0 0.38278029029805521 0.34473282441648212 0 0.39369601167170543 0.33564153172070438 0 0.38635485741833753 0.33883185827426582 0 0.38362385659697051 0.32926172455430031 0 0.38635485741833753 0.33883185827426582 0 0.38362385659697051 0.32926172455430031 0 0.3795813787571668 0.3363772241379393 0 0.37577016905582622 0.32787937856968757 0 0.38362385659697051 0.32926172455430031 0 0.37868435463470768 0.3315773541462857 0 0.38362385659697051 0.32926172455430031 0 0.37868435463470768 0.3315773541462857 0 0.3795813787571668 0.3363772241379393 0 0.37577016905582622 0.32787937856968757 0 0.37868435463470768 0.3315773541462857 0 0.375263113682131 0.33313320718557798 0 0.37868435463470768 0.3315773541462857 0 0.375263113682131 0.33313320718557798 0 0.3795813787571668 0.3363772241379393 0 0.37369311900952262 0.33836265764115908 0 0.3795813787571668 0.3363772241379393 0 0.37670219357667811 0.34177383067972761 0 0.3795813787571668 0.3363772241379393 0 0.37670219357667811 0.34177383067972761 0 0.38278029029805521 0.34473282441648212 0 0.37369311900952262 0.33836265764115908 0 0.375263113682131 0.33313320718557798 0 0.3795813787571668 0.3363772241379393 0 0.3809821990389497 0.35490418517770578 0 0.39056259575344082 0.36548629952090861 0 0.39209274976778918 0.34814598654190299 0 0.37486749369974542 0.34694596905823039 0 0.37670219357667811 0.34177383067972761 0 0.38278029029805521 0.34473282441648212 0 0.37486749369974542 0.34694596905823039 0 0.38278029029805521 0.34473282441648212 0 0.3809821990389497 0.35490418517770578 0 0.38278029029805521 0.34473282441648212 0 0.3809821990389497 0.35490418517770578 0 0.39209274976778918 0.34814598654190299 0 0.38635485741833753 0.33883185827426582 0 0.38278029029805521 0.34473282441648212 0 0.39209274976778918 0.34814598654190299 0 0.37228166628853332 0.35471301169251829 0 0.37486749369974542 0.34694596905823039 0 0.3809821990389497 0.35490418517770578 0 0.37414389550204002 0.36898578533419818 0 0.3809821990389497 0.35490418517770578 0 0.39056259575344082 0.36548629952090861 0 0.37414389550204002 0.36898578533419818 0 0.39056259575344082 0.36548629952090861 0 0.40101385701800268 0.38518895784325291 0 0.37414389550204002 0.36898578533419818 0 0.37228166628853332 0.35471301169251829 0 0.3809821990389497 0.35490418517770578 0 0.39056259575344082 0.36548629952090861 0 0.40181680918128981 0.35947395412181382 0 0.40101385701800268 0.38518895784325291 0 0.39056259575344082 0.36548629952090861 0 0.40181680918128981 0.35947395412181382 0 0.39209274976778918 0.34814598654190299 0 0.40869055031553031 0.33881917925707022 0 0.40181680918128981 0.35947395412181382 0 0.39209274976778918 0.34814598654190299 0 0.40101385701800268 0.38518895784325291 0 0.38530342098431941 0.41064856824057122 0 0.40101385701800268 0.38518895784325291 0 0.38530342098431941 0.41064856824057122 0 0.41521715527738928 0.40390661881175682 0 0.3736470799201031 0.39378130610698531 0 0.37414389550204002 0.36898578533419818 0 0.40101385701800268 0.38518895784325291 0 0.3736470799201031 0.39378130610698531 0 0.40101385701800268 0.38518895784325291 0 0.38530342098431941 0.41064856824057122 0 0.36959298495063608 0.43610817863788948 0 0.38530342098431941 0.41064856824057122 0 0.36959298495063608 0.43610817863788948 0 0.38530342098431941 0.41064856824057122 0 0.3889231515195431 0.43141286456833011 0 0.3889231515195431 0.43141286456833011 0 0.40362265567455102 0.42304679086704539 0 0.39942544658573009 0.43872588670818857 0 0.40362265567455102 0.42304679086704539 0 0.41248490446316177 0.43293377153942381 0 0.39942544658573009 0.43872588670818857 0 0.38530342098431941 0.41064856824057122 0 0.3889231515195431 0.43141286456833011 0 0.40362265567455102 0.42304679086704539 0 0.38530342098431941 0.41064856824057122 0 0.40362265567455102 0.42304679086704539 0 0.41521715527738928 0.40390661881175682 0 0.40362265567455102 0.42304679086704539 0 0.42233359500988371 0.42307221464191669 0 0.41521715527738928 0.40390661881175682 0 0.40362265567455102 0.42304679086704539 0 0.41248490446316177 0.43293377153942381 0 0.42233359500988371 0.42307221464191669 0 0.41248490446316177 0.43293377153942381 0 0.42233359500988371 0.42307221464191669 0 0.42326813014219627 0.43909650749986368 0 0.42233359500988371 0.42307221464191669 0 0.43681876433844857 0.43497208046478802 0 0.42326813014219627 0.43909650749986368 0 0.42233359500988371 0.42307221464191669 0 0.43681876433844857 0.43497208046478802 0 0.43655617137350622 0.42038510460191503 0 0.42233359500988371 0.42307221464191669 0 0.42830887421762198 0.41018013153495869 0 0.41521715527738928 0.40390661881175682 0 0.42233359500988371 0.42307221464191669 0 0.42830887421762198 0.41018013153495869 0 0.43655617137350622 0.42038510460191503 0 0.42830887421762198 0.41018013153495869 0 0.43655617137350622 0.42038510460191503 0 0.439625884597032 0.40642404903869822 0 0.42978568865087441 0.39901034440009059 0 0.42344095457037051 0.38268701701273461 0 0.4433226365022459 0.39280274251209668 0 0.42978568865087441 0.39901034440009059 0 0.41521715527738928 0.40390661881175682 0 0.42344095457037051 0.38268701701273461 0 0.42830887421762198 0.41018013153495869 0 0.42978568865087441 0.39901034440009059 0 0.439625884597032 0.40642404903869822 0 0.42830887421762198 0.41018013153495869 0 0.42978568865087441 0.39901034440009059 0 0.41521715527738928 0.40390661881175682 0 0.4167242930516859 0.35972934744593471 0 0.40101385701800268 0.38518895784325291 0 0.42344095457037051 0.38268701701273461 0 0.40101385701800268 0.38518895784325291 0 0.41521715527738928 0.40390661881175682 0 0.42344095457037051 0.38268701701273461 0 0.43815350284422228 0.36591948582569622 0 0.42344095457037051 0.38268701701273461 0 0.4433226365022459 0.39280274251209668 0 0.43815350284422228 0.36591948582569622 0 0.4433226365022459 0.39280274251209668 0 0.43815350284422228 0.36591948582569622 0 0.4433226365022459 0.39280274251209668 0 0.45848938469160699 0.38276388730883248 0 0.4433226365022459 0.39280274251209668 0 0.4587292321942566 0.40377894109977869 0 0.44849177016026981 0.41968599919849731 0 0.4433226365022459 0.39280274251209668 0 0.44849177016026981 0.41968599919849731 0 0.42978568865087441 0.39901034440009059 0 0.4433226365022459 0.39280274251209668 0 0.439625884597032 0.40642404903869822 0 0.4433226365022459 0.39280274251209668 0 0.4587292321942566 0.40377894109977869 0 0.45848938469160699 0.38276388730883248 0 0.4587292321942566 0.40377894109977869 0 0.45848938469160699 0.38276388730883248 0 0.47720201034463561 0.39055994944820821 0 0.46972057754862501 0.36630584452178799 0 0.45848938469160699 0.38276388730883248 0 0.47720201034463561 0.39055994944820821 0 0.46972057754862501 0.36630584452178799 0 0.47720201034463561 0.39055994944820821 0 0.5 0.37670548581833618 0 0.47720201034463561 0.39055994944820821 0 0.5 0.40420347785375749 0 0.47329291580914951 0.41490179660840648 0 0.4587292321942566 0.40377894109977869 0 0.47720201034463561 0.39055994944820821 0 0.47329291580914951 0.41490179660840648 0 0.47720201034463561 0.39055994944820821 0 0.5 0.40420347785375749 0 0.5 0.37670548581833618 0 0.48546521128148462 0.42572005307568972 0 0.49999999999999828 0.43170146988917901 0 0.48502495584706629 0.44181750450007778 0 0.49999999999999828 0.43170146988917901 0 0.48502495584706629 0.44181750450007778 0 0.5 0.40420347785375749 0 0.48546521128148462 0.42572005307568972 0 0.47329291580914951 0.41490179660840648 0 0.5 0.40420347785375749 0 0.48546521128148462 0.42572005307568972 0 0.49999999999999828 0.43170146988917901 0 0.48546521128148462 0.42572005307568972 0 0.47462076711180717 0.43403653248997731 0 0.48502495584706629 0.44181750450007778 0 0.47329291580914951 0.41490179660840648 0 0.47462076711180717 0.43403653248997731 0 0.45927084092720188 0.43580976915473651 0 0.48546521128148462 0.42572005307568972 0 0.47329291580914951 0.41490179660840648 0 0.47462076711180717 0.43403653248997731 0 0.45927084092720188 0.43580976915473651 0 0.44849177016026981 0.41968599919849731 0 0.47329291580914951 0.41490179660840648 0 0.45927084092720188 0.43580976915473651 0 0.44849177016026981 0.41968599919849731 0 0.45927084092720188 0.43580976915473651 0 0.44849177016026981 0.41968599919849731 0 0.45165089640657707 0.43611575462809582 0 0.4587292321942566 0.40377894109977869 0 0.47329291580914951 0.41490179660840648 0 0.44849177016026981 0.41968599919849731 0 0.4433226365022459 0.39280274251209668 0 0.44849177016026981 0.41968599919849731 0 0.439625884597032 0.40642404903869822 0 0.43655617137350622 0.42038510460191503 0 0.44849177016026981 0.41968599919849731 0 0.439625884597032 0.40642404903869822 0 0.44849177016026981 0.41968599919849731 0 0.439625884597032 0.40642404903869822 0 0.44849177016026981 0.41968599919849731 0 0.45165089640657707 0.43611575462809582 0 0.44386952542921521 0.4295111469185629 0 0.44849177016026981 0.41968599919849731 0 0.45165089640657707 0.43611575462809582 0 0.45165089640657707 0.43611575462809582 0 0.44386952542921521 0.4295111469185629 0 0.44519082659473158 0.43782150968735878 0 0.43655617137350622 0.42038510460191503 0 0.44849177016026981 0.41968599919849731 0 0.44386952542921521 0.4295111469185629 0 0.43681876433844857 0.43497208046478802 0 0.43655617137350622 0.42038510460191503 0 0.44386952542921521 0.4295111469185629 0 0.43681876433844857 0.43497208046478802 0 0.44386952542921521 0.4295111469185629 0 0.44519082659473158 0.43782150968735878 0 0.43681876433844857 0.43497208046478802 0 0.44519082659473158 0.43782150968735878 0 0.44362096681603608 0.44566090358066651 0 0.43681876433844857 0.43497208046478802 0 0.44362096681603608 0.44566090358066651 0 0.43343701099378978 0.44857281610427868 0 0.44362096681603608 0.44566090358066651 0 0.44110505044236059 0.45564825146568327 0 0.43343701099378978 0.44857281610427868 0 0.44362096681603608 0.44566090358066651 0 0.45255374853073171 0.45216262504332899 0 0.45221828903371142 0.44335246171580328 0 0.44362096681603608 0.44566090358066651 0 0.45255374853073171 0.45216262504332899 0 0.44110505044236059 0.45564825146568327 0 0.44519082659473158 0.43782150968735878 0 0.44362096681603608 0.44566090358066651 0 0.45221828903371142 0.44335246171580328 0 0.45165089640657707 0.43611575462809582 0 0.44519082659473158 0.43782150968735878 0 0.45221828903371142 0.44335246171580328 0 0.45255374853073171 0.45216262504332899 0 0.44518446721829791 0.46873079822848901 0 0.44110505044236059 0.45564825146568327 0 0.44518446721829791 0.46873079822848901 0 0.44110505044236059 0.45564825146568327 0 0.43072905865294731 0.46311411437165317 0 0.47284597636140308 0.45611600571247141 0 0.46302896313844299 0.47272331085799019 0 0.45255374853073171 0.45216262504332899 0 0.44518446721829791 0.46873079822848901 0 0.47004991169413368 0.45193353911097589 0 0.47004991169413368 0.45193353911097589 0 0.47284597636140308 0.45611600571247141 0 0.46302896313844299 0.47272331085799019 0 0.44518446721829791 0.46873079822848901 0 0.47004991169413368 0.45193353911097589 0 0.46302896313844299 0.47272331085799019 0 0.44518446721829791 0.46873079822848901 0 0.47004991169413368 0.45193353911097589 0 0.45927084092720188 0.43580976915473651 0 0.47004991169413368 0.45193353911097589 0 0.45927084092720188 0.43580976915473651 0 0.45930684530103161 0.44617181272829648 0 0.47004991169413368 0.45193353911097589 0 0.47462076711180717 0.43403653248997731 0 0.45927084092720188 0.43580976915473651 0 0.47004991169413368 0.45193353911097589 0 0.45255374853073171 0.45216262504332899 0 0.45930684530103161 0.44617181272829648 0 0.47004991169413368 0.45193353911097589 0 0.45927084092720188 0.43580976915473651 0 0.45221828903371142 0.44335246171580328 0 0.45930684530103161 0.44617181272829648 0 0.45927084092720188 0.43580976915473651 0 0.45165089640657707 0.43611575462809582 0 0.45221828903371142 0.44335246171580328 0 0.45255374853073171 0.45216262504332899 0 0.45221828903371142 0.44335246171580328 0 0.45930684530103161 0.44617181272829648 0 0.47462076711180717 0.43403653248997731 0 0.47004991169413368 0.45193353911097589 0 0.48502495584706629 0.44181750450007778 0 0.48189680466807888 0.45106209462173341 0 0.47450081081676521 0.45331654521044668 0 0.48502495584706629 0.44181750450007778 0 0.47004991169413368 0.45193353911097589 0 0.48502495584706629 0.44181750450007778 0 0.47004991169413368 0.45193353911097589 0 0.47450081081676521 0.45331654521044668 0 0.48502495584706629 0.44181750450007778 0 0.47284597636140308 0.45611600571247141 0 0.48050552008400071 0.46757346096286262 0 0.46302896313844299 0.47272331085799019 0 0.47004991169413368 0.45193353911097589 0 0.47284597636140308 0.45611600571247141 0 0.47004991169413368 0.45193353911097589 0 0.47450081081676521 0.45331654521044668 0 0.47284597636140308 0.45611600571247141 0 0.47450081081676521 0.45331654521044668 0 0.47284597636140308 0.45611600571247141 0 0.47951191807974908 0.45654698881850991 0 0.47450081081676521 0.45331654521044668 0 0.47284597636140308 0.45611600571247141 0 0.47284597636140308 0.45611600571247141 0 0.48050552008400071 0.46757346096286262 0 0.47284597636140308 0.45611600571247141 0 0.48050552008400071 0.46757346096286262 0 0.47951191807974908 0.45654698881850991 0 0.48189680466807888 0.45106209462173341 0 0.47951191807974908 0.45654698881850991 0 0.4878104784684959 0.4546668375850359 0 0.48050552008400071 0.46757346096286262 0 0.47951191807974908 0.45654698881850991 0 0.4878104784684959 0.4546668375850359 0 0.48189680466807888 0.45106209462173341 0 0.47450081081676521 0.45331654521044668 0 0.47951191807974908 0.45654698881850991 0 0.48050552008400071 0.46757346096286262 0 0.4878104784684959 0.4546668375850359 0 0.49999999999999928 0.46182898591187349 0 0.48050552008400071 0.46757346096286262 0 0.49999999999999928 0.46182898591187349 0 0.49999999999999828 0.43170146988917901 0 0.4878104784684959 0.4546668375850359 0 0.49999999999999928 0.46182898591187349 0 0.49999999999999828 0.43170146988917901 0 0.4878104784684959 0.4546668375850359 0 0.48502495584706629 0.44181750450007778 0 0.48189680466807888 0.45106209462173341 0 0.4878104784684959 0.4546668375850359 0 0.48502495584706629 0.44181750450007778 0 0.49999999999999928 0.46182898591187349 0 0.5 0.5 0 0.49753071700976492 0.4930404390193398 0 0.5 0.5 0 0.47501141284236448 0.48698608464618232 0 0.44690499747156931 0.4999999999999995 0 0.5 0.5 0 0.49753071700976492 0.4930404390193398 0 0.47501141284236448 0.48698608464618232 0 0.49753071700976492 0.4930404390193398 0 0.48901811854688337 0.4803069499911008 0 0.47501141284236448 0.48698608464618232 0 0.49753071700976492 0.4930404390193398 0 0.48901811854688337 0.4803069499911008 0 0.48050552008400071 0.46757346096286262 0 0.49999999999999928 0.46182898591187349 0 0.48901811854688337 0.4803069499911008 0 0.49999999999999928 0.46182898591187349 0 0.49753071700976492 0.4930404390193398 0 0.48901811854688337 0.4803069499911008 0 0.48050552008400071 0.46757346096286262 0 0.48901811854688337 0.4803069499911008 0 0.48050552008400071 0.46757346096286262 0 0.46302896313844299 0.47272331085799019 0 0.48901811854688337 0.4803069499911008 0 0.47689100365292297 0.47689745161453417 0 0.47501141284236448 0.48698608464618232 0 0.48050552008400071 0.46757346096286262 0 0.47689100365292297 0.47689745161453417 0 0.46302896313844299 0.47272331085799019 0 0.48050552008400071 0.46757346096286262 0 0.48901811854688337 0.4803069499911008 0 0.47689100365292297 0.47689745161453417 0 0.47689100365292297 0.47689745161453417 0 0.47501141284236448 0.48698608464618232 0 0.46302896313844299 0.47272331085799019 0 0.47501141284236448 0.48698608464618232 0 0.45496698030500621 0.48636165542899479 0 0.44690499747156931 0.4999999999999995 0 0.47501141284236448 0.48698608464618232 0 0.45496698030500621 0.48636165542899479 0 0.46302896313844299 0.47272331085799019 0 0.45496698030500621 0.48636165542899479 0 0.46302896313844299 0.47272331085799019 0 0.46302896313844299 0.47272331085799019 0 0.43620850627812668 0.48062654530969717 0 0.44518446721829791 0.46873079822848901 0 0.46302896313844299 0.47272331085799019 0 0.43620850627812668 0.48062654530969717 0 0.45496698030500621 0.48636165542899479 0 0.46302896313844299 0.47272331085799019 0 0.43620850627812668 0.48062654530969717 0 0.45496698030500621 0.48636165542899479 0 0.44690499747156931 0.4999999999999995 0 0.43620850627812668 0.48062654530969717 0 0.45496698030500621 0.48636165542899479 0 0.44690499747156931 0.4999999999999995 0 0.42031902274246069 0.48552805734600057 0 0.41743852268843429 0.5 0 0.43620850627812668 0.48062654530969717 0 0.44690499747156931 0.4999999999999995 0 0.41743852268843429 0.5 0 0.43620850627812668 0.48062654530969717 0 0.42031902274246069 0.48552805734600057 0 0.41743852268843429 0.5 0 0.40134209412993838 0.48520307466421098 0 0.42031902274246069 0.48552805734600057 0 0.40973563488985532 0.47579104778557152 0 0.40134209412993838 0.48520307466421098 0 0.42031902274246069 0.48552805734600057 0 0.40973563488985532 0.47579104778557152 0 0.41789473538963601 0.46705380048502582 0 0.44518446721829791 0.46873079822848901 0 0.42031902274246069 0.48552805734600057 0 0.43072905865294731 0.46311411437165317 0 0.44518446721829791 0.46873079822848901 0 0.42031902274246069 0.48552805734600057 0 0.43620850627812668 0.48062654530969717 0 0.44518446721829791 0.46873079822848901 0 0.42031902274246069 0.48552805734600057 0 0.42031902274246069 0.48552805734600057 0 0.43072905865294731 0.46311411437165317 0 0.41789473538963601 0.46705380048502582 0 0.44110505044236059 0.45564825146568327 0 0.43072905865294731 0.46311411437165317 0 0.43343701099378978 0.44857281610427868 0 0.43072905865294731 0.46311411437165317 0 0.43343701099378978 0.44857281610427868 0 0.42053980660522761 0.45341513910658388 0 0.43072905865294731 0.46311411437165317 0 0.41789473538963601 0.46705380048502582 0 0.42053980660522761 0.45341513910658388 0 0.43681876433844857 0.43497208046478802 0 0.43343701099378978 0.44857281610427868 0 0.42326813014219627 0.43909650749986368 0 0.43343701099378978 0.44857281610427868 0 0.42326813014219627 0.43909650749986368 0 0.42053980660522761 0.45341513910658388 0 0.41248490446316177 0.43293377153942381 0 0.42326813014219627 0.43909650749986368 0 0.41215324011006321 0.44426916471351768 0 0.42326813014219627 0.43909650749986368 0 0.41215324011006321 0.44426916471351768 0 0.42053980660522761 0.45341513910658388 0 0.41215324011006321 0.44426916471351768 0 0.42053980660522761 0.45341513910658388 0 0.40575666434273311 0.45838443146516472 0 0.41248490446316177 0.43293377153942381 0 0.41215324011006321 0.44426916471351768 0 0.39942544658573009 0.43872588670818857 0 0.40973563488985532 0.47579104778557152 0 0.41789473538963601 0.46705380048502582 0 0.40575666434273311 0.45838443146516472 0 0.41789473538963601 0.46705380048502582 0 0.42053980660522761 0.45341513910658388 0 0.40575666434273311 0.45838443146516472 0 0.40973563488985532 0.47579104778557152 0 0.40575666434273311 0.45838443146516472 0 0.39457326129307041 0.46924519202038539 0 0.40575666434273311 0.45838443146516472 0 0.38748492612950952 0.44892285829301931 0 0.39457326129307041 0.46924519202038539 0 0.40575666434273311 0.45838443146516472 0 0.39942544658573009 0.43872588670818857 0 0.38748492612950952 0.44892285829301931 0 0.3889231515195431 0.43141286456833011 0 0.39942544658573009 0.43872588670818857 0 0.38748492612950952 0.44892285829301931 0 0.41215324011006321 0.44426916471351768 0 0.40575666434273311 0.45838443146516472 0 0.39942544658573009 0.43872588670818857 0 0.36980735363827261 0.46050290225189661 0 0.36959298495063608 0.43610817863788948 0 0.38748492612950952 0.44892285829301931 0 0.36959298495063608 0.43610817863788948 0 0.3889231515195431 0.43141286456833011 0 0.38748492612950952 0.44892285829301931 0 0.36980735363827261 0.46050290225189661 0 0.38748492612950952 0.44892285829301931 0 0.39457326129307041 0.46924519202038539 0 0.36980735363827261 0.46050290225189661 0 0.37801407526051067 0.48065415083330842 0 0.39457326129307041 0.46924519202038539 0 0.37801407526051067 0.48065415083330842 0 0.38797204790529932 0.5 0 0.40134209412993838 0.48520307466421098 0 0.41743852268843429 0.5 0 0.38797204790529932 0.5 0 0.40134209412993838 0.48520307466421098 0 0.40973563488985532 0.47579104778557152 0 0.40134209412993838 0.48520307466421098 0 0.39457326129307041 0.46924519202038539 0 0.37801407526051067 0.48065415083330842 0 0.40134209412993838 0.48520307466421098 0 0.39457326129307041 0.46924519202038539 0 0.33471388977496319 0.083869725553476451 0 0.32003772732572838 0.080925826065863432 0 0.34163206045391592 0.099703108374672819 0 0.32003772732572838 0.080925826065863432 0 0.34163206045391592 0.099703108374672819 0 0.33471388977496319 0.083869725553476451 0 0.34163206045391592 0.099703108374672819 0 0.35085433501378249 0.086695181415402722 0 0.33471388977496319 0.083869725553476451 0 0.34209731100959018 0.06531632876058778 0 0.3490795063897344 0.076610282135673974 0 0.33471388977496319 0.083869725553476451 0 0.34209731100959018 0.06531632876058778 0 0.32721969837032222 0.069259436753723466 0 0.33471388977496319 0.083869725553476451 0 0.32721969837032222 0.069259436753723466 0 0.32003772732572838 0.080925826065863432 0 0.31518448171420999 0.065085558788002928 0 0.32721969837032222 0.069259436753723466 0 0.32003772732572838 0.080925826065863432 0 0.32003772732572838 0.080925826065863432 0 0.31657863646219547 0.093324099257994786 0 0.34163206045391592 0.099703108374672819 0 0.32003772732572838 0.080925826065863432 0 0.31657863646219547 0.093324099257994786 0 0.30227411453462139 0.089652133027170247 0 0.33471388977496319 0.083869725553476451 0 0.32003772732572838 0.080925826065863432 0 0.31657863646219547 0.093324099257994786 0 0.32025759602694659 0.1047776340902011 0 0.34163206045391592 0.099703108374672819 0 0.31657863646219547 0.093324099257994786 0 0.32025759602694659 0.1047776340902011 0 0.30640852481201453 0.1024735992044304 0 0.32025759602694659 0.1047776340902011 0 0.31114536757858358 0.11742006929579971 0 0.30640852481201453 0.1024735992044304 0 0.32606950933900308 0.1158177097477945 0 0.31114536757858358 0.11742006929579971 0 0.3195478300457561 0.1332621056988223 0 0.32025759602694659 0.1047776340902011 0 0.32606950933900308 0.1158177097477945 0 0.31114536757858358 0.11742006929579971 0 0.33761965874988609 0.1186889285033586 0 0.34163206045391592 0.099703108374672819 0 0.34956654336434939 0.1234914401014125 0 0.32606950933900308 0.1158177097477945 0 0.33761965874988609 0.1186889285033586 0 0.34163206045391592 0.099703108374672819 0 0.32606950933900308 0.1158177097477945 0 0.33761965874988609 0.1186889285033586 0 0.33436770153514289 0.13112975471366969 0 0.33761965874988609 0.1186889285033586 0 0.34956654336434939 0.1234914401014125 0 0.33436770153514289 0.13112975471366969 0 0.32025759602694659 0.1047776340902011 0 0.32606950933900308 0.1158177097477945 0 0.34163206045391592 0.099703108374672819 0 0.34163206045391592 0.099703108374672819 0 0.35755874922647762 0.098360434014750309 0 0.36322639358210312 0.11848039068348271 0 0.34163206045391592 0.099703108374672819 0 0.36322639358210312 0.11848039068348271 0 0.34163206045391592 0.099703108374672819 0 0.35755874922647762 0.098360434014750309 0 0.35085433501378249 0.086695181415402722 0 0.34163206045391592 0.099703108374672819 0 0.34956654336434939 0.1234914401014125 0 0.36322639358210312 0.11848039068348271 0 0.36322639358210312 0.11848039068348271 0 0.37045299287494049 0.09679375479102828 0 0.38005682511468147 0.12140739343396729 0 0.35755874922647762 0.098360434014750309 0 0.36322639358210312 0.11848039068348271 0 0.37045299287494049 0.09679375479102828 0 0.35755874922647762 0.098360434014750309 0 0.37045299287494049 0.09679375479102828 0 0.35979627253246887 0.087956112087811941 0 0.37045299287494049 0.09679375479102828 0 0.36986657419494789 0.075759843690150083 0 0.37682589963749002 0.081332762740894418 0 0.37045299287494049 0.09679375479102828 0 0.35979627253246887 0.087956112087811941 0 0.36084916063519962 0.072180116148089279 0 0.37045299287494049 0.09679375479102828 0 0.36084916063519962 0.072180116148089279 0 0.36986657419494789 0.075759843690150083 0 0.37045299287494049 0.09679375479102828 0 0.36084916063519962 0.072180116148089279 0 0.35755874922647762 0.098360434014750309 0 0.35979627253246887 0.087956112087811941 0 0.35085433501378249 0.086695181415402722 0 0.35979627253246887 0.087956112087811941 0 0.35560274156159061 0.081403828627082772 0 0.36084916063519962 0.072180116148089279 0 0.33471388977496319 0.083869725553476451 0 0.35085433501378249 0.086695181415402722 0 0.3490795063897344 0.076610282135673974 0 0.35979627253246887 0.087956112087811941 0 0.35560274156159061 0.081403828627082772 0 0.35085433501378249 0.086695181415402722 0 0.35560274156159061 0.081403828627082772 0 0.35085433501378249 0.086695181415402722 0 0.3490795063897344 0.076610282135673974 0 0.34209731100959018 0.06531632876058778 0 0.3490795063897344 0.076610282135673974 0 0.36084916063519962 0.072180116148089279 0 0.36448270712015302 0.068442951443566186 0 0.36084916063519962 0.072180116148089279 0 0.35124532839545858 0.047566477505150237 0 0.35560274156159061 0.081403828627082772 0 0.3490795063897344 0.076610282135673974 0 0.36084916063519962 0.072180116148089279 0 0.36448270712015302 0.068442951443566186 0 0.36084916063519962 0.072180116148089279 0 0.36986657419494789 0.075759843690150083 0 0.36986657419494789 0.075759843690150083 0 0.37596532967213542 0.069868995675824025 0 0.37682589963749002 0.081332762740894418 0 0.36448270712015302 0.068442951443566186 0 0.36986657419494789 0.075759843690150083 0 0.37084641292541748 0.06878424193773866 0 0.36986657419494789 0.075759843690150083 0 0.37084641292541748 0.06878424193773866 0 0.37596532967213542 0.069868995675824025 0 0.36448270712015302 0.068442951443566186 0 0.37084641292541748 0.06878424193773866 0 0.37307104071443398 0.061065176941414383 0 0.37084641292541748 0.06878424193773866 0 0.37307104071443398 0.061065176941414383 0 0.37596532967213542 0.069868995675824025 0 0.36448270712015302 0.068442951443566186 0 0.37307104071443398 0.061065176941414383 0 0.37146335928247548 0.04052602251159599 0 0.36448270712015302 0.068442951443566186 0 0.37146335928247548 0.04052602251159599 0 0.35124532839545858 0.047566477505150237 0 0.36448270712015302 0.068442951443566186 0 0.37146335928247548 0.04052602251159599 0 0.37146335928247548 0.04052602251159599 0 0.35572529983931911 0.032753521421585163 0 0.36312657459820519 0.022962182453169309 0 0.37146335928247548 0.04052602251159599 0 0.35572529983931911 0.032753521421585163 0 0.35124532839545858 0.047566477505150237 0 0.35572529983931911 0.032753521421585163 0 0.35124532839545858 0.047566477505150237 0 0.3321968515854315 0.028027004478648001 0 0.36084916063519962 0.072180116148089279 0 0.35124532839545858 0.047566477505150237 0 0.34209731100959018 0.06531632876058778 0 0.36084916063519962 0.072180116148089279 0 0.35124532839545858 0.047566477505150237 0 0.36312657459820519 0.022962182453169309 0 0.35936362748920009 0.0091271431172253586 0 0.37844401144479839 0.012609093579625891 0 0.35936362748920009 0.0091271431172253586 0 0.37844401144479839 0.012609093579625891 0 0.36665723294200347 -0.001883505129568449 0 0.35936362748920009 0.0091271431172253586 0 0.36665723294200347 -0.001883505129568449 0 0.35531676971978082 -0.0033532784323768001 0 0.37146335928247548 0.04052602251159599 0 0.36312657459820519 0.022962182453169309 0 0.37844401144479839 0.012609093579625891 0 0.37146335928247548 0.04052602251159599 0 0.37844401144479839 0.012609093579625891 0 0.35572529983931911 0.032753521421585163 0 0.35063657493523293 0.0197951316358141 0 0.3321968515854315 0.028027004478648001 0 0.35572529983931911 0.032753521421585163 0 0.36312657459820519 0.022962182453169309 0 0.35063657493523293 0.0197951316358141 0 0.36312657459820519 0.022962182453169309 0 0.35063657493523293 0.0197951316358141 0 0.35936362748920009 0.0091271431172253586 0 0.35936362748920009 0.0091271431172253586 0 0.33689267375143878 0.0039255003288513873 0 0.35531676971978082 -0.0033532784323768001 0 0.35063657493523293 0.0197951316358141 0 0.35936362748920009 0.0091271431172253586 0 0.33689267375143878 0.0039255003288513873 0 0.33689267375143878 0.0039255003288513873 0 0.3321968515854315 0.028027004478648001 0 0.30352242257352219 0.0039185454548519476 0 0.35063657493523293 0.0197951316358141 0 0.33689267375143878 0.0039255003288513873 0 0.3321968515854315 0.028027004478648001 0 0.3321968515854315 0.028027004478648001 0 0.32406508202711942 0.05109974460068676 0 0.30086563814790429 0.035038583275740692 0 0.34209731100959018 0.06531632876058778 0 0.32721969837032222 0.069259436753723466 0 0.32406508202711942 0.05109974460068676 0 0.34209731100959018 0.06531632876058778 0 0.35124532839545858 0.047566477505150237 0 0.32406508202711942 0.05109974460068676 0 0.35124532839545858 0.047566477505150237 0 0.3321968515854315 0.028027004478648001 0 0.32406508202711942 0.05109974460068676 0 0.31518448171420999 0.065085558788002928 0 0.32721969837032222 0.069259436753723466 0 0.32406508202711942 0.05109974460068676 0 0.31518448171420999 0.065085558788002928 0 0.32406508202711942 0.05109974460068676 0 0.29882370077581188 0.062479238108283437 0 0.32406508202711942 0.05109974460068676 0 0.29882370077581188 0.062479238108283437 0 0.30086563814790429 0.035038583275740692 0 0.32406508202711942 0.05109974460068676 0 0.30086563814790429 0.035038583275740692 0 0.30086563814790429 0.035038583275740692 0 0.28350496565293731 0.043820562147367653 0 0.27766619426868899 0.018977421950794569 0 0.29882370077581188 0.062479238108283437 0 0.30086563814790429 0.035038583275740692 0 0.28350496565293731 0.043820562147367653 0 0.29882370077581188 0.062479238108283437 0 0.28350496565293731 0.043820562147367653 0 0.28339325744793759 0.061338593161917712 0 0.3321968515854315 0.028027004478648001 0 0.30086563814790429 0.035038583275740692 0 0.30352242257352219 0.0039185454548519476 0 0.30086563814790429 0.035038583275740692 0 0.27766619426868899 0.018977421950794569 0 0.30086563814790429 0.035038583275740692 0 0.30352242257352219 0.0039185454548519476 0 0.27766619426868899 0.018977421950794569 0 0.30352242257352219 0.0039185454548519476 0 0.27766619426868899 0.018977421950794569 0 0.27708695819087842 -0.0025378708656911609 0 0.27766619426868899 0.018977421950794569 0 0.25446675038947358 0.0029162606258486688 0 0.27766619426868899 0.018977421950794569 0 0.26047117107291767 -0.0019720443344692288 0 0.27708695819087842 -0.0025378708656911609 0 0.27766619426868899 0.018977421950794569 0 0.2600935707136679 0.019574361616358959 0 0.26464981823601458 0.038183209123269009 0 0.2600935707136679 0.019574361616358959 0 0.26464981823601458 0.038183209123269009 0 0.25044211127373811 0.032849993626191502 0 0.27766619426868899 0.018977421950794569 0 0.2600935707136679 0.019574361616358959 0 0.25446675038947358 0.0029162606258486688 0 0.27766619426868899 0.018977421950794569 0 0.25446675038947358 0.0029162606258486688 0 0.26047117107291767 -0.0019720443344692288 0 0.25446675038947358 0.0029162606258486688 0 0.26047117107291767 -0.0019720443344692288 0 0.28339325744793759 0.061338593161917712 0 0.2699795556074106 0.054659435659755229 0 0.26514968559830832 0.069915803624621298 0 0.28350496565293731 0.043820562147367653 0 0.28339325744793759 0.061338593161917712 0 0.2699795556074106 0.054659435659755229 0 0.28350496565293731 0.043820562147367653 0 0.27766619426868899 0.018977421950794569 0 0.26464981823601458 0.038183209123269009 0 0.28350496565293731 0.043820562147367653 0 0.2699795556074106 0.054659435659755229 0 0.26464981823601458 0.038183209123269009 0 0.26464981823601458 0.038183209123269009 0 0.25174039047255609 0.044464402284776217 0 0.2585751734657834 0.052327775232976027 0 0.26464981823601458 0.038183209123269009 0 0.25044211127373811 0.032849993626191502 0 0.25174039047255609 0.044464402284776217 0 0.25174039047255609 0.044464402284776217 0 0.25102243244437311 0.053297338652025752 0 0.2585751734657834 0.052327775232976027 0 0.2699795556074106 0.054659435659755229 0 0.26464981823601458 0.038183209123269009 0 0.2585751734657834 0.052327775232976027 0 0.2699795556074106 0.054659435659755229 0 0.2585751734657834 0.052327775232976027 0 0.26000268679747079 0.061003988239662958 0 0.2699795556074106 0.054659435659755229 0 0.26000268679747079 0.061003988239662958 0 0.26514968559830832 0.069915803624621298 0 0.2585751734657834 0.052327775232976027 0 0.26000268679747079 0.061003988239662958 0 0.2530174900015254 0.0600809219264858 0 0.25102243244437311 0.053297338652025752 0 0.2585751734657834 0.052327775232976027 0 0.2530174900015254 0.0600809219264858 0 0.24751669685985911 0.059618880130872708 0 0.25102243244437311 0.053297338652025752 0 0.2530174900015254 0.0600809219264858 0 0.24853219730195361 0.063845178725116872 0 0.2530174900015254 0.0600809219264858 0 0.25274476311700622 0.067427493409812952 0 0.2530174900015254 0.0600809219264858 0 0.25274476311700622 0.067427493409812952 0 0.26000268679747079 0.061003988239662958 0 0.2530174900015254 0.0600809219264858 0 0.25274476311700622 0.067427493409812952 0 0.25274476311700622 0.067427493409812952 0 0.25243039498113262 0.075895774732197205 0 0.24842415088314279 0.069033451464499671 0 0.25274476311700622 0.067427493409812952 0 0.25243039498113262 0.075895774732197205 0 0.25274476311700622 0.067427493409812952 0 0.25243039498113262 0.075895774732197205 0 0.26514968559830832 0.069915803624621298 0 0.25243039498113262 0.075895774732197205 0 0.26514968559830832 0.069915803624621298 0 0.26417250328098718 0.085299079350852347 0 0.25243039498113262 0.075895774732197205 0 0.26514968559830832 0.069915803624621298 0 0.26000268679747079 0.061003988239662958 0 0.25274476311700622 0.067427493409812952 0 0.26514968559830832 0.069915803624621298 0 0.25274476311700622 0.067427493409812952 0 0.26514968559830832 0.069915803624621298 0 0.25243039498113262 0.075895774732197205 0 0.26417250328098718 0.085299079350852347 0 0.25158482098595109 0.098673396421397969 0 0.25243039498113262 0.075895774732197205 0 0.25158482098595109 0.098673396421397969 0 0.26417250328098718 0.085299079350852347 0 0.27563544099652842 0.091217529053328833 0 0.26597619666038957 0.098681263799979324 0 0.26417250328098718 0.085299079350852347 0 0.27658940398852799 0.081360569412953818 0 0.27563544099652842 0.091217529053328833 0 0.26514968559830832 0.069915803624621298 0 0.26417250328098718 0.085299079350852347 0 0.27658940398852799 0.081360569412953818 0 0.27658940398852799 0.081360569412953818 0 0.27563544099652842 0.091217529053328833 0 0.28742128170162778 0.087331448045782731 0 0.28339325744793759 0.061338593161917712 0 0.26514968559830832 0.069915803624621298 0 0.29259370646201821 0.075420814845242989 0 0.26514968559830832 0.069915803624621298 0 0.27658940398852799 0.081360569412953818 0 0.29259370646201821 0.075420814845242989 0 0.28339325744793759 0.061338593161917712 0 0.26514968559830832 0.069915803624621298 0 0.26514968559830832 0.069915803624621298 0 0.29259370646201821 0.075420814845242989 0 0.29882370077581188 0.062479238108283437 0 0.28339325744793759 0.061338593161917712 0 0.29259370646201821 0.075420814845242989 0 0.27658940398852799 0.081360569412953818 0 0.29259370646201821 0.075420814845242989 0 0.28742128170162778 0.087331448045782731 0 0.27563544099652842 0.091217529053328833 0 0.28742128170162778 0.087331448045782731 0 0.29001374252644291 0.099006193890217781 0 0.28742128170162778 0.087331448045782731 0 0.30227411453462139 0.089652133027170247 0 0.29001374252644291 0.099006193890217781 0 0.29259370646201821 0.075420814845242989 0 0.28742128170162778 0.087331448045782731 0 0.30227411453462139 0.089652133027170247 0 0.32003772732572838 0.080925826065863432 0 0.29259370646201821 0.075420814845242989 0 0.30227411453462139 0.089652133027170247 0 0.32003772732572838 0.080925826065863432 0 0.29259370646201821 0.075420814845242989 0 0.32003772732572838 0.080925826065863432 0 0.29882370077581188 0.062479238108283437 0 0.29259370646201821 0.075420814845242989 0 0.32003772732572838 0.080925826065863432 0 0.29882370077581188 0.062479238108283437 0 0.31518448171420999 0.065085558788002928 0 0.32003772732572838 0.080925826065863432 0 0.29882370077581188 0.062479238108283437 0 0.29818169174329712 0.11066146566519899 0 0.31114536757858358 0.11742006929579971 0 0.294250496481684 0.12267566802032639 0 0.31114536757858358 0.11742006929579971 0 0.294250496481684 0.12267566802032639 0 0.30313841955192899 0.13260249050964579 0 0.29818169174329712 0.11066146566519899 0 0.31114536757858358 0.11742006929579971 0 0.30640852481201453 0.1024735992044304 0 0.30227411453462139 0.089652133027170247 0 0.30640852481201453 0.1024735992044304 0 0.29001374252644291 0.099006193890217781 0 0.29818169174329712 0.11066146566519899 0 0.30640852481201453 0.1024735992044304 0 0.29001374252644291 0.099006193890217781 0 0.31657863646219547 0.093324099257994786 0 0.30227411453462139 0.089652133027170247 0 0.30640852481201453 0.1024735992044304 0 0.29818169174329712 0.11066146566519899 0 0.29001374252644291 0.099006193890217781 0 0.28729541733308872 0.1128284558108848 0 0.29001374252644291 0.099006193890217781 0 0.28729541733308872 0.1128284558108848 0 0.27577858748266387 0.1072301355245756 0 0.29818169174329712 0.11066146566519899 0 0.28729541733308872 0.1128284558108848 0 0.294250496481684 0.12267566802032639 0 0.28729541733308872 0.1128284558108848 0 0.294250496481684 0.12267566802032639 0 0.28067449336876182 0.1220521091494646 0 0.28067449336876182 0.1220521091494646 0 0.26956705708048567 0.1198361090660386 0 0.27577858748266387 0.1072301355245756 0 0.28729541733308872 0.1128284558108848 0 0.28067449336876182 0.1220521091494646 0 0.27577858748266387 0.1072301355245756 0 0.26956705708048567 0.1198361090660386 0 0.27577858748266387 0.1072301355245756 0 0.26270963055581759 0.11098617864974181 0 0.27563544099652842 0.091217529053328833 0 0.27577858748266387 0.1072301355245756 0 0.26597619666038957 0.098681263799979324 0 0.27563544099652842 0.091217529053328833 0 0.29001374252644291 0.099006193890217781 0 0.27577858748266387 0.1072301355245756 0 0.27577858748266387 0.1072301355245756 0 0.26597619666038957 0.098681263799979324 0 0.26270963055581759 0.11098617864974181 0 0.25158482098595109 0.098673396421397969 0 0.25094552198087999 0.11589449234768209 0 0.25158482098595109 0.098673396421397969 0 0.26270963055581759 0.11098617864974181 0 0.25094552198087999 0.11589449234768209 0 0.26417250328098718 0.085299079350852347 0 0.26597619666038957 0.098681263799979324 0 0.25158482098595109 0.098673396421397969 0 0.26597619666038957 0.098681263799979324 0 0.25158482098595109 0.098673396421397969 0 0.26270963055581759 0.11098617864974181 0 0.25158482098595109 0.098673396421397969 0 0.26270963055581759 0.11098617864974181 0 0.25094552198087999 0.11589449234768209 0 0.25030622297580962 0.13311558827396619 0 0.26022612795132161 0.12333036834530881 0 0.25094552198087999 0.11589449234768209 0 0.25030622297580962 0.13311558827396619 0 0.26956705708048567 0.1198361090660386 0 0.26022612795132161 0.12333036834530881 0 0.26270963055581759 0.11098617864974181 0 0.26022612795132161 0.12333036834530881 0 0.26270963055581759 0.11098617864974181 0 0.25094552198087999 0.11589449234768209 0 0.26956705708048567 0.1198361090660386 0 0.26022612795132161 0.12333036834530881 0 0.26675796828336718 0.1380571931171293 0 0.26022612795132161 0.12333036834530881 0 0.25030622297580962 0.13311558827396619 0 0.26675796828336718 0.1380571931171293 0 0.25030622297580962 0.13311558827396619 0 0.26675796828336718 0.1380571931171293 0 0.25030622297580962 0.13311558827396619 0 0.26675796828336718 0.1380571931171293 0 0.25638724149227848 0.14295410589973731 0 0.25004344172447263 0.14019424959050239 0 0.25030622297580962 0.13311558827396619 0 0.25638724149227848 0.14295410589973731 0 0.25004344172447263 0.14019424959050239 0 0.25030622297580962 0.13311558827396619 0 0.26675796828336718 0.1380571931171293 0 0.28320971359092417 0.1429987979602943 0 0.26675796828336718 0.1380571931171293 0 0.28666270206708028 0.1324408374186071 0 0.28320971359092417 0.1429987979602943 0 0.28067449336876182 0.1220521091494646 0 0.26956705708048567 0.1198361090660386 0 0.26675796828336718 0.1380571931171293 0 0.28067449336876182 0.1220521091494646 0 0.26675796828336718 0.1380571931171293 0 0.28666270206708028 0.1324408374186071 0 0.26675796828336718 0.1380571931171293 0 0.27436529468354132 0.15433220537778311 0 0.26010861073109098 0.15248373785575309 0 0.26675796828336718 0.1380571931171293 0 0.27436529468354132 0.15433220537778311 0 0.28320971359092417 0.1429987979602943 0 0.26675796828336718 0.1380571931171293 0 0.26010861073109098 0.15248373785575309 0 0.25638724149227848 0.14295410589973731 0 0.2496536413094039 0.15044712256699261 0 0.25004344172447263 0.14019424959050239 0 0.25638724149227848 0.14295410589973731 0 0.24653130607993951 0.16237692388552691 0 0.2496536413094039 0.15044712256699261 0 0.26010861073109098 0.15248373785575309 0 0.2496536413094039 0.15044712256699261 0 0.26010861073109098 0.15248373785575309 0 0.25638724149227848 0.14295410589973731 0 0.24653130607993951 0.16237692388552691 0 0.25292738168467233 0.17649485219682931 0 0.26638423851283249 0.16867758561061549 0 0.24653130607993951 0.16237692388552691 0 0.26010861073109098 0.15248373785575309 0 0.26638423851283249 0.16867758561061549 0 0.24528107816237801 0.1907036486386274 0 0.25292738168467233 0.17649485219682931 0 0.26633433714882182 0.18577592949096661 0 0.25292738168467233 0.17649485219682931 0 0.26633433714882182 0.18577592949096661 0 0.26638423851283249 0.16867758561061549 0 0.27723266788850742 0.181048228772968 0 0.26638423851283249 0.16867758561061549 0 0.28391425324491287 0.17071999404263091 0 0.26633433714882182 0.18577592949096661 0 0.27723266788850742 0.181048228772968 0 0.26638423851283249 0.16867758561061549 0 0.27436529468354132 0.15433220537778311 0 0.26010861073109098 0.15248373785575309 0 0.26638423851283249 0.16867758561061549 0 0.27436529468354132 0.15433220537778311 0 0.26638423851283249 0.16867758561061549 0 0.28391425324491287 0.17071999404263091 0 0.27436529468354132 0.15433220537778311 0 0.28391425324491287 0.17071999404263091 0 0.29097703849613438 0.15773848939083679 0 0.28391425324491287 0.17071999404263091 0 0.2931647794093819 0.16879209887591959 0 0.29097703849613438 0.15773848939083679 0 0.2931647794093819 0.16879209887591959 0 0.29097703849613438 0.15773848939083679 0 0.30040947706207388 0.16512632217721829 0 0.28391425324491287 0.17071999404263091 0 0.28743664533084129 0.187357279865842 0 0.29743995151898561 0.17866098634217961 0 0.27723266788850742 0.181048228772968 0 0.28391425324491287 0.17071999404263091 0 0.28743664533084129 0.187357279865842 0 0.28391425324491287 0.17071999404263091 0 0.2931647794093819 0.16879209887591959 0 0.29743995151898561 0.17866098634217961 0 0.28743664533084129 0.187357279865842 0 0.29743995151898561 0.17866098634217961 0 0.29971043857951379 0.19298806906372529 0 0.29743995151898561 0.17866098634217961 0 0.30929675685570829 0.1858318568065235 0 0.29971043857951379 0.19298806906372529 0 0.29743995151898561 0.17866098634217961 0 0.3101655001798202 0.17563615506282959 0 0.30040947706207388 0.16512632217721829 0 0.29743995151898561 0.17866098634217961 0 0.3101655001798202 0.17563615506282959 0 0.30929675685570829 0.1858318568065235 0 0.30040947706207388 0.16512632217721829 0 0.30453528129870422 0.15487579661148021 0 0.32848741365188411 0.1727716232507491 0 0.29097703849613438 0.15773848939083679 0 0.30040947706207388 0.16512632217721829 0 0.30453528129870422 0.15487579661148021 0 0.2931647794093819 0.16879209887591959 0 0.29743995151898561 0.17866098634217961 0 0.30040947706207388 0.16512632217721829 0 0.29097703849613438 0.15773848939083679 0 0.30453528129870422 0.15487579661148021 0 0.29618567382365713 0.14404403195872001 0 0.30453528129870422 0.15487579661148021 0 0.30873747279203018 0.14281046260302349 0 0.29618567382365713 0.14404403195872001 0 0.30453528129870422 0.15487579661148021 0 0.30873747279203018 0.14281046260302349 0 0.32007589174333823 0.14676000458717811 0 0.30873747279203018 0.14281046260302349 0 0.30313841955192899 0.13260249050964579 0 0.3195478300457561 0.1332621056988223 0 0.31114536757858358 0.11742006929579971 0 0.30313841955192899 0.13260249050964579 0 0.3195478300457561 0.1332621056988223 0 0.30873747279203018 0.14281046260302349 0 0.30313841955192899 0.13260249050964579 0 0.29618567382365713 0.14404403195872001 0 0.294250496481684 0.12267566802032639 0 0.30313841955192899 0.13260249050964579 0 0.28666270206708028 0.1324408374186071 0 0.30313841955192899 0.13260249050964579 0 0.28666270206708028 0.1324408374186071 0 0.29618567382365713 0.14404403195872001 0 0.294250496481684 0.12267566802032639 0 0.28067449336876182 0.1220521091494646 0 0.28666270206708028 0.1324408374186071 0 0.28666270206708028 0.1324408374186071 0 0.28320971359092417 0.1429987979602943 0 0.29618567382365713 0.14404403195872001 0 0.27436529468354132 0.15433220537778311 0 0.29097703849613438 0.15773848939083679 0 0.28320971359092417 0.1429987979602943 0 0.29097703849613438 0.15773848939083679 0 0.28320971359092417 0.1429987979602943 0 0.29618567382365713 0.14404403195872001 0 0.28119448123381058 0.25405304303149878 0 0.26221447651104962 0.2479993693513689 0 0.28440499104296979 0.23439140090611099 0 0.26221447651104962 0.2479993693513689 0 0.26853130556434218 0.23400660741274959 0 0.28440499104296979 0.23439140090611099 0 0.26221447651104962 0.2479993693513689 0 0.28440499104296979 0.23439140090611099 0 0.2457442494512444 0.24022391879071339 0 0.26221447651104962 0.2479993693513689 0 0.25511338863332461 0.22468137717712711 0 0.26221447651104962 0.2479993693513689 0 0.25511338863332461 0.22468137717712711 0 0.26853130556434218 0.23400660741274959 0 0.26221447651104962 0.2479993693513689 0 0.25511338863332461 0.22468137717712711 0 0.25511338863332461 0.22468137717712711 0 0.25242827713160498 0.21540237912569379 0 0.25511338863332461 0.22468137717712711 0 0.2794126892910288 0.21617120911671081 0 0.25511338863332461 0.22468137717712711 0 0.26853130556434218 0.23400660741274959 0 0.2794126892910288 0.21617120911671081 0 0.26853130556434218 0.23400660741274959 0 0.2794126892910288 0.21617120911671081 0 0.28440499104296979 0.23439140090611099 0 0.25511338863332461 0.22468137717712711 0 0.2794126892910288 0.21617120911671081 0 0.26644318031571418 0.20408753099865831 0 0.2794126892910288 0.21617120911671081 0 0.26644318031571418 0.20408753099865831 0 0.27722953884408802 0.19656269719262509 0 0.24528107816237801 0.1907036486386274 0 0.26644318031571418 0.20408753099865831 0 0.25242827713160498 0.21540237912569379 0 0.25511338863332461 0.22468137717712711 0 0.26644318031571418 0.20408753099865831 0 0.25242827713160498 0.21540237912569379 0 0.26644318031571418 0.20408753099865831 0 0.25242827713160498 0.21540237912569379 0 0.24528107816237801 0.1907036486386274 0 0.26633433714882182 0.18577592949096661 0 0.26644318031571418 0.20408753099865831 0 0.26633433714882182 0.18577592949096661 0 0.26644318031571418 0.20408753099865831 0 0.27722953884408802 0.19656269719262509 0 0.27723266788850742 0.181048228772968 0 0.28743664533084129 0.187357279865842 0 0.27722953884408802 0.19656269719262509 0 0.26633433714882182 0.18577592949096661 0 0.27723266788850742 0.181048228772968 0 0.27722953884408802 0.19656269719262509 0 0.28743664533084129 0.187357279865842 0 0.27722953884408802 0.19656269719262509 0 0.28939512316467059 0.2005252056429343 0 0.28743664533084129 0.187357279865842 0 0.28939512316467059 0.2005252056429343 0 0.29971043857951379 0.19298806906372529 0 0.30929675685570829 0.1858318568065235 0 0.29971043857951379 0.19298806906372529 0 0.31162694501442678 0.19735313208654229 0 0.29971043857951379 0.19298806906372529 0 0.31162694501442678 0.19735313208654229 0 0.30371198994873311 0.20766104105629449 0 0.28939512316467059 0.2005252056429343 0 0.29971043857951379 0.19298806906372529 0 0.30371198994873311 0.20766104105629449 0 0.2794126892910288 0.21617120911671081 0 0.30371198994873311 0.20766104105629449 0 0.2794126892910288 0.21617120911671081 0 0.30371198994873311 0.20766104105629449 0 0.30659550557489001 0.220783432460853 0 0.2794126892910288 0.21617120911671081 0 0.27722953884408802 0.19656269719262509 0 0.28939512316467059 0.2005252056429343 0 0.2794126892910288 0.21617120911671081 0 0.28939512316467059 0.2005252056429343 0 0.30371198994873311 0.20766104105629449 0 0.30659550557489001 0.220783432460853 0 0.28440499104296979 0.23439140090611099 0 0.2794126892910288 0.21617120911671081 0 0.30659550557489001 0.220783432460853 0 0.28440499104296979 0.23439140090611099 0 0.30659550557489001 0.220783432460853 0 0.30328699804120918 0.24394477185791469 0 0.28440499104296979 0.23439140090611099 0 0.30659550557489001 0.220783432460853 0 0.30328699804120918 0.24394477185791469 0 0.31607427666693672 0.2331905299380852 0 0.28119448123381058 0.25405304303149878 0 0.30328699804120918 0.24394477185791469 0 0.28440499104296979 0.23439140090611099 0 0.3433555784436142 0.25004320974280247 0 0.34183468199228573 0.23727684870966961 0 0.33092809789354199 0.24744869965648561 0 0.34183468199228573 0.23727684870966961 0 0.3288410404878227 0.2348757256337824 0 0.33092809789354199 0.24744869965648561 0 0.3288410404878227 0.2348757256337824 0 0.33092809789354199 0.24744869965648561 0 0.31845456220733243 0.24449663650262579 0 0.31879452400631653 0.25919465198291952 0 0.30328699804120918 0.24394477185791469 0 0.31845456220733243 0.24449663650262579 0 0.30328699804120918 0.24394477185791469 0 0.31845456220733243 0.24449663650262579 0 0.31607427666693672 0.2331905299380852 0 0.3288410404878227 0.2348757256337824 0 0.31845456220733243 0.24449663650262579 0 0.31607427666693672 0.2331905299380852 0 0.3288410404878227 0.2348757256337824 0 0.31607427666693672 0.2331905299380852 0 0.32372534117020862 0.22390137225637691 0 0.30659550557489001 0.220783432460853 0 0.31607427666693672 0.2331905299380852 0 0.32372534117020862 0.22390137225637691 0 0.3288410404878227 0.2348757256337824 0 0.32372534117020862 0.22390137225637691 0 0.33832986301458301 0.22348170923356889 0 0.34183468199228573 0.23727684870966961 0 0.3288410404878227 0.2348757256337824 0 0.33832986301458301 0.22348170923356889 0 0.32372534117020862 0.22390137225637691 0 0.33832986301458301 0.22348170923356889 0 0.32878602010681029 0.20717546401559489 0 0.33832986301458301 0.22348170923356889 0 0.32878602010681029 0.20717546401559489 0 0.35089693608391498 0.21212819010674691 0 0.32878602010681029 0.20717546401559489 0 0.35097653463873058 0.19356749557033681 0 0.35089693608391498 0.21212819010674691 0 0.30659550557489001 0.220783432460853 0 0.32372534117020862 0.22390137225637691 0 0.32878602010681029 0.20717546401559489 0 0.31162694501442678 0.19735313208654229 0 0.30371198994873311 0.20766104105629449 0 0.32878602010681029 0.20717546401559489 0 0.30371198994873311 0.20766104105629449 0 0.30659550557489001 0.220783432460853 0 0.32878602010681029 0.20717546401559489 0 0.30659550557489001 0.220783432460853 0 0.32878602010681029 0.20717546401559489 0 0.32878602010681029 0.20717546401559489 0 0.31972446529152482 0.19052244909679969 0 0.3336272658304279 0.18895925974375941 0 0.31162694501442678 0.19735313208654229 0 0.32878602010681029 0.20717546401559489 0 0.31972446529152482 0.19052244909679969 0 0.30929675685570829 0.1858318568065235 0 0.31162694501442678 0.19735313208654229 0 0.31972446529152482 0.19052244909679969 0 0.32878602010681029 0.20717546401559489 0 0.3336272658304279 0.18895925974375941 0 0.35097653463873058 0.19356749557033681 0 0.32878602010681029 0.20717546401559489 0 0.35097653463873058 0.19356749557033681 0 0.3336272658304279 0.18895925974375941 0 0.35097653463873058 0.19356749557033681 0 0.35656535024169428 0.1804169243242798 0 0.35097653463873058 0.19356749557033681 0 0.35896651107905142 0.20360726904620211 0 0.35089693608391498 0.21212819010674691 0 0.35097653463873058 0.19356749557033681 0 0.36405518175537521 0.19484170215684679 0 0.35896651107905142 0.20360726904620211 0 0.35097653463873058 0.19356749557033681 0 0.36405518175537521 0.19484170215684679 0 0.35656535024169428 0.1804169243242798 0 0.36405518175537521 0.19484170215684679 0 0.35656535024169428 0.1804169243242798 0 0.38464328683150451 0.18806222539781059 0 0.36405518175537521 0.19484170215684679 0 0.36923798170140371 0.20928007436804161 0 0.38464328683150451 0.18806222539781059 0 0.36405518175537521 0.19484170215684679 0 0.36923798170140371 0.20928007436804161 0 0.35896651107905142 0.20360726904620211 0 0.36923798170140371 0.20928007436804161 0 0.36132702422268731 0.21787493872225441 0 0.35896651107905142 0.20360726904620211 0 0.36923798170140371 0.20928007436804161 0 0.36132702422268731 0.21787493872225441 0 0.37292139258550783 0.22672254500020811 0 0.36132702422268731 0.21787493872225441 0 0.35896651107905142 0.20360726904620211 0 0.35089693608391498 0.21212819010674691 0 0.34183468199228573 0.23727684870966961 0 0.33832986301458301 0.22348170923356889 0 0.35524969613090918 0.22837961108452459 0 0.36132702422268731 0.21787493872225441 0 0.35089693608391498 0.21212819010674691 0 0.35524969613090918 0.22837961108452459 0 0.33832986301458301 0.22348170923356889 0 0.35089693608391498 0.21212819010674691 0 0.35524969613090918 0.22837961108452459 0 0.36132702422268731 0.21787493872225441 0 0.35524969613090918 0.22837961108452459 0 0.37292139258550783 0.22672254500020811 0 0.35524969613090918 0.22837961108452459 0 0.37292139258550783 0.22672254500020811 0 0.36587213359177301 0.2378375665458646 0 0.37292139258550783 0.22672254500020811 0 0.36587213359177301 0.2378375665458646 0 0.3757768555661396 0.240133652284411 0 0.36587213359177301 0.2378375665458646 0 0.37169426656027921 0.24972740256563611 0 0.3757768555661396 0.240133652284411 0 0.36587213359177301 0.2378375665458646 0 0.37169426656027921 0.24972740256563611 0 0.36205361842742478 0.24882498742118489 0 0.36587213359177301 0.2378375665458646 0 0.36205361842742478 0.24882498742118489 0 0.35356337405553911 0.24205426642971811 0 0.35175757775775729 0.2532797976346674 0 0.36205361842742478 0.24882498742118489 0 0.35356337405553911 0.24205426642971811 0 0.35524969613090918 0.22837961108452459 0 0.36587213359177301 0.2378375665458646 0 0.35356337405553911 0.24205426642971811 0 0.34183468199228573 0.23727684870966961 0 0.35524969613090918 0.22837961108452459 0 0.35356337405553911 0.24205426642971811 0 0.3433555784436142 0.25004320974280247 0 0.34183468199228573 0.23727684870966961 0 0.35356337405553911 0.24205426642971811 0 0.3433555784436142 0.25004320974280247 0 0.35175757775775729 0.2532797976346674 0 0.35356337405553911 0.24205426642971811 0 0.33379856680907583 0.1437068241164389 0 0.32007589174333823 0.14676000458717811 0 0.33365817402274128 0.15789089208148979 0 0.33379856680907583 0.1437068241164389 0 0.33365817402274128 0.15789089208148979 0 0.34780073530519279 0.14835628742565241 0 0.33379856680907583 0.1437068241164389 0 0.34780073530519279 0.14835628742565241 0 0.34586764947947463 0.1362539899128139 0 0.33379856680907583 0.1437068241164389 0 0.33436770153514289 0.13112975471366969 0 0.34586764947947463 0.1362539899128139 0 0.34956654336434939 0.1234914401014125 0 0.33436770153514289 0.13112975471366969 0 0.34586764947947463 0.1362539899128139 0 0.33379856680907583 0.1437068241164389 0 0.33436770153514289 0.13112975471366969 0 0.3195478300457561 0.1332621056988223 0 0.32606950933900308 0.1158177097477945 0 0.33436770153514289 0.13112975471366969 0 0.3195478300457561 0.1332621056988223 0 0.30873747279203018 0.14281046260302349 0 0.3195478300457561 0.1332621056988223 0 0.32007589174333823 0.14676000458717811 0 0.30453528129870422 0.15487579661148021 0 0.32007589174333823 0.14676000458717811 0 0.33365817402274128 0.15789089208148979 0 0.33379856680907583 0.1437068241164389 0 0.3195478300457561 0.1332621056988223 0 0.32007589174333823 0.14676000458717811 0 0.30453528129870422 0.15487579661148021 0 0.33365817402274128 0.15789089208148979 0 0.30453528129870422 0.15487579661148021 0 0.32848741365188411 0.1727716232507491 0 0.33365817402274128 0.15789089208148979 0 0.30040947706207388 0.16512632217721829 0 0.32848741365188411 0.1727716232507491 0 0.3101655001798202 0.17563615506282959 0 0.30040947706207388 0.16512632217721829 0 0.32848741365188411 0.1727716232507491 0 0.3101655001798202 0.17563615506282959 0 0.31983557186529732 0.18171103000860481 0 0.32848741365188411 0.1727716232507491 0 0.3336272658304279 0.18895925974375941 0 0.31983557186529732 0.18171103000860481 0 0.32848741365188411 0.1727716232507491 0 0.3101655001798202 0.17563615506282959 0 0.30929675685570829 0.1858318568065235 0 0.31983557186529732 0.18171103000860481 0 0.30929675685570829 0.1858318568065235 0 0.31972446529152482 0.19052244909679969 0 0.31983557186529732 0.18171103000860481 0 0.31972446529152482 0.19052244909679969 0 0.3336272658304279 0.18895925974375941 0 0.31983557186529732 0.18171103000860481 0 0.32848741365188411 0.1727716232507491 0 0.34507730906385942 0.16855187839241309 0 0.35656535024169428 0.1804169243242798 0 0.3336272658304279 0.18895925974375941 0 0.32848741365188411 0.1727716232507491 0 0.35656535024169428 0.1804169243242798 0 0.32848741365188411 0.1727716232507491 0 0.35656535024169428 0.1804169243242798 0 0.32848741365188411 0.1727716232507491 0 0.33365817402274128 0.15789089208148979 0 0.34507730906385942 0.16855187839241309 0 0.33365817402274128 0.15789089208148979 0 0.34507730906385942 0.16855187839241309 0 0.36278106674677829 0.1609059875514994 0 0.34507730906385942 0.16855187839241309 0 0.35656535024169428 0.1804169243242798 0 0.36278106674677829 0.1609059875514994 0 0.33365817402274128 0.15789089208148979 0 0.36278106674677829 0.1609059875514994 0 0.35656535024169428 0.1804169243242798 0 0.37356219856206202 0.1741215612114578 0 0.38464328683150451 0.18806222539781059 0 0.35656535024169428 0.1804169243242798 0 0.38464328683150451 0.18806222539781059 0 0.35656535024169428 0.1804169243242798 0 0.37356219856206202 0.1741215612114578 0 0.36278106674677829 0.1609059875514994 0 0.36278106674677829 0.1609059875514994 0 0.36531512046589693 0.1378839500987098 0 0.37680076681991098 0.15092733218095339 0 0.36278106674677829 0.1609059875514994 0 0.34780073530519279 0.14835628742565241 0 0.36531512046589693 0.1378839500987098 0 0.34780073530519279 0.14835628742565241 0 0.34586764947947463 0.1362539899128139 0 0.36531512046589693 0.1378839500987098 0 0.33365817402274128 0.15789089208148979 0 0.36278106674677829 0.1609059875514994 0 0.34780073530519279 0.14835628742565241 0 0.34956654336434939 0.1234914401014125 0 0.34586764947947463 0.1362539899128139 0 0.36531512046589693 0.1378839500987098 0 0.34956654336434939 0.1234914401014125 0 0.36322639358210312 0.11848039068348271 0 0.36531512046589693 0.1378839500987098 0 0.36322639358210312 0.11848039068348271 0 0.36531512046589693 0.1378839500987098 0 0.38482072671029011 0.13725767299229241 0 0.36322639358210312 0.11848039068348271 0 0.38482072671029011 0.13725767299229241 0 0.36322639358210312 0.11848039068348271 0 0.38482072671029011 0.13725767299229241 0 0.38005682511468147 0.12140739343396729 0 0.38482072671029011 0.13725767299229241 0 0.39398634319161102 0.12556361147638159 0 0.38005682511468147 0.12140739343396729 0 0.38482072671029011 0.13725767299229241 0 0.39398634319161102 0.12556361147638159 0 0.40386822996399702 0.1370092008917044 0 0.39398634319161102 0.12556361147638159 0 0.40386822996399702 0.1370092008917044 0 0.40630256149234217 0.12337914253670321 0 0.38482072671029011 0.13725767299229241 0 0.40641505983847698 0.15603495530110209 0 0.38482072671029011 0.13725767299229241 0 0.40386822996399702 0.1370092008917044 0 0.40641505983847698 0.15603495530110209 0 0.38482072671029011 0.13725767299229241 0 0.39190395947081519 0.16392108302150901 0 0.40641505983847698 0.15603495530110209 0 0.36531512046589693 0.1378839500987098 0 0.38482072671029011 0.13725767299229241 0 0.37680076681991098 0.15092733218095339 0 0.38482072671029011 0.13725767299229241 0 0.37680076681991098 0.15092733218095339 0 0.39190395947081519 0.16392108302150901 0 0.36278106674677829 0.1609059875514994 0 0.39190395947081519 0.16392108302150901 0 0.36278106674677829 0.1609059875514994 0 0.37680076681991098 0.15092733218095339 0 0.39190395947081519 0.16392108302150901 0 0.37356219856206202 0.1741215612114578 0 0.36278106674677829 0.1609059875514994 0 0.39190395947081519 0.16392108302150901 0 0.37356219856206202 0.1741215612114578 0 0.39190395947081519 0.16392108302150901 0 0.38464328683150451 0.18806222539781059 0 0.4059128807594603 0.17981630131623391 0 0.39190395947081519 0.16392108302150901 0 0.38464328683150451 0.18806222539781059 0 0.39190395947081519 0.16392108302150901 0 0.42102685219485209 0.16693617849151851 0 0.40641505983847698 0.15603495530110209 0 0.4059128807594603 0.17981630131623391 0 0.39190395947081519 0.16392108302150901 0 0.42102685219485209 0.16693617849151851 0 0.42102685219485209 0.16693617849151851 0 0.40641505983847698 0.15603495530110209 0 0.41490094777653419 0.14712571815411829 0 0.39190395947081519 0.16392108302150901 0 0.42102685219485209 0.16693617849151851 0 0.4059128807594603 0.17981630131623391 0 0.42102685219485209 0.16693617849151851 0 0.42759287120751482 0.1799189573059411 0 0.4059128807594603 0.17981630131623391 0 0.42759287120751482 0.1799189573059411 0 0.42045703890892938 0.19185412915784311 0 0.42102685219485209 0.16693617849151851 0 0.42759287120751482 0.1799189573059411 0 0.45014974491888898 0.16995127396152809 0 0.42759287120751482 0.1799189573059411 0 0.42045703890892938 0.19185412915784311 0 0.43799329450951457 0.1898848624547933 0 0.42102685219485209 0.16693617849151851 0 0.45014974491888898 0.16995127396152809 0 0.42102685219485209 0.16693617849151851 0 0.43641214087317609 0.15776157540708571 0 0.42820809332857229 0.14540676379554701 0 0.42102685219485209 0.16693617849151851 0 0.43641214087317609 0.15776157540708571 0 0.45014974491888898 0.16995127396152809 0 0.43641214087317609 0.15776157540708571 0 0.42820809332857229 0.14540676379554701 0 0.44305345270963392 0.14224085277467549 0 0.42820809332857229 0.14540676379554701 0 0.43267139290449452 0.12562392175117529 0 0.41815906511665779 0.13368892679480551 0 0.42820809332857229 0.14540676379554701 0 0.43267139290449452 0.12562392175117529 0 0.44305345270963392 0.14224085277467549 0 0.43267139290449452 0.12562392175117529 0 0.41815906511665779 0.13368892679480551 0 0.41840244549433692 0.1204435227777134 0 0.41815906511665779 0.13368892679480551 0 0.41840244549433692 0.1204435227777134 0 0.40630256149234217 0.12337914253670321 0 0.40386822996399702 0.1370092008917044 0 0.41815906511665779 0.13368892679480551 0 0.40630256149234217 0.12337914253670321 0 0.40386822996399702 0.1370092008917044 0 0.41815906511665779 0.13368892679480551 0 0.41490094777653419 0.14712571815411829 0 0.42102685219485209 0.16693617849151851 0 0.42820809332857229 0.14540676379554701 0 0.41490094777653419 0.14712571815411829 0 0.40386822996399702 0.1370092008917044 0 0.40641505983847698 0.15603495530110209 0 0.41490094777653419 0.14712571815411829 0 0.42820809332857229 0.14540676379554701 0 0.41815906511665779 0.13368892679480551 0 0.41490094777653419 0.14712571815411829 0 0.39196586341458151 0.242441409442547 0 0.40329821407583749 0.23025496453590971 0 0.40866327585672191 0.24600766979752939 0 0.38129994004966872 0.25577407136566988 0 0.39196586341458151 0.242441409442547 0 0.40866327585672191 0.24600766979752939 0 0.38129994004966872 0.25577407136566988 0 0.39196586341458151 0.242441409442547 0 0.38106847269238292 0.24536179082341181 0 0.37169426656027921 0.24972740256563611 0 0.38106847269238292 0.24536179082341181 0 0.3757768555661396 0.240133652284411 0 0.37292139258550783 0.22672254500020811 0 0.3757768555661396 0.240133652284411 0 0.38460543787124563 0.238732418458795 0 0.38106847269238292 0.24536179082341181 0 0.3757768555661396 0.240133652284411 0 0.38460543787124563 0.238732418458795 0 0.39196586341458151 0.242441409442547 0 0.38106847269238292 0.24536179082341181 0 0.38460543787124563 0.238732418458795 0 0.39196586341458151 0.242441409442547 0 0.38460543787124563 0.238732418458795 0 0.38844350160088592 0.2284985707660753 0 0.37292139258550783 0.22672254500020811 0 0.38460543787124563 0.238732418458795 0 0.38844350160088592 0.2284985707660753 0 0.37292139258550783 0.22672254500020811 0 0.38844350160088592 0.2284985707660753 0 0.38369130631537601 0.21297307403445409 0 0.38844350160088592 0.2284985707660753 0 0.39679964264504158 0.21937630878092959 0 0.38369130631537601 0.21297307403445409 0 0.38844350160088592 0.2284985707660753 0 0.39679964264504158 0.21937630878092959 0 0.40329821407583749 0.23025496453590971 0 0.39196586341458151 0.242441409442547 0 0.38844350160088592 0.2284985707660753 0 0.40329821407583749 0.23025496453590971 0 0.39679964264504158 0.21937630878092959 0 0.40329821407583749 0.23025496453590971 0 0.41066806580544729 0.2160617609406458 0 0.39598296716959969 0.20626700748070109 0 0.40513352984814438 0.19492560706685999 0 0.41066806580544729 0.2160617609406458 0 0.39679964264504158 0.21937630878092959 0 0.39598296716959969 0.20626700748070109 0 0.41066806580544729 0.2160617609406458 0 0.39679964264504158 0.21937630878092959 0 0.39598296716959969 0.20626700748070109 0 0.38369130631537601 0.21297307403445409 0 0.36923798170140371 0.20928007436804161 0 0.37292139258550783 0.22672254500020811 0 0.38369130631537601 0.21297307403445409 0 0.36923798170140371 0.20928007436804161 0 0.38369130631537601 0.21297307403445409 0 0.38464328683150451 0.18806222539781059 0 0.39598296716959969 0.20626700748070109 0 0.38369130631537601 0.21297307403445409 0 0.38464328683150451 0.18806222539781059 0 0.39598296716959969 0.20626700748070109 0 0.38464328683150451 0.18806222539781059 0 0.40513352984814438 0.19492560706685999 0 0.4059128807594603 0.17981630131623391 0 0.38464328683150451 0.18806222539781059 0 0.40513352984814438 0.19492560706685999 0 0.40513352984814438 0.19492560706685999 0 0.42045703890892938 0.19185412915784311 0 0.42444067869502011 0.20693424997503959 0 0.4059128807594603 0.17981630131623391 0 0.40513352984814438 0.19492560706685999 0 0.42045703890892938 0.19185412915784311 0 0.42045703890892938 0.19185412915784311 0 0.42444067869502011 0.20693424997503959 0 0.43799329450951457 0.1898848624547933 0 0.42444067869502011 0.20693424997503959 0 0.44184419378540352 0.2076794424592901 0 0.43799329450951457 0.1898848624547933 0 0.42444067869502011 0.20693424997503959 0 0.4302098735549707 0.2206458244329694 0 0.44184419378540352 0.2076794424592901 0 0.42444067869502011 0.20693424997503959 0 0.41066806580544729 0.2160617609406458 0 0.4302098735549707 0.2206458244329694 0 0.40513352984814438 0.19492560706685999 0 0.42444067869502011 0.20693424997503959 0 0.41066806580544729 0.2160617609406458 0 0.41066806580544729 0.2160617609406458 0 0.41777320819135039 0.22984229758728861 0 0.4302098735549707 0.2206458244329694 0 0.40329821407583749 0.23025496453590971 0 0.41066806580544729 0.2160617609406458 0 0.41777320819135039 0.22984229758728861 0 0.4302098735549707 0.2206458244329694 0 0.43602661166377499 0.2362412682293889 0 0.44584438813649652 0.2203436080528294 0 0.41777320819135039 0.22984229758728861 0 0.4302098735549707 0.2206458244329694 0 0.43602661166377499 0.2362412682293889 0 0.43602661166377499 0.2362412682293889 0 0.43076425121212841 0.2486853010718087 0 0.40866327585672191 0.24600766979752939 0 0.43602661166377499 0.2362412682293889 0 0.40866327585672191 0.24600766979752939 0 0.41777320819135039 0.22984229758728861 0 0.43602661166377499 0.2362412682293889 0 0.40866327585672191 0.24600766979752939 0 0.41664462513020523 0.25422696758609492 0 0.43076425121212841 0.2486853010718087 0 0.40866327585672191 0.24600766979752939 0 0.40329821407583749 0.23025496453590971 0 0.41777320819135039 0.22984229758728861 0 0.40866327585672191 0.24600766979752939 0 0.45166362976964691 0.25106894999712381 0 0.45384283414141641 0.23962742592169059 0 0.47583181488482379 0.2451422378191761 0 0.45166362976964691 0.25106894999712381 0 0.47583181488482379 0.2451422378191761 0 0.45384283414141641 0.23962742592169059 0 0.47692141707070451 0.23056955077157251 0 0.45166362976964691 0.25106894999712381 0 0.43076425121212841 0.2486853010718087 0 0.45384283414141641 0.23962742592169059 0 0.43602661166377499 0.2362412682293889 0 0.43076425121212841 0.2486853010718087 0 0.45384283414141641 0.23962742592169059 0 0.43076425121212841 0.2486853010718087 0 0.45384283414141641 0.23962742592169059 0 0.43602661166377499 0.2362412682293889 0 0.46338994747082818 0.22647486666124839 0 0.43602661166377499 0.2362412682293889 0 0.44584438813649652 0.2203436080528294 0 0.46338994747082818 0.22647486666124839 0 0.43602661166377499 0.2362412682293889 0 0.45384283414141641 0.23962742592169059 0 0.46338994747082818 0.22647486666124839 0 0.44584438813649652 0.2203436080528294 0 0.46338994747082818 0.22647486666124839 0 0.4574246187180494 0.20998202225832771 0 0.45384283414141641 0.23962742592169059 0 0.46338994747082818 0.22647486666124839 0 0.47692141707070451 0.23056955077157251 0 0.46338994747082818 0.22647486666124839 0 0.4574246187180494 0.20998202225832771 0 0.47311107537994651 0.21060674662752529 0 0.4574246187180494 0.20998202225832771 0 0.46861366351278472 0.19789432193598561 0 0.47311107537994651 0.21060674662752529 0 0.44584438813649652 0.2203436080528294 0 0.4574246187180494 0.20998202225832771 0 0.44184419378540352 0.2076794424592901 0 0.4302098735549707 0.2206458244329694 0 0.44584438813649652 0.2203436080528294 0 0.44184419378540352 0.2076794424592901 0 0.4574246187180494 0.20998202225832771 0 0.44184419378540352 0.2076794424592901 0 0.45120510308892831 0.19507838461398491 0 0.44184419378540352 0.2076794424592901 0 0.43799329450951457 0.1898848624547933 0 0.45120510308892831 0.19507838461398491 0 0.4574246187180494 0.20998202225832771 0 0.45120510308892831 0.19507838461398491 0 0.46861366351278472 0.19789432193598561 0 0.45120510308892831 0.19507838461398491 0 0.46861366351278472 0.19789432193598561 0 0.45014974491888898 0.16995127396152809 0 0.46861366351278472 0.19789432193598561 0 0.48377650321145821 0.20030440734603891 0 0.47890777313388699 0.17818810929941131 0 0.46861366351278472 0.19789432193598561 0 0.48377650321145821 0.20030440734603891 0 0.47311107537994651 0.21060674662752529 0 0.48377650321145821 0.20030440734603891 0 0.5 0.19442179120654851 0 0.47890777313388699 0.17818810929941131 0 0.48377650321145821 0.20030440734603891 0 0.5 0.19442179120654851 0 0.49075328327788142 0.2167084650931079 0 0.5 0.19442179120654851 0 0.49075328327788142 0.2167084650931079 0 0.49999999999999339 0.2215116756214566 0 0.48377650321145821 0.20030440734603891 0 0.49075328327788142 0.2167084650931079 0 0.47311107537994651 0.21060674662752529 0 0.46338994747082818 0.22647486666124839 0 0.49075328327788142 0.2167084650931079 0 0.47311107537994651 0.21060674662752529 0 0.46338994747082818 0.22647486666124839 0 0.49075328327788142 0.2167084650931079 0 0.46338994747082818 0.22647486666124839 0 0.49075328327788142 0.2167084650931079 0 0.47692141707070451 0.23056955077157251 0 0.47692141707070451 0.23056955077157251 0 0.49999999999999339 0.2215116756214566 0 0.50000000000000067 0.2392155256412283 0 0.49075328327788142 0.2167084650931079 0 0.47692141707070451 0.23056955077157251 0 0.49999999999999339 0.2215116756214566 0 0.47692141707070451 0.23056955077157251 0 0.49999999999999339 0.2215116756214566 0 0.50000000000000067 0.2392155256412283 0 0.47583181488482379 0.2451422378191761 0 0.48341195364679568 0.26002408893105827 0 0.50000000000000067 0.2392155256412283 0 0.47583181488482379 0.2451422378191761 0 0.47692141707070451 0.23056955077157251 0 0.50000000000000067 0.2392155256412283 0 0.47583181488482379 0.2451422378191761 0 0.45384283414141641 0.23962742592169059 0 0.47692141707070451 0.23056955077157251 0 0.47583181488482379 0.2451422378191761 0 0.46053260521531592 0.14091734283165991 0 0.45014974491888898 0.16995127396152809 0 0.47759274938693741 0.15337993901402261 0 0.46053260521531592 0.14091734283165991 0 0.47596637305353268 0.1236489788231635 0 0.45094723062946279 0.12208098845927939 0 0.46053260521531592 0.14091734283165991 0 0.44305345270963392 0.14224085277467549 0 0.45094723062946279 0.12208098845927939 0 0.43267139290449452 0.12562392175117529 0 0.44305345270963392 0.14224085277467549 0 0.45094723062946279 0.12208098845927939 0 0.46053260521531592 0.14091734283165991 0 0.44305345270963392 0.14224085277467549 0 0.45014974491888898 0.16995127396152809 0 0.43641214087317609 0.15776157540708571 0 0.44305345270963392 0.14224085277467549 0 0.45014974491888898 0.16995127396152809 0 0.42759287120751482 0.1799189573059411 0 0.43799329450951457 0.1898848624547933 0 0.45014974491888898 0.16995127396152809 0 0.43799329450951457 0.1898848624547933 0 0.45120510308892831 0.19507838461398491 0 0.45014974491888898 0.16995127396152809 0 0.46861366351278472 0.19789432193598561 0 0.45014974491888898 0.16995127396152809 0 0.47890777313388699 0.17818810929941131 0 0.45014974491888898 0.16995127396152809 0 0.47890777313388699 0.17818810929941131 0 0.47759274938693741 0.15337993901402261 0 0.5 0.19442179120654851 0 0.47890777313388699 0.17818810929941131 0 0.5 0.16733190679164031 0 0.47890777313388699 0.17818810929941131 0 0.5 0.16733190679164031 0 0.47759274938693741 0.15337993901402261 0 0.5 0.16733190679164031 0 0.47759274938693741 0.15337993901402261 0 0.5 0.14024202237673219 0 0.46053260521531592 0.14091734283165991 0 0.47759274938693741 0.15337993901402261 0 0.47596637305353268 0.1236489788231635 0 0.5 0.14024202237673219 0 0.5 0.11315213796182411 0 0.47596637305353268 0.1236489788231635 0 0.47759274938693741 0.15337993901402261 0 0.5 0.14024202237673219 0 0.47596637305353268 0.1236489788231635 0 0.5 0.11315213796182411 0 0.48146508414057748 0.097867616362435003 0 0.47596637305353268 0.1236489788231635 0 0.5 0.11315213796182411 0 0.48146508414057748 0.097867616362435003 0 0.5 0.08606225354691599 0 0.48146508414057748 0.097867616362435003 0 0.46684480345772023 0.083704774648097419 0 0.46085076100455152 0.1051260388446932 0 0.48146508414057748 0.097867616362435003 0 0.47596637305353268 0.1236489788231635 0 0.46085076100455152 0.1051260388446932 0 0.5 0.08606225354691599 0 0.48297411160829701 0.071419164250366693 0 0.5 0.058972369132007867 0 0.48146508414057748 0.097867616362435003 0 0.5 0.08606225354691599 0 0.48297411160829701 0.071419164250366693 0 0.48146508414057748 0.097867616362435003 0 0.48297411160829701 0.071419164250366693 0 0.46684480345772023 0.083704774648097419 0 0.48297411160829701 0.071419164250366693 0 0.46368779630991369 0.062884433647911922 0 0.46684480345772023 0.083704774648097419 0 0.46368779630991369 0.062884433647911922 0 0.4455316944648699 0.078385408113317706 0 0.46368779630991369 0.062884433647911922 0 0.46684480345772023 0.083704774648097419 0 0.4455316944648699 0.078385408113317706 0 0.46684480345772023 0.083704774648097419 0 0.4455316944648699 0.078385408113317706 0 0.46085076100455152 0.1051260388446932 0 0.4455316944648699 0.078385408113317706 0 0.46085076100455152 0.1051260388446932 0 0.43655847815144871 0.087567909291679069 0 0.4455316944648699 0.078385408113317706 0 0.43655847815144871 0.087567909291679069 0 0.43300293116684879 0.070359854062556224 0 0.4455316944648699 0.078385408113317706 0 0.43300293116684879 0.070359854062556224 0 0.44432728466234178 0.059795406129610977 0 0.46368779630991369 0.062884433647911922 0 0.4455316944648699 0.078385408113317706 0 0.44432728466234178 0.059795406129610977 0 0.47596637305353268 0.1236489788231635 0 0.46085076100455152 0.1051260388446932 0 0.45094723062946279 0.12208098845927939 0 0.46085076100455152 0.1051260388446932 0 0.43655847815144871 0.087567909291679069 0 0.46085076100455152 0.1051260388446932 0 0.43845481143497073 0.110031162788742 0 0.43302597451412722 0.09911942802672713 0 0.46085076100455152 0.1051260388446932 0 0.43302597451412722 0.09911942802672713 0 0.43655847815144871 0.087567909291679069 0 0.43267139290449452 0.12562392175117529 0 0.45094723062946279 0.12208098845927939 0 0.43845481143497073 0.110031162788742 0 0.46085076100455152 0.1051260388446932 0 0.45094723062946279 0.12208098845927939 0 0.43845481143497073 0.110031162788742 0 0.43267139290449452 0.12562392175117529 0 0.43845481143497073 0.110031162788742 0 0.42512360996164289 0.1101942667169049 0 0.43267139290449452 0.12562392175117529 0 0.42512360996164289 0.1101942667169049 0 0.41840244549433692 0.1204435227777134 0 0.42512360996164289 0.1101942667169049 0 0.41840244549433692 0.1204435227777134 0 0.41145911669595331 0.1096997076075869 0 0.41840244549433692 0.1204435227777134 0 0.41145911669595331 0.1096997076075869 0 0.40630256149234217 0.12337914253670321 0 0.41145911669595331 0.1096997076075869 0 0.41782870111656589 0.098086010242617663 0 0.40188519574572068 0.098349840232826835 0 0.41782870111656589 0.098086010242617663 0 0.41132824907511162 0.087668761689670915 0 0.40188519574572068 0.098349840232826835 0 0.42512360996164289 0.1101942667169049 0 0.41145911669595331 0.1096997076075869 0 0.41782870111656589 0.098086010242617663 0 0.41782870111656589 0.098086010242617663 0 0.43302597451412722 0.09911942802672713 0 0.42198136315300161 0.08812274721924529 0 0.42512360996164289 0.1101942667169049 0 0.41782870111656589 0.098086010242617663 0 0.43302597451412722 0.09911942802672713 0 0.43845481143497073 0.110031162788742 0 0.42512360996164289 0.1101942667169049 0 0.43302597451412722 0.09911942802672713 0 0.43655847815144871 0.087567909291679069 0 0.42198136315300161 0.08812274721924529 0 0.41226619529834591 0.070009779738664735 0 0.43655847815144871 0.087567909291679069 0 0.41226619529834591 0.070009779738664735 0 0.43302597451412722 0.09911942802672713 0 0.43655847815144871 0.087567909291679069 0 0.42198136315300161 0.08812274721924529 0 0.43300293116684879 0.070359854062556224 0 0.41226619529834591 0.070009779738664735 0 0.42739758089851382 0.054541393999090262 0 0.43655847815144871 0.087567909291679069 0 0.43300293116684879 0.070359854062556224 0 0.41226619529834591 0.070009779738664735 0 0.42198136315300161 0.08812274721924529 0 0.41226619529834591 0.070009779738664735 0 0.41132824907511162 0.087668761689670915 0 0.41226619529834591 0.070009779738664735 0 0.41132824907511162 0.087668761689670915 0 0.39992923875424519 0.082621500021195282 0 0.41782870111656589 0.098086010242617663 0 0.42198136315300161 0.08812274721924529 0 0.41132824907511162 0.087668761689670915 0 0.41132824907511162 0.087668761689670915 0 0.39992923875424519 0.082621500021195282 0 0.40188519574572068 0.098349840232826835 0 0.39992923875424519 0.082621500021195282 0 0.38759228221014619 0.095233220303727467 0 0.40188519574572068 0.098349840232826835 0 0.39992923875424519 0.082621500021195282 0 0.38759228221014619 0.095233220303727467 0 0.41226619529834591 0.070009779738664735 0 0.39707386889515511 0.070908779594843374 0 0.39683376059791597 0.058855427163935138 0 0.41226619529834591 0.070009779738664735 0 0.39683376059791597 0.058855427163935138 0 0.41226619529834591 0.070009779738664735 0 0.39992923875424519 0.082621500021195282 0 0.41226619529834591 0.070009779738664735 0 0.39992923875424519 0.082621500021195282 0 0.39707386889515511 0.070908779594843374 0 0.39992923875424519 0.082621500021195282 0 0.39707386889515511 0.070908779594843374 0 0.38583977896057609 0.075316135258006081 0 0.39707386889515511 0.070908779594843374 0 0.38282045226763678 0.060547433734587333 0 0.39683376059791597 0.058855427163935138 0 0.39707386889515511 0.070908779594843374 0 0.38583977896057609 0.075316135258006081 0 0.38282045226763678 0.060547433734587333 0 0.38583977896057609 0.075316135258006081 0 0.37596532967213542 0.069868995675824025 0 0.37682589963749002 0.081332762740894418 0 0.37307104071443398 0.061065176941414383 0 0.37596532967213542 0.069868995675824025 0 0.38282045226763678 0.060547433734587333 0 0.38583977896057609 0.075316135258006081 0 0.37596532967213542 0.069868995675824025 0 0.38282045226763678 0.060547433734587333 0 0.39992923875424519 0.082621500021195282 0 0.38412803848747967 0.086259474622970303 0 0.38759228221014619 0.095233220303727467 0 0.39992923875424519 0.082621500021195282 0 0.38583977896057609 0.075316135258006081 0 0.38412803848747967 0.086259474622970303 0 0.37045299287494049 0.09679375479102828 0 0.38412803848747967 0.086259474622970303 0 0.38759228221014619 0.095233220303727467 0 0.38583977896057609 0.075316135258006081 0 0.38412803848747967 0.086259474622970303 0 0.37682589963749002 0.081332762740894418 0 0.37045299287494049 0.09679375479102828 0 0.38412803848747967 0.086259474622970303 0 0.37682589963749002 0.081332762740894418 0 0.37045299287494049 0.09679375479102828 0 0.38005682511468147 0.12140739343396729 0 0.37045299287494049 0.09679375479102828 0 0.38759228221014619 0.095233220303727467 0 0.38890959528695412 0.1083938038889192 0 0.37045299287494049 0.09679375479102828 0 0.38890959528695412 0.1083938038889192 0 0.38005682511468147 0.12140739343396729 0 0.39398634319161102 0.12556361147638159 0 0.38890959528695412 0.1083938038889192 0 0.38005682511468147 0.12140739343396729 0 0.39398634319161102 0.12556361147638159 0 0.38890959528695412 0.1083938038889192 0 0.39948393258462489 0.11301500309558379 0 0.39398634319161102 0.12556361147638159 0 0.40630256149234217 0.12337914253670321 0 0.39948393258462489 0.11301500309558379 0 0.41145911669595331 0.1096997076075869 0 0.40630256149234217 0.12337914253670321 0 0.39948393258462489 0.11301500309558379 0 0.41145911669595331 0.1096997076075869 0 0.39948393258462489 0.11301500309558379 0 0.40188519574572068 0.098349840232826835 0 0.38759228221014619 0.095233220303727467 0 0.38890959528695412 0.1083938038889192 0 0.40188519574572068 0.098349840232826835 0 0.38890959528695412 0.1083938038889192 0 0.39948393258462489 0.11301500309558379 0 0.40188519574572068 0.098349840232826835 0 0.3912475249538237 0.025882868266216091 0 0.40325323122183843 0.024352223252143548 0 0.39536881189699241 0.01378873843063998 0 0.3912475249538237 0.025882868266216091 0 0.40325323122183843 0.024352223252143548 0 0.39805180056669343 0.032772735105760037 0 0.40325323122183843 0.024352223252143548 0 0.39805180056669343 0.032772735105760037 0 0.40655765028286611 0.035582104639029083 0 0.40325323122183843 0.024352223252143548 0 0.39536881189699241 0.01378873843063998 0 0.40720094273855439 0.01372602960598159 0 0.40060323373222451 0.0042547197705496897 0 0.39536881189699241 0.01378873843063998 0 0.40720094273855439 0.01372602960598159 0 0.40060323373222451 0.0042547197705496897 0 0.41081432206005303 0.0037114498956348132 0 0.4046584776842293 -0.0050702490882302163 0 0.40060323373222451 0.0042547197705496897 0 0.41081432206005303 0.0037114498956348132 0 0.40720094273855439 0.01372602960598159 0 0.40060323373222451 0.0042547197705496897 0 0.39025836247721268 0.0036292771787240202 0 0.39531848553630572 -0.0042569273994520467 0 0.40060323373222451 0.0042547197705496897 0 0.39536881189699241 0.01378873843063998 0 0.39025836247721268 0.0036292771787240202 0 0.37844401144479839 0.012609093579625891 0 0.38356146703633898 -0.0078565650350033434 0 0.37844401144479839 0.012609093579625891 0 0.39025836247721268 0.0036292771787240202 0 0.38356146703633898 -0.0078565650350033434 0 0.39536881189699241 0.01378873843063998 0 0.37844401144479839 0.012609093579625891 0 0.39025836247721268 0.0036292771787240202 0 0.3912475249538237 0.025882868266216091 0 0.37844401144479839 0.012609093579625891 0 0.38063223185621792 0.036578263657106522 0 0.37844401144479839 0.012609093579625891 0 0.38063223185621792 0.036578263657106522 0 0.37146335928247548 0.04052602251159599 0 0.37844401144479839 0.012609093579625891 0 0.38063223185621792 0.036578263657106522 0 0.3912475249538237 0.025882868266216091 0 0.39536881189699241 0.01378873843063998 0 0.37844401144479839 0.012609093579625891 0 0.37146335928247548 0.04052602251159599 0 0.38063223185621792 0.036578263657106522 0 0.38282045226763678 0.060547433734587333 0 0.3912475249538237 0.025882868266216091 0 0.38063223185621792 0.036578263657106522 0 0.3908528121234538 0.035995570554822158 0 0.38063223185621792 0.036578263657106522 0 0.38791705742610771 0.044539104287684539 0 0.3908528121234538 0.035995570554822158 0 0.38791705742610771 0.044539104287684539 0 0.38282045226763678 0.060547433734587333 0 0.39079668350586277 0.051215399393808793 0 0.37307104071443398 0.061065176941414383 0 0.37146335928247548 0.04052602251159599 0 0.38282045226763678 0.060547433734587333 0 0.38063223185621792 0.036578263657106522 0 0.38791705742610771 0.044539104287684539 0 0.38282045226763678 0.060547433734587333 0 0.38063223185621792 0.036578263657106522 0 0.38282045226763678 0.060547433734587333 0 0.38282045226763678 0.060547433734587333 0 0.39683376059791597 0.058855427163935138 0 0.39079668350586277 0.051215399393808793 0 0.41226619529834591 0.070009779738664735 0 0.39683376059791597 0.058855427163935138 0 0.40948896714378957 0.05055434744181983 0 0.39683376059791597 0.058855427163935138 0 0.39079668350586277 0.051215399393808793 0 0.39674782008621368 0.04348041067995833 0 0.39683376059791597 0.058855427163935138 0 0.39674782008621368 0.04348041067995833 0 0.40948896714378957 0.05055434744181983 0 0.3908528121234538 0.035995570554822158 0 0.39805180056669343 0.032772735105760037 0 0.39674782008621368 0.04348041067995833 0 0.3912475249538237 0.025882868266216091 0 0.3908528121234538 0.035995570554822158 0 0.39805180056669343 0.032772735105760037 0 0.38791705742610771 0.044539104287684539 0 0.3908528121234538 0.035995570554822158 0 0.39674782008621368 0.04348041067995833 0 0.38791705742610771 0.044539104287684539 0 0.39079668350586277 0.051215399393808793 0 0.39674782008621368 0.04348041067995833 0 0.39674782008621368 0.04348041067995833 0 0.40655765028286611 0.035582104639029083 0 0.40948896714378957 0.05055434744181983 0 0.39805180056669343 0.032772735105760037 0 0.39674782008621368 0.04348041067995833 0 0.40655765028286611 0.035582104639029083 0 0.40655765028286611 0.035582104639029083 0 0.41713079569888262 0.040856968430241461 0 0.41557099838193923 0.024039796491718179 0 0.41713079569888262 0.040856968430241461 0 0.42755741698364552 0.032815777208855347 0 0.41557099838193923 0.024039796491718179 0 0.40655765028286611 0.035582104639029083 0 0.41713079569888262 0.040856968430241461 0 0.40948896714378957 0.05055434744181983 0 0.41226619529834591 0.070009779738664735 0 0.40948896714378957 0.05055434744181983 0 0.42739758089851382 0.054541393999090262 0 0.41713079569888262 0.040856968430241461 0 0.40948896714378957 0.05055434744181983 0 0.42739758089851382 0.054541393999090262 0 0.41226619529834591 0.070009779738664735 0 0.42739758089851382 0.054541393999090262 0 0.43300293116684879 0.070359854062556224 0 0.42739758089851382 0.054541393999090262 0 0.44432728466234178 0.059795406129610977 0 0.41713079569888262 0.040856968430241461 0 0.42739758089851382 0.054541393999090262 0 0.42755741698364552 0.032815777208855347 0 0.42739758089851382 0.054541393999090262 0 0.42755741698364552 0.032815777208855347 0 0.44252896649868317 0.039073008259517338 0 0.42739758089851382 0.054541393999090262 0 0.44252896649868317 0.039073008259517338 0 0.42755741698364552 0.032815777208855347 0 0.4358194844604939 0.024219735287320941 0 0.44252896649868317 0.039073008259517338 0 0.42755741698364552 0.032815777208855347 0 0.41557099838193923 0.024039796491718179 0 0.4265644217351573 0.014684511896395219 0 0.4358194844604939 0.024219735287320941 0 0.4265644217351573 0.014684511896395219 0 0.44548351627008242 0.01642882659412407 0 0.42755741698364552 0.032815777208855347 0 0.4358194844604939 0.024219735287320941 0 0.4265644217351573 0.014684511896395219 0 0.41557099838193923 0.024039796491718179 0 0.4165272652869268 0.01155925859927168 0 0.4265644217351573 0.014684511896395219 0 0.41557099838193923 0.024039796491718179 0 0.40720094273855439 0.01372602960598159 0 0.4165272652869268 0.01155925859927168 0 0.40325323122183843 0.024352223252143548 0 0.41557099838193923 0.024039796491718179 0 0.40720094273855439 0.01372602960598159 0 0.40325323122183843 0.024352223252143548 0 0.40655765028286611 0.035582104639029083 0 0.41557099838193923 0.024039796491718179 0 0.41081432206005303 0.0037114498956348132 0 0.40720094273855439 0.01372602960598159 0 0.4165272652869268 0.01155925859927168 0 0.4165272652869268 0.01155925859927168 0 0.42248564151892998 0.0016345051066286029 0 0.4265644217351573 0.014684511896395219 0 0.41081432206005303 0.0037114498956348132 0 0.4165272652869268 0.01155925859927168 0 0.42248564151892998 0.0016345051066286029 0 0.42248564151892998 0.0016345051066286029 0 0.4265644217351573 0.014684511896395219 0 0.4382820622288856 -0.0014159552958160841 0 0.4265644217351573 0.014684511896395219 0 0.44548351627008242 0.01642882659412407 0 0.4382820622288856 -0.0014159552958160841 0 0.45100246047295739 0.0046664116742636159 0 0.44548351627008242 0.01642882659412407 0 0.4382820622288856 -0.0014159552958160841 0 0.45100246047295739 0.0046664116742636159 0 0.44548351627008242 0.01642882659412407 0 0.4580470330794123 0.0188547641718908 0 0.4358194844604939 0.024219735287320941 0 0.4514029071021442 0.02821869916314456 0 0.44548351627008242 0.01642882659412407 0 0.4358194844604939 0.024219735287320941 0 0.4514029071021442 0.02821869916314456 0 0.44252896649868317 0.039073008259517338 0 0.4514029071021442 0.02821869916314456 0 0.44548351627008242 0.01642882659412407 0 0.4580470330794123 0.0188547641718908 0 0.4514029071021442 0.02821869916314456 0 0.4580470330794123 0.0188547641718908 0 0.46553563141862692 0.027383902935855992 0 0.4580470330794123 0.0188547641718908 0 0.46553563141862692 0.027383902935855992 0 0.471035018561343 0.01684384088441979 0 0.4580470330794123 0.0188547641718908 0 0.4620271672997433 0.0081957990277541914 0 0.471035018561343 0.01684384088441979 0 0.4620271672997433 0.0081957990277541914 0 0.47207727543944228 0.0077163925679632076 0 0.45540766643685782 -0.0078732224449345398 0 0.4620271672997433 0.0081957990277541914 0 0.47207727543944228 0.0077163925679632076 0 0.471035018561343 0.01684384088441979 0 0.45100246047295739 0.0046664116742636159 0 0.4620271672997433 0.0081957990277541914 0 0.45540766643685782 -0.0078732224449345398 0 0.45100246047295739 0.0046664116742636159 0 0.4580470330794123 0.0188547641718908 0 0.4620271672997433 0.0081957990277541914 0 0.42739758089851382 0.054541393999090262 0 0.44432728466234178 0.059795406129610977 0 0.44252896649868317 0.039073008259517338 0 0.44432728466234178 0.059795406129610977 0 0.44252896649868317 0.039073008259517338 0 0.46100281088556699 0.043351957730158222 0 0.4514029071021442 0.02821869916314456 0 0.44252896649868317 0.039073008259517338 0 0.46100281088556699 0.043351957730158222 0 0.4514029071021442 0.02821869916314456 0 0.46553563141862692 0.027383902935855992 0 0.46100281088556699 0.043351957730158222 0 0.46553563141862692 0.027383902935855992 0 0.46100281088556699 0.043351957730158222 0 0.4764725540003833 0.035303178421407518 0 0.46368779630991369 0.062884433647911922 0 0.44432728466234178 0.059795406129610977 0 0.46100281088556699 0.043351957730158222 0 0.48297411160829701 0.071419164250366693 0 0.46368779630991369 0.062884433647911922 0 0.48184389815495748 0.047383459182506117 0 0.46368779630991369 0.062884433647911922 0 0.46100281088556699 0.043351957730158222 0 0.48184389815495748 0.047383459182506117 0 0.46368779630991369 0.062884433647911922 0 0.48184389815495748 0.047383459182506117 0 0.46100281088556699 0.043351957730158222 0 0.48184389815495748 0.047383459182506117 0 0.4764725540003833 0.035303178421407518 0 0.48184389815495748 0.047383459182506117 0 0.50000000000000089 0.031882484717099757 0 0.48184389815495748 0.047383459182506117 0 0.50000000000000089 0.031882484717099757 0 0.5 0.058972369132007867 0 0.48184389815495748 0.047383459182506117 0 0.4764725540003833 0.035303178421407518 0 0.50000000000000089 0.031882484717099757 0 0.48297411160829701 0.071419164250366693 0 0.48184389815495748 0.047383459182506117 0 0.5 0.058972369132007867 0 0.48173822001607031 0.002441982684480838 0 0.47207727543944228 0.0077163925679632076 0 0.45540766643685782 -0.0078732224449345398 0 0.48073089036299149 0.01447516008145705 0 0.48088876464914698 0.0066420825236524483 0 0.47207727543944228 0.0077163925679632076 0 0.48088876464914698 0.0066420825236524483 0 0.48173822001607031 0.002441982684480838 0 0.48944624590280772 0.014576472087587141 0 0.48073089036299149 0.01447516008145705 0 0.48088876464914698 0.0066420825236524483 0 0.48944624590280772 0.014576472087587141 0 0.48088876464914698 0.0066420825236524483 0 0.48173822001607031 0.002441982684480838 0 0.47207727543944228 0.0077163925679632076 0 0.48088876464914698 0.0066420825236524483 0 0.48173822001607031 0.002441982684480838 0 0.48073089036299149 0.01447516008145705 0 0.47207727543944228 0.0077163925679632076 0 0.471035018561343 0.01684384088441979 0 0.46553563141862692 0.027383902935855992 0 0.471035018561343 0.01684384088441979 0 0.48098968552297122 0.023479159592672289 0 0.46553563141862692 0.027383902935855992 0 0.4764725540003833 0.035303178421407518 0 0.48098968552297122 0.023479159592672289 0 0.48073089036299149 0.01447516008145705 0 0.471035018561343 0.01684384088441979 0 0.48098968552297122 0.023479159592672289 0 0.48073089036299149 0.01447516008145705 0 0.48098968552297122 0.023479159592672289 0 0.48944624590280772 0.014576472087587141 0 0.50000000000000089 0.031882484717099757 0 0.50000000000000044 0.0095961811708810997 0 0.48944624590280772 0.014576472087587141 0 0.4764725540003833 0.035303178421407518 0 0.50000000000000089 0.031882484717099757 0 0.48098968552297122 0.023479159592672289 0 0.50000000000000089 0.031882484717099757 0 0.48098968552297122 0.023479159592672289 0 0.48944624590280772 0.014576472087587141 0 0.48173822001607031 0.002441982684480838 0 0.50000000000000044 0.0095961811708810997 0 0.48944624590280772 0.014576472087587141 0 0.48173822001607031 0.002441982684480838 0 0.50000000000000044 0.0095961811708810997 0 0.48173822001607031 0.002441982684480838 0 0.50000000000000044 0.0095961811708810997 0 0.5 -0.01553848795347695 0 0.48173822001607031 0.002441982684480838 0 0.5 -0.01553848795347695 0 0.48723509010938909 -0.024737082977995831 0 0.48173822001607031 0.002441982684480838 0 0.48723509010938909 -0.024737082977995831 0 0.48173822001607031 0.002441982684480838 0 0.46944239540012012 -0.021901386132034111 0 0.45540766643685782 -0.0078732224449345398 0 0.48173822001607031 0.002441982684480838 0 0.46944239540012012 -0.021901386132034111 0 0.48723509010938909 -0.024737082977995831 0 0.46944239540012012 -0.021901386132034111 0 0.48723509010938909 -0.024737082977995831 0 0.47311684284700922 -0.039980301183512167 0 0.5 -0.01553848795347695 0 0.48723509010938909 -0.024737082977995831 0 0.5 -0.040673157077835087 0 0.48723509010938909 -0.024737082977995831 0 0.49273196020270971 -0.051916148640471983 0 0.48034048547664182 -0.050194577481915269 0 0.48723509010938909 -0.024737082977995831 0 0.49273196020270971 -0.051916148640471983 0 0.48723509010938909 -0.024737082977995831 0 0.5 -0.040673157077835087 0 0.49273196020270971 -0.051916148640471983 0 0.5 -0.040673157077835087 0 0.49273196020270971 -0.051916148640471983 0 0.5 -0.065807826202193331 0 0.49273196020270971 -0.051916148640471983 0 0.48384360039889979 -0.062204599920787272 0 0.48034048547664182 -0.050194577481915269 0 0.48034048547664182 -0.050194577481915269 0 0.47035120232490191 -0.060528185902064997 0 0.47311684284700922 -0.039980301183512167 0 0.47035120232490191 -0.060528185902064997 0 0.47311684284700922 -0.039980301183512167 0 0.48384360039889979 -0.062204599920787272 0 0.48034048547664182 -0.050194577481915269 0 0.47035120232490191 -0.060528185902064997 0 0.48723509010938909 -0.024737082977995831 0 0.48034048547664182 -0.050194577481915269 0 0.47311684284700922 -0.039980301183512167 0 0.46944239540012012 -0.021901386132034111 0 0.47311684284700922 -0.039980301183512167 0 0.44971415759127392 -0.039358306738208573 0 0.47035120232490191 -0.060528185902064997 0 0.47311684284700922 -0.039980301183512167 0 0.44971415759127392 -0.039358306738208573 0 0.47035120232490191 -0.060528185902064997 0 0.44971415759127392 -0.039358306738208573 0 0.47035120232490191 -0.060528185902064997 0 0.43963483674523918 -0.055334607978488382 0 0.44971415759127392 -0.039358306738208573 0 0.43963483674523918 -0.055334607978488382 0 0.44971415759127392 -0.039358306738208573 0 0.42419530264354072 -0.042652000491910397 0 0.46944239540012012 -0.021901386132034111 0 0.44971415759127392 -0.039358306738208573 0 0.45540766643685782 -0.0078732224449345398 0 0.44971415759127392 -0.039358306738208573 0 0.42907711285764621 -0.01818842757435184 0 0.44971415759127392 -0.039358306738208573 0 0.45540766643685782 -0.0078732224449345398 0 0.42907711285764621 -0.01818842757435184 0 0.45540766643685782 -0.0078732224449345398 0 0.42907711285764621 -0.01818842757435184 0 0.45100246047295739 0.0046664116742636159 0 0.4382820622288856 -0.0014159552958160841 0 0.45540766643685782 -0.0078732224449345398 0 0.4382820622288856 -0.0014159552958160841 0 0.45540766643685782 -0.0078732224449345398 0 0.42907711285764621 -0.01818842757435184 0 0.48173822001607031 0.002441982684480838 0 0.45540766643685782 -0.0078732224449345398 0 0.47129126618897188 -0.1223351355815797 0 0.47148248434309947 -0.114916285604633 0 0.48087269318342413 -0.1216818802472065 0 0.47148248434309947 -0.114916285604633 0 0.48087269318342413 -0.1216818802472065 0 0.47838814501791832 -0.1066654575105275 0 0.48087269318342413 -0.1216818802472065 0 0.48924328608656842 -0.1141618265083332 0 0.47838814501791832 -0.1066654575105275 0 0.5 -0.1122204549214597 0 0.48924328608656842 -0.1141618265083332 0 0.5 -0.13349841451636779 0 0.48087269318342413 -0.1216818802472065 0 0.48924328608656842 -0.1141618265083332 0 0.5 -0.13349841451636779 0 0.5 -0.1122204549214597 0 0.48924328608656842 -0.1141618265083332 0 0.48827073793524339 -0.097774102912636218 0 0.48924328608656842 -0.1141618265083332 0 0.48827073793524339 -0.097774102912636218 0 0.47838814501791832 -0.1066654575105275 0 0.5 -0.1122204549214597 0 0.48827073793524339 -0.097774102912636218 0 0.50000000000000266 -0.090942495326551576 0 0.47652975213937199 -0.091635549067057065 0 0.46683976751390588 -0.086617099886465918 0 0.46456669494636288 -0.10350535152343909 0 0.48827073793524339 -0.097774102912636218 0 0.47838814501791832 -0.1066654575105275 0 0.47652975213937199 -0.091635549067057065 0 0.47148248434309947 -0.114916285604633 0 0.47838814501791832 -0.1066654575105275 0 0.46456669494636288 -0.10350535152343909 0 0.47838814501791832 -0.1066654575105275 0 0.47652975213937199 -0.091635549067057065 0 0.46456669494636288 -0.10350535152343909 0 0.48827073793524339 -0.097774102912636218 0 0.47652975213937199 -0.091635549067057065 0 0.48517560116245317 -0.075735340614307423 0 0.47652975213937199 -0.091635549067057065 0 0.48517560116245317 -0.075735340614307423 0 0.46683976751390588 -0.086617099886465918 0 0.47652975213937199 -0.091635549067057065 0 0.46683976751390588 -0.086617099886465918 0 0.50000000000000266 -0.090942495326551576 0 0.49822883029603021 -0.079095214302948247 0 0.5 -0.065807826202193331 0 0.48827073793524339 -0.097774102912636218 0 0.50000000000000266 -0.090942495326551576 0 0.48517560116245317 -0.075735340614307423 0 0.50000000000000266 -0.090942495326551576 0 0.48517560116245317 -0.075735340614307423 0 0.50000000000000266 -0.090942495326551576 0 0.49822883029603021 -0.079095214302948247 0 0.48517560116245317 -0.075735340614307423 0 0.49273196020270971 -0.051916148640471983 0 0.49822883029603021 -0.079095214302948247 0 0.48384360039889979 -0.062204599920787272 0 0.49822883029603021 -0.079095214302948247 0 0.48517560116245317 -0.075735340614307423 0 0.49273196020270971 -0.051916148640471983 0 0.48384360039889979 -0.062204599920787272 0 0.49822883029603021 -0.079095214302948247 0 0.49273196020270971 -0.051916148640471983 0 0.49822883029603021 -0.079095214302948247 0 0.5 -0.065807826202193331 0 0.47035120232490191 -0.060528185902064997 0 0.48517560116245317 -0.075735340614307423 0 0.47035120232490191 -0.060528185902064997 0 0.48517560116245317 -0.075735340614307423 0 0.46683976751390588 -0.086617099886465918 0 0.48384360039889979 -0.062204599920787272 0 0.47035120232490191 -0.060528185902064997 0 0.48517560116245317 -0.075735340614307423 0 0.47035120232490191 -0.060528185902064997 0 0.46683976751390588 -0.086617099886465918 0 0.47035120232490191 -0.060528185902064997 0 0.44249197108241189 -0.074007360679063244 0 0.46683976751390588 -0.086617099886465918 0 0.47035120232490191 -0.060528185902064997 0 0.43963483674523918 -0.055334607978488382 0 0.44249197108241189 -0.074007360679063244 0 0.44249197108241189 -0.074007360679063244 0 0.46683976751390588 -0.086617099886465918 0 0.4490662803509099 -0.094083529251462475 0 0.44249197108241189 -0.074007360679063244 0 0.4490662803509099 -0.094083529251462475 0 0.42834270349958448 -0.099226311759436261 0 0.44249197108241189 -0.074007360679063244 0 0.46683976751390588 -0.086617099886465918 0 0.46683976751390588 -0.086617099886465918 0 0.46456669494636288 -0.10350535152343909 0 0.4490662803509099 -0.094083529251462475 0 0.46683976751390588 -0.086617099886465918 0 0.46456669494636288 -0.10350535152343909 0 0.46456669494636288 -0.10350535152343909 0 0.4490662803509099 -0.094083529251462475 0 0.44386094964032902 -0.11054798122052439 0 0.4490662803509099 -0.094083529251462475 0 0.44386094964032902 -0.11054798122052439 0 0.42834270349958448 -0.099226311759436261 0 0.44386094964032902 -0.11054798122052439 0 0.46257396642688631 -0.12529077885077469 0 0.45239247298790419 -0.125419693033265 0 0.44386094964032902 -0.11054798122052439 0 0.42916935431308728 -0.1205456085246996 0 0.4435038969132965 -0.12540022695152131 0 0.44386094964032902 -0.11054798122052439 0 0.45239247298790419 -0.125419693033265 0 0.4435038969132965 -0.12540022695152131 0 0.44386094964032902 -0.11054798122052439 0 0.46229362237882032 -0.1203936031604123 0 0.46257396642688631 -0.12529077885077469 0 0.46456669494636288 -0.10350535152343909 0 0.46229362237882032 -0.1203936031604123 0 0.46456669494636288 -0.10350535152343909 0 0.44386094964032902 -0.11054798122052439 0 0.46229362237882032 -0.1203936031604123 0 0.44386094964032902 -0.11054798122052439 0 0.46257396642688631 -0.12529077885077469 0 0.47148248434309947 -0.114916285604633 0 0.46456669494636288 -0.10350535152343909 0 0.46229362237882032 -0.1203936031604123 0 0.47129126618897188 -0.1223351355815797 0 0.46229362237882032 -0.1203936031604123 0 0.46257396642688631 -0.12529077885077469 0 0.47129126618897188 -0.1223351355815797 0 0.47148248434309947 -0.114916285604633 0 0.46229362237882032 -0.1203936031604123 0 0.44386094964032902 -0.11054798122052439 0 0.42916935431308728 -0.1205456085246996 0 0.42834270349958448 -0.099226311759436261 0 0.41143930547928681 -0.11934523636421419 0 0.42916935431308728 -0.1205456085246996 0 0.42834270349958448 -0.099226311759436261 0 0.41143930547928681 -0.11934523636421419 0 0.40555832972599831 -0.095826118330896617 0 0.41143930547928681 -0.11934523636421419 0 0.42834270349958448 -0.099226311759436261 0 0.40555832972599831 -0.095826118330896617 0 0.42834270349958448 -0.099226311759436261 0 0.41884290658632428 -0.080552882507727325 0 0.40555832972599831 -0.095826118330896617 0 0.41884290658632428 -0.080552882507727325 0 0.39967735397270959 -0.072307000297579083 0 0.40555832972599831 -0.095826118330896617 0 0.44249197108241189 -0.074007360679063244 0 0.42834270349958448 -0.099226311759436261 0 0.41884290658632428 -0.080552882507727325 0 0.44249197108241189 -0.074007360679063244 0 0.41814417465091752 -0.061397621471661459 0 0.43963483674523918 -0.055334607978488382 0 0.44249197108241189 -0.074007360679063244 0 0.41814417465091752 -0.061397621471661459 0 0.44249197108241189 -0.074007360679063244 0 0.41884290658632428 -0.080552882507727325 0 0.41814417465091752 -0.061397621471661459 0 0.41884290658632428 -0.080552882507727325 0 0.39967735397270959 -0.072307000297579083 0 0.41814417465091752 -0.061397621471661459 0 0.39967735397270959 -0.072307000297579083 0 0.38669795957132042 -0.057310603286660967 0 0.37240766699872252 -0.068318548019290964 0 0.39967735397270959 -0.072307000297579083 0 0.37781097748786241 -0.089314889372882261 0 0.37240766699872252 -0.068318548019290964 0 0.39967735397270959 -0.072307000297579083 0 0.37781097748786241 -0.089314889372882261 0 0.40555832972599831 -0.095826118330896617 0 0.39967735397270959 -0.072307000297579083 0 0.40555832972599831 -0.095826118330896617 0 0.40555832972599831 -0.095826118330896617 0 0.38953803654933628 -0.10754997095337659 0 0.39823574772599779 -0.11763079726210079 0 0.37781097748786241 -0.089314889372882261 0 0.40555832972599831 -0.095826118330896617 0 0.38953803654933628 -0.10754997095337659 0 0.37781097748786241 -0.089314889372882261 0 0.38953803654933628 -0.10754997095337659 0 0.37644505785585192 -0.1058120404938334 0 0.38953803654933628 -0.10754997095337659 0 0.37644505785585192 -0.1058120404938334 0 0.37720890243704291 -0.12310924361699779 0 0.38953803654933628 -0.10754997095337659 0 0.37720890243704291 -0.12310924361699779 0 0.38918813321375051 -0.12739880168557821 0 0.38953803654933628 -0.10754997095337659 0 0.39823574772599779 -0.11763079726210079 0 0.38918813321375051 -0.12739880168557821 0 0.41143930547928681 -0.11934523636421419 0 0.39823574772599779 -0.11763079726210079 0 0.40257569972698831 -0.13396225485532559 0 0.41143930547928681 -0.11934523636421419 0 0.40555832972599831 -0.095826118330896617 0 0.39823574772599779 -0.11763079726210079 0 0.42011428296152808 -0.02169968792975261 0 0.41401194260749391 -0.028450411104576211 0 0.41343304557213612 -0.018371446868227208 0 0.42011428296152808 -0.02169968792975261 0 0.41343304557213612 -0.018371446868227208 0 0.41928481904255338 -0.01548900553927589 0 0.42011428296152808 -0.02169968792975261 0 0.41928481904255338 -0.01548900553927589 0 0.42542521438275183 -0.0144422395697206 0 0.42011428296152808 -0.02169968792975261 0 0.41401194260749391 -0.028450411104576211 0 0.42742255973229643 -0.030069766767760062 0 0.41401194260749391 -0.028450411104576211 0 0.40522076275047969 -0.019933987949522329 0 0.40044964155059998 -0.029094842751199331 0 0.41401194260749391 -0.028450411104576211 0 0.41343304557213612 -0.018371446868227208 0 0.40522076275047969 -0.019933987949522329 0 0.41343304557213612 -0.018371446868227208 0 0.40806592415966281 -0.01253819616599721 0 0.40522076275047969 -0.019933987949522329 0 0.40806592415966281 -0.01253819616599721 0 0.4135204533098043 -0.0054466611181140526 0 0.41498054603746559 -0.011947546426581419 0 0.41343304557213612 -0.018371446868227208 0 0.40806592415966281 -0.01253819616599721 0 0.41498054603746559 -0.011947546426581419 0 0.41081432206005303 0.0037114498956348132 0 0.4135204533098043 -0.0054466611181140526 0 0.4046584776842293 -0.0050702490882302163 0 0.40806592415966281 -0.01253819616599721 0 0.4135204533098043 -0.0054466611181140526 0 0.4046584776842293 -0.0050702490882302163 0 0.41081432206005303 0.0037114498956348132 0 0.42248564151892998 0.0016345051066286029 0 0.4135204533098043 -0.0054466611181140526 0 0.42248564151892998 0.0016345051066286029 0 0.4135204533098043 -0.0054466611181140526 0 0.42119781252485211 -0.0083000839364812864 0 0.41343304557213612 -0.018371446868227208 0 0.41498054603746559 -0.011947546426581419 0 0.41928481904255338 -0.01548900553927589 0 0.4135204533098043 -0.0054466611181140526 0 0.41498054603746559 -0.011947546426581419 0 0.42119781252485211 -0.0083000839364812864 0 0.41498054603746559 -0.011947546426581419 0 0.42119781252485211 -0.0083000839364812864 0 0.41928481904255338 -0.01548900553927589 0 0.42542521438275183 -0.0144422395697206 0 0.42820760236351979 -0.0076976995852137747 0 0.42907711285764621 -0.01818842757435184 0 0.4382820622288856 -0.0014159552958160841 0 0.42820760236351979 -0.0076976995852137747 0 0.42907711285764621 -0.01818842757435184 0 0.42119781252485211 -0.0083000839364812864 0 0.41928481904255338 -0.01548900553927589 0 0.42542521438275183 -0.0144422395697206 0 0.42248564151892998 0.0016345051066286029 0 0.4382820622288856 -0.0014159552958160841 0 0.42820760236351979 -0.0076976995852137747 0 0.42119781252485211 -0.0083000839364812864 0 0.42542521438275183 -0.0144422395697206 0 0.42820760236351979 -0.0076976995852137747 0 0.42248564151892998 0.0016345051066286029 0 0.42119781252485211 -0.0083000839364812864 0 0.42820760236351979 -0.0076976995852137747 0 0.44971415759127392 -0.039358306738208573 0 0.42907711285764621 -0.01818842757435184 0 0.42742255973229643 -0.030069766767760062 0 0.42011428296152808 -0.02169968792975261 0 0.42907711285764621 -0.01818842757435184 0 0.42742255973229643 -0.030069766767760062 0 0.42011428296152808 -0.02169968792975261 0 0.42542521438275183 -0.0144422395697206 0 0.42907711285764621 -0.01818842757435184 0 0.42011428296152808 -0.02169968792975261 0 0.42907711285764621 -0.01818842757435184 0 0.42542521438275183 -0.0144422395697206 0 0.42907711285764621 -0.01818842757435184 0 0.44971415759127392 -0.039358306738208573 0 0.42742255973229643 -0.030069766767760062 0 0.42419530264354072 -0.042652000491910397 0 0.41401194260749391 -0.028450411104576211 0 0.42742255973229643 -0.030069766767760062 0 0.42419530264354072 -0.042652000491910397 0 0.43963483674523918 -0.055334607978488382 0 0.42419530264354072 -0.042652000491910397 0 0.41814417465091752 -0.061397621471661459 0 0.41814417465091752 -0.061397621471661459 0 0.41107184061272262 -0.047596707948501772 0 0.39379637821942232 -0.04878788226426127 0 0.42419530264354072 -0.042652000491910397 0 0.41814417465091752 -0.061397621471661459 0 0.41107184061272262 -0.047596707948501772 0 0.41401194260749391 -0.028450411104576211 0 0.42419530264354072 -0.042652000491910397 0 0.40815150693701141 -0.037549327566173699 0 0.42419530264354072 -0.042652000491910397 0 0.41107184061272262 -0.047596707948501772 0 0.40815150693701141 -0.037549327566173699 0 0.41401194260749391 -0.028450411104576211 0 0.40815150693701141 -0.037549327566173699 0 0.40044964155059998 -0.029094842751199331 0 0.41107184061272262 -0.047596707948501772 0 0.40815150693701141 -0.037549327566173699 0 0.39379637821942232 -0.04878788226426127 0 0.40815150693701141 -0.037549327566173699 0 0.39379637821942232 -0.04878788226426127 0 0.40044964155059998 -0.029094842751199331 0 0.39379637821942232 -0.04878788226426127 0 0.38867892262788012 -0.028322223649632432 0 0.39379637821942232 -0.04878788226426127 0 0.38867892262788012 -0.028322223649632432 0 0.40044964155059998 -0.029094842751199331 0 0.39967735397270959 -0.072307000297579083 0 0.39379637821942232 -0.04878788226426127 0 0.38669795957132042 -0.057310603286660967 0 0.41814417465091752 -0.061397621471661459 0 0.39379637821942232 -0.04878788226426127 0 0.39967735397270959 -0.072307000297579083 0 0.39379637821942232 -0.04878788226426127 0 0.39967735397270959 -0.072307000297579083 0 0.41814417465091752 -0.061397621471661459 0 0.39379637821942232 -0.04878788226426127 0 0.39379637821942232 -0.04878788226426127 0 0.38896036142985008 -0.046283306103098283 0 0.38669795957132042 -0.057310603286660967 0 0.37839056082150663 -0.050608978831784571 0 0.37240766699872252 -0.068318548019290964 0 0.38669795957132042 -0.057310603286660967 0 0.37839056082150663 -0.050608978831784571 0 0.38896036142985008 -0.046283306103098283 0 0.39379637821942232 -0.04878788226426127 0 0.38669795957132042 -0.057310603286660967 0 0.38896036142985008 -0.046283306103098283 0 0.39379637821942232 -0.04878788226426127 0 0.38896036142985008 -0.046283306103098283 0 0.38867892262788012 -0.028322223649632432 0 0.3834615598562825 -0.037386722635115492 0 0.38896036142985008 -0.046283306103098283 0 0.38867892262788012 -0.028322223649632432 0 0.37839056082150663 -0.050608978831784571 0 0.3834615598562825 -0.037386722635115492 0 0.38896036142985008 -0.046283306103098283 0 0.37839056082150663 -0.050608978831784571 0 0.3834615598562825 -0.037386722635115492 0 0.37356965880113402 -0.040783236975350308 0 0.38867892262788012 -0.028322223649632432 0 0.38356146703633898 -0.0078565650350033434 0 0.3834615598562825 -0.037386722635115492 0 0.37600683512296651 -0.014087071697862221 0 0.37356965880113402 -0.040783236975350308 0 0.3834615598562825 -0.037386722635115492 0 0.38867892262788012 -0.028322223649632432 0 0.37600683512296651 -0.014087071697862221 0 0.38867892262788012 -0.028322223649632432 0 0.37600683512296651 -0.014087071697862221 0 0.38356146703633898 -0.0078565650350033434 0 0.38867892262788012 -0.028322223649632432 0 0.39658225960386179 -0.014459285545308009 0 0.38356146703633898 -0.0078565650350033434 0 0.38867892262788012 -0.028322223649632432 0 0.40044964155059998 -0.029094842751199331 0 0.39658225960386179 -0.014459285545308009 0 0.40522076275047969 -0.019933987949522329 0 0.40044964155059998 -0.029094842751199331 0 0.39658225960386179 -0.014459285545308009 0 0.40806592415966281 -0.01253819616599721 0 0.40522076275047969 -0.019933987949522329 0 0.39658225960386179 -0.014459285545308009 0 0.40060323373222451 0.0042547197705496897 0 0.4046584776842293 -0.0050702490882302163 0 0.39531848553630572 -0.0042569273994520467 0 0.40806592415966281 -0.01253819616599721 0 0.4046584776842293 -0.0050702490882302163 0 0.39658225960386179 -0.014459285545308009 0 0.4046584776842293 -0.0050702490882302163 0 0.39658225960386179 -0.014459285545308009 0 0.39531848553630572 -0.0042569273994520467 0 0.39658225960386179 -0.014459285545308009 0 0.39531848553630572 -0.0042569273994520467 0 0.38356146703633898 -0.0078565650350033434 0 0.39025836247721268 0.0036292771787240202 0 0.39531848553630572 -0.0042569273994520467 0 0.38356146703633898 -0.0078565650350033434 0 0.37844401144479839 0.012609093579625891 0 0.37600683512296651 -0.014087071697862221 0 0.37844401144479839 0.012609093579625891 0 0.37600683512296651 -0.014087071697862221 0 0.38356146703633898 -0.0078565650350033434 0 0.37600683512296651 -0.014087071697862221 0 0.36665723294200347 -0.001883505129568449 0 0.35850646790810559 -0.01395473468271459 0 0.37844401144479839 0.012609093579625891 0 0.37600683512296651 -0.014087071697862221 0 0.36665723294200347 -0.001883505129568449 0 0.36665723294200347 -0.001883505129568449 0 0.35531676971978082 -0.0033532784323768001 0 0.35850646790810559 -0.01395473468271459 0 0.37600683512296651 -0.014087071697862221 0 0.37356965880113402 -0.040783236975350308 0 0.37600683512296651 -0.014087071697862221 0 0.36404947753274258 -0.026706798856440471 0 0.35850646790810559 -0.01395473468271459 0 0.37600683512296651 -0.014087071697862221 0 0.36404947753274258 -0.026706798856440471 0 0.37356965880113402 -0.040783236975350308 0 0.34748556133762742 -0.02738266599094942 0 0.35850646790810559 -0.01395473468271459 0 0.34370628527030811 -0.0115647124322744 0 0.36404947753274258 -0.026706798856440471 0 0.34748556133762742 -0.02738266599094942 0 0.35850646790810559 -0.01395473468271459 0 0.36404947753274258 -0.026706798856440471 0 0.34748556133762742 -0.02738266599094942 0 0.36012817770438982 -0.039413746555128387 0 0.33689267375143878 0.0039255003288513873 0 0.35531676971978082 -0.0033532784323768001 0 0.34370628527030811 -0.0115647124322744 0 0.35531676971978082 -0.0033532784323768001 0 0.35850646790810559 -0.01395473468271459 0 0.34370628527030811 -0.0115647124322744 0 0.33689267375143878 0.0039255003288513873 0 0.34370628527030811 -0.0115647124322744 0 0.32469666258817742 -0.019557632270551 0 0.33689267375143878 0.0039255003288513873 0 0.30352242257352219 0.0039185454548519476 0 0.32469666258817742 -0.019557632270551 0 0.34748556133762742 -0.02738266599094942 0 0.34370628527030811 -0.0115647124322744 0 0.32469666258817742 -0.019557632270551 0 0.34748556133762742 -0.02738266599094942 0 0.32469666258817742 -0.019557632270551 0 0.33457477032001748 -0.043965109755099818 0 0.31326255248553708 -0.043768501277314603 0 0.32924913997341337 -0.063603686862235317 0 0.31014365419524398 -0.06072536978512106 0 0.31326255248553708 -0.043768501277314603 0 0.32924913997341337 -0.063603686862235317 0 0.31326255248553708 -0.043768501277314603 0 0.33457477032001748 -0.043965109755099818 0 0.32924913997341337 -0.063603686862235317 0 0.32469666258817742 -0.019557632270551 0 0.31326255248553708 -0.043768501277314603 0 0.33457477032001748 -0.043965109755099818 0 0.33457477032001748 -0.043965109755099818 0 0.34313363496153881 -0.061193084728204693 0 0.35029003257871461 -0.048624574981710279 0 0.33457477032001748 -0.043965109755099818 0 0.34313363496153881 -0.061193084728204693 0 0.32924913997341337 -0.063603686862235317 0 0.35029003257871461 -0.048624574981710279 0 0.36524615827173029 -0.053571455971191423 0 0.35631850447425872 -0.066333179594821989 0 0.34313363496153881 -0.061193084728204693 0 0.35029003257871461 -0.048624574981710279 0 0.35631850447425872 -0.066333179594821989 0 0.35029003257871461 -0.048624574981710279 0 0.36012817770438982 -0.039413746555128387 0 0.36524615827173029 -0.053571455971191423 0 0.34748556133762742 -0.02738266599094942 0 0.33457477032001748 -0.043965109755099818 0 0.35029003257871461 -0.048624574981710279 0 0.34748556133762742 -0.02738266599094942 0 0.35029003257871461 -0.048624574981710279 0 0.36012817770438982 -0.039413746555128387 0 0.36404947753274258 -0.026706798856440471 0 0.36012817770438982 -0.039413746555128387 0 0.37356965880113402 -0.040783236975350308 0 0.36012817770438982 -0.039413746555128387 0 0.37356965880113402 -0.040783236975350308 0 0.36524615827173029 -0.053571455971191423 0 0.37839056082150663 -0.050608978831784571 0 0.36524615827173029 -0.053571455971191423 0 0.37240766699872252 -0.068318548019290964 0 0.37839056082150663 -0.050608978831784571 0 0.37356965880113402 -0.040783236975350308 0 0.36524615827173029 -0.053571455971191423 0 0.36524615827173029 -0.053571455971191423 0 0.37240766699872252 -0.068318548019290964 0 0.35631850447425872 -0.066333179594821989 0 0.37240766699872252 -0.068318548019290964 0 0.36259903827425999 -0.08213590949324566 0 0.35631850447425872 -0.066333179594821989 0 0.37781097748786241 -0.089314889372882261 0 0.37240766699872252 -0.068318548019290964 0 0.36259903827425999 -0.08213590949324566 0 0.37781097748786241 -0.089314889372882261 0 0.36259903827425999 -0.08213590949324566 0 0.3612223149491664 -0.1032740580320769 0 0.34523572746128989 -0.083438872447156087 0 0.3612223149491664 -0.1032740580320769 0 0.36259903827425999 -0.08213590949324566 0 0.34523572746128989 -0.083438872447156087 0 0.3612223149491664 -0.1032740580320769 0 0.34313363496153881 -0.061193084728204693 0 0.34523572746128989 -0.083438872447156087 0 0.35631850447425872 -0.066333179594821989 0 0.36259903827425999 -0.08213590949324566 0 0.34523572746128989 -0.083438872447156087 0 0.35631850447425872 -0.066333179594821989 0 0.37720890243704291 -0.12310924361699779 0 0.36253108037134668 -0.1248744885805331 0 0.3612223149491664 -0.1032740580320769 0 0.37644505785585192 -0.1058120404938334 0 0.37720890243704291 -0.12310924361699779 0 0.3612223149491664 -0.1032740580320769 0 0.37720890243704291 -0.12310924361699779 0 0.3612223149491664 -0.1032740580320769 0 0.37781097748786241 -0.089314889372882261 0 0.37644505785585192 -0.1058120404938334 0 0.3612223149491664 -0.1032740580320769 0 0.34523572746128989 -0.083438872447156087 0 0.3612223149491664 -0.1032740580320769 0 0.33932087337301742 -0.1007066993955318 0 0.3612223149491664 -0.1032740580320769 0 0.34941185211170689 -0.1127717253903176 0 0.33932087337301742 -0.1007066993955318 0 0.36253108037134668 -0.1248744885805331 0 0.33587402752894302 -0.122350175475488 0 0.36253108037134668 -0.1248744885805331 0 0.34941185211170689 -0.1127717253903176 0 0.33587402752894302 -0.122350175475488 0 0.36253108037134668 -0.1248744885805331 0 0.3612223149491664 -0.1032740580320769 0 0.34941185211170689 -0.1127717253903176 0 0.34941185211170689 -0.1127717253903176 0 0.33587402752894302 -0.122350175475488 0 0.33932087337301742 -0.1007066993955318 0 0.33587402752894302 -0.122350175475488 0 0.33932087337301742 -0.1007066993955318 0 0.31943204723016899 -0.10139701157958859 0 0.33932087337301742 -0.1007066993955318 0 0.31943204723016899 -0.10139701157958859 0 0.32474927095682959 -0.081008353448563344 0 0.33587402752894302 -0.122350175475488 0 0.31943204723016899 -0.10139701157958859 0 0.3092169746865393 -0.1198258623704429 0 0.33587402752894302 -0.122350175475488 0 0.3092169746865393 -0.1198258623704429 0 0.34523572746128989 -0.083438872447156087 0 0.32924913997341337 -0.063603686862235317 0 0.32474927095682959 -0.081008353448563344 0 0.34523572746128989 -0.083438872447156087 0 0.32924913997341337 -0.063603686862235317 0 0.34313363496153881 -0.061193084728204693 0 0.34523572746128989 -0.083438872447156087 0 0.32924913997341337 -0.063603686862235317 0 0.34523572746128989 -0.083438872447156087 0 0.33932087337301742 -0.1007066993955318 0 0.32474927095682959 -0.081008353448563344 0 0.31943204723016899 -0.10139701157958859 0 0.32474927095682959 -0.081008353448563344 0 0.31117343018006932 -0.08835554327446378 0 0.32474927095682959 -0.081008353448563344 0 0.30201438303726968 -0.075929904193525521 0 0.32474927095682959 -0.081008353448563344 0 0.30201438303726968 -0.075929904193525521 0 0.31117343018006932 -0.08835554327446378 0 0.32924913997341337 -0.063603686862235317 0 0.32474927095682959 -0.081008353448563344 0 0.31014365419524398 -0.06072536978512106 0 0.32474927095682959 -0.081008353448563344 0 0.30201438303726968 -0.075929904193525521 0 0.31014365419524398 -0.06072536978512106 0 0.30201438303726968 -0.075929904193525521 0 0.31014365419524398 -0.06072536978512106 0 0.29222542489931519 -0.060978945333093171 0 0.31117343018006932 -0.08835554327446378 0 0.29442961060618023 -0.089764156713605506 0 0.30306705175182019 -0.101009202806625 0 0.30201438303726968 -0.075929904193525521 0 0.31117343018006932 -0.08835554327446378 0 0.29442961060618023 -0.089764156713605506 0 0.29442961060618023 -0.089764156713605506 0 0.28691460331806928 -0.079185378374353493 0 0.27734124638624891 -0.089737863242296378 0 0.30201438303726968 -0.075929904193525521 0 0.29442961060618023 -0.089764156713605506 0 0.28691460331806928 -0.079185378374353493 0 0.30201438303726968 -0.075929904193525521 0 0.27927949511770961 -0.070851454938488739 0 0.29222542489931519 -0.060978945333093171 0 0.30201438303726968 -0.075929904193525521 0 0.27927949511770961 -0.070851454938488739 0 0.30201438303726968 -0.075929904193525521 0 0.28691460331806928 -0.079185378374353493 0 0.27927949511770961 -0.070851454938488739 0 0.28691460331806928 -0.079185378374353493 0 0.27927949511770961 -0.070851454938488739 0 0.27809334201771629 -0.079209584513290715 0 0.28691460331806928 -0.079185378374353493 0 0.27927949511770961 -0.070851454938488739 0 0.27927949511770961 -0.070851454938488739 0 0.27868582307562201 -0.055886184139343542 0 0.29222542489931519 -0.060978945333093171 0 0.31943204723016899 -0.10139701157958859 0 0.3092169746865393 -0.1198258623704429 0 0.30306705175182019 -0.101009202806625 0 0.3092169746865393 -0.1198258623704429 0 0.30306705175182019 -0.101009202806625 0 0.28879183359809052 -0.10393054527906551 0 0.31943204723016899 -0.10139701157958859 0 0.31117343018006932 -0.08835554327446378 0 0.30306705175182019 -0.101009202806625 0 0.28879183359809052 -0.10393054527906551 0 0.28255992184413548 -0.11730154926539781 0 0.27267591943638608 -0.1048970298088977 0 0.29442961060618023 -0.089764156713605506 0 0.28879183359809052 -0.10393054527906551 0 0.27734124638624891 -0.089737863242296378 0 0.29442961060618023 -0.089764156713605506 0 0.30306705175182019 -0.101009202806625 0 0.28879183359809052 -0.10393054527906551 0 0.3092169746865393 -0.1198258623704429 0 0.28255992184413548 -0.11730154926539781 0 0.3092169746865393 -0.1198258623704429 0 0.28879183359809052 -0.10393054527906551 0 0.28255992184413548 -0.11730154926539781 0 0.3092169746865393 -0.1198258623704429 0 0.28255992184413548 -0.11730154926539781 0 0.28721398294742878 -0.13035474923543569 0 0.28255992184413548 -0.11730154926539781 0 0.26776517015272971 -0.1222840496799191 0 0.28721398294742878 -0.13035474923543569 0 0.28255992184413548 -0.11730154926539781 0 0.26776517015272971 -0.1222840496799191 0 0.27267591943638608 -0.1048970298088977 0 0.26776517015272971 -0.1222840496799191 0 0.27267591943638608 -0.1048970298088977 0 0.26047800574605201 -0.11084537767631369 0 0.28879183359809052 -0.10393054527906551 0 0.27267591943638608 -0.1048970298088977 0 0.27734124638624891 -0.089737863242296378 0 0.27267591943638608 -0.1048970298088977 0 0.27734124638624891 -0.089737863242296378 0 0.26256105175446781 -0.092679464148907056 0 0.25771864553297669 -0.099620140202181948 0 0.26047800574605201 -0.11084537767631369 0 0.24375228786211539 -0.116580291014256 0 0.27267591943638608 -0.1048970298088977 0 0.25771864553297669 -0.099620140202181948 0 0.26256105175446781 -0.092679464148907056 0 0.25771864553297669 -0.099620140202181948 0 0.25304747237378489 -0.090741332181114118 0 0.24292322406264641 -0.096552741650977186 0 0.25771864553297669 -0.099620140202181948 0 0.26256105175446781 -0.092679464148907056 0 0.25304747237378489 -0.090741332181114118 0 0.27267591943638608 -0.1048970298088977 0 0.25771864553297669 -0.099620140202181948 0 0.26047800574605201 -0.11084537767631369 0 0.26776517015272971 -0.1222840496799191 0 0.26153006621115998 -0.13421007507225571 0 0.24375228786211539 -0.116580291014256 0 0.26776517015272971 -0.1222840496799191 0 0.24375228786211539 -0.116580291014256 0 0.26776517015272971 -0.1222840496799191 0 0.26047800574605201 -0.11084537767631369 0 0.24375228786211539 -0.116580291014256 0 0.27927949511770961 -0.070851454938488739 0 0.25811154610651499 -0.066123023671663908 0 0.26329678137076351 -0.053405898285071182 0 0.27927949511770961 -0.070851454938488739 0 0.25811154610651499 -0.066123023671663908 0 0.26883802324883782 -0.077063641498024305 0 0.27927949511770961 -0.070851454938488739 0 0.25811154610651499 -0.066123023671663908 0 0.26883802324883782 -0.077063641498024305 0 0.27927949511770961 -0.070851454938488739 0 0.27809334201771629 -0.079209584513290715 0 0.26883802324883782 -0.077063641498024305 0 0.27809334201771629 -0.079209584513290715 0 0.27734124638624891 -0.089737863242296378 0 0.26883802324883782 -0.077063641498024305 0 0.27734124638624891 -0.089737863242296378 0 0.25202197504294188 -0.078400955310045109 0 0.28691460331806928 -0.079185378374353493 0 0.27809334201771629 -0.079209584513290715 0 0.27734124638624891 -0.089737863242296378 0 0.27734124638624891 -0.089737863242296378 0 0.26256105175446781 -0.092679464148907056 0 0.25202197504294188 -0.078400955310045109 0 0.27734124638624891 -0.089737863242296378 0 0.25202197504294188 -0.078400955310045109 0 0.26256105175446781 -0.092679464148907056 0 0.25304747237378489 -0.090741332181114118 0 0.25202197504294188 -0.078400955310045109 0 0.25304747237378489 -0.090741332181114118 0 0.25202197504294188 -0.078400955310045109 0 0.24624903761231479 -0.086847438891893419 0 0.26883802324883782 -0.077063641498024305 0 0.25202197504294188 -0.078400955310045109 0 0.25811154610651499 -0.066123023671663908 0 0.25811154610651499 -0.066123023671663908 0 0.26329678137076351 -0.053405898285071182 0 0.24870160087168189 -0.052882304334001928 0 0.26329678137076351 -0.053405898285071182 0 0.24870160087168189 -0.052882304334001928 0 0.24731406762381819 -0.035960341631652723 0 0.27927949511770961 -0.070851454938488739 0 0.26329678137076351 -0.053405898285071182 0 0.27868582307562201 -0.055886184139343542 0 0.27927949511770961 -0.070851454938488739 0 0.26329678137076351 -0.053405898285071182 0 0.26329678137076351 -0.053405898285071182 0 0.27868582307562201 -0.055886184139343542 0 0.27337213238318842 -0.044040078526876879 0 0.27868582307562201 -0.055886184139343542 0 0.27337213238318842 -0.044040078526876879 0 0.28525528160713332 -0.050154543613187753 0 0.26329678137076351 -0.053405898285071182 0 0.27337213238318842 -0.044040078526876879 0 0.26311483972878968 -0.036713614733010089 0 0.27337213238318842 -0.044040078526876879 0 0.27217486102646721 -0.027861542379398439 0 0.28494473946257981 -0.034556038004921102 0 0.27337213238318842 -0.044040078526876879 0 0.26311483972878968 -0.036713614733010089 0 0.27217486102646721 -0.027861542379398439 0 0.27337213238318842 -0.044040078526876879 0 0.28525528160713332 -0.050154543613187753 0 0.28494473946257981 -0.034556038004921102 0 0.26311483972878968 -0.036713614733010089 0 0.25941635623971138 -0.02230021284205122 0 0.24731406762381819 -0.035960341631652723 0 0.26329678137076351 -0.053405898285071182 0 0.24731406762381819 -0.035960341631652723 0 0.26329678137076351 -0.053405898285071182 0 0.26311483972878968 -0.036713614733010089 0 0.24731406762381819 -0.035960341631652723 0 0.25941635623971138 -0.02230021284205122 0 0.24731406762381819 -0.035960341631652723 0 0.2482857443068576 -0.021714794414400052 0 0.25941635623971138 -0.02230021284205122 0 0.25508119948702751 -0.010083838205662381 0 0.2482857443068576 -0.021714794414400052 0 0.26311483972878968 -0.036713614733010089 0 0.25941635623971138 -0.02230021284205122 0 0.27217486102646721 -0.027861542379398439 0 0.2541426920980116 -0.0036136263454906951 0 0.25508119948702751 -0.010083838205662381 0 0.24138147174972829 -0.0061427828714447699 0 0.2541426920980116 -0.0036136263454906951 0 0.25508119948702751 -0.010083838205662381 0 0.26047117107291767 -0.0019720443344692288 0 0.25446675038947358 0.0029162606258486688 0 0.2541426920980116 -0.0036136263454906951 0 0.26047117107291767 -0.0019720443344692288 0 0.25941635623971138 -0.02230021284205122 0 0.25508119948702751 -0.010083838205662381 0 0.26474460583379889 -0.01023883548432745 0 0.25941635623971138 -0.02230021284205122 0 0.26474460583379889 -0.01023883548432745 0 0.27166734417845928 -0.01430021117376327 0 0.25508119948702751 -0.010083838205662381 0 0.26474460583379889 -0.01023883548432745 0 0.26047117107291767 -0.0019720443344692288 0 0.26474460583379889 -0.01023883548432745 0 0.26047117107291767 -0.0019720443344692288 0 0.27708695819087842 -0.0025378708656911609 0 0.26474460583379889 -0.01023883548432745 0 0.27166734417845928 -0.01430021117376327 0 0.27708695819087842 -0.0025378708656911609 0 0.27166734417845928 -0.01430021117376327 0 0.27708695819087842 -0.0025378708656911609 0 0.28469269166600031 -0.01545933141113482 0 0.27217486102646721 -0.027861542379398439 0 0.28469269166600031 -0.01545933141113482 0 0.28494473946257981 -0.034556038004921102 0 0.25941635623971138 -0.02230021284205122 0 0.27166734417845928 -0.01430021117376327 0 0.27217486102646721 -0.027861542379398439 0 0.27166734417845928 -0.01430021117376327 0 0.27217486102646721 -0.027861542379398439 0 0.28469269166600031 -0.01545933141113482 0 0.28469269166600031 -0.01545933141113482 0 0.29727596499766062 -0.023933315692393788 0 0.28494473946257981 -0.034556038004921102 0 0.30352242257352219 0.0039185454548519476 0 0.28469269166600031 -0.01545933141113482 0 0.29727596499766062 -0.023933315692393788 0 0.30352242257352219 0.0039185454548519476 0 0.27708695819087842 -0.0025378708656911609 0 0.28469269166600031 -0.01545933141113482 0 0.30352242257352219 0.0039185454548519476 0 0.32469666258817742 -0.019557632270551 0 0.29727596499766062 -0.023933315692393788 0 0.32469666258817742 -0.019557632270551 0 0.31326255248553708 -0.043768501277314603 0 0.29727596499766062 -0.023933315692393788 0 0.31326255248553708 -0.043768501277314603 0 0.29727596499766062 -0.023933315692393788 0 0.2968975050950291 -0.045887416406534938 0 0.31326255248553708 -0.043768501277314603 0 0.29727596499766062 -0.023933315692393788 0 0.31326255248553708 -0.043768501277314603 0 0.2968975050950291 -0.045887416406534938 0 0.31014365419524398 -0.06072536978512106 0 0.2968975050950291 -0.045887416406534938 0 0.31014365419524398 -0.06072536978512106 0 0.29222542489931519 -0.060978945333093171 0 0.2968975050950291 -0.045887416406534938 0 0.29222542489931519 -0.060978945333093171 0 0.28525528160713332 -0.050154543613187753 0 0.27868582307562201 -0.055886184139343542 0 0.29222542489931519 -0.060978945333093171 0 0.28525528160713332 -0.050154543613187753 0 0.2968975050950291 -0.045887416406534938 0 0.28525528160713332 -0.050154543613187753 0 0.28494473946257981 -0.034556038004921102 0 0.29727596499766062 -0.023933315692393788 0 0.2968975050950291 -0.045887416406534938 0 0.28494473946257981 -0.034556038004921102 0 0.29579617193404978 -0.19432558104056491 0 0.30588539897632072 -0.22256652654210629 0 0.2776594049058328 -0.2175861504380624 0 0.29579617193404978 -0.19432558104056491 0 0.2776594049058328 -0.2175861504380624 0 0.2764107852420567 -0.19644220614923899 0 0.29579617193404978 -0.19432558104056491 0 0.2764107852420567 -0.19644220614923899 0 0.2792899687438003 -0.18116405860585089 0 0.29579617193404978 -0.19432558104056491 0 0.31045946319455608 -0.20263901644370941 0 0.31057073564158039 -0.17760626025882659 0 0.29579617193404978 -0.19432558104056491 0 0.30588539897632072 -0.22256652654210629 0 0.31045946319455608 -0.20263901644370941 0 0.30588539897632072 -0.22256652654210629 0 0.32020032842118662 -0.2136972324735969 0 0.29579617193404978 -0.19432558104056491 0 0.31045946319455608 -0.20263901644370941 0 0.30588539897632072 -0.22256652654210629 0 0.29681701546221179 -0.23419681124085551 0 0.31597462601859122 -0.25080747204364812 0 0.30111904597271899 -0.2536098058489899 0 0.30588539897632072 -0.22256652654210629 0 0.29681701546221179 -0.23419681124085551 0 0.31597462601859122 -0.25080747204364812 0 0.30588539897632072 -0.22256652654210629 0 0.31597462601859122 -0.25080747204364812 0 0.29681701546221179 -0.23419681124085551 0 0.31597462601859122 -0.25080747204364812 0 0.29681701546221179 -0.23419681124085551 0 0.30111904597271899 -0.2536098058489899 0 0.28456511698073272 -0.25518130134833977 0 0.29681701546221179 -0.23419681124085551 0 0.27830026498091959 -0.23745462562099759 0 0.28456511698073272 -0.25518130134833977 0 0.30588539897632072 -0.22256652654210629 0 0.29681701546221179 -0.23419681124085551 0 0.2776594049058328 -0.2175861504380624 0 0.29681701546221179 -0.23419681124085551 0 0.27830026498091959 -0.23745462562099759 0 0.2776594049058328 -0.2175861504380624 0 0.29681701546221179 -0.23419681124085551 0 0.2776594049058328 -0.2175861504380624 0 0.26584409390649738 -0.23415831621220631 0 0.27830026498091959 -0.23745462562099759 0 0.2776594049058328 -0.2175861504380624 0 0.26584409390649738 -0.23415831621220631 0 0.25658827463044448 -0.2222138965281123 0 0.2776594049058328 -0.2175861504380624 0 0.27830026498091959 -0.23745462562099759 0 0.28456511698073272 -0.25518130134833977 0 0.26629969424128969 -0.25192769388052821 0 0.26584409390649738 -0.23415831621220631 0 0.27830026498091959 -0.23745462562099759 0 0.26629969424128969 -0.25192769388052821 0 0.26584409390649738 -0.23415831621220631 0 0.25037283077400019 -0.2416092145933311 0 0.26629969424128969 -0.25192769388052821 0 0.25037283077400019 -0.2416092145933311 0 0.25658827463044448 -0.2222138965281123 0 0.2446094219978813 -0.2276121794933563 0 0.26584409390649738 -0.23415831621220631 0 0.25037283077400019 -0.2416092145933311 0 0.25658827463044448 -0.2222138965281123 0 0.25658827463044448 -0.2222138965281123 0 0.2776594049058328 -0.2175861504380624 0 0.25850179434945381 -0.20097548963526929 0 0.25658827463044448 -0.2222138965281123 0 0.25850179434945381 -0.20097548963526929 0 0.23907695871134879 -0.21289681242661959 0 0.2776594049058328 -0.2175861504380624 0 0.25850179434945381 -0.20097548963526929 0 0.2776594049058328 -0.2175861504380624 0 0.2764107852420567 -0.19644220614923899 0 0.25850179434945381 -0.20097548963526929 0 0.2764107852420567 -0.19644220614923899 0 0.25850179434945381 -0.20097548963526929 0 0.26539786460737957 -0.18100391429238191 0 0.25850179434945381 -0.20097548963526929 0 0.26539786460737957 -0.18100391429238191 0 0.23934418379307471 -0.18436482883247621 0 0.26539786460737957 -0.18100391429238191 0 0.25449645062408999 -0.16331052089379791 0 0.23934418379307471 -0.18436482883247621 0 0.26539786460737957 -0.18100391429238191 0 0.25449645062408999 -0.16331052089379791 0 0.27043371620885309 -0.16438603764101259 0 0.25449645062408999 -0.16331052089379791 0 0.27043371620885309 -0.16438603764101259 0 0.2633734196266177 -0.15149826902969399 0 0.27043371620885309 -0.16438603764101259 0 0.2792899687438003 -0.18116405860585089 0 0.28570694489177878 -0.1660846355390232 0 0.27043371620885309 -0.16438603764101259 0 0.27930784456020519 -0.15183985913025491 0 0.28570694489177878 -0.1660846355390232 0 0.26539786460737957 -0.18100391429238191 0 0.27043371620885309 -0.16438603764101259 0 0.2792899687438003 -0.18116405860585089 0 0.2764107852420567 -0.19644220614923899 0 0.26539786460737957 -0.18100391429238191 0 0.2792899687438003 -0.18116405860585089 0 0.26153006621115998 -0.13421007507225571 0 0.24375228786211539 -0.116580291014256 0 0.24955680073527009 -0.143898101237383 0 0.26153006621115998 -0.13421007507225571 0 0.24375228786211539 -0.116580291014256 0 0.25449645062408999 -0.16331052089379791 0 0.2633734196266177 -0.15149826902969399 0 0.24955680073527009 -0.143898101237383 0 0.26153006621115998 -0.13421007507225571 0 0.2633734196266177 -0.15149826902969399 0 0.24955680073527009 -0.143898101237383 0 0.27043371620885309 -0.16438603764101259 0 0.2633734196266177 -0.15149826902969399 0 0.27930784456020519 -0.15183985913025491 0 0.27561771784950778 -0.13784369003748159 0 0.28570694489177878 -0.1660846355390232 0 0.26153006621115998 -0.13421007507225571 0 0.27930784456020519 -0.15183985913025491 0 0.27561771784950778 -0.13784369003748159 0 0.27930784456020519 -0.15183985913025491 0 0.27561771784950778 -0.13784369003748159 0 0.28570694489177878 -0.1660846355390232 0 0.26153006621115998 -0.13421007507225571 0 0.2633734196266177 -0.15149826902969399 0 0.27930784456020519 -0.15183985913025491 0 0.26153006621115998 -0.13421007507225571 0 0.27930784456020519 -0.15183985913025491 0 0.26776517015272971 -0.1222840496799191 0 0.27561771784950778 -0.13784369003748159 0 0.28721398294742878 -0.13035474923543569 0 0.26776517015272971 -0.1222840496799191 0 0.26153006621115998 -0.13421007507225571 0 0.27561771784950778 -0.13784369003748159 0 0.27561771784950778 -0.13784369003748159 0 0.28721398294742878 -0.13035474923543569 0 0.28891568690104508 -0.14625428249578579 0 0.28721398294742878 -0.13035474923543569 0 0.28891568690104508 -0.14625428249578579 0 0.29920842625061578 -0.1386190615635868 0 0.28891568690104508 -0.14625428249578579 0 0.29920842625061578 -0.1386190615635868 0 0.29789574789403661 -0.15876522012859751 0 0.27561771784950778 -0.13784369003748159 0 0.28891568690104508 -0.14625428249578579 0 0.28570694489177878 -0.1660846355390232 0 0.30985117626407932 -0.1486491484402036 0 0.29920842625061578 -0.1386190615635868 0 0.29789574789403661 -0.15876522012859751 0 0.30985117626407932 -0.1486491484402036 0 0.29789574789403661 -0.15876522012859751 0 0.3134799250960158 -0.16133035304856411 0 0.30985117626407932 -0.1486491484402036 0 0.29920842625061578 -0.1386190615635868 0 0.31980994510895661 -0.13408045692276491 0 0.3092169746865393 -0.1198258623704429 0 0.28721398294742878 -0.13035474923543569 0 0.29920842625061578 -0.1386190615635868 0 0.3092169746865393 -0.1198258623704429 0 0.29920842625061578 -0.1386190615635868 0 0.31980994510895661 -0.13408045692276491 0 0.29579617193404978 -0.19432558104056491 0 0.2792899687438003 -0.18116405860585089 0 0.28570694489177878 -0.1660846355390232 0 0.29579617193404978 -0.19432558104056491 0 0.28570694489177878 -0.1660846355390232 0 0.29579617193404978 -0.19432558104056491 0 0.28570694489177878 -0.1660846355390232 0 0.29784246694311001 -0.17248502473641619 0 0.28891568690104508 -0.14625428249578579 0 0.28570694489177878 -0.1660846355390232 0 0.29789574789403661 -0.15876522012859751 0 0.28570694489177878 -0.1660846355390232 0 0.29789574789403661 -0.15876522012859751 0 0.29784246694311001 -0.17248502473641619 0 0.29789574789403661 -0.15876522012859751 0 0.31057073564158039 -0.17760626025882659 0 0.3134799250960158 -0.16133035304856411 0 0.29789574789403661 -0.15876522012859751 0 0.31057073564158039 -0.17760626025882659 0 0.29784246694311001 -0.17248502473641619 0 0.29789574789403661 -0.15876522012859751 0 0.31057073564158039 -0.17760626025882659 0 0.29579617193404978 -0.19432558104056491 0 0.31057073564158039 -0.17760626025882659 0 0.29784246694311001 -0.17248502473641619 0 0.31057073564158039 -0.17760626025882659 0 0.33117051957001492 -0.16690810347740409 0 0.33960500058918919 -0.18923554211963439 0 0.31057073564158039 -0.17760626025882659 0 0.32324572338912438 -0.19644730038905581 0 0.3134799250960158 -0.16133035304856411 0 0.33117051957001492 -0.16690810347740409 0 0.32297156368297691 -0.15191279281852399 0 0.31057073564158039 -0.17760626025882659 0 0.3134799250960158 -0.16133035304856411 0 0.33117051957001492 -0.16690810347740409 0 0.33117051957001492 -0.16690810347740409 0 0.34312821131240068 -0.1490342399984359 0 0.35150112372442083 -0.17432517416681301 0 0.33117051957001492 -0.16690810347740409 0 0.35150112372442083 -0.17432517416681301 0 0.33960500058918919 -0.18923554211963439 0 0.33587402752894302 -0.122350175475488 0 0.3092169746865393 -0.1198258623704429 0 0.31980994510895661 -0.13408045692276491 0 0.30985117626407932 -0.1486491484402036 0 0.31980994510895661 -0.13408045692276491 0 0.32297156368297691 -0.15191279281852399 0 0.30985117626407932 -0.1486491484402036 0 0.3134799250960158 -0.16133035304856411 0 0.32297156368297691 -0.15191279281852399 0 0.33117051957001492 -0.16690810347740409 0 0.32297156368297691 -0.15191279281852399 0 0.34312821131240068 -0.1490342399984359 0 0.31980994510895661 -0.13408045692276491 0 0.32297156368297691 -0.15191279281852399 0 0.34312821131240068 -0.1490342399984359 0 0.33587402752894302 -0.122350175475488 0 0.31980994510895661 -0.13408045692276491 0 0.34312821131240068 -0.1490342399984359 0 0.36253108037134668 -0.1248744885805331 0 0.33587402752894302 -0.122350175475488 0 0.3555623608711499 -0.1359942506039106 0 0.33587402752894302 -0.122350175475488 0 0.34312821131240068 -0.1490342399984359 0 0.3555623608711499 -0.1359942506039106 0 0.34312821131240068 -0.1490342399984359 0 0.3555623608711499 -0.1359942506039106 0 0.36858459771950869 -0.15733985743645959 0 0.3555623608711499 -0.1359942506039106 0 0.36652086356581781 -0.12946943863695781 0 0.36858459771950869 -0.15733985743645959 0 0.36652086356581781 -0.12946943863695781 0 0.36858459771950869 -0.15733985743645959 0 0.36652086356581781 -0.12946943863695781 0 0.36858459771950869 -0.15733985743645959 0 0.3787995421462832 -0.1425544525875144 0 0.36652086356581781 -0.12946943863695781 0 0.37808333446084269 -0.1309391893982525 0 0.3787995421462832 -0.1425544525875144 0 0.36253108037134668 -0.1248744885805331 0 0.36652086356581781 -0.12946943863695781 0 0.37808333446084269 -0.1309391893982525 0 0.36253108037134668 -0.1248744885805331 0 0.3555623608711499 -0.1359942506039106 0 0.36652086356581781 -0.12946943863695781 0 0.35150112372442083 -0.17432517416681301 0 0.37064833187319962 -0.1852102762359614 0 0.35587008128221181 -0.19822302573298239 0 0.35150112372442083 -0.17432517416681301 0 0.35587008128221181 -0.19822302573298239 0 0.33960500058918919 -0.18923554211963439 0 0.34312821131240068 -0.1490342399984359 0 0.35150112372442083 -0.17432517416681301 0 0.36858459771950869 -0.15733985743645959 0 0.36858459771950869 -0.15733985743645959 0 0.37064833187319962 -0.1852102762359614 0 0.35150112372442083 -0.17432517416681301 0 0.36858459771950869 -0.15733985743645959 0 0.37064833187319962 -0.1852102762359614 0 0.36858459771950869 -0.15733985743645959 0 0.37064833187319962 -0.1852102762359614 0 0.3834788620725188 -0.17954848884060079 0 0.37064833187319962 -0.1852102762359614 0 0.37271206602689039 -0.21308069503546309 0 0.38139900114097952 -0.20469292352659629 0 0.37064833187319962 -0.1852102762359614 0 0.37271206602689039 -0.21308069503546309 0 0.37064833187319962 -0.1852102762359614 0 0.37271206602689039 -0.21308069503546309 0 0.35587008128221181 -0.19822302573298239 0 0.37271206602689039 -0.21308069503546309 0 0.35603419272415182 -0.2169366224123114 0 0.35587008128221181 -0.19822302573298239 0 0.35603419272415182 -0.2169366224123114 0 0.35587008128221181 -0.19822302573298239 0 0.33592071113666833 -0.21528834051928489 0 0.35587008128221181 -0.19822302573298239 0 0.33960500058918919 -0.18923554211963439 0 0.33592071113666833 -0.21528834051928489 0 0.33960500058918919 -0.18923554211963439 0 0.33592071113666833 -0.21528834051928489 0 0.32324572338912438 -0.19644730038905581 0 0.33592071113666833 -0.21528834051928489 0 0.32324572338912438 -0.19644730038905581 0 0.33592071113666833 -0.21528834051928489 0 0.32020032842118662 -0.2136972324735969 0 0.32324572338912438 -0.19644730038905581 0 0.31045946319455608 -0.20263901644370941 0 0.32020032842118662 -0.2136972324735969 0 0.32324572338912438 -0.19644730038905581 0 0.31057073564158039 -0.17760626025882659 0 0.33960500058918919 -0.18923554211963439 0 0.32324572338912438 -0.19644730038905581 0 0.31045946319455608 -0.20263901644370941 0 0.31057073564158039 -0.17760626025882659 0 0.32324572338912438 -0.19644730038905581 0 0.32549034540926353 -0.23154497847382799 0 0.33517615116993849 -0.24743488902137309 0 0.31597462601859122 -0.25080747204364812 0 0.30588539897632072 -0.22256652654210629 0 0.32549034540926353 -0.23154497847382799 0 0.31597462601859122 -0.25080747204364812 0 0.30588539897632072 -0.22256652654210629 0 0.32020032842118662 -0.2136972324735969 0 0.32549034540926353 -0.23154497847382799 0 0.33592071113666833 -0.21528834051928489 0 0.32020032842118662 -0.2136972324735969 0 0.32549034540926353 -0.23154497847382799 0 0.33592071113666833 -0.21528834051928489 0 0.32549034540926353 -0.23154497847382799 0 0.34859569888421221 -0.23412938064951411 0 0.33592071113666833 -0.21528834051928489 0 0.34859569888421221 -0.23412938064951411 0 0.32549034540926353 -0.23154497847382799 0 0.33517615116993849 -0.24743488902137309 0 0.34859569888421221 -0.23412938064951411 0 0.33517615116993849 -0.24743488902137309 0 0.34859569888421221 -0.23412938064951411 0 0.35185333732921159 -0.25428502110151557 0 0.34859569888421221 -0.23412938064951411 0 0.36075586336603621 -0.2426037127049111 0 0.35185333732921159 -0.25428502110151557 0 0.34859569888421221 -0.23412938064951411 0 0.36291464790978972 -0.22902601310760301 0 0.36075586336603621 -0.2426037127049111 0 0.35603419272415182 -0.2169366224123114 0 0.34859569888421221 -0.23412938064951411 0 0.36291464790978972 -0.22902601310760301 0 0.35603419272415182 -0.2169366224123114 0 0.33592071113666833 -0.21528834051928489 0 0.34859569888421221 -0.23412938064951411 0 0.37271206602689039 -0.21308069503546309 0 0.35603419272415182 -0.2169366224123114 0 0.36291464790978972 -0.22902601310760301 0 0.37271206602689039 -0.21308069503546309 0 0.37477580018058132 -0.24095111383496479 0 0.37555308153547928 -0.22286467051027881 0 0.37271206602689039 -0.21308069503546309 0 0.37477580018058132 -0.24095111383496479 0 0.37271206602689039 -0.21308069503546309 0 0.36291464790978972 -0.22902601310760301 0 0.37477580018058132 -0.24095111383496479 0 0.36075586336603621 -0.2426037127049111 0 0.37477580018058132 -0.24095111383496479 0 0.36563983252638571 -0.25462703483095822 0 0.36291464790978972 -0.22902601310760301 0 0.36075586336603621 -0.2426037127049111 0 0.37477580018058132 -0.24095111383496479 0 0.37477580018058132 -0.24095111383496479 0 0.39321551516580561 -0.23618023300957031 0 0.38725375881062551 -0.25185160038302579 0 0.39321551516580561 -0.23618023300957031 0 0.41087794879613182 -0.2494957955088617 0 0.40741230325918792 -0.23450562481703699 0 0.39321551516580561 -0.23618023300957031 0 0.41087794879613182 -0.2494957955088617 0 0.39321551516580561 -0.23618023300957031 0 0.38725375881062551 -0.25185160038302579 0 0.39640803358832022 -0.25154779433757402 0 0.39321551516580561 -0.23618023300957031 0 0.41087794879613182 -0.2494957955088617 0 0.39640803358832022 -0.25154779433757402 0 0.4055308246994358 -0.22407667781788709 0 0.39424069285124719 -0.22310079746779379 0 0.40434357831770951 -0.21487406561090469 0 0.4055308246994358 -0.22407667781788709 0 0.39424069285124719 -0.22310079746779379 0 0.40741230325918792 -0.23450562481703699 0 0.39321551516580561 -0.23618023300957031 0 0.39424069285124719 -0.22310079746779379 0 0.40741230325918792 -0.23450562481703699 0 0.37477580018058132 -0.24095111383496479 0 0.39321551516580561 -0.23618023300957031 0 0.37555308153547928 -0.22286467051027881 0 0.39424069285124719 -0.22310079746779379 0 0.37555308153547928 -0.22286467051027881 0 0.38300691860546521 -0.21527996176244341 0 0.39321551516580561 -0.23618023300957031 0 0.37555308153547928 -0.22286467051027881 0 0.39321551516580561 -0.23618023300957031 0 0.39424069285124719 -0.22310079746779379 0 0.37555308153547928 -0.22286467051027881 0 0.37271206602689039 -0.21308069503546309 0 0.37555308153547928 -0.22286467051027881 0 0.38300691860546521 -0.21527996176244341 0 0.37271206602689039 -0.21308069503546309 0 0.38139900114097952 -0.20469292352659629 0 0.38300691860546521 -0.21527996176244341 0 0.38139900114097952 -0.20469292352659629 0 0.39078770323730427 -0.19674260859680251 0 0.39112975147272949 -0.2126607222720846 0 0.38139900114097952 -0.20469292352659629 0 0.38300691860546521 -0.21527996176244341 0 0.39112975147272949 -0.2126607222720846 0 0.39424069285124719 -0.22310079746779379 0 0.38300691860546521 -0.21527996176244341 0 0.39112975147272949 -0.2126607222720846 0 0.37064833187319962 -0.1852102762359614 0 0.38139900114097952 -0.20469292352659629 0 0.39078770323730427 -0.19674260859680251 0 0.39078770323730427 -0.19674260859680251 0 0.40475141021500721 -0.1910589369573561 0 0.39510197637232292 -0.1839605883432579 0 0.39078770323730427 -0.19674260859680251 0 0.40426546228868082 -0.20108352786525729 0 0.397631623829106 -0.20634023108626229 0 0.39078770323730427 -0.19674260859680251 0 0.40426546228868082 -0.20108352786525729 0 0.40475141021500721 -0.1910589369573561 0 0.39078770323730427 -0.19674260859680251 0 0.39112975147272949 -0.2126607222720846 0 0.397631623829106 -0.20634023108626229 0 0.39112975147272949 -0.2126607222720846 0 0.397631623829106 -0.20634023108626229 0 0.40434357831770951 -0.21487406561090469 0 0.39424069285124719 -0.22310079746779379 0 0.39112975147272949 -0.2126607222720846 0 0.40434357831770951 -0.21487406561090469 0 0.40426546228868082 -0.20108352786525729 0 0.397631623829106 -0.20634023108626229 0 0.40434357831770951 -0.21487406561090469 0 0.40434357831770951 -0.21487406561090469 0 0.41713092845542321 -0.20900944133272009 0 0.41612672436959858 -0.22382622337581301 0 0.40426546228868082 -0.20108352786525729 0 0.40434357831770951 -0.21487406561090469 0 0.41713092845542321 -0.20900944133272009 0 0.41713092845542321 -0.20900944133272009 0 0.42330136258736267 -0.2174116668913772 0 0.41612672436959858 -0.22382622337581301 0 0.40475141021500721 -0.1910589369573561 0 0.41487892771890261 -0.19826025474908979 0 0.4146572714410397 -0.186958864794112 0 0.40426546228868082 -0.20108352786525729 0 0.41713092845542321 -0.20900944133272009 0 0.41487892771890261 -0.19826025474908979 0 0.40426546228868082 -0.20108352786525729 0 0.40475141021500721 -0.1910589369573561 0 0.41487892771890261 -0.19826025474908979 0 0.41713092845542321 -0.20900944133272009 0 0.41487892771890261 -0.19826025474908979 0 0.42701217502226602 -0.19751647228806199 0 0.41487892771890261 -0.19826025474908979 0 0.42053294087941678 -0.1923617771039739 0 0.42701217502226602 -0.19751647228806199 0 0.42053294087941678 -0.1923617771039739 0 0.4146572714410397 -0.186958864794112 0 0.42558338933545942 -0.1867115165846317 0 0.41487892771890261 -0.19826025474908979 0 0.42053294087941678 -0.1923617771039739 0 0.4146572714410397 -0.186958864794112 0 0.42701217502226602 -0.19751647228806199 0 0.43844209377108118 -0.18689286854296691 0 0.44355474576021348 -0.2050869029196882 0 0.42053294087941678 -0.1923617771039739 0 0.42701217502226602 -0.19751647228806199 0 0.42558338933545942 -0.1867115165846317 0 0.42701217502226602 -0.19751647228806199 0 0.42558338933545942 -0.1867115165846317 0 0.43844209377108118 -0.18689286854296691 0 0.42701217502226602 -0.19751647228806199 0 0.43006687167525981 -0.21185300334864521 0 0.44355474576021348 -0.2050869029196882 0 0.41713092845542321 -0.20900944133272009 0 0.42330136258736267 -0.2174116668913772 0 0.43006687167525981 -0.21185300334864521 0 0.42330136258736267 -0.2174116668913772 0 0.43006687167525981 -0.21185300334864521 0 0.42988092584916948 -0.2249579995083304 0 0.41713092845542321 -0.20900944133272009 0 0.42701217502226602 -0.19751647228806199 0 0.43006687167525981 -0.21185300334864521 0 0.43006687167525981 -0.21185300334864521 0 0.42988092584916948 -0.2249579995083304 0 0.44009267276725389 -0.2176624614444449 0 0.42330136258736267 -0.2174116668913772 0 0.42988092584916948 -0.2249579995083304 0 0.41612672436959858 -0.22382622337581301 0 0.42988092584916948 -0.2249579995083304 0 0.43458399188612801 -0.2397076170126072 0 0.42159465327244361 -0.23640953485310751 0 0.42988092584916948 -0.2249579995083304 0 0.42159465327244361 -0.23640953485310751 0 0.41612672436959858 -0.22382622337581301 0 0.42988092584916948 -0.2249579995083304 0 0.43458399188612801 -0.2397076170126072 0 0.44416109061426973 -0.22983272991065171 0 0.43458399188612801 -0.2397076170126072 0 0.42656562700980838 -0.24831468624349931 0 0.4372088962240912 -0.25169219704383999 0 0.43458399188612801 -0.2397076170126072 0 0.42656562700980838 -0.24831468624349931 0 0.42159465327244361 -0.23640953485310751 0 0.42656562700980838 -0.24831468624349931 0 0.42159465327244361 -0.23640953485310751 0 0.41087794879613182 -0.2494957955088617 0 0.42159465327244361 -0.23640953485310751 0 0.41087794879613182 -0.2494957955088617 0 0.40741230325918792 -0.23450562481703699 0 0.4055308246994358 -0.22407667781788709 0 0.40741230325918792 -0.23450562481703699 0 0.41612672436959858 -0.22382622337581301 0 0.4055308246994358 -0.22407667781788709 0 0.40434357831770951 -0.21487406561090469 0 0.41612672436959858 -0.22382622337581301 0 0.42159465327244361 -0.23640953485310751 0 0.40741230325918792 -0.23450562481703699 0 0.41612672436959858 -0.22382622337581301 0 0.39823574772599779 -0.11763079726210079 0 0.40257569972698831 -0.13396225485532559 0 0.38918813321375051 -0.12739880168557821 0 0.40257569972698831 -0.13396225485532559 0 0.38918813321375051 -0.12739880168557821 0 0.39017348084279901 -0.13955387731924049 0 0.38918813321375051 -0.12739880168557821 0 0.37808333446084269 -0.1309391893982525 0 0.39017348084279901 -0.13955387731924049 0 0.37720890243704291 -0.12310924361699779 0 0.36253108037134668 -0.1248744885805331 0 0.38918813321375051 -0.12739880168557821 0 0.36253108037134668 -0.1248744885805331 0 0.38918813321375051 -0.12739880168557821 0 0.37808333446084269 -0.1309391893982525 0 0.36253108037134668 -0.1248744885805331 0 0.38918813321375051 -0.12739880168557821 0 0.37808333446084269 -0.1309391893982525 0 0.39017348084279901 -0.13955387731924049 0 0.3787995421462832 -0.1425544525875144 0 0.36858459771950869 -0.15733985743645959 0 0.3787995421462832 -0.1425544525875144 0 0.38535727780346091 -0.1527557998392445 0 0.39017348084279901 -0.13955387731924049 0 0.3787995421462832 -0.1425544525875144 0 0.38535727780346091 -0.1527557998392445 0 0.40257569972698831 -0.13396225485532559 0 0.39822107621443897 -0.1501202070538992 0 0.41732028123257531 -0.14286435439753159 0 0.40257569972698831 -0.13396225485532559 0 0.39017348084279901 -0.13955387731924049 0 0.39822107621443897 -0.1501202070538992 0 0.39017348084279901 -0.13955387731924049 0 0.38535727780346091 -0.1527557998392445 0 0.39822107621443897 -0.1501202070538992 0 0.39822107621443897 -0.1501202070538992 0 0.39107178753907162 -0.16851380255406381 0 0.40713652226246821 -0.16744863749245631 0 0.39107178753907162 -0.16851380255406381 0 0.40713652226246821 -0.16744863749245631 0 0.38535727780346091 -0.1527557998392445 0 0.39822107621443897 -0.1501202070538992 0 0.39107178753907162 -0.16851380255406381 0 0.39107178753907162 -0.16851380255406381 0 0.40460499843718001 -0.17902112385493851 0 0.40713652226246821 -0.16744863749245631 0 0.36858459771950869 -0.15733985743645959 0 0.38535727780346091 -0.1527557998392445 0 0.39107178753907162 -0.16851380255406381 0 0.36858459771950869 -0.15733985743645959 0 0.39107178753907162 -0.16851380255406381 0 0.3834788620725188 -0.17954848884060079 0 0.39107178753907162 -0.16851380255406381 0 0.3834788620725188 -0.17954848884060079 0 0.39510197637232292 -0.1839605883432579 0 0.39078770323730427 -0.19674260859680251 0 0.3834788620725188 -0.17954848884060079 0 0.39510197637232292 -0.1839605883432579 0 0.37064833187319962 -0.1852102762359614 0 0.39078770323730427 -0.19674260859680251 0 0.3834788620725188 -0.17954848884060079 0 0.39107178753907162 -0.16851380255406381 0 0.39510197637232292 -0.1839605883432579 0 0.40460499843718001 -0.17902112385493851 0 0.40475141021500721 -0.1910589369573561 0 0.39510197637232292 -0.1839605883432579 0 0.40460499843718001 -0.17902112385493851 0 0.40475141021500721 -0.1910589369573561 0 0.40460499843718001 -0.17902112385493851 0 0.4146572714410397 -0.186958864794112 0 0.40460499843718001 -0.17902112385493851 0 0.41491102279317088 -0.17618591298838529 0 0.4146572714410397 -0.186958864794112 0 0.40460499843718001 -0.17902112385493851 0 0.41491102279317088 -0.17618591298838529 0 0.40713652226246821 -0.16744863749245631 0 0.41491102279317088 -0.17618591298838529 0 0.42527009306055918 -0.1746571334479238 0 0.4232012569858648 -0.16638347243084889 0 0.41491102279317088 -0.17618591298838529 0 0.42095079563492938 -0.18072636251124541 0 0.42527009306055918 -0.1746571334479238 0 0.41491102279317088 -0.17618591298838529 0 0.42095079563492938 -0.18072636251124541 0 0.4146572714410397 -0.186958864794112 0 0.42095079563492938 -0.18072636251124541 0 0.4146572714410397 -0.186958864794112 0 0.42558338933545942 -0.1867115165846317 0 0.43180268423531071 -0.1802632517690351 0 0.42527009306055918 -0.1746571334479238 0 0.44880083799057491 -0.164686103644653 0 0.42095079563492938 -0.18072636251124541 0 0.42558338933545942 -0.1867115165846317 0 0.43180268423531071 -0.1802632517690351 0 0.42558338933545942 -0.1867115165846317 0 0.43180268423531071 -0.1802632517690351 0 0.43844209377108118 -0.18689286854296691 0 0.42095079563492938 -0.18072636251124541 0 0.43180268423531071 -0.1802632517690351 0 0.42527009306055918 -0.1746571334479238 0 0.42527009306055918 -0.1746571334479238 0 0.4232012569858648 -0.16638347243084889 0 0.44880083799057491 -0.164686103644653 0 0.4232012569858648 -0.16638347243084889 0 0.43334283997313311 -0.15135273030925811 0 0.44880083799057491 -0.164686103644653 0 0.4232012569858648 -0.16638347243084889 0 0.44880083799057491 -0.164686103644653 0 0.42527009306055918 -0.1746571334479238 0 0.4232012569858648 -0.16638347243084889 0 0.4232012569858648 -0.16638347243084889 0 0.40713652226246821 -0.16744863749245631 0 0.41732028123257531 -0.14286435439753159 0 0.41491102279317088 -0.17618591298838529 0 0.4232012569858648 -0.16638347243084889 0 0.40713652226246821 -0.16744863749245631 0 0.4232012569858648 -0.16638347243084889 0 0.40713652226246821 -0.16744863749245631 0 0.4232012569858648 -0.16638347243084889 0 0.41732028123257531 -0.14286435439753159 0 0.39822107621443897 -0.1501202070538992 0 0.40713652226246821 -0.16744863749245631 0 0.41732028123257531 -0.14286435439753159 0 0.41732028123257531 -0.14286435439753159 0 0.43334283997313311 -0.15135273030925811 0 0.43763345530417341 -0.13584027725706749 0 0.4232012569858648 -0.16638347243084889 0 0.41732028123257531 -0.14286435439753159 0 0.43334283997313311 -0.15135273030925811 0 0.42916935431308728 -0.1205456085246996 0 0.41732028123257531 -0.14286435439753159 0 0.43763345530417341 -0.13584027725706749 0 0.42916935431308728 -0.1205456085246996 0 0.4435038969132965 -0.12540022695152131 0 0.43763345530417341 -0.13584027725706749 0 0.41143930547928681 -0.11934523636421419 0 0.42916935431308728 -0.1205456085246996 0 0.41732028123257531 -0.14286435439753159 0 0.41143930547928681 -0.11934523636421419 0 0.40257569972698831 -0.13396225485532559 0 0.41732028123257531 -0.14286435439753159 0 0.41143930547928681 -0.11934523636421419 0 0.41732028123257531 -0.14286435439753159 0 0.46257396642688631 -0.12529077885077469 0 0.46381730130484328 -0.1363472541609663 0 0.4585659370706795 -0.1308283620105129 0 0.46381730130484328 -0.1363472541609663 0 0.4585659370706795 -0.1308283620105129 0 0.45274550479158487 -0.1345999168850856 0 0.46381730130484328 -0.1363472541609663 0 0.45274550479158487 -0.1345999168850856 0 0.46138481906560302 -0.14686228775601681 0 0.46257396642688631 -0.12529077885077469 0 0.4585659370706795 -0.1308283620105129 0 0.45239247298790419 -0.125419693033265 0 0.4585659370706795 -0.1308283620105129 0 0.45239247298790419 -0.125419693033265 0 0.45274550479158487 -0.1345999168850856 0 0.45239247298790419 -0.125419693033265 0 0.4435038969132965 -0.12540022695152131 0 0.45274550479158487 -0.1345999168850856 0 0.4435038969132965 -0.12540022695152131 0 0.43763345530417341 -0.13584027725706749 0 0.45274550479158487 -0.1345999168850856 0 0.43763345530417341 -0.13584027725706749 0 0.45274550479158487 -0.1345999168850856 0 0.44678149142501389 -0.1466682631704162 0 0.43334283997313311 -0.15135273030925811 0 0.44678149142501389 -0.1466682631704162 0 0.44880083799057491 -0.164686103644653 0 0.44678149142501389 -0.1466682631704162 0 0.46138481906560302 -0.14686228775601681 0 0.44880083799057491 -0.164686103644653 0 0.43334283997313311 -0.15135273030925811 0 0.43763345530417341 -0.13584027725706749 0 0.44678149142501389 -0.1466682631704162 0 0.45274550479158487 -0.1345999168850856 0 0.44678149142501389 -0.1466682631704162 0 0.46138481906560302 -0.14686228775601681 0 0.46138481906560302 -0.14686228775601681 0 0.44880083799057491 -0.164686103644653 0 0.47440041899528501 -0.16298873485845719 0 0.44880083799057491 -0.164686103644653 0 0.46834799031954211 -0.17915452781490099 0 0.47440041899528501 -0.16298873485845719 0 0.44880083799057491 -0.164686103644653 0 0.47440041899528501 -0.16298873485845719 0 0.43180268423531071 -0.1802632517690351 0 0.44880083799057491 -0.164686103644653 0 0.43844209377108118 -0.18689286854296691 0 0.44880083799057491 -0.164686103644653 0 0.43844209377108118 -0.18689286854296691 0 0.45508032593701309 -0.1914137801830845 0 0.44880083799057491 -0.164686103644653 0 0.46834799031954211 -0.17915452781490099 0 0.45508032593701309 -0.1914137801830845 0 0.46834799031954211 -0.17915452781490099 0 0.48419704391512092 -0.17843144908975531 0 0.47440041899528501 -0.16298873485845719 0 0.46834799031954211 -0.17915452781490099 0 0.48419704391512092 -0.17843144908975531 0 0.47823681026078202 -0.19812675643970101 0 0.48419704391512092 -0.17843144908975531 0 0.49999999999999523 -0.16129136607226169 0 0.5 -0.1905958602634561 0 0.49999999999999523 -0.16129136607226169 0 0.47440041899528501 -0.16298873485845719 0 0.50000000000000067 -0.1547763741112759 0 0.48419704391512092 -0.17843144908975531 0 0.49999999999999523 -0.16129136607226169 0 0.47440041899528501 -0.16298873485845719 0 0.49999999999999523 -0.16129136607226169 0 0.47440041899528501 -0.16298873485845719 0 0.46138481906560302 -0.14686228775601681 0 0.47440041899528501 -0.16298873485845719 0 0.48128698321344371 -0.14003357648102521 0 0.46381730130484328 -0.1363472541609663 0 0.46138481906560302 -0.14686228775601681 0 0.48128698321344371 -0.14003357648102521 0 0.50000000000000067 -0.1547763741112759 0 0.48128698321344371 -0.14003357648102521 0 0.50000000000000067 -0.1547763741112759 0 0.5 -0.13349841451636779 0 0.48128698321344371 -0.14003357648102521 0 0.47440041899528501 -0.16298873485845719 0 0.50000000000000067 -0.1547763741112759 0 0.48128698321344371 -0.14003357648102521 0 0.48087269318342413 -0.1216818802472065 0 0.5 -0.13349841451636779 0 0.48128698321344371 -0.14003357648102521 0 0.46257396642688631 -0.12529077885077469 0 0.48128698321344371 -0.14003357648102521 0 0.46257396642688631 -0.12529077885077469 0 0.46381730130484328 -0.1363472541609663 0 0.48128698321344371 -0.14003357648102521 0 0.47129126618897188 -0.1223351355815797 0 0.48087269318342413 -0.1216818802472065 0 0.48128698321344371 -0.14003357648102521 0 0.47129126618897188 -0.1223351355815797 0 0.46257396642688631 -0.12529077885077469 0 0.48128698321344371 -0.14003357648102521 0 0.46029750420545162 -0.23134667767863379 0 0.45079963313025367 -0.219495204315066 0 0.46126535540865482 -0.21094244298034759 0 0.46029750420545162 -0.23134667767863379 0 0.46126535540865482 -0.21094244298034759 0 0.47937109712497578 -0.22608105856418539 0 0.46029750420545162 -0.23134667767863379 0 0.44856132313442931 -0.24393079079591279 0 0.47387431588802909 -0.25499376211151131 0 0.46029750420545162 -0.23134667767863379 0 0.44856132313442931 -0.24393079079591279 0 0.44416109061426973 -0.22983272991065171 0 0.43458399188612801 -0.2397076170126072 0 0.44856132313442931 -0.24393079079591279 0 0.4372088962240912 -0.25169219704383999 0 0.43458399188612801 -0.2397076170126072 0 0.44856132313442931 -0.24393079079591279 0 0.44416109061426973 -0.22983272991065171 0 0.46029750420545162 -0.23134667767863379 0 0.44416109061426973 -0.22983272991065171 0 0.45079963313025367 -0.219495204315066 0 0.44416109061426973 -0.22983272991065171 0 0.45079963313025367 -0.219495204315066 0 0.44009267276725389 -0.2176624614444449 0 0.42988092584916948 -0.2249579995083304 0 0.44416109061426973 -0.22983272991065171 0 0.44009267276725389 -0.2176624614444449 0 0.45079963313025367 -0.219495204315066 0 0.44355474576021348 -0.2050869029196882 0 0.46126535540865482 -0.21094244298034759 0 0.43006687167525981 -0.21185300334864521 0 0.44009267276725389 -0.2176624614444449 0 0.44355474576021348 -0.2050869029196882 0 0.45079963313025367 -0.219495204315066 0 0.44009267276725389 -0.2176624614444449 0 0.44355474576021348 -0.2050869029196882 0 0.43844209377108118 -0.18689286854296691 0 0.44355474576021348 -0.2050869029196882 0 0.45508032593701309 -0.1914137801830845 0 0.46834799031954211 -0.17915452781490099 0 0.45508032593701309 -0.1914137801830845 0 0.47823681026078202 -0.19812675643970101 0 0.44355474576021348 -0.2050869029196882 0 0.45508032593701309 -0.1914137801830845 0 0.46126535540865482 -0.21094244298034759 0 0.45508032593701309 -0.1914137801830845 0 0.46126535540865482 -0.21094244298034759 0 0.47823681026078202 -0.19812675643970101 0 0.46126535540865482 -0.21094244298034759 0 0.47823681026078202 -0.19812675643970101 0 0.47937109712497578 -0.22608105856418539 0 0.48419704391512092 -0.17843144908975531 0 0.47823681026078202 -0.19812675643970101 0 0.5 -0.1905958602634561 0 0.47823681026078202 -0.19812675643970101 0 0.5 -0.1905958602634561 0 0.5 -0.21990035445465039 0 0.47823681026078202 -0.19812675643970101 0 0.5 -0.21990035445465039 0 0.47937109712497578 -0.22608105856418539 0 0.5 -0.21990035445465039 0 0.47937109712497578 -0.22608105856418539 0 0.50000000000000444 -0.24920484864584491 0 0.46029750420545162 -0.23134667767863379 0 0.47937109712497578 -0.22608105856418539 0 0.47387431588802909 -0.25499376211151131 0 0.47937109712497578 -0.22608105856418539 0 0.50000000000000444 -0.24920484864584491 0 0.47387431588802909 -0.25499376211151131 0 0.50000000000000444 -0.24920484864584491 0 0.4915669900217115 -0.25615479242606781 0 0.5 -0.27170772691138367 0 0.50000000000000444 -0.24920484864584491 0 0.4915669900217115 -0.25615479242606781 0 0.47387431588802909 -0.25499376211151131 0 0.50000000000000444 -0.24920484864584491 0 0.47387431588802909 -0.25499376211151131 0 0.4915669900217115 -0.25615479242606781 0 0.48280749151585822 -0.27129304150170008 0 0.47954864786353962 -0.26301133191085868 0 0.4915669900217115 -0.25615479242606781 0 0.5 -0.27170772691138367 0 0.48280749151585822 -0.27129304150170008 0 0.5 -0.27170772691138367 0 0.48280749151585822 -0.27129304150170008 0 0.48951500520952212 -0.28458010338455908 0 0.48280749151585822 -0.27129304150170008 0 0.47474596181800061 -0.28621450290334632 0 0.48951500520952212 -0.28458010338455908 0 0.48280749151585822 -0.27129304150170008 0 0.47416229901770612 -0.26612875971404459 0 0.47954864786353962 -0.26301133191085868 0 0.48280749151585822 -0.27129304150170008 0 0.47416229901770612 -0.26612875971404459 0 0.47052118473631321 -0.27447720361836658 0 0.47416229901770612 -0.26612875971404459 0 0.47052118473631321 -0.27447720361836658 0 0.46319689217890331 -0.26835660325056299 0 0.48280749151585822 -0.27129304150170008 0 0.47052118473631321 -0.27447720361836658 0 0.47474596181800061 -0.28621450290334632 0 0.4915669900217115 -0.25615479242606781 0 0.46965781089888248 -0.25846873400162218 0 0.4915669900217115 -0.25615479242606781 0 0.47387431588802909 -0.25499376211151131 0 0.46965781089888248 -0.25846873400162218 0 0.4915669900217115 -0.25615479242606781 0 0.47954864786353962 -0.26301133191085868 0 0.46965781089888248 -0.25846873400162218 0 0.47416229901770612 -0.26612875971404459 0 0.47954864786353962 -0.26301133191085868 0 0.46965781089888248 -0.25846873400162218 0 0.47416229901770612 -0.26612875971404459 0 0.46965781089888248 -0.25846873400162218 0 0.46319689217890331 -0.26835660325056299 0 0.46965781089888248 -0.25846873400162218 0 0.46319689217890331 -0.26835660325056299 0 0.4477486317760534 -0.26078267557717671 0 0.44856132313442931 -0.24393079079591279 0 0.47387431588802909 -0.25499376211151131 0 0.4477486317760534 -0.26078267557717671 0 0.47387431588802909 -0.25499376211151131 0 0.4477486317760534 -0.26078267557717671 0 0.46965781089888248 -0.25846873400162218 0 0.4477486317760534 -0.26078267557717671 0 0.47387431588802909 -0.25499376211151131 0 0.46965781089888248 -0.25846873400162218 0 0.4477486317760534 -0.26078267557717671 0 0.47052118473631321 -0.27447720361836658 0 0.45389453446556111 -0.28192564334160541 0 0.47474596181800061 -0.28621450290334632 0 0.47052118473631321 -0.27447720361836658 0 0.46319689217890331 -0.26835660325056299 0 0.45389453446556111 -0.28192564334160541 0 0.46319689217890331 -0.26835660325056299 0 0.4477486317760534 -0.26078267557717671 0 0.45389453446556111 -0.28192564334160541 0 0.45389453446556111 -0.28192564334160541 0 0.430823863629894 -0.26453285558412298 0 0.45389453446556111 -0.28192564334160541 0 0.430823863629894 -0.26453285558412298 0 0.43570592202634773 -0.28205449164250063 0 0.4477486317760534 -0.26078267557717671 0 0.45389453446556111 -0.28192564334160541 0 0.430823863629894 -0.26453285558412298 0 0.4477486317760534 -0.26078267557717671 0 0.42854038242645709 -0.26281135800815408 0 0.44856132313442931 -0.24393079079591279 0 0.4477486317760534 -0.26078267557717671 0 0.4372088962240912 -0.25169219704383999 0 0.4477486317760534 -0.26078267557717671 0 0.42854038242645709 -0.26281135800815408 0 0.4372088962240912 -0.25169219704383999 0 0.4477486317760534 -0.26078267557717671 0 0.430823863629894 -0.26453285558412298 0 0.44815314542162782 -0.30273998798419938 0 0.44271266904340639 -0.31513600928105973 0 0.43092107089682352 -0.30573631325696571 0 0.44815314542162782 -0.30273998798419938 0 0.43874415768382158 -0.29310671547163403 0 0.43092107089682352 -0.30573631325696571 0 0.43874415768382158 -0.29310671547163403 0 0.45389453446556111 -0.28192564334160541 0 0.43570592202634773 -0.28205449164250063 0 0.44815314542162782 -0.30273998798419938 0 0.43874415768382158 -0.29310671547163403 0 0.45389453446556111 -0.28192564334160541 0 0.45389453446556111 -0.28192564334160541 0 0.46668010371271101 -0.29937682325086112 0 0.47474596181800061 -0.28621450290334632 0 0.44815314542162782 -0.30273998798419938 0 0.45389453446556111 -0.28192564334160541 0 0.46668010371271101 -0.29937682325086112 0 0.46668010371271101 -0.29937682325086112 0 0.45907432653114449 -0.32014896664993769 0 0.44815314542162782 -0.30273998798419938 0 0.46668010371271101 -0.29937682325086112 0 0.45907432653114449 -0.32014896664993769 0 0.46668010371271101 -0.29937682325086112 0 0.48375110351916628 -0.30725513966339157 0 0.45907432653114449 -0.32014896664993769 0 0.46668010371271101 -0.29937682325086112 0 0.48375110351916628 -0.30725513966339157 0 0.47474596181800061 -0.28621450290334632 0 0.48375110351916628 -0.30725513966339157 0 0.47474596181800061 -0.28621450290334632 0 0.48951500520952212 -0.28458010338455908 0 0.48375110351916628 -0.30725513966339157 0 0.5 -0.29421060517692271 0 0.48951500520952212 -0.28458010338455908 0 0.5 -0.27170772691138367 0 0.5 -0.29421060517692271 0 0.48951500520952212 -0.28458010338455908 0 0.48375110351916628 -0.30725513966339157 0 0.5 -0.29421060517692271 0 0.49999999999999972 -0.31671348344246159 0 0.48375110351916628 -0.30725513966339157 0 0.49999999999999972 -0.31671348344246159 0 0.48658745812515303 -0.32591538654610069 0 0.49999999999999972 -0.31671348344246159 0 0.49107839048707969 -0.33844651150006611 0 0.49999999999999972 -0.31671348344246159 0 0.48658745812515303 -0.32591538654610069 0 0.49107839048707969 -0.33844651150006611 0 0.49999999999999972 -0.31671348344246159 0 0.5 -0.34354646621870782 0 0.49107839048707969 -0.33844651150006611 0 0.48658745812515303 -0.32591538654610069 0 0.49107839048707969 -0.33844651150006611 0 0.48013111160135669 -0.33592777501669763 0 0.48658745812515303 -0.32591538654610069 0 0.48013111160135669 -0.33592777501669763 0 0.47588582758327369 -0.32632043512378739 0 0.48013111160135669 -0.33592777501669763 0 0.46883970942210401 -0.33989811375075968 0 0.47588582758327369 -0.32632043512378739 0 0.48375110351916628 -0.30725513966339157 0 0.48658745812515303 -0.32591538654610069 0 0.47588582758327369 -0.32632043512378739 0 0.48375110351916628 -0.30725513966339157 0 0.47588582758327369 -0.32632043512378739 0 0.45907432653114449 -0.32014896664993769 0 0.5 -0.37037944899495368 0 0.48466784746851571 -0.3739080713738358 0 0.48215678097416009 -0.36017953955767068 0 0.5 -0.34354646621870782 0 0.49107839048707969 -0.33844651150006611 0 0.48215678097416009 -0.36017953955767068 0 0.49107839048707969 -0.33844651150006611 0 0.48013111160135669 -0.33592777501669763 0 0.48215678097416009 -0.36017953955767068 0 0.5 -0.34354646621870782 0 0.5 -0.37037944899495368 0 0.48215678097416009 -0.36017953955767068 0 0.49107839048707969 -0.33844651150006611 0 0.48215678097416009 -0.36017953955767068 0 0.48013111160135669 -0.33592777501669763 0 0.46883970942210401 -0.33989811375075968 0 0.48215678097416009 -0.36017953955767068 0 0.46883970942210401 -0.33989811375075968 0 0.48215678097416009 -0.36017953955767068 0 0.46166172922915721 -0.35810144835948332 0 0.48215678097416009 -0.36017953955767068 0 0.47323517146124039 -0.38191256761527542 0 0.48215678097416009 -0.36017953955767068 0 0.4671179630262795 -0.37324494563770522 0 0.47323517146124039 -0.38191256761527542 0 0.48466784746851571 -0.3739080713738358 0 0.48215678097416009 -0.36017953955767068 0 0.47323517146124039 -0.38191256761527542 0 0.48215678097416009 -0.36017953955767068 0 0.4671179630262795 -0.37324494563770522 0 0.46166172922915721 -0.35810144835948332 0 0.45652460043480969 -0.37267172771365881 0 0.46166172922915721 -0.35810144835948332 0 0.44386277216801179 -0.36169325344809122 0 0.45652460043480969 -0.37267172771365881 0 0.4671179630262795 -0.37324494563770522 0 0.46166172922915721 -0.35810144835948332 0 0.46883970942210401 -0.33989811375075968 0 0.46166172922915721 -0.35810144835948332 0 0.45146854934957792 -0.34092111004901438 0 0.43963091224731599 -0.34751792105314822 0 0.44386277216801179 -0.36169325344809122 0 0.45146854934957792 -0.34092111004901438 0 0.44386277216801179 -0.36169325344809122 0 0.45146854934957792 -0.34092111004901438 0 0.46166172922915721 -0.35810144835948332 0 0.44386277216801179 -0.36169325344809122 0 0.45146854934957792 -0.34092111004901438 0 0.44386277216801179 -0.36169325344809122 0 0.43376943787959182 -0.36708850497004442 0 0.43808065797110041 -0.37748478958974491 0 0.45652460043480969 -0.37267172771365881 0 0.44386277216801179 -0.36169325344809122 0 0.44783900322824399 -0.38008781189722518 0 0.44386277216801179 -0.36169325344809122 0 0.43808065797110041 -0.37748478958974491 0 0.44386277216801179 -0.36169325344809122 0 0.43808065797110041 -0.37748478958974491 0 0.44783900322824399 -0.38008781189722518 0 0.45652460043480969 -0.37267172771365881 0 0.44386277216801179 -0.36169325344809122 0 0.46883970942210401 -0.33989811375075968 0 0.45907432653114449 -0.32014896664993769 0 0.45146854934957792 -0.34092111004901438 0 0.45907432653114449 -0.32014896664993769 0 0.45146854934957792 -0.34092111004901438 0 0.46883970942210401 -0.33989811375075968 0 0.47588582758327369 -0.32632043512378739 0 0.45907432653114449 -0.32014896664993769 0 0.43963091224731599 -0.34751792105314822 0 0.45146854934957792 -0.34092111004901438 0 0.43565299676263758 -0.3352386806192425 0 0.45146854934957792 -0.34092111004901438 0 0.44493724809618768 -0.32603283426431229 0 0.43565299676263758 -0.3352386806192425 0 0.45907432653114449 -0.32014896664993769 0 0.45146854934957792 -0.34092111004901438 0 0.44493724809618768 -0.32603283426431229 0 0.45907432653114449 -0.32014896664993769 0 0.44493724809618768 -0.32603283426431229 0 0.44271266904340639 -0.31513600928105973 0 0.44493724809618768 -0.32603283426431229 0 0.44271266904340639 -0.31513600928105973 0 0.43047755427124879 -0.32102194424988317 0 0.44815314542162782 -0.30273998798419938 0 0.45907432653114449 -0.32014896664993769 0 0.44271266904340639 -0.31513600928105973 0 0.44271266904340639 -0.31513600928105973 0 0.43047755427124879 -0.32102194424988317 0 0.43092107089682352 -0.30573631325696571 0 0.43047755427124879 -0.32102194424988317 0 0.41919911313656122 -0.31385112706466711 0 0.41739686236043672 -0.32199345155319897 0 0.43047755427124879 -0.32102194424988317 0 0.41919911313656122 -0.31385112706466711 0 0.43092107089682352 -0.30573631325696571 0 0.43047755427124879 -0.32102194424988317 0 0.42053718701310799 -0.32957674384091618 0 0.41739686236043672 -0.32199345155319897 0 0.44493724809618768 -0.32603283426431229 0 0.43047755427124879 -0.32102194424988317 0 0.43565299676263758 -0.3352386806192425 0 0.43565299676263758 -0.3352386806192425 0 0.42053718701310799 -0.32957674384091618 0 0.4250793590774925 -0.34540704162396091 0 0.43963091224731599 -0.34751792105314822 0 0.43565299676263758 -0.3352386806192425 0 0.4250793590774925 -0.34540704162396091 0 0.43047755427124879 -0.32102194424988317 0 0.43565299676263758 -0.3352386806192425 0 0.42053718701310799 -0.32957674384091618 0 0.4062959459869725 -0.32912082979983148 0 0.4250793590774925 -0.34540704162396091 0 0.41055923831377589 -0.34398547157316572 0 0.42053718701310799 -0.32957674384091618 0 0.4062959459869725 -0.32912082979983148 0 0.4250793590774925 -0.34540704162396091 0 0.4062959459869725 -0.32912082979983148 0 0.4250793590774925 -0.34540704162396091 0 0.42053718701310799 -0.32957674384091618 0 0.4062959459869725 -0.32912082979983148 0 0.40802480504278882 -0.32457497099322458 0 0.4062959459869725 -0.32912082979983148 0 0.40802480504278882 -0.32457497099322458 0 0.4062959459869725 -0.32912082979983148 0 0.40802480504278882 -0.32457497099322458 0 0.40572459905769331 -0.31910551143285631 0 0.40802480504278882 -0.32457497099322458 0 0.4119015194344513 -0.31818912214386269 0 0.41739686236043672 -0.32199345155319897 0 0.40802480504278882 -0.32457497099322458 0 0.4119015194344513 -0.31818912214386269 0 0.40572459905769331 -0.31910551143285631 0 0.4119015194344513 -0.31818912214386269 0 0.41919911313656122 -0.31385112706466711 0 0.40916221757477672 -0.31142054967536659 0 0.4119015194344513 -0.31818912214386269 0 0.40572459905769331 -0.31910551143285631 0 0.40916221757477672 -0.31142054967536659 0 0.4119015194344513 -0.31818912214386269 0 0.41919911313656122 -0.31385112706466711 0 0.41739686236043672 -0.32199345155319897 0 0.42053718701310799 -0.32957674384091618 0 0.40802480504278882 -0.32457497099322458 0 0.41739686236043672 -0.32199345155319897 0 0.44386277216801179 -0.36169325344809122 0 0.43376943787959182 -0.36708850497004442 0 0.42728564025893462 -0.35958684797927032 0 0.42489657602010461 -0.37065940299189432 0 0.43376943787959182 -0.36708850497004442 0 0.43808065797110041 -0.37748478958974491 0 0.42489657602010461 -0.37065940299189432 0 0.43376943787959182 -0.36708850497004442 0 0.42728564025893462 -0.35958684797927032 0 0.44386277216801179 -0.36169325344809122 0 0.4250793590774925 -0.34540704162396091 0 0.43963091224731599 -0.34751792105314822 0 0.44386277216801179 -0.36169325344809122 0 0.4250793590774925 -0.34540704162396091 0 0.44386277216801179 -0.36169325344809122 0 0.42728564025893462 -0.35958684797927032 0 0.4250793590774925 -0.34540704162396091 0 0.42728564025893462 -0.35958684797927032 0 0.4250793590774925 -0.34540704162396091 0 0.41069622259092692 -0.35617360609135817 0 0.4250793590774925 -0.34540704162396091 0 0.41055923831377589 -0.34398547157316572 0 0.41069622259092692 -0.35617360609135817 0 0.41055923831377589 -0.34398547157316572 0 0.41069622259092692 -0.35617360609135817 0 0.40016542559971202 -0.34524040877751239 0 0.42489657602010461 -0.37065940299189432 0 0.42728564025893462 -0.35958684797927032 0 0.41069622259092692 -0.35617360609135817 0 0.42489657602010461 -0.37065940299189432 0 0.41069622259092692 -0.35617360609135817 0 0.4070765621089808 -0.37107032214525337 0 0.42489657602010461 -0.37065940299189432 0 0.41069622259092692 -0.35617360609135817 0 0.39585190457779329 -0.37201308858561799 0 0.3940349052124521 -0.36135998775519362 0 0.38601585554704992 -0.38244526212700758 0 0.41069622259092692 -0.35617360609135817 0 0.4070765621089808 -0.37107032214525337 0 0.3940349052124521 -0.36135998775519362 0 0.4070765621089808 -0.37107032214525337 0 0.39585190457779329 -0.37201308858561799 0 0.3940349052124521 -0.36135998775519362 0 0.39585190457779329 -0.37201308858561799 0 0.3940349052124521 -0.36135998775519362 0 0.3940349052124521 -0.36135998775519362 0 0.40016542559971202 -0.34524040877751239 0 0.38974443050024338 -0.33620485529262373 0 0.3940349052124521 -0.36135998775519362 0 0.38974443050024338 -0.33620485529262373 0 0.3940349052124521 -0.36135998775519362 0 0.40016542559971202 -0.34524040877751239 0 0.41069622259092692 -0.35617360609135817 0 0.3940349052124521 -0.36135998775519362 0 0.40016542559971202 -0.34524040877751239 0 0.3940349052124521 -0.36135998775519362 0 0.38974443050024338 -0.33620485529262373 0 0.37368731816096312 -0.34897020548070451 0 0.3940349052124521 -0.36135998775519362 0 0.38601585554704992 -0.38244526212700758 0 0.3940349052124521 -0.36135998775519362 0 0.38601585554704992 -0.38244526212700758 0 0.3689120952668708 -0.37284951495870189 0 0.3940349052124521 -0.36135998775519362 0 0.3689120952668708 -0.37284951495870189 0 0.37368731816096312 -0.34897020548070451 0 0.4062959459869725 -0.32912082979983148 0 0.40572459905769331 -0.31910551143285631 0 0.39816778062817881 -0.31191488097197773 0 0.4062959459869725 -0.32912082979983148 0 0.38974443050024338 -0.33620485529262373 0 0.38545395578803499 -0.31104972283005378 0 0.4062959459869725 -0.32912082979983148 0 0.38545395578803499 -0.31104972283005378 0 0.4062959459869725 -0.32912082979983148 0 0.38545395578803499 -0.31104972283005378 0 0.39816778062817881 -0.31191488097197773 0 0.40572459905769331 -0.31910551143285631 0 0.39816778062817881 -0.31191488097197773 0 0.40916221757477672 -0.31142054967536659 0 0.4062959459869725 -0.32912082979983148 0 0.40016542559971202 -0.34524040877751239 0 0.38974443050024338 -0.33620485529262373 0 0.4062959459869725 -0.32912082979983148 0 0.40016542559971202 -0.34524040877751239 0 0.4062959459869725 -0.32912082979983148 0 0.41055923831377589 -0.34398547157316572 0 0.40016542559971202 -0.34524040877751239 0 0.38974443050024338 -0.33620485529262373 0 0.36945761595668469 -0.32738841673247931 0 0.37368731816096312 -0.34897020548070451 0 0.38974443050024338 -0.33620485529262373 0 0.38545395578803499 -0.31104972283005378 0 0.36945761595668469 -0.32738841673247931 0 0.38974443050024338 -0.33620485529262373 0 0.38545395578803499 -0.31104972283005378 0 0.38545395578803499 -0.31104972283005378 0 0.38245755150739558 -0.29348174920317632 0 0.37101427446782781 -0.29852975601036341 0 0.38545395578803499 -0.31104972283005378 0 0.38245755150739558 -0.29348174920317632 0 0.38545395578803499 -0.31104972283005378 0 0.37101427446782781 -0.29852975601036341 0 0.38545395578803499 -0.31104972283005378 0 0.39567659353887108 -0.29306988619604551 0 0.38245755150739558 -0.29348174920317632 0 0.39816778062817881 -0.31191488097197773 0 0.40563314249086863 -0.30155395497769039 0 0.39567659353887108 -0.29306988619604551 0 0.38545395578803499 -0.31104972283005378 0 0.39816778062817881 -0.31191488097197773 0 0.39567659353887108 -0.29306988619604551 0 0.39816778062817881 -0.31191488097197773 0 0.40563314249086863 -0.30155395497769039 0 0.40916221757477672 -0.31142054967536659 0 0.39567659353887108 -0.29306988619604551 0 0.40514250542832608 -0.27022331558021301 0 0.41160024963212011 -0.28933460066763711 0 0.40563314249086863 -0.30155395497769039 0 0.39567659353887108 -0.29306988619604551 0 0.41160024963212011 -0.28933460066763711 0 0.38245755150739558 -0.29348174920317632 0 0.37946114722675722 -0.27591377557629859 0 0.39567659353887108 -0.29306988619604551 0 0.38245755150739558 -0.29348174920317632 0 0.37946114722675722 -0.27591377557629859 0 0.38245755150739558 -0.29348174920317632 0 0.37795999762798671 -0.28395322059410122 0 0.37946114722675722 -0.27591377557629859 0 0.37519981906117678 -0.29055939022370142 0 0.38245755150739558 -0.29348174920317632 0 0.37101427446782781 -0.29852975601036341 0 0.37519981906117678 -0.29055939022370142 0 0.38245755150739558 -0.29348174920317632 0 0.37795999762798671 -0.28395322059410122 0 0.37795999762798671 -0.28395322059410122 0 0.37946114722675722 -0.27591377557629859 0 0.37739853904771847 -0.27637080706343392 0 0.37739853904771847 -0.27637080706343392 0 0.37683953433427181 -0.26882153263446662 0 0.37273728942595791 -0.27740364396778311 0 0.37795999762798671 -0.28395322059410122 0 0.37739853904771847 -0.27637080706343392 0 0.37273728942595791 -0.27740364396778311 0 0.37946114722675722 -0.27591377557629859 0 0.38774772661347989 -0.26664574742688191 0 0.3964002279028962 -0.26984905957103239 0 0.37946114722675722 -0.27591377557629859 0 0.3964002279028962 -0.26984905957103239 0 0.37795999762798671 -0.28395322059410122 0 0.37739853904771847 -0.27637080706343392 0 0.37739853904771847 -0.27637080706343392 0 0.37273728942595791 -0.27740364396778311 0 0.37946114722675722 -0.27591377557629859 0 0.37739853904771847 -0.27637080706343392 0 0.37683953433427181 -0.26882153263446662 0 0.37946114722675722 -0.27591377557629859 0 0.37739853904771847 -0.27637080706343392 0 0.37946114722675722 -0.27591377557629859 0 0.37843581040967561 -0.26746760801825881 0 0.38284686623937531 -0.26497045393317709 0 0.37946114722675722 -0.27591377557629859 0 0.37683953433427181 -0.26882153263446662 0 0.37843581040967561 -0.26746760801825881 0 0.37739853904771847 -0.27637080706343392 0 0.37683953433427181 -0.26882153263446662 0 0.37683953433427181 -0.26882153263446662 0 0.37843581040967561 -0.26746760801825881 0 0.37946114722675722 -0.27591377557629859 0 0.38774772661347989 -0.26664574742688191 0 0.38284686623937531 -0.26497045393317709 0 0.37477580018058132 -0.24095111383496479 0 0.37683953433427181 -0.26882153263446662 0 0.38107906364546162 -0.25934379353391329 0 0.37477580018058132 -0.24095111383496479 0 0.37683953433427181 -0.26882153263446662 0 0.37477580018058132 -0.24095111383496479 0 0.38107906364546162 -0.25934379353391329 0 0.38725375881062551 -0.25185160038302579 0 0.37843581040967561 -0.26746760801825881 0 0.38107906364546162 -0.25934379353391329 0 0.38284686623937531 -0.26497045393317709 0 0.37683953433427181 -0.26882153263446662 0 0.37843581040967561 -0.26746760801825881 0 0.38107906364546162 -0.25934379353391329 0 0.38107906364546162 -0.25934379353391329 0 0.38632261189823958 -0.26200045239958702 0 0.38284686623937531 -0.26497045393317709 0 0.38774772661347989 -0.26664574742688191 0 0.38632261189823958 -0.26200045239958702 0 0.38284686623937531 -0.26497045393317709 0 0.38774772661347989 -0.26664574742688191 0 0.38955528694719099 -0.2630172622662057 0 0.39295554709344072 -0.26445586107842978 0 0.38774772661347989 -0.26664574742688191 0 0.38632261189823958 -0.26200045239958702 0 0.38955528694719099 -0.2630172622662057 0 0.38632261189823958 -0.26200045239958702 0 0.38955528694719099 -0.2630172622662057 0 0.39119526218360401 -0.25896698815992442 0 0.38632261189823958 -0.26200045239958702 0 0.38725375881062551 -0.25185160038302579 0 0.39119526218360401 -0.25896698815992442 0 0.38107906364546162 -0.25934379353391329 0 0.38632261189823958 -0.26200045239958702 0 0.38725375881062551 -0.25185160038302579 0 0.40314688718896508 -0.2619981766022052 0 0.39707581272688741 -0.26613449373937459 0 0.41345304600685079 -0.26440480953867462 0 0.39707581272688741 -0.26613449373937459 0 0.41345304600685079 -0.26440480953867462 0 0.38725375881062551 -0.25185160038302579 0 0.39640803358832022 -0.25154779433757402 0 0.39119526218360401 -0.25896698815992442 0 0.39640803358832022 -0.25154779433757402 0 0.39702034872720737 -0.26014738253762237 0 0.39119526218360401 -0.25896698815992442 0 0.39702034872720737 -0.26014738253762237 0 0.39119526218360401 -0.25896698815992442 0 0.39295554709344072 -0.26445586107842978 0 0.38955528694719099 -0.2630172622662057 0 0.39119526218360401 -0.25896698815992442 0 0.39295554709344072 -0.26445586107842978 0 0.39702034872720737 -0.26014738253762237 0 0.39295554709344072 -0.26445586107842978 0 0.39707581272688741 -0.26613449373937459 0 0.39702034872720737 -0.26014738253762237 0 0.40314688718896508 -0.2619981766022052 0 0.39707581272688741 -0.26613449373937459 0 0.40314688718896508 -0.2619981766022052 0 0.40257909468765629 -0.25704117102420471 0 0.40998094690083942 -0.2590606397541646 0 0.39702034872720737 -0.26014738253762237 0 0.40314688718896508 -0.2619981766022052 0 0.40257909468765629 -0.25704117102420471 0 0.39640803358832022 -0.25154779433757402 0 0.39702034872720737 -0.26014738253762237 0 0.40257909468765629 -0.25704117102420471 0 0.41087794879613182 -0.2494957955088617 0 0.39640803358832022 -0.25154779433757402 0 0.40257909468765629 -0.25704117102420471 0 0.40514250542832608 -0.27022331558021301 0 0.3964002279028962 -0.26984905957103239 0 0.41345304600685079 -0.26440480953867462 0 0.37946114722675722 -0.27591377557629859 0 0.40514250542832608 -0.27022331558021301 0 0.3964002279028962 -0.26984905957103239 0 0.39707581272688741 -0.26613449373937459 0 0.3964002279028962 -0.26984905957103239 0 0.41345304600685079 -0.26440480953867462 0 0.37946114722675722 -0.27591377557629859 0 0.40514250542832608 -0.27022331558021301 0 0.3964002279028962 -0.26984905957103239 0 0.41345304600685079 -0.26440480953867462 0 0.39567659353887108 -0.29306988619604551 0 0.37946114722675722 -0.27591377557629859 0 0.40514250542832608 -0.27022331558021301 0 0.38774772661347989 -0.26664574742688191 0 0.39295554709344072 -0.26445586107842978 0 0.3964002279028962 -0.26984905957103239 0 0.39295554709344072 -0.26445586107842978 0 0.39707581272688741 -0.26613449373937459 0 0.3964002279028962 -0.26984905957103239 0 0.40514250542832608 -0.27022331558021301 0 0.41345304600685079 -0.26440480953867462 0 0.430823863629894 -0.26453285558412298 0 0.40514250542832608 -0.27022331558021301 0 0.430823863629894 -0.26453285558412298 0 0.40514250542832608 -0.27022331558021301 0 0.42166373126508722 -0.27984448092147479 0 0.41160024963212011 -0.28933460066763711 0 0.40514250542832608 -0.27022331558021301 0 0.42166373126508722 -0.27984448092147479 0 0.430823863629894 -0.26453285558412298 0 0.41087794879613182 -0.2494957955088617 0 0.41984775782459283 -0.2623632460968765 0 0.42854038242645709 -0.26281135800815408 0 0.41087794879613182 -0.2494957955088617 0 0.42854038242645709 -0.26281135800815408 0 0.41087794879613182 -0.2494957955088617 0 0.40257909468765629 -0.25704117102420471 0 0.40998094690083942 -0.2590606397541646 0 0.41087794879613182 -0.2494957955088617 0 0.40998094690083942 -0.2590606397541646 0 0.41984775782459283 -0.2623632460968765 0 0.40314688718896508 -0.2619981766022052 0 0.40998094690083942 -0.2590606397541646 0 0.41345304600685079 -0.26440480953867462 0 0.41345304600685079 -0.26440480953867462 0 0.41984775782459283 -0.2623632460968765 0 0.42854038242645709 -0.26281135800815408 0 0.40998094690083942 -0.2590606397541646 0 0.41345304600685079 -0.26440480953867462 0 0.41984775782459283 -0.2623632460968765 0 0.41345304600685079 -0.26440480953867462 0 0.42854038242645709 -0.26281135800815408 0 0.41345304600685079 -0.26440480953867462 0 0.41984775782459283 -0.2623632460968765 0 0.42656562700980838 -0.24831468624349931 0 0.41087794879613182 -0.2494957955088617 0 0.42854038242645709 -0.26281135800815408 0 0.4477486317760534 -0.26078267557717671 0 0.42854038242645709 -0.26281135800815408 0 0.430823863629894 -0.26453285558412298 0 0.41345304600685079 -0.26440480953867462 0 0.42854038242645709 -0.26281135800815408 0 0.430823863629894 -0.26453285558412298 0 0.42854038242645709 -0.26281135800815408 0 0.430823863629894 -0.26453285558412298 0 0.42656562700980838 -0.24831468624349931 0 0.42854038242645709 -0.26281135800815408 0 0.4372088962240912 -0.25169219704383999 0 0.42166373126508722 -0.27984448092147479 0 0.430823863629894 -0.26453285558412298 0 0.43570592202634773 -0.28205449164250063 0 0.42166373126508722 -0.27984448092147479 0 0.43570592202634773 -0.28205449164250063 0 0.42504611560874761 -0.29307714113289868 0 0.43874415768382158 -0.29310671547163403 0 0.43570592202634773 -0.28205449164250063 0 0.42504611560874761 -0.29307714113289868 0 0.43874415768382158 -0.29310671547163403 0 0.42504611560874761 -0.29307714113289868 0 0.43092107089682352 -0.30573631325696571 0 0.41919911313656122 -0.31385112706466711 0 0.43092107089682352 -0.30573631325696571 0 0.41692698488998292 -0.30249561446253759 0 0.42504611560874761 -0.29307714113289868 0 0.43092107089682352 -0.30573631325696571 0 0.41692698488998292 -0.30249561446253759 0 0.41919911313656122 -0.31385112706466711 0 0.41692698488998292 -0.30249561446253759 0 0.40916221757477672 -0.31142054967536659 0 0.40563314249086863 -0.30155395497769039 0 0.41692698488998292 -0.30249561446253759 0 0.40916221757477672 -0.31142054967536659 0 0.40563314249086863 -0.30155395497769039 0 0.41692698488998292 -0.30249561446253759 0 0.41160024963212011 -0.28933460066763711 0 0.42166373126508722 -0.27984448092147479 0 0.42504611560874761 -0.29307714113289868 0 0.41160024963212011 -0.28933460066763711 0 0.42504611560874761 -0.29307714113289868 0 0.41692698488998292 -0.30249561446253759 0 0.41160024963212011 -0.28933460066763711 0 0.5 -0.5 0 0.47532784176218862 -0.47257481327436679 0 0.43264288253940292 -0.48275234633568048 0 0.5 -0.5 0 0.41749257905485199 -0.50000000000000033 0 0.43264288253940292 -0.48275234633568048 0 0.47532784176218862 -0.47257481327436679 0 0.44779318602395363 -0.46550469267136052 0 0.43264288253940292 -0.48275234633568048 0 0.44779318602395363 -0.46550469267136052 0 0.43264288253940292 -0.48275234633568048 0 0.5 -0.5 0 0.47532784176218862 -0.47257481327436679 0 0.49999999999999828 -0.44642064777577001 0 0.47532784176218862 -0.47257481327436679 0 0.47918453573141367 -0.4495963838019249 0 0.46294348950850428 -0.44825703900704061 0 0.47532784176218862 -0.47257481327436679 0 0.49999999999999828 -0.44642064777577001 0 0.47918453573141367 -0.4495963838019249 0 0.49999999999999828 -0.44642064777577001 0 0.47846681165496419 -0.4311330351505217 0 0.49999999999999828 -0.44642064777577001 0 0.47918453573141367 -0.4495963838019249 0 0.47846681165496419 -0.4311330351505217 0 0.47918453573141367 -0.4495963838019249 0 0.46294348950850428 -0.44825703900704061 0 0.47846681165496419 -0.4311330351505217 0 0.46294348950850428 -0.44825703900704061 0 0.44442683605218691 -0.44583817528272968 0 0.45721208074107311 -0.43281318479414382 0 0.46294348950850428 -0.44825703900704061 0 0.44779318602395363 -0.46550469267136052 0 0.47532784176218862 -0.47257481327436679 0 0.46294348950850428 -0.44825703900704061 0 0.44779318602395363 -0.46550469267136052 0 0.44779318602395363 -0.46550469267136052 0 0.44442683605218691 -0.44583817528272968 0 0.43057418754349119 -0.46211781715143319 0 0.46294348950850428 -0.44825703900704061 0 0.44779318602395363 -0.46550469267136052 0 0.44442683605218691 -0.44583817528272968 0 0.44442683605218691 -0.44583817528272968 0 0.44324354583686831 -0.42153379012121539 0 0.45721208074107311 -0.43281318479414382 0 0.44442683605218691 -0.44583817528272968 0 0.44324354583686831 -0.42153379012121539 0 0.42653452723640378 -0.44279137365393179 0 0.44324354583686831 -0.42153379012121539 0 0.45693362330993059 -0.41584542252527262 0 0.45721208074107311 -0.43281318479414382 0 0.45693362330993059 -0.41584542252527262 0 0.4354004349648965 -0.40055780990002432 0 0.44324354583686831 -0.42153379012121539 0 0.45693362330993059 -0.41584542252527262 0 0.4354004349648965 -0.40055780990002432 0 0.45693362330993059 -0.41584542252527262 0 0.46461049463358839 -0.41117161714406408 0 0.47846681165496419 -0.4311330351505217 0 0.45693362330993059 -0.41584542252527262 0 0.46461049463358839 -0.41117161714406408 0 0.45329728287846061 -0.39963099679296588 0 0.46294348950850428 -0.44825703900704061 0 0.45721208074107311 -0.43281318479414382 0 0.47846681165496419 -0.4311330351505217 0 0.45693362330993059 -0.41584542252527262 0 0.45721208074107311 -0.43281318479414382 0 0.47846681165496419 -0.4311330351505217 0 0.45693362330993059 -0.41584542252527262 0 0.47846681165496419 -0.4311330351505217 0 0.49999999999999828 -0.44642064777577001 0 0.47846681165496419 -0.4311330351505217 0 0.5 -0.42181653977348488 0 0.5 -0.42181653977348488 0 0.48394518954555588 -0.41195106762427058 0 0.49999999999999789 -0.3972124317711998 0 0.47846681165496419 -0.4311330351505217 0 0.5 -0.42181653977348488 0 0.48394518954555588 -0.41195106762427058 0 0.46461049463358839 -0.41117161714406408 0 0.47846681165496419 -0.4311330351505217 0 0.48394518954555588 -0.41195106762427058 0 0.46461049463358839 -0.41117161714406408 0 0.48394518954555588 -0.41195106762427058 0 0.47664864143922919 -0.39842171428208217 0 0.47664864143922919 -0.39842171428208217 0 0.47975395238035062 -0.3854291032725421 0 0.46812846895096999 -0.38912968091376021 0 0.47664864143922919 -0.39842171428208217 0 0.49999999999999789 -0.3972124317711998 0 0.48779058149940679 -0.38751051868815611 0 0.48394518954555588 -0.41195106762427058 0 0.47664864143922919 -0.39842171428208217 0 0.49999999999999789 -0.3972124317711998 0 0.47664864143922919 -0.39842171428208217 0 0.49999999999999789 -0.3972124317711998 0 0.5 -0.37037944899495368 0 0.49999999999999789 -0.3972124317711998 0 0.48779058149940679 -0.38751051868815611 0 0.5 -0.37037944899495368 0 0.48466784746851571 -0.3739080713738358 0 0.48779058149940679 -0.38751051868815611 0 0.48466784746851571 -0.3739080713738358 0 0.47975395238035062 -0.3854291032725421 0 0.47323517146124039 -0.38191256761527542 0 0.48466784746851571 -0.3739080713738358 0 0.48779058149940679 -0.38751051868815611 0 0.47975395238035062 -0.3854291032725421 0 0.47664864143922919 -0.39842171428208217 0 0.48779058149940679 -0.38751051868815611 0 0.47975395238035062 -0.3854291032725421 0 0.47975395238035062 -0.3854291032725421 0 0.47323517146124039 -0.38191256761527542 0 0.46812846895096999 -0.38912968091376021 0 0.46918642870160698 -0.38365020197922722 0 0.47323517146124039 -0.38191256761527542 0 0.46812846895096999 -0.38912968091376021 0 0.4671179630262795 -0.37324494563770522 0 0.46918642870160698 -0.38365020197922722 0 0.47323517146124039 -0.38191256761527542 0 0.45652460043480969 -0.37267172771365881 0 0.4671179630262795 -0.37324494563770522 0 0.46918642870160698 -0.38365020197922722 0 0.45652460043480969 -0.37267172771365881 0 0.46918642870160698 -0.38365020197922722 0 0.45652460043480969 -0.37267172771365881 0 0.45606522570456098 -0.38599652494351028 0 0.44783900322824399 -0.38008781189722518 0 0.45652460043480969 -0.37267172771365881 0 0.46918642870160698 -0.38365020197922722 0 0.45606522570456098 -0.38599652494351028 0 0.46918642870160698 -0.38365020197922722 0 0.45606522570456098 -0.38599652494351028 0 0.46812846895096999 -0.38912968091376021 0 0.46461049463358839 -0.41117161714406408 0 0.47664864143922919 -0.39842171428208217 0 0.45329728287846061 -0.39963099679296588 0 0.47664864143922919 -0.39842171428208217 0 0.45329728287846061 -0.39963099679296588 0 0.47664864143922919 -0.39842171428208217 0 0.46812846895096999 -0.38912968091376021 0 0.45329728287846061 -0.39963099679296588 0 0.46461049463358839 -0.41117161714406408 0 0.45329728287846061 -0.39963099679296588 0 0.45606522570456098 -0.38599652494351028 0 0.46812846895096999 -0.38912968091376021 0 0.45329728287846061 -0.39963099679296588 0 0.45693362330993059 -0.41584542252527262 0 0.45329728287846061 -0.39963099679296588 0 0.4354004349648965 -0.40055780990002432 0 0.45329728287846061 -0.39963099679296588 0 0.4354004349648965 -0.40055780990002432 0 0.45329728287846061 -0.39963099679296588 0 0.4390969294492823 -0.3851451998924304 0 0.4354004349648965 -0.40055780990002432 0 0.45329728287846061 -0.39963099679296588 0 0.4390969294492823 -0.3851451998924304 0 0.45606522570456098 -0.38599652494351028 0 0.4390969294492823 -0.3851451998924304 0 0.44783900322824399 -0.38008781189722518 0 0.45606522570456098 -0.38599652494351028 0 0.45329728287846061 -0.39963099679296588 0 0.4390969294492823 -0.3851451998924304 0 0.4390969294492823 -0.3851451998924304 0 0.43808065797110041 -0.37748478958974491 0 0.44783900322824399 -0.38008781189722518 0 0.42782015831496062 -0.38505662608606978 0 0.4354004349648965 -0.40055780990002432 0 0.41188669282555868 -0.38386409155992901 0 0.42489657602010461 -0.37065940299189432 0 0.4390969294492823 -0.3851451998924304 0 0.42782015831496062 -0.38505662608606978 0 0.42489657602010461 -0.37065940299189432 0 0.4390969294492823 -0.3851451998924304 0 0.43808065797110041 -0.37748478958974491 0 0.42489657602010461 -0.37065940299189432 0 0.4390969294492823 -0.3851451998924304 0 0.4390969294492823 -0.3851451998924304 0 0.42782015831496062 -0.38505662608606978 0 0.4354004349648965 -0.40055780990002432 0 0.4354004349648965 -0.40055780990002432 0 0.41188669282555868 -0.38386409155992901 0 0.4354004349648965 -0.40055780990002432 0 0.40669862042327182 -0.40204417319942209 0 0.4354004349648965 -0.40055780990002432 0 0.40669862042327182 -0.40204417319942209 0 0.41188669282555868 -0.38386409155992901 0 0.42489657602010461 -0.37065940299189432 0 0.42782015831496062 -0.38505662608606978 0 0.41188669282555868 -0.38386409155992901 0 0.42489657602010461 -0.37065940299189432 0 0.4070765621089808 -0.37107032214525337 0 0.41188669282555868 -0.38386409155992901 0 0.4070765621089808 -0.37107032214525337 0 0.39585190457779329 -0.37201308858561799 0 0.39886607975096749 -0.38470810625682389 0 0.40669862042327182 -0.40204417319942209 0 0.41188669282555868 -0.38386409155992901 0 0.39886607975096749 -0.38470810625682389 0 0.4070765621089808 -0.37107032214525337 0 0.41188669282555868 -0.38386409155992901 0 0.39886607975096749 -0.38470810625682389 0 0.39585190457779329 -0.37201308858561799 0 0.39886607975096749 -0.38470810625682389 0 0.38601585554704992 -0.38244526212700758 0 0.39886607975096749 -0.38470810625682389 0 0.38601585554704992 -0.38244526212700758 0 0.37799680588164719 -0.40353053649882148 0 0.38601585554704992 -0.38244526212700758 0 0.37799680588164719 -0.40353053649882148 0 0.38601585554704992 -0.38244526212700758 0 0.37799680588164719 -0.40353053649882148 0 0.36816388811638329 -0.39545065246060412 0 0.37799680588164719 -0.40353053649882148 0 0.37635446215448021 -0.40784891206015261 0 0.37799680588164719 -0.40353053649882148 0 0.37505152225636262 -0.40368306209891941 0 0.37635446215448021 -0.40784891206015261 0 0.37799680588164719 -0.40353053649882148 0 0.37505152225636262 -0.40368306209891941 0 0.40669862042327182 -0.40204417319942209 0 0.39886607975096749 -0.38470810625682389 0 0.37799680588164719 -0.40353053649882148 0 0.40669862042327182 -0.40204417319942209 0 0.37799680588164719 -0.40353053649882148 0 0.40669862042327182 -0.40204417319942209 0 0.38553791301154328 -0.41840677215457472 0 0.40567792500840172 -0.4277251834563135 0 0.40669862042327182 -0.40204417319942209 0 0.37799680588164719 -0.40353053649882148 0 0.38553791301154328 -0.41840677215457472 0 0.38553791301154328 -0.41840677215457472 0 0.36905142820508552 -0.42917232846767789 0 0.37241381966677689 -0.417360225696081 0 0.38553791301154328 -0.41840677215457472 0 0.37635446215448021 -0.40784891206015261 0 0.37241381966677689 -0.417360225696081 0 0.37799680588164719 -0.40353053649882148 0 0.38553791301154328 -0.41840677215457472 0 0.37635446215448021 -0.40784891206015261 0 0.38553791301154328 -0.41840677215457472 0 0.38807715457860831 -0.4388905332329941 0 0.36905142820508552 -0.42917232846767789 0 0.38553791301154328 -0.41840677215457472 0 0.40567792500840172 -0.4277251834563135 0 0.38807715457860831 -0.4388905332329941 0 0.40567792500840172 -0.4277251834563135 0 0.42351101069396863 -0.41893046606618117 0 0.42653452723640378 -0.44279137365393179 0 0.4354004349648965 -0.40055780990002432 0 0.40669862042327182 -0.40204417319942209 0 0.42351101069396863 -0.41893046606618117 0 0.40669862042327182 -0.40204417319942209 0 0.40567792500840172 -0.4277251834563135 0 0.42351101069396863 -0.41893046606618117 0 0.44324354583686831 -0.42153379012121539 0 0.4354004349648965 -0.40055780990002432 0 0.42351101069396863 -0.41893046606618117 0 0.44324354583686831 -0.42153379012121539 0 0.42653452723640378 -0.44279137365393179 0 0.44324354583686831 -0.42153379012121539 0 0.42351101069396863 -0.41893046606618117 0 0.42653452723640378 -0.44279137365393179 0 0.44442683605218691 -0.44583817528272968 0 0.42653452723640378 -0.44279137365393179 0 0.43057418754349119 -0.46211781715143319 0 0.42653452723640378 -0.44279137365393179 0 0.43057418754349119 -0.46211781715143319 0 0.40982550863593931 -0.46404895718664829 0 0.42653452723640378 -0.44279137365393179 0 0.40982550863593931 -0.46404895718664829 0 0.42653452723640378 -0.44279137365393179 0 0.40982550863593931 -0.46404895718664829 0 0.4036378289262339 -0.44671034290208689 0 0.40567792500840172 -0.4277251834563135 0 0.42653452723640378 -0.44279137365393179 0 0.4036378289262339 -0.44671034290208689 0 0.40567792500840172 -0.4277251834563135 0 0.4036378289262339 -0.44671034290208689 0 0.38807715457860831 -0.4388905332329941 0 0.4036378289262339 -0.44671034290208689 0 0.38807715457860831 -0.4388905332329941 0 0.38807402917181633 -0.46009566698054732 0 0.38807715457860831 -0.4388905332329941 0 0.3733961412993268 -0.45022493016754961 0 0.36905142820508552 -0.42917232846767789 0 0.38807715457860831 -0.4388905332329941 0 0.38807402917181633 -0.46009566698054732 0 0.3733961412993268 -0.45022493016754961 0 0.38807402917181633 -0.46009566698054732 0 0.36593927904035028 -0.47432204071884282 0 0.3733961412993268 -0.45022493016754961 0 0.40982550863593931 -0.46404895718664829 0 0.4036378289262339 -0.44671034290208689 0 0.38807402917181633 -0.46009566698054732 0 0.40982550863593931 -0.46404895718664829 0 0.39311649003547477 -0.48530654071936469 0 0.40982550863593931 -0.46404895718664829 0 0.38807402917181633 -0.46009566698054732 0 0.39311649003547477 -0.48530654071936469 0 0.38807402917181633 -0.46009566698054732 0 0.39311649003547477 -0.48530654071936469 0 0.36593927904035028 -0.47432204071884282 0 0.37603974257992701 -0.49999999999999978 0 0.39311649003547477 -0.48530654071936469 0 0.36593927904035028 -0.47432204071884282 0 0.37603974257992701 -0.49999999999999978 0 0.39676616081738958 -0.5 0 0.39311649003547477 -0.48530654071936469 0 0.39676616081738958 -0.5 0 0.39311649003547477 -0.48530654071936469 0 0.41749257905485199 -0.50000000000000033 0 0.40982550863593931 -0.46404895718664829 0 0.41749257905485199 -0.50000000000000033 0 0.43264288253940292 -0.48275234633568048 0 0.40982550863593931 -0.46404895718664829 0 0.39311649003547477 -0.48530654071936469 0 0.41749257905485199 -0.50000000000000033 0 0.43057418754349119 -0.46211781715143319 0 0.40982550863593931 -0.46404895718664829 0 0.43264288253940292 -0.48275234633568048 0 0.44779318602395363 -0.46550469267136052 0 0.43057418754349119 -0.46211781715143319 0 0.43264288253940292 -0.48275234633568048 0 0.41749257905485199 -0.50000000000000033 0 0.43264288253940292 -0.48275234633568048 0 0.32215468257820618 -0.5 0 0.33760568703239408 -0.47417818032706111 0 0.31005432530219129 -0.48106067464861729 0 0.33760568703239408 -0.47417818032706111 0 0.3189449745883719 -0.46117016543644002 0 0.31005432530219129 -0.48106067464861729 0 0.32215468257820618 -0.5 0 0.33760568703239408 -0.47417818032706111 0 0.34909721257906662 -0.5 0 0.37603974257992701 -0.49999999999999978 0 0.34909721257906662 -0.5 0 0.36593927904035028 -0.47432204071884282 0 0.37603974257992701 -0.49999999999999978 0 0.36593927904035028 -0.47432204071884282 0 0.33760568703239408 -0.47417818032706111 0 0.34909721257906662 -0.5 0 0.36593927904035028 -0.47432204071884282 0 0.33760568703239408 -0.47417818032706111 0 0.36593927904035028 -0.47432204071884282 0 0.35583881550077368 -0.44864408143768569 0 0.36593927904035028 -0.47432204071884282 0 0.35583881550077368 -0.44864408143768569 0 0.36593927904035028 -0.47432204071884282 0 0.3733961412993268 -0.45022493016754961 0 0.35583881550077368 -0.44864408143768569 0 0.3733961412993268 -0.45022493016754961 0 0.35583881550077368 -0.44864408143768569 0 0.36905142820508552 -0.42917232846767789 0 0.35583881550077368 -0.44864408143768569 0 0.33540415989768779 -0.44905252560006492 0 0.34573835196119679 -0.42296612215652868 0 0.33760568703239408 -0.47417818032706111 0 0.35583881550077368 -0.44864408143768569 0 0.33540415989768779 -0.44905252560006492 0 0.33760568703239408 -0.47417818032706111 0 0.33540415989768779 -0.44905252560006492 0 0.3189449745883719 -0.46117016543644002 0 0.33540415989768779 -0.44905252560006492 0 0.3189449745883719 -0.46117016543644002 0 0.32126124445813709 -0.43429719032362252 0 0.3189449745883719 -0.46117016543644002 0 0.32126124445813709 -0.43429719032362252 0 0.30480654487456732 -0.44641521679941309 0 0.32126124445813709 -0.43429719032362252 0 0.3193156137706864 -0.40941365839269389 0 0.29937418247959258 -0.41817563384508599 0 0.3193156137706864 -0.40941365839269389 0 0.34573835196119679 -0.42296612215652868 0 0.33563788842162012 -0.39728816287537172 0 0.34573835196119679 -0.42296612215652868 0 0.33563788842162012 -0.39728816287537172 0 0.33540415989768779 -0.44905252560006492 0 0.32126124445813709 -0.43429719032362252 0 0.34573835196119679 -0.42296612215652868 0 0.32126124445813709 -0.43429719032362252 0 0.3193156137706864 -0.40941365839269389 0 0.34573835196119679 -0.42296612215652868 0 0.35583881550077368 -0.44864408143768569 0 0.34573835196119679 -0.42296612215652868 0 0.36905142820508552 -0.42917232846767789 0 0.35583881550077368 -0.44864408143768569 0 0.34573835196119679 -0.42296612215652868 0 0.36905142820508552 -0.42917232846767789 0 0.37241381966677689 -0.417360225696081 0 0.36195200988480669 -0.41065981681110758 0 0.36990343230398692 -0.40830781576793279 0 0.37241381966677689 -0.417360225696081 0 0.36195200988480669 -0.41065981681110758 0 0.37635446215448021 -0.40784891206015261 0 0.36990343230398692 -0.40830781576793279 0 0.37241381966677689 -0.417360225696081 0 0.37505152225636262 -0.40368306209891941 0 0.37635446215448021 -0.40784891206015261 0 0.36990343230398692 -0.40830781576793279 0 0.36990343230398692 -0.40830781576793279 0 0.36195200988480669 -0.41065981681110758 0 0.36876771314038492 -0.40452533678464098 0 0.34573835196119679 -0.42296612215652868 0 0.36195200988480669 -0.41065981681110758 0 0.35211107663302149 -0.40015425695529971 0 0.34573835196119679 -0.42296612215652868 0 0.36905142820508552 -0.42917232846767789 0 0.36195200988480669 -0.41065981681110758 0 0.34573835196119679 -0.42296612215652868 0 0.35211107663302149 -0.40015425695529971 0 0.33563788842162012 -0.39728816287537172 0 0.35211107663302149 -0.40015425695529971 0 0.35352794608594401 -0.38791341326287138 0 0.33563788842162012 -0.39728816287537172 0 0.35211107663302149 -0.40015425695529971 0 0.36816388811638329 -0.39545065246060412 0 0.35352794608594401 -0.38791341326287138 0 0.36195200988480669 -0.41065981681110758 0 0.36816388811638329 -0.39545065246060412 0 0.36876771314038492 -0.40452533678464098 0 0.36195200988480669 -0.41065981681110758 0 0.35211107663302149 -0.40015425695529971 0 0.36816388811638329 -0.39545065246060412 0 0.37505152225636262 -0.40368306209891941 0 0.36816388811638329 -0.39545065246060412 0 0.36876771314038492 -0.40452533678464098 0 0.37799680588164719 -0.40353053649882148 0 0.37505152225636262 -0.40368306209891941 0 0.36816388811638329 -0.39545065246060412 0 0.37505152225636262 -0.40368306209891941 0 0.36990343230398692 -0.40830781576793279 0 0.36876771314038492 -0.40452533678464098 0 0.38601585554704992 -0.38244526212700758 0 0.36816388811638329 -0.39545065246060412 0 0.3689120952668708 -0.37284951495870189 0 0.36816388811638329 -0.39545065246060412 0 0.35352794608594401 -0.38791341326287138 0 0.3689120952668708 -0.37284951495870189 0 0.35352794608594401 -0.38791341326287138 0 0.33563788842162012 -0.39728816287537172 0 0.34467783115022588 -0.37252705130409253 0 0.35352794608594401 -0.38791341326287138 0 0.3689120952668708 -0.37284951495870189 0 0.34467783115022588 -0.37252705130409253 0 0.33563788842162012 -0.39728816287537172 0 0.3255374248820434 -0.37161020359421471 0 0.33563788842162012 -0.39728816287537172 0 0.34467783115022588 -0.37252705130409253 0 0.3255374248820434 -0.37161020359421471 0 0.3193156137706864 -0.40941365839269389 0 0.33563788842162012 -0.39728816287537172 0 0.30534853388527528 -0.38930881101125692 0 0.33563788842162012 -0.39728816287537172 0 0.30534853388527528 -0.38930881101125692 0 0.3255374248820434 -0.37161020359421471 0 0.30534853388527528 -0.38930881101125692 0 0.3255374248820434 -0.37161020359421471 0 0.30525369772634148 -0.37164386163485291 0 0.30534853388527528 -0.38930881101125692 0 0.28783989868818821 -0.37644057584389279 0 0.30525369772634148 -0.37164386163485291 0 0.3193156137706864 -0.40941365839269389 0 0.30534853388527528 -0.38930881101125692 0 0.29937418247959258 -0.41817563384508599 0 0.30534853388527528 -0.38930881101125692 0 0.28922044672054198 -0.39637746652331562 0 0.29937418247959258 -0.41817563384508599 0 0.28922044672054198 -0.39637746652331562 0 0.27510086349567708 -0.39798721671617321 0 0.28320928432356041 -0.41012407252970262 0 0.28922044672054198 -0.39637746652331562 0 0.28783989868818821 -0.37644057584389279 0 0.27924907625512951 -0.38731579260330862 0 0.30534853388527528 -0.38930881101125692 0 0.28922044672054198 -0.39637746652331562 0 0.28783989868818821 -0.37644057584389279 0 0.30534853388527528 -0.38930881101125692 0 0.28783989868818821 -0.37644057584389279 0 0.28783989868818821 -0.37644057584389279 0 0.27447250226623809 -0.37821124143188289 0 0.27924907625512951 -0.38731579260330862 0 0.27447250226623809 -0.37821124143188289 0 0.27924907625512951 -0.38731579260330862 0 0.26961167010500181 -0.38756246250127813 0 0.27447250226623809 -0.37821124143188289 0 0.26961167010500181 -0.38756246250127813 0 0.26423397132697279 -0.37890457124200982 0 0.26961167010500181 -0.38756246250127813 0 0.26423397132697279 -0.37890457124200982 0 0.25687819372407023 -0.38903915957053298 0 0.26423397132697279 -0.37890457124200982 0 0.25687819372407023 -0.38903915957053298 0 0.24987622704845311 -0.37613765202982719 0 0.25108303853213881 -0.40002667887407228 0 0.26390234922262928 -0.39930308446362528 0 0.256136481120742 -0.41447562176841068 0 0.25687819372407023 -0.38903915957053298 0 0.25108303853213881 -0.40002667887407228 0 0.24309899287842279 -0.39271330151873202 0 0.25687819372407023 -0.38903915957053298 0 0.25108303853213881 -0.40002667887407228 0 0.26390234922262928 -0.39930308446362528 0 0.26961167010500181 -0.38756246250127813 0 0.25687819372407023 -0.38903915957053298 0 0.26390234922262928 -0.39930308446362528 0 0.26390234922262928 -0.39930308446362528 0 0.27510086349567708 -0.39798721671617321 0 0.2708804648698091 -0.41009655218672442 0 0.26961167010500181 -0.38756246250127813 0 0.26390234922262928 -0.39930308446362528 0 0.27510086349567708 -0.39798721671617321 0 0.28922044672054198 -0.39637746652331562 0 0.27924907625512951 -0.38731579260330862 0 0.27510086349567708 -0.39798721671617321 0 0.27924907625512951 -0.38731579260330862 0 0.26961167010500181 -0.38756246250127813 0 0.27510086349567708 -0.39798721671617321 0 0.27510086349567708 -0.39798721671617321 0 0.2708804648698091 -0.41009655218672442 0 0.28320928432356041 -0.41012407252970262 0 0.2708804648698091 -0.41009655218672442 0 0.256136481120742 -0.41447562176841068 0 0.27433621812851161 -0.42550461519375637 0 0.2708804648698091 -0.41009655218672442 0 0.27433621812851161 -0.42550461519375637 0 0.28320928432356041 -0.41012407252970262 0 0.26390234922262928 -0.39930308446362528 0 0.2708804648698091 -0.41009655218672442 0 0.256136481120742 -0.41447562176841068 0 0.25108303853213881 -0.40002667887407228 0 0.256136481120742 -0.41447562176841068 0 0.24629253832767661 -0.41022035877505542 0 0.256136481120742 -0.41447562176841068 0 0.25513396950241118 -0.43290986753561628 0 0.2453827316299185 -0.42192330194190181 0 0.256136481120742 -0.41447562176841068 0 0.25513396950241118 -0.43290986753561628 0 0.27433621812851161 -0.42550461519375637 0 0.25513396950241118 -0.43290986753561628 0 0.27433621812851161 -0.42550461519375637 0 0.26752346795397081 -0.44788636482661331 0 0.27433621812851161 -0.42550461519375637 0 0.29937418247959258 -0.41817563384508599 0 0.28546596250580908 -0.44246723239800262 0 0.29937418247959258 -0.41817563384508599 0 0.30480654487456732 -0.44641521679941309 0 0.28546596250580908 -0.44246723239800262 0 0.28922044672054198 -0.39637746652331562 0 0.28320928432356041 -0.41012407252970262 0 0.29937418247959258 -0.41817563384508599 0 0.27433621812851161 -0.42550461519375637 0 0.28320928432356041 -0.41012407252970262 0 0.29937418247959258 -0.41817563384508599 0 0.32126124445813709 -0.43429719032362252 0 0.29937418247959258 -0.41817563384508599 0 0.30480654487456732 -0.44641521679941309 0 0.3189449745883719 -0.46117016543644002 0 0.30480654487456732 -0.44641521679941309 0 0.28880919487484108 -0.4658549053918814 0 0.30480654487456732 -0.44641521679941309 0 0.28880919487484108 -0.4658549053918814 0 0.28546596250580908 -0.44246723239800262 0 0.27433621812851161 -0.42550461519375637 0 0.28546596250580908 -0.44246723239800262 0 0.26752346795397081 -0.44788636482661331 0 0.28880919487484108 -0.4658549053918814 0 0.28546596250580908 -0.44246723239800262 0 0.26752346795397081 -0.44788636482661331 0 0.25513396950241118 -0.43290986753561628 0 0.26752346795397081 -0.44788636482661331 0 0.24480843210435321 -0.45079661158300749 0 0.26752346795397081 -0.44788636482661331 0 0.2588368117714554 -0.46700690363883102 0 0.24480843210435321 -0.45079661158300749 0 0.28880919487484108 -0.4658549053918814 0 0.26752346795397081 -0.44788636482661331 0 0.2588368117714554 -0.46700690363883102 0 0.28880919487484108 -0.4658549053918814 0 0.2588368117714554 -0.46700690363883102 0 0.27227655507569209 -0.48076744006000099 0 0.2588368117714554 -0.46700690363883102 0 0.27227655507569209 -0.48076744006000099 0 0.25270961841775552 -0.48460016746525392 0 0.2588368117714554 -0.46700690363883102 0 0.25270961841775552 -0.48460016746525392 0 0.23949561189523169 -0.47426551941090739 0 0.25270961841775552 -0.48460016746525392 0 0.26826962257648529 -0.5 0 0.2413270925756249 -0.5 0 0.27227655507569209 -0.48076744006000099 0 0.25270961841775552 -0.48460016746525392 0 0.26826962257648529 -0.5 0 0.27227655507569209 -0.48076744006000099 0 0.26826962257648529 -0.5 0 0.29521215257734579 -0.5 0 0.28880919487484108 -0.4658549053918814 0 0.27227655507569209 -0.48076744006000099 0 0.29521215257734579 -0.5 0 0.28880919487484108 -0.4658549053918814 0 0.29521215257734579 -0.5 0 0.31005432530219129 -0.48106067464861729 0 0.3189449745883719 -0.46117016543644002 0 0.28880919487484108 -0.4658549053918814 0 0.31005432530219129 -0.48106067464861729 0 0.32215468257820618 -0.5 0 0.29521215257734579 -0.5 0 0.31005432530219129 -0.48106067464861729 0 0.33463237856908817 -0.28956894479377399 0 0.33485830675890288 -0.30442904333306592 0 0.35657459314761941 -0.2860097891906741 0 0.33463237856908817 -0.28956894479377399 0 0.32894302133540282 -0.28710755170783531 0 0.35195887039823659 -0.28200771363307098 0 0.32894302133540282 -0.28710755170783531 0 0.35195887039823659 -0.28200771363307098 0 0.32894302133540282 -0.28710755170783531 0 0.33255663915089151 -0.29722249741805129 0 0.33463237856908817 -0.28956894479377399 0 0.32894302133540282 -0.28710755170783531 0 0.33255663915089151 -0.29722249741805129 0 0.32894302133540282 -0.28710755170783531 0 0.33255663915089151 -0.29722249741805129 0 0.32301709761150521 -0.2972128627914089 0 0.33485830675890288 -0.30442904333306592 0 0.34824447571033601 -0.30253517369681238 0 0.34533870308018377 -0.31598934501886372 0 0.33485830675890288 -0.30442904333306592 0 0.33255663915089151 -0.29722249741805129 0 0.32434770264142349 -0.30499280498860082 0 0.33463237856908817 -0.28956894479377399 0 0.33485830675890288 -0.30442904333306592 0 0.33255663915089151 -0.29722249741805129 0 0.32301709761150521 -0.2972128627914089 0 0.32434770264142349 -0.30499280498860082 0 0.3171485971304504 -0.30589952111326829 0 0.32434770264142349 -0.30499280498860082 0 0.3171485971304504 -0.30589952111326829 0 0.31314202037018413 -0.32284829747545468 0 0.33485830675890288 -0.30442904333306592 0 0.32434770264142349 -0.30499280498860082 0 0.31314202037018413 -0.32284829747545468 0 0.33255663915089151 -0.29722249741805129 0 0.32301709761150521 -0.2972128627914089 0 0.32434770264142349 -0.30499280498860082 0 0.3171485971304504 -0.30589952111326829 0 0.31208952779935789 -0.2908419387292881 0 0.30833746379913463 -0.30503745501229762 0 0.32301709761150521 -0.2972128627914089 0 0.3171485971304504 -0.30589952111326829 0 0.31208952779935789 -0.2908419387292881 0 0.32894302133540282 -0.28710755170783531 0 0.31611371382327402 -0.28007222207304999 0 0.31208952779935789 -0.2908419387292881 0 0.32894302133540282 -0.28710755170783531 0 0.32301709761150521 -0.2972128627914089 0 0.31208952779935789 -0.2908419387292881 0 0.32894302133540282 -0.28710755170783531 0 0.31208952779935789 -0.2908419387292881 0 0.32894302133540282 -0.28710755170783531 0 0.32245882367699719 -0.26895751187574157 0 0.32894302133540282 -0.28710755170783531 0 0.31611371382327402 -0.28007222207304999 0 0.32245882367699719 -0.26895751187574157 0 0.31611371382327402 -0.28007222207304999 0 0.32245882367699719 -0.26895751187574157 0 0.30706455279928557 -0.27339796693147528 0 0.32245882367699719 -0.26895751187574157 0 0.30981211567343969 -0.26250129009931661 0 0.30706455279928557 -0.27339796693147528 0 0.32245882367699719 -0.26895751187574157 0 0.31597462601859122 -0.25080747204364812 0 0.32245882367699719 -0.26895751187574157 0 0.31597462601859122 -0.25080747204364812 0 0.30981211567343969 -0.26250129009931661 0 0.32245882367699719 -0.26895751187574157 0 0.31597462601859122 -0.25080747204364812 0 0.33396674820841349 -0.26640759283836002 0 0.31597462601859122 -0.25080747204364812 0 0.33396674820841349 -0.26640759283836002 0 0.33517615116993849 -0.24743488902137309 0 0.33396674820841349 -0.26640759283836002 0 0.35185333732921159 -0.25428502110151557 0 0.33517615116993849 -0.24743488902137309 0 0.31597462601859122 -0.25080747204364812 0 0.33396674820841349 -0.26640759283836002 0 0.32894302133540282 -0.28710755170783531 0 0.32245882367699719 -0.26895751187574157 0 0.33396674820841349 -0.26640759283836002 0 0.33396674820841349 -0.26640759283836002 0 0.35195887039823659 -0.28200771363307098 0 0.32894302133540282 -0.28710755170783531 0 0.33396674820841349 -0.26640759283836002 0 0.35195887039823659 -0.28200771363307098 0 0.33396674820841349 -0.26640759283836002 0 0.35159414215374007 -0.26901089914998932 0 0.35195887039823659 -0.28200771363307098 0 0.35159414215374007 -0.26901089914998932 0 0.36459381448795669 -0.2792080702757721 0 0.35195887039823659 -0.28200771363307098 0 0.36459381448795669 -0.2792080702757721 0 0.35195887039823659 -0.28200771363307098 0 0.33396674820841349 -0.26640759283836002 0 0.35159414215374007 -0.26901089914998932 0 0.35185333732921159 -0.25428502110151557 0 0.35159414215374007 -0.26901089914998932 0 0.35185333732921159 -0.25428502110151557 0 0.36435388824524378 -0.26651308148643732 0 0.37477580018058132 -0.24095111383496479 0 0.37683953433427181 -0.26882153263446662 0 0.36563983252638571 -0.25462703483095822 0 0.36075586336603621 -0.2426037127049111 0 0.35185333732921159 -0.25428502110151557 0 0.36563983252638571 -0.25462703483095822 0 0.35185333732921159 -0.25428502110151557 0 0.36563983252638571 -0.25462703483095822 0 0.36435388824524378 -0.26651308148643732 0 0.37683953433427181 -0.26882153263446662 0 0.36563983252638571 -0.25462703483095822 0 0.36435388824524378 -0.26651308148643732 0 0.36459381448795669 -0.2792080702757721 0 0.36308990924476459 -0.28048364807874221 0 0.35195887039823659 -0.28200771363307098 0 0.36459381448795669 -0.2792080702757721 0 0.36308990924476459 -0.28048364807874221 0 0.37273728942595791 -0.27740364396778311 0 0.36459381448795669 -0.2792080702757721 0 0.36308990924476459 -0.28048364807874221 0 0.35159414215374007 -0.26901089914998932 0 0.36459381448795669 -0.2792080702757721 0 0.36435388824524378 -0.26651308148643732 0 0.37683953433427181 -0.26882153263446662 0 0.36459381448795669 -0.2792080702757721 0 0.36435388824524378 -0.26651308148643732 0 0.36459381448795669 -0.2792080702757721 0 0.37273728942595791 -0.27740364396778311 0 0.37683953433427181 -0.26882153263446662 0 0.36459381448795669 -0.2792080702757721 0 0.37273728942595791 -0.27740364396778311 0 0.37683953433427181 -0.26882153263446662 0 0.36459381448795669 -0.2792080702757721 0 0.36308990924476459 -0.28048364807874221 0 0.37273728942595791 -0.27740364396778311 0 0.37795999762798671 -0.28395322059410122 0 0.37273728942595791 -0.27740364396778311 0 0.36936745264149701 -0.28627283508716472 0 0.35657459314761941 -0.2860097891906741 0 0.35620629985463748 -0.30371251724464648 0 0.37101427446782781 -0.29852975601036341 0 0.36308990924476459 -0.28048364807874221 0 0.37273728942595791 -0.27740364396778311 0 0.36936745264149701 -0.28627283508716472 0 0.37519981906117678 -0.29055939022370142 0 0.37795999762798671 -0.28395322059410122 0 0.36936745264149701 -0.28627283508716472 0 0.37519981906117678 -0.29055939022370142 0 0.36936745264149701 -0.28627283508716472 0 0.37101427446782781 -0.29852975601036341 0 0.36936745264149701 -0.28627283508716472 0 0.35657459314761941 -0.2860097891906741 0 0.37101427446782781 -0.29852975601036341 0 0.35657459314761941 -0.2860097891906741 0 0.37101427446782781 -0.29852975601036341 0 0.36308990924476459 -0.28048364807874221 0 0.36936745264149701 -0.28627283508716472 0 0.35657459314761941 -0.2860097891906741 0 0.36308990924476459 -0.28048364807874221 0 0.35657459314761941 -0.2860097891906741 0 0.36308990924476459 -0.28048364807874221 0 0.35366972758071469 -0.28349111722646431 0 0.33463237856908817 -0.28956894479377399 0 0.35366972758071469 -0.28349111722646431 0 0.33463237856908817 -0.28956894479377399 0 0.35366972758071469 -0.28349111722646431 0 0.35195887039823659 -0.28200771363307098 0 0.36308990924476459 -0.28048364807874221 0 0.35366972758071469 -0.28349111722646431 0 0.35195887039823659 -0.28200771363307098 0 0.33485830675890288 -0.30442904333306592 0 0.35657459314761941 -0.2860097891906741 0 0.36308990924476459 -0.28048364807874221 0 0.35366972758071469 -0.28349111722646431 0 0.35657459314761941 -0.2860097891906741 0 0.33463237856908817 -0.28956894479377399 0 0.35366972758071469 -0.28349111722646431 0 0.35657459314761941 -0.2860097891906741 0 0.35366972758071469 -0.28349111722646431 0 0.35657459314761941 -0.2860097891906741 0 0.35366972758071469 -0.28349111722646431 0 0.35195887039823659 -0.28200771363307098 0 0.35620629985463748 -0.30371251724464648 0 0.36380134767337091 -0.31365371592763602 0 0.34533870308018377 -0.31598934501886372 0 0.35657459314761941 -0.2860097891906741 0 0.34824447571033601 -0.30253517369681238 0 0.35620629985463748 -0.30371251724464648 0 0.33485830675890288 -0.30442904333306592 0 0.35657459314761941 -0.2860097891906741 0 0.34824447571033601 -0.30253517369681238 0 0.34824447571033601 -0.30253517369681238 0 0.35620629985463748 -0.30371251724464648 0 0.34533870308018377 -0.31598934501886372 0 0.38545395578803499 -0.31104972283005378 0 0.37101427446782781 -0.29852975601036341 0 0.36380134767337091 -0.31365371592763602 0 0.35620629985463748 -0.30371251724464648 0 0.37101427446782781 -0.29852975601036341 0 0.36380134767337091 -0.31365371592763602 0 0.38545395578803499 -0.31104972283005378 0 0.36380134767337091 -0.31365371592763602 0 0.36945761595668469 -0.32738841673247931 0 0.36380134767337091 -0.31365371592763602 0 0.36945761595668469 -0.32738841673247931 0 0.35533723689285712 -0.32525253772940937 0 0.36945761595668469 -0.32738841673247931 0 0.35618710249729552 -0.34088690244721892 0 0.35533723689285712 -0.32525253772940937 0 0.36945761595668469 -0.32738841673247931 0 0.35618710249729552 -0.34088690244721892 0 0.37368731816096312 -0.34897020548070451 0 0.35618710249729552 -0.34088690244721892 0 0.33810128782584858 -0.35072533414536311 0 0.34064131712366241 -0.33181983138849169 0 0.35618710249729552 -0.34088690244721892 0 0.35533723689285712 -0.32525253772940937 0 0.34064131712366241 -0.33181983138849169 0 0.34533870308018377 -0.31598934501886372 0 0.35533723689285712 -0.32525253772940937 0 0.34064131712366241 -0.33181983138849169 0 0.36380134767337091 -0.31365371592763602 0 0.34533870308018377 -0.31598934501886372 0 0.35533723689285712 -0.32525253772940937 0 0.3689120952668708 -0.37284951495870189 0 0.37368731816096312 -0.34897020548070451 0 0.35738528973841999 -0.35772904562383351 0 0.35618710249729552 -0.34088690244721892 0 0.37368731816096312 -0.34897020548070451 0 0.35738528973841999 -0.35772904562383351 0 0.35618710249729552 -0.34088690244721892 0 0.35738528973841999 -0.35772904562383351 0 0.33810128782584858 -0.35072533414536311 0 0.35738528973841999 -0.35772904562383351 0 0.34467783115022588 -0.37252705130409253 0 0.33810128782584858 -0.35072533414536311 0 0.3689120952668708 -0.37284951495870189 0 0.35738528973841999 -0.35772904562383351 0 0.34467783115022588 -0.37252705130409253 0 0.34467783115022588 -0.37252705130409253 0 0.33810128782584858 -0.35072533414536311 0 0.3255374248820434 -0.37161020359421471 0 0.31543696134246668 -0.34593224431305769 0 0.3255374248820434 -0.37161020359421471 0 0.30900602422585888 -0.35865430802761772 0 0.31543696134246668 -0.34593224431305769 0 0.3255374248820434 -0.37161020359421471 0 0.33810128782584858 -0.35072533414536311 0 0.31543696134246668 -0.34593224431305769 0 0.3255374248820434 -0.37161020359421471 0 0.3255374248820434 -0.37161020359421471 0 0.30525369772634148 -0.37164386163485291 0 0.30900602422585888 -0.35865430802761772 0 0.34533870308018377 -0.31598934501886372 0 0.33130220335757699 -0.32186248444176119 0 0.34064131712366241 -0.33181983138849169 0 0.33485830675890288 -0.30442904333306592 0 0.34533870308018377 -0.31598934501886372 0 0.33130220335757699 -0.32186248444176119 0 0.33810128782584858 -0.35072533414536311 0 0.34064131712366241 -0.33181983138849169 0 0.3268430880468266 -0.33457206034663262 0 0.33130220335757699 -0.32186248444176119 0 0.34064131712366241 -0.33181983138849169 0 0.3268430880468266 -0.33457206034663262 0 0.31543696134246668 -0.34593224431305769 0 0.3268430880468266 -0.33457206034663262 0 0.31314202037018413 -0.32284829747545468 0 0.33810128782584858 -0.35072533414536311 0 0.31543696134246668 -0.34593224431305769 0 0.3268430880468266 -0.33457206034663262 0 0.33130220335757699 -0.32186248444176119 0 0.3268430880468266 -0.33457206034663262 0 0.31314202037018413 -0.32284829747545468 0 0.33485830675890288 -0.30442904333306592 0 0.31314202037018413 -0.32284829747545468 0 0.3171485971304504 -0.30589952111326829 0 0.31314202037018413 -0.32284829747545468 0 0.3109911447756647 -0.31350988965823029 0 0.33485830675890288 -0.30442904333306592 0 0.33130220335757699 -0.32186248444176119 0 0.31314202037018413 -0.32284829747545468 0 0.31314202037018413 -0.32284829747545468 0 0.30533649780288991 -0.32025428503190068 0 0.3109911447756647 -0.31350988965823029 0 0.30533649780288991 -0.32025428503190068 0 0.3109911447756647 -0.31350988965823029 0 0.30833746379913463 -0.30503745501229762 0 0.31543696134246668 -0.34593224431305769 0 0.30533649780288991 -0.32025428503190068 0 0.30314188851555429 -0.3464145030398364 0 0.30533649780288991 -0.32025428503190068 0 0.29792146783109758 -0.32077626486014349 0 0.30314188851555429 -0.3464145030398364 0 0.31543696134246668 -0.34593224431305769 0 0.31314202037018413 -0.32284829747545468 0 0.30533649780288991 -0.32025428503190068 0 0.29792146783109758 -0.32077626486014349 0 0.30314188851555429 -0.3464145030398364 0 0.31543696134246668 -0.34593224431305769 0 0.30533649780288991 -0.32025428503190068 0 0.29792146783109758 -0.32077626486014349 0 0.29422135484035322 -0.33366994296298719 0 0.30314188851555429 -0.3464145030398364 0 0.29422135484035322 -0.33366994296298719 0 0.29546103181119637 -0.34185893253319311 0 0.30314188851555429 -0.3464145030398364 0 0.29422135484035322 -0.33366994296298719 0 0.29546103181119637 -0.34185893253319311 0 0.28827175492889229 -0.34275780055790278 0 0.29546103181119637 -0.34185893253319311 0 0.28827175492889229 -0.34275780055790278 0 0.29811044553331972 -0.34650788457159087 0 0.29422135484035322 -0.33366994296298719 0 0.28827175492889229 -0.34275780055790278 0 0.27955848846152698 -0.33666113426449551 0 0.29422135484035322 -0.33366994296298719 0 0.28744860979629389 -0.32474860906702402 0 0.27955848846152698 -0.33666113426449551 0 0.28744860979629389 -0.32474860906702402 0 0.29019889155513462 -0.31620785207956748 0 0.28097437988070417 -0.31138482246715898 0 0.29792146783109758 -0.32077626486014349 0 0.29019889155513462 -0.31620785207956748 0 0.29244758100571983 -0.32385066724243061 0 0.29422135484035322 -0.33366994296298719 0 0.28744860979629389 -0.32474860906702402 0 0.29244758100571983 -0.32385066724243061 0 0.29792146783109758 -0.32077626486014349 0 0.29422135484035322 -0.33366994296298719 0 0.29244758100571983 -0.32385066724243061 0 0.28744860979629389 -0.32474860906702402 0 0.29019889155513462 -0.31620785207956748 0 0.29244758100571983 -0.32385066724243061 0 0.30525369772634148 -0.37164386163485291 0 0.30031449930387721 -0.36082981960256849 0 0.30900602422585888 -0.35865430802761772 0 0.30525369772634148 -0.37164386163485291 0 0.30031449930387721 -0.36082981960256849 0 0.29483415024835152 -0.36747827247447862 0 0.30080593951138668 -0.35381036279877531 0 0.30900602422585888 -0.35865430802761772 0 0.30314188851555429 -0.3464145030398364 0 0.30080593951138668 -0.35381036279877531 0 0.29811044553331972 -0.34650788457159087 0 0.29345683997832372 -0.35664529875226292 0 0.30031449930387721 -0.36082981960256849 0 0.30080593951138668 -0.35381036279877531 0 0.30900602422585888 -0.35865430802761772 0 0.30031449930387721 -0.36082981960256849 0 0.30080593951138668 -0.35381036279877531 0 0.29345683997832372 -0.35664529875226292 0 0.31543696134246668 -0.34593224431305769 0 0.30900602422585888 -0.35865430802761772 0 0.30314188851555429 -0.3464145030398364 0 0.30080593951138668 -0.35381036279877531 0 0.30314188851555429 -0.3464145030398364 0 0.29811044553331972 -0.34650788457159087 0 0.29546103181119637 -0.34185893253319311 0 0.30314188851555429 -0.3464145030398364 0 0.29811044553331972 -0.34650788457159087 0 0.29811044553331972 -0.34650788457159087 0 0.29345683997832372 -0.35664529875226292 0 0.28122462644821988 -0.35688066365974619 0 0.28827175492889229 -0.34275780055790278 0 0.29811044553331972 -0.34650788457159087 0 0.28122462644821988 -0.35688066365974619 0 0.28827175492889229 -0.34275780055790278 0 0.28122462644821988 -0.35688066365974619 0 0.27955848846152698 -0.33666113426449551 0 0.29811044553331972 -0.34650788457159087 0 0.28122462644821988 -0.35688066365974619 0 0.29345683997832372 -0.35664529875226292 0 0.28676543400443838 -0.36101512068260139 0 0.28122462644821988 -0.35688066365974619 0 0.28676543400443838 -0.36101512068260139 0 0.28122462644821988 -0.35688066365974619 0 0.28783989868818821 -0.37644057584389279 0 0.30525369772634148 -0.37164386163485291 0 0.29483415024835152 -0.36747827247447862 0 0.28783989868818821 -0.37644057584389279 0 0.28676543400443838 -0.36101512068260139 0 0.27033126349110148 -0.36357234067652822 0 0.29357505063040601 -0.36145191270551408 0 0.28676543400443838 -0.36101512068260139 0 0.29483415024835152 -0.36747827247447862 0 0.30031449930387721 -0.36082981960256849 0 0.29357505063040601 -0.36145191270551408 0 0.29483415024835152 -0.36747827247447862 0 0.30031449930387721 -0.36082981960256849 0 0.29345683997832372 -0.35664529875226292 0 0.29357505063040601 -0.36145191270551408 0 0.29345683997832372 -0.35664529875226292 0 0.29357505063040601 -0.36145191270551408 0 0.28676543400443838 -0.36101512068260139 0 0.28783989868818821 -0.37644057584389279 0 0.28676543400443838 -0.36101512068260139 0 0.29483415024835152 -0.36747827247447862 0 0.28783989868818821 -0.37644057584389279 0 0.27033126349110148 -0.36357234067652822 0 0.28783989868818821 -0.37644057584389279 0 0.27447250226623809 -0.37821124143188289 0 0.27033126349110148 -0.36357234067652822 0 0.28676543400443838 -0.36101512068260139 0 0.27033126349110148 -0.36357234067652822 0 0.28122462644821988 -0.35688066365974619 0 0.27447250226623809 -0.37821124143188289 0 0.26423397132697279 -0.37890457124200982 0 0.27033126349110148 -0.36357234067652822 0 0.27033126349110148 -0.36357234067652822 0 0.28122462644821988 -0.35688066365974619 0 0.28122462644821988 -0.35688066365974619 0 0.26082083375001269 -0.34165569813656432 0 0.27033126349110148 -0.36357234067652822 0 0.28122462644821988 -0.35688066365974619 0 0.26082083375001269 -0.34165569813656432 0 0.28122462644821988 -0.35688066365974619 0 0.27955848846152698 -0.33666113426449551 0 0.26082083375001269 -0.34165569813656432 0 0.27033126349110148 -0.36357234067652822 0 0.25099839141978419 -0.34936335514031408 0 0.27033126349110148 -0.36357234067652822 0 0.25099839141978419 -0.34936335514031408 0 0.26082083375001269 -0.34165569813656432 0 0.27033126349110148 -0.36357234067652822 0 0.25099839141978419 -0.34936335514031408 0 0.24534349961555019 -0.36253701182870851 0 0.26423397132697279 -0.37890457124200982 0 0.27033126349110148 -0.36357234067652822 0 0.24987622704845311 -0.37613765202982719 0 0.27033126349110148 -0.36357234067652822 0 0.24534349961555019 -0.36253701182870851 0 0.24987622704845311 -0.37613765202982719 0 0.27033126349110148 -0.36357234067652822 0 0.24987622704845311 -0.37613765202982719 0 0.28744860979629389 -0.32474860906702402 0 0.26598899428458778 -0.32103793389256657 0 0.27955848846152698 -0.33666113426449551 0 0.28744860979629389 -0.32474860906702402 0 0.26598899428458778 -0.32103793389256657 0 0.28097437988070417 -0.31138482246715898 0 0.26598899428458778 -0.32103793389256657 0 0.27955848846152698 -0.33666113426449551 0 0.26082083375001269 -0.34165569813656432 0 0.26082083375001269 -0.34165569813656432 0 0.2404170410518052 -0.32643073261338312 0 0.26598899428458778 -0.32103793389256657 0 0.26082083375001269 -0.34165569813656432 0 0.2404170410518052 -0.32643073261338312 0 0.25099839141978419 -0.34936335514031408 0 0.26082083375001269 -0.34165569813656432 0 0.2404170410518052 -0.32643073261338312 0 0.26598899428458778 -0.32103793389256657 0 0.24423538898563429 -0.30587701823941071 0 0.2404170410518052 -0.32643073261338312 0 0.26846821806613752 -0.30050752245993012 0 0.24423538898563429 -0.30587701823941071 0 0.25301376652256202 -0.2892367573709661 0 0.26846821806613752 -0.30050752245993012 0 0.24423538898563429 -0.30587701823941071 0 0.26598899428458778 -0.32103793389256657 0 0.26846821806613752 -0.30050752245993012 0 0.24423538898563429 -0.30587701823941071 0 0.25301376652256202 -0.2892367573709661 0 0.26500420865911251 -0.28331687632378699 0 0.26846821806613752 -0.30050752245993012 0 0.25301376652256202 -0.2892367573709661 0 0.26500420865911251 -0.28331687632378699 0 0.2507153324002197 -0.27704953531328702 0 0.26500420865911251 -0.28331687632378699 0 0.27805302037335089 -0.28584974436810762 0 0.26846821806613752 -0.30050752245993012 0 0.27805302037335089 -0.28584974436810762 0 0.26846821806613752 -0.30050752245993012 0 0.29270104714664102 -0.29513802668045069 0 0.26500420865911251 -0.28331687632378699 0 0.27805302037335089 -0.28584974436810762 0 0.27342558025451552 -0.27498979272208851 0 0.26598899428458778 -0.32103793389256657 0 0.26846821806613752 -0.30050752245993012 0 0.28097437988070417 -0.31138482246715898 0 0.26846821806613752 -0.30050752245993012 0 0.28097437988070417 -0.31138482246715898 0 0.29270104714664102 -0.29513802668045069 0 0.26846821806613752 -0.30050752245993012 0 0.29270104714664102 -0.29513802668045069 0 0.29792146783109758 -0.32077626486014349 0 0.29270104714664102 -0.29513802668045069 0 0.29019889155513462 -0.31620785207956748 0 0.28097437988070417 -0.31138482246715898 0 0.29270104714664102 -0.29513802668045069 0 0.29792146783109758 -0.32077626486014349 0 0.29019889155513462 -0.31620785207956748 0 0.29270104714664102 -0.29513802668045069 0 0.29792146783109758 -0.32077626486014349 0 0.29270104714664102 -0.29513802668045069 0 0.29523603426331357 -0.29457632575074338 0 0.27805302037335089 -0.28584974436810762 0 0.29026987947112831 -0.28319821192468808 0 0.29270104714664102 -0.29513802668045069 0 0.27805302037335089 -0.28584974436810762 0 0.29026987947112831 -0.28319821192468808 0 0.28863308206368682 -0.27515966401439529 0 0.29026987947112831 -0.28319821192468808 0 0.29523603426331357 -0.29457632575074338 0 0.29026987947112831 -0.28319821192468808 0 0.29523603426331357 -0.29457632575074338 0 0.30320790951940702 -0.28313078900162059 0 0.29026987947112831 -0.28319821192468808 0 0.29270104714664102 -0.29513802668045069 0 0.29523603426331357 -0.29457632575074338 0 0.29026987947112831 -0.28319821192468808 0 0.29270104714664102 -0.29513802668045069 0 0.29270104714664102 -0.29513802668045069 0 0.29523603426331357 -0.29457632575074338 0 0.29523603426331357 -0.29457632575074338 0 0.31208952779935789 -0.2908419387292881 0 0.29523603426331357 -0.29457632575074338 0 0.30320790951940702 -0.28313078900162059 0 0.31208952779935789 -0.2908419387292881 0 0.29523603426331357 -0.29457632575074338 0 0.31208952779935789 -0.2908419387292881 0 0.30833746379913463 -0.30503745501229762 0 0.31611371382327402 -0.28007222207304999 0 0.30320790951940702 -0.28313078900162059 0 0.31208952779935789 -0.2908419387292881 0 0.30533649780288991 -0.32025428503190068 0 0.29523603426331357 -0.29457632575074338 0 0.30833746379913463 -0.30503745501229762 0 0.30533649780288991 -0.32025428503190068 0 0.29792146783109758 -0.32077626486014349 0 0.29523603426331357 -0.29457632575074338 0 0.30533649780288991 -0.32025428503190068 0 0.29523603426331357 -0.29457632575074338 0 0.3171485971304504 -0.30589952111326829 0 0.3109911447756647 -0.31350988965823029 0 0.30833746379913463 -0.30503745501229762 0 0.29812220868357159 -0.26533402464574418 0 0.30111904597271899 -0.2536098058489899 0 0.30981211567343969 -0.26250129009931661 0 0.31597462601859122 -0.25080747204364812 0 0.30111904597271899 -0.2536098058489899 0 0.30981211567343969 -0.26250129009931661 0 0.29812220868357159 -0.26533402464574418 0 0.30981211567343969 -0.26250129009931661 0 0.30706455279928557 -0.27339796693147528 0 0.31611371382327402 -0.28007222207304999 0 0.30320790951940702 -0.28313078900162059 0 0.30706455279928557 -0.27339796693147528 0 0.29026987947112831 -0.28319821192468808 0 0.30320790951940702 -0.28313078900162059 0 0.29755036247591721 -0.27602563541609298 0 0.30320790951940702 -0.28313078900162059 0 0.30706455279928557 -0.27339796693147528 0 0.29755036247591721 -0.27602563541609298 0 0.29812220868357159 -0.26533402464574418 0 0.30706455279928557 -0.27339796693147528 0 0.29755036247591721 -0.27602563541609298 0 0.29812220868357159 -0.26533402464574418 0 0.29755036247591721 -0.27602563541609298 0 0.28863308206368682 -0.27515966401439529 0 0.29026987947112831 -0.28319821192468808 0 0.28863308206368682 -0.27515966401439529 0 0.29026987947112831 -0.28319821192468808 0 0.29755036247591721 -0.27602563541609298 0 0.28863308206368682 -0.27515966401439529 0 0.28863308206368682 -0.27515966401439529 0 0.28456511698073272 -0.25518130134833977 0 0.29812220868357159 -0.26533402464574418 0 0.28863308206368682 -0.27515966401439529 0 0.28456511698073272 -0.25518130134833977 0 0.29812220868357159 -0.26533402464574418 0 0.30111904597271899 -0.2536098058489899 0 0.28456511698073272 -0.25518130134833977 0 0.28863308206368682 -0.27515966401439529 0 0.28456511698073272 -0.25518130134833977 0 0.27223885194073971 -0.26265851400849172 0 0.28456511698073272 -0.25518130134833977 0 0.27223885194073971 -0.26265851400849172 0 0.26629969424128969 -0.25192769388052821 0 0.27223885194073971 -0.26265851400849172 0 0.26629969424128969 -0.25192769388052821 0 0.2629172406837702 -0.26740365320709081 0 0.26500420865911251 -0.28331687632378699 0 0.27342558025451552 -0.27498979272208851 0 0.2629172406837702 -0.26740365320709081 0 0.28863308206368682 -0.27515966401439529 0 0.27223885194073971 -0.26265851400849172 0 0.27342558025451552 -0.27498979272208851 0 0.27805302037335089 -0.28584974436810762 0 0.28863308206368682 -0.27515966401439529 0 0.27342558025451552 -0.27498979272208851 0 0.27223885194073971 -0.26265851400849172 0 0.27342558025451552 -0.27498979272208851 0 0.2629172406837702 -0.26740365320709081 0 0.26500420865911251 -0.28331687632378699 0 0.2629172406837702 -0.26740365320709081 0 0.2507153324002197 -0.27704953531328702 0 0.2629172406837702 -0.26740365320709081 0 0.2507153324002197 -0.27704953531328702 0 0.2466218950091964 -0.26012473444713258 0 0.25037283077400019 -0.2416092145933311 0 0.26629969424128969 -0.25192769388052821 0 0.2466218950091964 -0.26012473444713258 0 0.26629969424128969 -0.25192769388052821 0 0.2629172406837702 -0.26740365320709081 0 0.2466218950091964 -0.26012473444713258 0 0.25037283077400019 -0.2416092145933311 0 0.2466218950091964 -0.26012473444713258 0 0.2339549802858914 -0.24933471903745599 0 0.2466218950091964 -0.26012473444713258 0 0.22717476572977791 -0.26325637954660608 0 0.2339549802858914 -0.24933471903745599 0 0.2466218950091964 -0.26012473444713258 0 0.23628574795648369 -0.27498419313581679 0 0.22717476572977791 -0.26325637954660608 0 0.2507153324002197 -0.27704953531328702 0 0.2466218950091964 -0.26012473444713258 0 0.23628574795648369 -0.27498419313581679 0 0.2507153324002197 -0.27704953531328702 0 0.23628574795648369 -0.27498419313581679 0 0.24044913557019401 -0.28723099739492908 0 0.2247339410531527 -0.27667652802353632 0 0.21554844428562811 -0.26491471108287651 0 0.21653111649902579 -0.28712771180040292 0 0.23628574795648369 -0.27498419313581679 0 0.2247339410531527 -0.27667652802353632 0 0.22717476572977791 -0.26325637954660608 0 0.2247339410531527 -0.27667652802353632 0 0.22717476572977791 -0.26325637954660608 0 0.21554844428562811 -0.26491471108287651 0 0.22717476572977791 -0.26325637954660608 0 0.22331750647786899 -0.25281133177650322 0 0.2339549802858914 -0.24933471903745599 0 0.22717476572977791 -0.26325637954660608 0 0.22331750647786899 -0.25281133177650322 0 0.21554844428562811 -0.26491471108287651 0 0.2084475354763706 -0.25511513831035743 0 0.21554844428562811 -0.26491471108287651 0 0.1982966667633215 -0.26354120971092698 0 0.21554844428562811 -0.26491471108287651 0 0.21456577207223029 -0.24270171036535029 0 0.22331750647786899 -0.25281133177650322 0 0.21554844428562811 -0.26491471108287651 0 0.21456577207223029 -0.24270171036535029 0 0.2084475354763706 -0.25511513831035743 0 0.21554844428562811 -0.26491471108287651 0 0.21336353465090491 -0.24693864317134839 0 0.21554844428562811 -0.26491471108287651 0 0.21336353465090491 -0.24693864317134839 0 0.21456577207223029 -0.24270171036535029 0 0.2084475354763706 -0.25511513831035743 0 0.1982966667633215 -0.26354120971092698 0 0.2080714594183444 -0.2424179483002232 0 0.1982966667633215 -0.26354120971092698 0 0.2080714594183444 -0.2424179483002232 0 0.21554844428562811 -0.26491471108287651 0 0.21653111649902579 -0.28712771180040292 0 0.21554844428562811 -0.26491471108287651 0 0.20859607852913339 -0.28093905456482821 0 0.21653111649902579 -0.28712771180040292 0 0.21554844428562811 -0.26491471108287651 0 0.20859607852913339 -0.28093905456482821 0 0.2011380539128553 -0.27767933622792518 0 0.21554844428562811 -0.26491471108287651 0 0.2011380539128553 -0.27767933622792518 0 0.1982966667633215 -0.26354120971092698 0 0.1982966667633215 -0.26354120971092698 0 0.18852187410829821 -0.28466447112163068 0 0.1982966667633215 -0.26354120971092698 0 0.18852187410829821 -0.28466447112163068 0 0.1845366839674035 -0.26640487959885623 0 0.2011380539128553 -0.27767933622792518 0 0.1982966667633215 -0.26354120971092698 0 0.18852187410829821 -0.28466447112163068 0 0.1982966667633215 -0.26354120971092698 0 0.2080714594183444 -0.2424179483002232 0 0.19254414318066221 -0.24961624770678509 0 0.1982966667633215 -0.26354120971092698 0 0.18706352147094041 -0.25756661524031438 0 0.1845366839674035 -0.26640487959885623 0 0.1982966667633215 -0.26354120971092698 0 0.18706352147094041 -0.25756661524031438 0 0.19254414318066221 -0.24961624770678509 0 0.18706352147094041 -0.25756661524031438 0 0.19254414318066221 -0.24961624770678509 0 0.18399505531774341 -0.24981832115951039 0 0.20249447748908611 -0.29813355613580778 0 0.1976485991634879 -0.30796138879627621 0 0.19462594870140809 -0.30164723750547567 0 0.20249447748908611 -0.29813355613580778 0 0.19462594870140809 -0.30164723750547567 0 0.19392418081794471 -0.29575522021664652 0 0.20249447748908611 -0.29813355613580778 0 0.1976485991634879 -0.30796138879627621 0 0.20782414549410869 -0.30817847155873718 0 0.1976485991634879 -0.30796138879627621 0 0.20782414549410869 -0.30817847155873718 0 0.20282381327660201 -0.31505297042611552 0 0.1976485991634879 -0.30796138879627621 0 0.19009702279388629 -0.3064242775921906 0 0.18802618722583669 -0.31833181955932999 0 0.1976485991634879 -0.30796138879627621 0 0.19009702279388629 -0.3064242775921906 0 0.19462594870140809 -0.30164723750547567 0 0.19009702279388629 -0.3064242775921906 0 0.19462594870140809 -0.30164723750547567 0 0.1880606218677118 -0.30022154946313712 0 0.19462594870140809 -0.30164723750547567 0 0.19110113081553529 -0.29631368747161629 0 0.19392418081794471 -0.29575522021664652 0 0.1880606218677118 -0.30022154946313712 0 0.19110113081553529 -0.29631368747161629 0 0.18734834214976739 -0.29514628785519947 0 0.19462594870140809 -0.30164723750547567 0 0.1880606218677118 -0.30022154946313712 0 0.19110113081553529 -0.29631368747161629 0 0.20249447748908611 -0.29813355613580778 0 0.18747516626574931 -0.28692639975368628 0 0.20249447748908611 -0.29813355613580778 0 0.19392418081794471 -0.29575522021664652 0 0.18747516626574931 -0.28692639975368628 0 0.19110113081553529 -0.29631368747161629 0 0.19392418081794471 -0.29575522021664652 0 0.18747516626574931 -0.28692639975368628 0 0.19110113081553529 -0.29631368747161629 0 0.18747516626574931 -0.28692639975368628 0 0.18734834214976739 -0.29514628785519947 0 0.18852187410829821 -0.28466447112163068 0 0.19787122383615691 -0.29172525818392958 0 0.18852187410829821 -0.28466447112163068 0 0.19731262536099689 -0.28481999283041842 0 0.19787122383615691 -0.29172525818392958 0 0.18852187410829821 -0.28466447112163068 0 0.19787122383615691 -0.29172525818392958 0 0.18747516626574931 -0.28692639975368628 0 0.18852187410829821 -0.28466447112163068 0 0.18747516626574931 -0.28692639975368628 0 0.2011380539128553 -0.27767933622792518 0 0.18852187410829821 -0.28466447112163068 0 0.19731262536099689 -0.28481999283041842 0 0.201719349586677 -0.2852109057881882 0 0.19787122383615691 -0.29172525818392958 0 0.206049533411369 -0.28982701925762389 0 0.19731262536099689 -0.28481999283041842 0 0.201719349586677 -0.2852109057881882 0 0.19787122383615691 -0.29172525818392958 0 0.2011380539128553 -0.27767933622792518 0 0.19731262536099689 -0.28481999283041842 0 0.201719349586677 -0.2852109057881882 0 0.20249447748908611 -0.29813355613580778 0 0.19787122383615691 -0.29172525818392958 0 0.18747516626574931 -0.28692639975368628 0 0.20249447748908611 -0.29813355613580778 0 0.19787122383615691 -0.29172525818392958 0 0.206049533411369 -0.28982701925762389 0 0.20249447748908611 -0.29813355613580778 0 0.206049533411369 -0.28982701925762389 0 0.20903552332543929 -0.29406903275804652 0 0.206049533411369 -0.28982701925762389 0 0.20903552332543929 -0.29406903275804652 0 0.21653111649902579 -0.28712771180040292 0 0.20249447748908611 -0.29813355613580778 0 0.20903552332543929 -0.29406903275804652 0 0.2123558614978226 -0.29827812898856709 0 0.20859607852913339 -0.28093905456482821 0 0.206049533411369 -0.28982701925762389 0 0.21653111649902579 -0.28712771180040292 0 0.20859607852913339 -0.28093905456482821 0 0.201719349586677 -0.2852109057881882 0 0.206049533411369 -0.28982701925762389 0 0.20859607852913339 -0.28093905456482821 0 0.2011380539128553 -0.27767933622792518 0 0.201719349586677 -0.2852109057881882 0 0.20903552332543929 -0.29406903275804652 0 0.21653111649902579 -0.28712771180040292 0 0.2123558614978226 -0.29827812898856709 0 0.21653111649902579 -0.28712771180040292 0 0.2175137887124228 -0.30934071251792922 0 0.21653111649902579 -0.28712771180040292 0 0.2123558614978226 -0.29827812898856709 0 0.2175137887124228 -0.30934071251792922 0 0.20249447748908611 -0.29813355613580778 0 0.2123558614978226 -0.29827812898856709 0 0.2175137887124228 -0.30934071251792922 0 0.20249447748908611 -0.29813355613580778 0 0.2175137887124228 -0.30934071251792922 0 0.20782414549410869 -0.30817847155873718 0 0.2176214393273678 -0.31177412129290383 0 0.20282381327660201 -0.31505297042611552 0 0.20249447748908611 -0.29813355613580778 0 0.20782414549410869 -0.30817847155873718 0 0.2175137887124228 -0.30934071251792922 0 0.20782414549410869 -0.30817847155873718 0 0.2175137887124228 -0.30934071251792922 0 0.2176214393273678 -0.31177412129290383 0 0.2175137887124228 -0.30934071251792922 0 0.2176214393273678 -0.31177412129290383 0 0.2175137887124228 -0.30934071251792922 0 0.2176214393273678 -0.31177412129290383 0 0.21999804566891551 -0.31122614102315033 0 0.21999804566891551 -0.31122614102315033 0 0.24423538898563429 -0.30587701823941071 0 0.2175137887124228 -0.30934071251792922 0 0.21999804566891551 -0.31122614102315033 0 0.22812963079484819 -0.29309964455197901 0 0.21999804566891551 -0.31122614102315033 0 0.22812963079484819 -0.29309964455197901 0 0.21999804566891551 -0.31122614102315033 0 0.22812963079484819 -0.29309964455197901 0 0.24423538898563429 -0.30587701823941071 0 0.2176214393273678 -0.31177412129290383 0 0.21999804566891551 -0.31122614102315033 0 0.2175137887124228 -0.30934071251792922 0 0.21999804566891551 -0.31122614102315033 0 0.23628574795648369 -0.27498419313581679 0 0.22812963079484819 -0.29309964455197901 0 0.2247339410531527 -0.27667652802353632 0 0.21653111649902579 -0.28712771180040292 0 0.22812963079484819 -0.29309964455197901 0 0.23628574795648369 -0.27498419313581679 0 0.2247339410531527 -0.27667652802353632 0 0.22812963079484819 -0.29309964455197901 0 0.21653111649902579 -0.28712771180040292 0 0.2175137887124228 -0.30934071251792922 0 0.22812963079484819 -0.29309964455197901 0 0.23628574795648369 -0.27498419313581679 0 0.22812963079484819 -0.29309964455197901 0 0.24044913557019401 -0.28723099739492908 0 0.25301376652256202 -0.2892367573709661 0 0.24044913557019401 -0.28723099739492908 0 0.24423538898563429 -0.30587701823941071 0 0.22812963079484819 -0.29309964455197901 0 0.24044913557019401 -0.28723099739492908 0 0.24423538898563429 -0.30587701823941071 0 0.25301376652256202 -0.2892367573709661 0 0.2507153324002197 -0.27704953531328702 0 0.24044913557019401 -0.28723099739492908 0 0.21999804566891551 -0.31122614102315033 0 0.24423538898563429 -0.30587701823941071 0 0.2404170410518052 -0.32643073261338312 0 0.25099839141978419 -0.34936335514031408 0 0.2316655193484673 -0.33515436960409939 0 0.25099839141978419 -0.34936335514031408 0 0.2404170410518052 -0.32643073261338312 0 0.2316655193484673 -0.33515436960409939 0 0.2404170410518052 -0.32643073261338312 0 0.2316655193484673 -0.33515436960409939 0 0.2247705650129608 -0.32491873692320528 0 0.2316655193484673 -0.33515436960409939 0 0.22208049410379579 -0.34309390150507102 0 0.22867514261462599 -0.34782526071452929 0 0.2316655193484673 -0.33515436960409939 0 0.22208049410379579 -0.34309390150507102 0 0.220555537226792 -0.33578323097752499 0 0.22208049410379579 -0.34309390150507102 0 0.220555537226792 -0.33578323097752499 0 0.21451162402718699 -0.34512658597487872 0 0.220555537226792 -0.33578323097752499 0 0.2247705650129608 -0.32491873692320528 0 0.21820242441149371 -0.32490710899175251 0 0.2316655193484673 -0.33515436960409939 0 0.220555537226792 -0.33578323097752499 0 0.2247705650129608 -0.32491873692320528 0 0.21999804566891551 -0.31122614102315033 0 0.2404170410518052 -0.32643073261338312 0 0.2247705650129608 -0.32491873692320528 0 0.21999804566891551 -0.31122614102315033 0 0.2404170410518052 -0.32643073261338312 0 0.2247705650129608 -0.32491873692320528 0 0.21780935440599439 -0.31602188338433101 0 0.21820242441149371 -0.32490710899175251 0 0.21999804566891551 -0.31122614102315033 0 0.2247705650129608 -0.32491873692320528 0 0.21780935440599439 -0.31602188338433101 0 0.21999804566891551 -0.31122614102315033 0 0.21780935440599439 -0.31602188338433101 0 0.23679608458568241 -0.3713456781615978 0 0.24534349961555019 -0.36253701182870851 0 0.24987622704845311 -0.37613765202982719 0 0.23679608458568241 -0.3713456781615978 0 0.24534349961555019 -0.36253701182870851 0 0.23133102347449649 -0.35950822589080189 0 0.25099839141978419 -0.34936335514031408 0 0.2316655193484673 -0.33515436960409939 0 0.23760271529458479 -0.35087764463569071 0 0.24534349961555019 -0.36253701182870851 0 0.23760271529458479 -0.35087764463569071 0 0.23133102347449649 -0.35950822589080189 0 0.25099839141978419 -0.34936335514031408 0 0.24534349961555019 -0.36253701182870851 0 0.23760271529458479 -0.35087764463569071 0 0.2316655193484673 -0.33515436960409939 0 0.23760271529458479 -0.35087764463569071 0 0.22867514261462599 -0.34782526071452929 0 0.22208049410379579 -0.34309390150507102 0 0.22076837523631451 -0.35267920974236072 0 0.21451162402718699 -0.34512658597487872 0 0.22208049410379579 -0.34309390150507102 0 0.22867514261462599 -0.34782526071452929 0 0.22076837523631451 -0.35267920974236072 0 0.22076837523631451 -0.35267920974236072 0 0.22341137818785181 -0.36337688942730773 0 0.21609027172906259 -0.36087537471117581 0 0.22076837523631451 -0.35267920974236072 0 0.23133102347449649 -0.35950822589080189 0 0.22341137818785181 -0.36337688942730773 0 0.22867514261462599 -0.34782526071452929 0 0.22076837523631451 -0.35267920974236072 0 0.23133102347449649 -0.35950822589080189 0 0.23760271529458479 -0.35087764463569071 0 0.22867514261462599 -0.34782526071452929 0 0.23133102347449649 -0.35950822589080189 0 0.23133102347449649 -0.35950822589080189 0 0.22341137818785181 -0.36337688942730773 0 0.22699371624108439 -0.37103399677892651 0 0.22341137818785181 -0.36337688942730773 0 0.22699371624108439 -0.37103399677892651 0 0.21663927632257499 -0.37152038636996992 0 0.22699371624108439 -0.37103399677892651 0 0.21663927632257499 -0.37152038636996992 0 0.22189277223980711 -0.38054577212349588 0 0.23679608458568241 -0.3713456781615978 0 0.22699371624108439 -0.37103399677892651 0 0.23010576568282681 -0.37607478874810818 0 0.23679608458568241 -0.3713456781615978 0 0.23133102347449649 -0.35950822589080189 0 0.22699371624108439 -0.37103399677892651 0 0.21663927632257499 -0.37152038636996992 0 0.20683644217058031 -0.36558797855932218 0 0.20576161095015591 -0.37595213443190167 0 0.22341137818785181 -0.36337688942730773 0 0.21663927632257499 -0.37152038636996992 0 0.21609027172906259 -0.36087537471117581 0 0.21609027172906259 -0.36087537471117581 0 0.20683644217058031 -0.36558797855932218 0 0.21089823393406021 -0.35324530101306001 0 0.21663927632257499 -0.37152038636996992 0 0.21609027172906259 -0.36087537471117581 0 0.20683644217058031 -0.36558797855932218 0 0.19940837682496099 -0.35689206815154528 0 0.20777431361625601 -0.33831058893907762 0 0.21089823393406021 -0.35324530101306001 0 0.19940837682496099 -0.35689206815154528 0 0.20777431361625601 -0.33831058893907762 0 0.20683644217058031 -0.36558797855932218 0 0.21089823393406021 -0.35324530101306001 0 0.19940837682496099 -0.35689206815154528 0 0.22076837523631451 -0.35267920974236072 0 0.21609027172906259 -0.36087537471117581 0 0.21089823393406021 -0.35324530101306001 0 0.21089823393406021 -0.35324530101306001 0 0.21451162402718699 -0.34512658597487872 0 0.20777431361625601 -0.33831058893907762 0 0.22076837523631451 -0.35267920974236072 0 0.21089823393406021 -0.35324530101306001 0 0.21451162402718699 -0.34512658597487872 0 0.1971616983813648 -0.34495631128618592 0 0.19940837682496099 -0.35689206815154528 0 0.20777431361625601 -0.33831058893907762 0 0.1971616983813648 -0.34495631128618592 0 0.18787137947787569 -0.35180034780069419 0 0.18864170350563411 -0.33720407153827198 0 0.1971616983813648 -0.34495631128618592 0 0.18787137947787569 -0.35180034780069419 0 0.19940837682496099 -0.35689206815154528 0 0.20683644217058031 -0.36558797855932218 0 0.20576161095015591 -0.37595213443190167 0 0.1910424400336663 -0.37547354736401328 0 0.18787137947787569 -0.35180034780069419 0 0.19940837682496099 -0.35689206815154528 0 0.1910424400336663 -0.37547354736401328 0 0.19940837682496099 -0.35689206815154528 0 0.1910424400336663 -0.37547354736401328 0 0.20683644217058031 -0.36558797855932218 0 0.19940837682496099 -0.35689206815154528 0 0.1910424400336663 -0.37547354736401328 0 0.21780935440599439 -0.31602188338433101 0 0.20777431361625601 -0.33831058893907762 0 0.21780935440599439 -0.31602188338433101 0 0.20777431361625601 -0.33831058893907762 0 0.20282381327660201 -0.31505297042611552 0 0.21780935440599439 -0.31602188338433101 0 0.21820242441149371 -0.32490710899175251 0 0.20777431361625601 -0.33831058893907762 0 0.2176214393273678 -0.31177412129290383 0 0.20282381327660201 -0.31505297042611552 0 0.2176214393273678 -0.31177412129290383 0 0.21780935440599439 -0.31602188338433101 0 0.20282381327660201 -0.31505297042611552 0 0.2176214393273678 -0.31177412129290383 0 0.21780935440599439 -0.31602188338433101 0 0.2176214393273678 -0.31177412129290383 0 0.21999804566891551 -0.31122614102315033 0 0.21780935440599439 -0.31602188338433101 0 0.21780935440599439 -0.31602188338433101 0 0.21820242441149371 -0.32490710899175251 0 0.220555537226792 -0.33578323097752499 0 0.21820242441149371 -0.32490710899175251 0 0.20777431361625601 -0.33831058893907762 0 0.220555537226792 -0.33578323097752499 0 0.21451162402718699 -0.34512658597487872 0 0.20777431361625601 -0.33831058893907762 0 0.21451162402718699 -0.34512658597487872 0 0.20777431361625601 -0.33831058893907762 0 0.1971616983813648 -0.34495631128618592 0 0.20777431361625601 -0.33831058893907762 0 0.18864170350563411 -0.33720407153827198 0 0.20777431361625601 -0.33831058893907762 0 0.18802618722583669 -0.31833181955932999 0 0.20777431361625601 -0.33831058893907762 0 0.18864170350563411 -0.33720407153827198 0 0.18802618722583669 -0.31833181955932999 0 0.20777431361625601 -0.33831058893907762 0 0.20282381327660201 -0.31505297042611552 0 0.18802618722583669 -0.31833181955932999 0 0.20282381327660201 -0.31505297042611552 0 0.18802618722583669 -0.31833181955932999 0 0.1976485991634879 -0.30796138879627621 0 0.20282381327660201 -0.31505297042611552 0 0.18802618722583669 -0.31833181955932999 0 0.18802618722583669 -0.31833181955932999 0 0.1791507244663583 -0.32983729973660558 0 0.16791254130802971 -0.3227885891963716 0 0.18802618722583669 -0.31833181955932999 0 0.17151825735526699 -0.31325416760549368 0 0.16791254130802971 -0.3227885891963716 0 0.18802618722583669 -0.31833181955932999 0 0.16791254130802971 -0.3227885891963716 0 0.18864170350563411 -0.33720407153827198 0 0.18802618722583669 -0.31833181955932999 0 0.1791507244663583 -0.32983729973660558 0 0.17202246582593331 -0.34102471865244838 0 0.1791507244663583 -0.32983729973660558 0 0.16791254130802971 -0.3227885891963716 0 0.18787137947787569 -0.35180034780069419 0 0.18864170350563411 -0.33720407153827198 0 0.17202246582593331 -0.34102471865244838 0 0.18864170350563411 -0.33720407153827198 0 0.17202246582593331 -0.34102471865244838 0 0.1791507244663583 -0.32983729973660558 0 0.17202246582593331 -0.34102471865244838 0 0.1546435437787094 -0.34381338892778002 0 0.1557586906108582 -0.32786840018592928 0 0.17202246582593331 -0.34102471865244838 0 0.16791254130802971 -0.3227885891963716 0 0.1557586906108582 -0.32786840018592928 0 0.16791254130802971 -0.3227885891963716 0 0.1557586906108582 -0.32786840018592928 0 0.1602411687519314 -0.31190927739118429 0 0.17151825735526699 -0.31325416760549368 0 0.16791254130802971 -0.3227885891963716 0 0.1602411687519314 -0.31190927739118429 0 0.18787137947787569 -0.35180034780069419 0 0.17662324672053431 -0.35795823269279659 0 0.1910424400336663 -0.37547354736401328 0 0.17662324672053431 -0.35795823269279659 0 0.17035242753357599 -0.36877211446365682 0 0.1910424400336663 -0.37547354736401328 0 0.17035242753357599 -0.36877211446365682 0 0.1910424400336663 -0.37547354736401328 0 0.1737051017910701 -0.38004230502140057 0 0.18787137947787569 -0.35180034780069419 0 0.17202246582593331 -0.34102471865244838 0 0.17662324672053431 -0.35795823269279659 0 0.17202246582593331 -0.34102471865244838 0 0.17662324672053431 -0.35795823269279659 0 0.16265844046108829 -0.35526087104265458 0 0.17202246582593331 -0.34102471865244838 0 0.16265844046108829 -0.35526087104265458 0 0.1546435437787094 -0.34381338892778002 0 0.17662324672053431 -0.35795823269279659 0 0.16265844046108829 -0.35526087104265458 0 0.17035242753357599 -0.36877211446365682 0 0.16265844046108829 -0.35526087104265458 0 0.1569593121701936 -0.36832063090657668 0 0.17035242753357599 -0.36877211446365682 0 0.1569593121701936 -0.36832063090657668 0 0.17035242753357599 -0.36877211446365682 0 0.16307541855137739 -0.37743582412871929 0 0.14536400873927011 -0.3681220756701501 0 0.1426630499740982 -0.35652090160864008 0 0.13524945632583441 -0.37311377610700652 0 0.16265844046108829 -0.35526087104265458 0 0.1569593121701936 -0.36832063090657668 0 0.1426630499740982 -0.35652090160864008 0 0.14536400873927011 -0.3681220756701501 0 0.13524945632583441 -0.37311377610700652 0 0.14973869037300869 -0.38096853745143089 0 0.1569593121701936 -0.36832063090657668 0 0.14536400873927011 -0.3681220756701501 0 0.14973869037300869 -0.38096853745143089 0 0.1569593121701936 -0.36832063090657668 0 0.14536400873927011 -0.3681220756701501 0 0.1426630499740982 -0.35652090160864008 0 0.1546435437787094 -0.34381338892778002 0 0.1426630499740982 -0.35652090160864008 0 0.1424354920479888 -0.33775294740649747 0 0.16265844046108829 -0.35526087104265458 0 0.1546435437787094 -0.34381338892778002 0 0.1426630499740982 -0.35652090160864008 0 0.13449730155472761 -0.34743155680512378 0 0.12784456261830821 -0.36308533366748658 0 0.123981461538115 -0.35128285539313481 0 0.1426630499740982 -0.35652090160864008 0 0.13449730155472761 -0.34743155680512378 0 0.1424354920479888 -0.33775294740649747 0 0.1426630499740982 -0.35652090160864008 0 0.13449730155472761 -0.34743155680512378 0 0.12784456261830821 -0.36308533366748658 0 0.13449730155472761 -0.34743155680512378 0 0.13051916655351839 -0.33696304048325831 0 0.123981461538115 -0.35128285539313481 0 0.1426630499740982 -0.35652090160864008 0 0.12784456261830821 -0.36308533366748658 0 0.13524945632583441 -0.37311377610700652 0 0.12784456261830821 -0.36308533366748658 0 0.13524945632583441 -0.37311377610700652 0 0.12609635470998201 -0.38402791619100712 0 0.14855409589738661 -0.31441038212804873 0 0.1557586906108582 -0.32786840018592928 0 0.1602411687519314 -0.31190927739118429 0 0.1445015266660287 -0.32337949759917511 0 0.14855409589738661 -0.31441038212804873 0 0.13871327718005111 -0.31332369293528212 0 0.1445015266660287 -0.32337949759917511 0 0.14855409589738661 -0.31441038212804873 0 0.1557586906108582 -0.32786840018592928 0 0.1546435437787094 -0.34381338892778002 0 0.1557586906108582 -0.32786840018592928 0 0.1424354920479888 -0.33775294740649747 0 0.1445015266660287 -0.32337949759917511 0 0.1557586906108582 -0.32786840018592928 0 0.1424354920479888 -0.33775294740649747 0 0.1445015266660287 -0.32337949759917511 0 0.1424354920479888 -0.33775294740649747 0 0.13219802669416811 -0.32498852212276208 0 0.1424354920479888 -0.33775294740649747 0 0.13051916655351839 -0.33696304048325831 0 0.13219802669416811 -0.32498852212276208 0 0.13449730155472761 -0.34743155680512378 0 0.1424354920479888 -0.33775294740649747 0 0.13051916655351839 -0.33696304048325831 0 0.13051916655351839 -0.33696304048325831 0 0.13219802669416811 -0.32498852212276208 0 0.12260601330919629 -0.33072698382653798 0 0.1445015266660287 -0.32337949759917511 0 0.13219802669416811 -0.32498852212276208 0 0.13871327718005111 -0.31332369293528212 0 0.13219802669416811 -0.32498852212276208 0 0.1265219532001009 -0.3124330460259736 0 0.1192961391526948 -0.32261879728377291 0 0.13219802669416811 -0.32498852212276208 0 0.13871327718005111 -0.31332369293528212 0 0.1265219532001009 -0.3124330460259736 0 0.1265219532001009 -0.3124330460259736 0 0.1332586495603032 -0.30031372317270688 0 0.1198701537204314 -0.30089140532399938 0 0.1332586495603032 -0.30031372317270688 0 0.1242383748246253 -0.29131174999725179 0 0.1198701537204314 -0.30089140532399938 0 0.13871327718005111 -0.31332369293528212 0 0.1265219532001009 -0.3124330460259736 0 0.1332586495603032 -0.30031372317270688 0 0.13871327718005111 -0.31332369293528212 0 0.1332586495603032 -0.30031372317270688 0 0.147245411062319 -0.30441698656302629 0 0.14855409589738661 -0.31441038212804873 0 0.13871327718005111 -0.31332369293528212 0 0.147245411062319 -0.30441698656302629 0 0.147245411062319 -0.30441698656302629 0 0.15432967412725099 -0.29846298066074151 0 0.14327492933615671 -0.29425024746867751 0 0.1332586495603032 -0.30031372317270688 0 0.147245411062319 -0.30441698656302629 0 0.14327492933615671 -0.29425024746867751 0 0.147245411062319 -0.30441698656302629 0 0.15432967412725099 -0.29846298066074151 0 0.1602411687519314 -0.31190927739118429 0 0.14855409589738661 -0.31441038212804873 0 0.147245411062319 -0.30441698656302629 0 0.1602411687519314 -0.31190927739118429 0 0.15432967412725099 -0.29846298066074151 0 0.1517600770447052 -0.28164214899084639 0 0.14327492933615671 -0.29425024746867751 0 0.1517600770447052 -0.28164214899084639 0 0.14327492933615671 -0.29425024746867751 0 0.13646338677899769 -0.28546266283427663 0 0.1332586495603032 -0.30031372317270688 0 0.14327492933615671 -0.29425024746867751 0 0.13646338677899769 -0.28546266283427663 0 0.1332586495603032 -0.30031372317270688 0 0.13646338677899769 -0.28546266283427663 0 0.1242383748246253 -0.29131174999725179 0 0.13646338677899769 -0.28546266283427663 0 0.1233023238440631 -0.28097148456094378 0 0.1242383748246253 -0.29131174999725179 0 0.1517600770447052 -0.28164214899084639 0 0.13646338677899769 -0.28546266283427663 0 0.1311170075682456 -0.27142576198599933 0 0.1517600770447052 -0.28164214899084639 0 0.1311170075682456 -0.27142576198599933 0 0.1364827709165429 -0.26618641562940759 0 0.13646338677899769 -0.28546266283427663 0 0.1311170075682456 -0.27142576198599933 0 0.1233023238440631 -0.28097148456094378 0 0.1311170075682456 -0.27142576198599933 0 0.1364827709165429 -0.26618641562940759 0 0.1212054647883809 -0.25073068226796852 0 0.1364827709165429 -0.26618641562940759 0 0.13217397618885759 -0.25462043987800831 0 0.1212054647883809 -0.25073068226796852 0 0.1364827709165429 -0.26618641562940759 0 0.1212054647883809 -0.25073068226796852 0 0.1364827709165429 -0.26618641562940759 0 0.13217397618885759 -0.25462043987800831 0 0.14275904560399111 -0.25945725309375861 0 0.13217397618885759 -0.25462043987800831 0 0.1429630926125974 -0.2502577086919005 0 0.14275904560399111 -0.25945725309375861 0 0.1429630926125974 -0.2502577086919005 0 0.16574248336044761 -0.26746108990676593 0 0.1429630926125974 -0.2502577086919005 0 0.15128247879849499 -0.26292486595599002 0 0.16574248336044761 -0.26746108990676593 0 0.1429630926125974 -0.2502577086919005 0 0.16574248336044761 -0.26746108990676593 0 0.16001236861667459 -0.2513654190734112 0 0.1429630926125974 -0.2502577086919005 0 0.14275904560399111 -0.25945725309375861 0 0.15128247879849499 -0.26292486595599002 0 0.1364827709165429 -0.26618641562940759 0 0.14275904560399111 -0.25945725309375861 0 0.15128247879849499 -0.26292486595599002 0 0.1517600770447052 -0.28164214899084639 0 0.1364827709165429 -0.26618641562940759 0 0.15128247879849499 -0.26292486595599002 0 0.1517600770447052 -0.28164214899084639 0 0.15128247879849499 -0.26292486595599002 0 0.15776774232478771 -0.26956647822523339 0 0.1517600770447052 -0.28164214899084639 0 0.1311170075682456 -0.27142576198599933 0 0.1517600770447052 -0.28164214899084639 0 0.1364827709165429 -0.26618641562940759 0 0.1517600770447052 -0.28164214899084639 0 0.16209364730358741 -0.27452888323759039 0 0.16594555478614451 -0.28284233368471318 0 0.1517600770447052 -0.28164214899084639 0 0.16209364730358741 -0.27452888323759039 0 0.15776774232478771 -0.26956647822523339 0 0.16209364730358741 -0.27452888323759039 0 0.15776774232478771 -0.26956647822523339 0 0.16574248336044761 -0.26746108990676593 0 0.15128247879849499 -0.26292486595599002 0 0.15776774232478771 -0.26956647822523339 0 0.16574248336044761 -0.26746108990676593 0 0.16209364730358741 -0.27452888323759039 0 0.16574248336044761 -0.26746108990676593 0 0.16920230535812411 -0.27329149954452342 0 0.16209364730358741 -0.27452888323759039 0 0.16920230535812411 -0.27329149954452342 0 0.16594555478614451 -0.28284233368471318 0 0.16920230535812411 -0.27329149954452342 0 0.1710222018321049 -0.28124575318360368 0 0.16594555478614451 -0.28284233368471318 0 0.16574248336044761 -0.26746108990676593 0 0.16001236861667459 -0.2513654190734112 0 0.16988601458932601 -0.2589500224365659 0 0.16574248336044761 -0.26746108990676593 0 0.16988601458932601 -0.2589500224365659 0 0.17628584543496439 -0.26683535894776161 0 0.16001236861667459 -0.2513654190734112 0 0.16988601458932601 -0.2589500224365659 0 0.16978669848249819 -0.25098739912941831 0 0.1767458594742066 -0.25730285456071711 0 0.17619278994504239 -0.24587918172992959 0 0.18399505531774341 -0.24981832115951039 0 0.16978669848249819 -0.25098739912941831 0 0.1767458594742066 -0.25730285456071711 0 0.17619278994504239 -0.24587918172992959 0 0.16988601458932601 -0.2589500224365659 0 0.16978669848249819 -0.25098739912941831 0 0.1767458594742066 -0.25730285456071711 0 0.16988601458932601 -0.2589500224365659 0 0.1767458594742066 -0.25730285456071711 0 0.17628584543496439 -0.26683535894776161 0 0.1767458594742066 -0.25730285456071711 0 0.17628584543496439 -0.26683535894776161 0 0.1845366839674035 -0.26640487959885623 0 0.1767458594742066 -0.25730285456071711 0 0.18706352147094041 -0.25756661524031438 0 0.1845366839674035 -0.26640487959885623 0 0.1767458594742066 -0.25730285456071711 0 0.18706352147094041 -0.25756661524031438 0 0.18399505531774341 -0.24981832115951039 0 0.18852187410829821 -0.28466447112163068 0 0.17628584543496439 -0.26683535894776161 0 0.1845366839674035 -0.26640487959885623 0 0.18852187410829821 -0.28466447112163068 0 0.16574248336044761 -0.26746108990676593 0 0.18852187410829821 -0.28466447112163068 0 0.16574248336044761 -0.26746108990676593 0 0.17628584543496439 -0.26683535894776161 0 0.16920230535812411 -0.27329149954452342 0 0.18747516626574931 -0.28692639975368628 0 0.17602993407772211 -0.2832030986568283 0 0.18852187410829821 -0.28466447112163068 0 0.16574248336044761 -0.26746108990676593 0 0.16920230535812411 -0.27329149954452342 0 0.16920230535812411 -0.27329149954452342 0 0.18747516626574931 -0.28692639975368628 0 0.16920230535812411 -0.27329149954452342 0 0.1710222018321049 -0.28124575318360368 0 0.17602993407772211 -0.2832030986568283 0 0.18747516626574931 -0.28692639975368628 0 0.1806905449634813 -0.28832929748571318 0 0.17602993407772211 -0.2832030986568283 0 0.18852187410829821 -0.28466447112163068 0 0.16920230535812411 -0.27329149954452342 0 0.18747516626574931 -0.28692639975368628 0 0.18747516626574931 -0.28692639975368628 0 0.1806905449634813 -0.28832929748571318 0 0.18301660310609241 -0.29114958545392738 0 0.17291101310642881 -0.28564608084835003 0 0.17864991096044419 -0.29495009963706692 0 0.16594555478614451 -0.28284233368471318 0 0.1806905449634813 -0.28832929748571318 0 0.17602993407772211 -0.2832030986568283 0 0.17673138357400531 -0.28840876668861409 0 0.17602993407772211 -0.2832030986568283 0 0.17673138357400531 -0.28840876668861409 0 0.17291101310642881 -0.28564608084835003 0 0.1710222018321049 -0.28124575318360368 0 0.17602993407772211 -0.2832030986568283 0 0.17291101310642881 -0.28564608084835003 0 0.17673138357400531 -0.28840876668861409 0 0.17291101310642881 -0.28564608084835003 0 0.17864991096044419 -0.29495009963706692 0 0.17673138357400531 -0.28840876668861409 0 0.17909088347012619 -0.29088019083727579 0 0.17864991096044419 -0.29495009963706692 0 0.1806905449634813 -0.28832929748571318 0 0.17673138357400531 -0.28840876668861409 0 0.17909088347012619 -0.29088019083727579 0 0.17909088347012619 -0.29088019083727579 0 0.17864991096044419 -0.29495009963706692 0 0.18114425154506539 -0.29221912984395187 0 0.18747516626574931 -0.28692639975368628 0 0.18734834214976739 -0.29514628785519947 0 0.1827564496500734 -0.29712351473235832 0 0.18747516626574931 -0.28692639975368628 0 0.18301660310609241 -0.29114958545392738 0 0.1827564496500734 -0.29712351473235832 0 0.18114425154506539 -0.29221912984395187 0 0.18301660310609241 -0.29114958545392738 0 0.1827564496500734 -0.29712351473235832 0 0.17864991096044419 -0.29495009963706692 0 0.18114425154506539 -0.29221912984395187 0 0.1827564496500734 -0.29712351473235832 0 0.18747516626574931 -0.28692639975368628 0 0.1827564496500734 -0.29712351473235832 0 0.1806905449634813 -0.28832929748571318 0 0.18114425154506539 -0.29221912984395187 0 0.18301660310609241 -0.29114958545392738 0 0.1806905449634813 -0.28832929748571318 0 0.17909088347012619 -0.29088019083727579 0 0.18114425154506539 -0.29221912984395187 0 0.18802618722583669 -0.31833181955932999 0 0.18221347423979239 -0.30458962683289892 0 0.1698931321352706 -0.29998698427508858 0 0.1880606218677118 -0.30022154946313712 0 0.18734834214976739 -0.29514628785519947 0 0.1827564496500734 -0.29712351473235832 0 0.19009702279388629 -0.3064242775921906 0 0.1880606218677118 -0.30022154946313712 0 0.18221347423979239 -0.30458962683289892 0 0.18802618722583669 -0.31833181955932999 0 0.17151825735526699 -0.31325416760549368 0 0.1698931321352706 -0.29998698427508858 0 0.1880606218677118 -0.30022154946313712 0 0.18221347423979239 -0.30458962683289892 0 0.1827564496500734 -0.29712351473235832 0 0.18802618722583669 -0.31833181955932999 0 0.1698931321352706 -0.29998698427508858 0 0.17864991096044419 -0.29495009963706692 0 0.1827564496500734 -0.29712351473235832 0 0.17837824174639511 -0.29916255636935318 0 0.18221347423979239 -0.30458962683289892 0 0.1827564496500734 -0.29712351473235832 0 0.17837824174639511 -0.29916255636935318 0 0.19009702279388629 -0.3064242775921906 0 0.18802618722583669 -0.31833181955932999 0 0.18221347423979239 -0.30458962683289892 0 0.18221347423979239 -0.30458962683289892 0 0.17837824174639511 -0.29916255636935318 0 0.1698931321352706 -0.29998698427508858 0 0.17864991096044419 -0.29495009963706692 0 0.17837824174639511 -0.29916255636935318 0 0.1698931321352706 -0.29998698427508858 0 0.17151825735526699 -0.31325416760549368 0 0.1698931321352706 -0.29998698427508858 0 0.1602411687519314 -0.31190927739118429 0 0.15432967412725099 -0.29846298066074151 0 0.1698931321352706 -0.29998698427508858 0 0.1602411687519314 -0.31190927739118429 0 0.1517600770447052 -0.28164214899084639 0 0.17864991096044419 -0.29495009963706692 0 0.1698931321352706 -0.29998698427508858 0 0.1517600770447052 -0.28164214899084639 0 0.1698931321352706 -0.29998698427508858 0 0.15432967412725099 -0.29846298066074151 0 0.1517600770447052 -0.28164214899084639 0 0.1698931321352706 -0.29998698427508858 0 0.1517600770447052 -0.28164214899084639 0 0.17864991096044419 -0.29495009963706692 0 0.1517600770447052 -0.28164214899084639 0 0.17864991096044419 -0.29495009963706692 0 0.16594555478614451 -0.28284233368471318 0 0.1710222018321049 -0.28124575318360368 0 0.17291101310642881 -0.28564608084835003 0 0.16594555478614451 -0.28284233368471318 0 0.21438456257476449 -0.5 0 0.2048745361024723 -0.48472171768082351 0 0.18744203257390391 -0.5 0 0.19122796324104871 -0.48466606029959602 0 0.2048745361024723 -0.48472171768082351 0 0.18744203257390391 -0.5 0 0.19122796324104871 -0.48466606029959602 0 0.20365346230900849 -0.47086657296764728 0 0.1938641377332887 -0.4633108835168005 0 0.19122796324104871 -0.48466606029959602 0 0.20365346230900849 -0.47086657296764728 0 0.2048745361024723 -0.48472171768082351 0 0.21766866328091511 -0.47157360957620892 0 0.2048745361024723 -0.48472171768082351 0 0.22288060450936709 -0.48400008360299168 0 0.20365346230900849 -0.47086657296764728 0 0.21766866328091511 -0.47157360957620892 0 0.2048745361024723 -0.48472171768082351 0 0.21438456257476449 -0.5 0 0.2048745361024723 -0.48472171768082351 0 0.22288060450936709 -0.48400008360299168 0 0.21438456257476449 -0.5 0 0.23633351028628971 -0.48712361601618398 0 0.2413270925756249 -0.5 0 0.21438456257476449 -0.5 0 0.23633351028628971 -0.48712361601618398 0 0.22288060450936709 -0.48400008360299168 0 0.25270961841775552 -0.48460016746525392 0 0.23633351028628971 -0.48712361601618398 0 0.2413270925756249 -0.5 0 0.25270961841775552 -0.48460016746525392 0 0.23633351028628971 -0.48712361601618398 0 0.23949561189523169 -0.47426551941090739 0 0.23949561189523169 -0.47426551941090739 0 0.22288060450936709 -0.48400008360299168 0 0.22545312399173489 -0.46028769725088831 0 0.21766866328091511 -0.47157360957620892 0 0.22288060450936709 -0.48400008360299168 0 0.22545312399173489 -0.46028769725088831 0 0.23633351028628971 -0.48712361601618398 0 0.23949561189523169 -0.47426551941090739 0 0.22288060450936709 -0.48400008360299168 0 0.22288060450936709 -0.48400008360299168 0 0.22545312399173489 -0.46028769725088831 0 0.21766866328091511 -0.47157360957620892 0 0.22545312399173489 -0.46028769725088831 0 0.2186728293425339 -0.44755637628226819 0 0.2588368117714554 -0.46700690363883102 0 0.23949561189523169 -0.47426551941090739 0 0.2409729068143365 -0.46262444708906358 0 0.22545312399173489 -0.46028769725088831 0 0.2409729068143365 -0.46262444708906358 0 0.24480843210435321 -0.45079661158300749 0 0.2588368117714554 -0.46700690363883102 0 0.2409729068143365 -0.46262444708906358 0 0.24480843210435321 -0.45079661158300749 0 0.23949561189523169 -0.47426551941090739 0 0.22545312399173489 -0.46028769725088831 0 0.2409729068143365 -0.46262444708906358 0 0.24480843210435321 -0.45079661158300749 0 0.22802564347410281 -0.43657531089878487 0 0.2418992233321238 -0.43333026798624508 0 0.25513396950241118 -0.43290986753561628 0 0.24480843210435321 -0.45079661158300749 0 0.2418992233321238 -0.43333026798624508 0 0.22545312399173489 -0.46028769725088831 0 0.22802564347410281 -0.43657531089878487 0 0.2186728293425339 -0.44755637628226819 0 0.21246462128442831 -0.43168381348743168 0 0.22802564347410281 -0.43657531089878487 0 0.22545312399173489 -0.46028769725088831 0 0.2186728293425339 -0.44755637628226819 0 0.22802564347410281 -0.43657531089878487 0 0.22545312399173489 -0.46028769725088831 0 0.24480843210435321 -0.45079661158300749 0 0.22802564347410281 -0.43657531089878487 0 0.20442019459899149 -0.44533796874460208 0 0.2186728293425339 -0.44755637628226819 0 0.21246462128442831 -0.43168381348743168 0 0.21766866328091511 -0.47157360957620892 0 0.20442019459899149 -0.44533796874460208 0 0.21766866328091511 -0.47157360957620892 0 0.20442019459899149 -0.44533796874460208 0 0.2186728293425339 -0.44755637628226819 0 0.20365346230900849 -0.47086657296764728 0 0.21766866328091511 -0.47157360957620892 0 0.20442019459899149 -0.44533796874460208 0 0.20365346230900849 -0.47086657296764728 0 0.20442019459899149 -0.44533796874460208 0 0.1938641377332887 -0.4633108835168005 0 0.20442019459899149 -0.44533796874460208 0 0.18484232774876749 -0.43033534366960768 0 0.18590039067086719 -0.44115637567916172 0 0.20442019459899149 -0.44533796874460208 0 0.18923595964957429 -0.45067509688328122 0 0.18590039067086719 -0.44115637567916172 0 0.20442019459899149 -0.44533796874460208 0 0.1938641377332887 -0.4633108835168005 0 0.18923595964957429 -0.45067509688328122 0 0.20442019459899149 -0.44533796874460208 0 0.1911717259170673 -0.41910232791299562 0 0.20473537155931409 -0.42802668409371708 0 0.20442019459899149 -0.44533796874460208 0 0.1911717259170673 -0.41910232791299562 0 0.20442019459899149 -0.44533796874460208 0 0.1911717259170673 -0.41910232791299562 0 0.18484232774876749 -0.43033534366960768 0 0.1911717259170673 -0.41910232791299562 0 0.21088494443676881 -0.41598262622983972 0 0.20473537155931409 -0.42802668409371708 0 0.18851111772050869 -0.41383358608972459 0 0.208966154163157 -0.40126827473642579 0 0.1911717259170673 -0.41910232791299562 0 0.21088494443676881 -0.41598262622983972 0 0.1911717259170673 -0.41910232791299562 0 0.18851111772050869 -0.41383358608972459 0 0.21088494443676881 -0.41598262622983972 0 0.18851111772050869 -0.41383358608972459 0 0.21088494443676881 -0.41598262622983972 0 0.208966154163157 -0.40126827473642579 0 0.1911717259170673 -0.41910232791299562 0 0.18851111772050869 -0.41383358608972459 0 0.21088494443676881 -0.41598262622983972 0 0.22155668588658281 -0.40529615173032069 0 0.208966154163157 -0.40126827473642579 0 0.21088494443676881 -0.41598262622983972 0 0.20473537155931409 -0.42802668409371708 0 0.21246462128442831 -0.43168381348743168 0 0.21088494443676881 -0.41598262622983972 0 0.21246462128442831 -0.43168381348743168 0 0.21959695705502991 -0.42408781639437282 0 0.20442019459899149 -0.44533796874460208 0 0.20473537155931409 -0.42802668409371708 0 0.21246462128442831 -0.43168381348743168 0 0.21246462128442831 -0.43168381348743168 0 0.21959695705502991 -0.42408781639437282 0 0.22802564347410281 -0.43657531089878487 0 0.22802564347410281 -0.43657531089878487 0 0.23614533994983331 -0.4244462479719151 0 0.23059816295646979 -0.4128629245466815 0 0.22802564347410281 -0.43657531089878487 0 0.23059816295646979 -0.4128629245466815 0 0.21959695705502991 -0.42408781639437282 0 0.22802564347410281 -0.43657531089878487 0 0.23059816295646979 -0.4128629245466815 0 0.22802564347410281 -0.43657531089878487 0 0.2418992233321238 -0.43333026798624508 0 0.23614533994983331 -0.4244462479719151 0 0.2418992233321238 -0.43333026798624508 0 0.23614533994983331 -0.4244462479719151 0 0.2453827316299185 -0.42192330194190181 0 0.25513396950241118 -0.43290986753561628 0 0.2418992233321238 -0.43333026798624508 0 0.2453827316299185 -0.42192330194190181 0 0.256136481120742 -0.41447562176841068 0 0.2453827316299185 -0.42192330194190181 0 0.24629253832767661 -0.41022035877505542 0 0.2453827316299185 -0.42192330194190181 0 0.24629253832767661 -0.41022035877505542 0 0.2366098857920339 -0.41191154353144788 0 0.23614533994983331 -0.4244462479719151 0 0.2366098857920339 -0.41191154353144788 0 0.23059816295646979 -0.4128629245466815 0 0.23614533994983331 -0.4244462479719151 0 0.2453827316299185 -0.42192330194190181 0 0.2366098857920339 -0.41191154353144788 0 0.24629253832767661 -0.41022035877505542 0 0.2366098857920339 -0.41191154353144788 0 0.2422505545635501 -0.40276464775944387 0 0.21088494443676881 -0.41598262622983972 0 0.23059816295646979 -0.4128629245466815 0 0.2366098857920339 -0.41191154353144788 0 0.23059816295646979 -0.4128629245466815 0 0.23156745731421779 -0.4039283829592023 0 0.23059816295646979 -0.4128629245466815 0 0.22155668588658281 -0.40529615173032069 0 0.23156745731421779 -0.4039283829592023 0 0.23059816295646979 -0.4128629245466815 0 0.23156745731421779 -0.4039283829592023 0 0.21088494443676881 -0.41598262622983972 0 0.23059816295646979 -0.4128629245466815 0 0.22155668588658281 -0.40529615173032069 0 0.21088494443676881 -0.41598262622983972 0 0.21959695705502991 -0.42408781639437282 0 0.23059816295646979 -0.4128629245466815 0 0.2366098857920339 -0.41191154353144788 0 0.23059816295646979 -0.4128629245466815 0 0.22155668588658281 -0.40529615173032069 0 0.22942119060580499 -0.38870296338312649 0 0.208966154163157 -0.40126827473642579 0 0.22155668588658281 -0.40529615173032069 0 0.23156745731421779 -0.4039283829592023 0 0.22942119060580499 -0.38870296338312649 0 0.22942119060580499 -0.38870296338312649 0 0.208966154163157 -0.40126827473642579 0 0.23156745731421779 -0.4039283829592023 0 0.24309899287842279 -0.39271330151873202 0 0.2422505545635501 -0.40276464775944387 0 0.2366098857920339 -0.41191154353144788 0 0.23156745731421779 -0.4039283829592023 0 0.2422505545635501 -0.40276464775944387 0 0.23156745731421779 -0.4039283829592023 0 0.24309899287842279 -0.39271330151873202 0 0.22942119060580499 -0.38870296338312649 0 0.25108303853213881 -0.40002667887407228 0 0.24629253832767661 -0.41022035877505542 0 0.2422505545635501 -0.40276464775944387 0 0.25108303853213881 -0.40002667887407228 0 0.24309899287842279 -0.39271330151873202 0 0.2422505545635501 -0.40276464775944387 0 0.24987622704845311 -0.37613765202982719 0 0.22942119060580499 -0.38870296338312649 0 0.24309899287842279 -0.39271330151873202 0 0.24987622704845311 -0.37613765202982719 0 0.22942119060580499 -0.38870296338312649 0 0.24987622704845311 -0.37613765202982719 0 0.23474048966473349 -0.38137370792841258 0 0.22942119060580499 -0.38870296338312649 0 0.25687819372407023 -0.38903915957053298 0 0.24309899287842279 -0.39271330151873202 0 0.24987622704845311 -0.37613765202982719 0 0.23679608458568241 -0.3713456781615978 0 0.24987622704845311 -0.37613765202982719 0 0.23474048966473349 -0.38137370792841258 0 0.23474048966473349 -0.38137370792841258 0 0.23010576568282681 -0.37607478874810818 0 0.22189277223980711 -0.38054577212349588 0 0.23474048966473349 -0.38137370792841258 0 0.22189277223980711 -0.38054577212349588 0 0.20961824525516401 -0.3936281247522696 0 0.23474048966473349 -0.38137370792841258 0 0.22942119060580499 -0.38870296338312649 0 0.20961824525516401 -0.3936281247522696 0 0.23679608458568241 -0.3713456781615978 0 0.23474048966473349 -0.38137370792841258 0 0.23010576568282681 -0.37607478874810818 0 0.23474048966473349 -0.38137370792841258 0 0.20961824525516401 -0.3936281247522696 0 0.22699371624108439 -0.37103399677892651 0 0.23010576568282681 -0.37607478874810818 0 0.22189277223980711 -0.38054577212349588 0 0.21663927632257499 -0.37152038636996992 0 0.22189277223980711 -0.38054577212349588 0 0.21119602619295649 -0.38157571206759561 0 0.21663927632257499 -0.37152038636996992 0 0.21119602619295649 -0.38157571206759561 0 0.20576161095015591 -0.37595213443190167 0 0.21119602619295649 -0.38157571206759561 0 0.20576161095015591 -0.37595213443190167 0 0.20229958674085519 -0.38616776423662919 0 0.21119602619295649 -0.38157571206759561 0 0.20961824525516401 -0.3936281247522696 0 0.20229958674085519 -0.38616776423662919 0 0.22189277223980711 -0.38054577212349588 0 0.21119602619295649 -0.38157571206759561 0 0.20961824525516401 -0.3936281247522696 0 0.22942119060580499 -0.38870296338312649 0 0.208966154163157 -0.40126827473642579 0 0.20961824525516401 -0.3936281247522696 0 0.20961824525516401 -0.3936281247522696 0 0.18449600084559339 -0.40588254157612419 0 0.20961824525516401 -0.3936281247522696 0 0.19262774622386039 -0.39991289132556063 0 0.20229958674085519 -0.38616776423662919 0 0.18851111772050869 -0.41383358608972459 0 0.20961824525516401 -0.3936281247522696 0 0.18449600084559339 -0.40588254157612419 0 0.19262774622386039 -0.39991289132556063 0 0.193172237845981 -0.38760648281860499 0 0.20229958674085519 -0.38616776423662919 0 0.20961824525516401 -0.3936281247522696 0 0.19262774622386039 -0.39991289132556063 0 0.18449600084559339 -0.40588254157612419 0 0.18851111772050869 -0.41383358608972459 0 0.208966154163157 -0.40126827473642579 0 0.20961824525516401 -0.3936281247522696 0 0.19262774622386039 -0.39991289132556063 0 0.18963514604776821 -0.39361523539988952 0 0.193172237845981 -0.38760648281860499 0 0.19262774622386039 -0.39991289132556063 0 0.18963514604776821 -0.39361523539988952 0 0.18221634088723479 -0.40136818287387582 0 0.18963514604776821 -0.39361523539988952 0 0.193172237845981 -0.38760648281860499 0 0.18267650324237161 -0.39405502657648112 0 0.193172237845981 -0.38760648281860499 0 0.1910424400336663 -0.37547354736401328 0 0.18267650324237161 -0.39405502657648112 0 0.20576161095015591 -0.37595213443190167 0 0.1910424400336663 -0.37547354736401328 0 0.20229958674085519 -0.38616776423662919 0 0.193172237845981 -0.38760648281860499 0 0.1910424400336663 -0.37547354736401328 0 0.20229958674085519 -0.38616776423662919 0 0.1910424400336663 -0.37547354736401328 0 0.17822948803450961 -0.38676940160015832 0 0.1737051017910701 -0.38004230502140057 0 0.1910424400336663 -0.37547354736401328 0 0.18267650324237161 -0.39405502657648112 0 0.1910424400336663 -0.37547354736401328 0 0.17822948803450961 -0.38676940160015832 0 0.18267650324237161 -0.39405502657648112 0 0.17822948803450961 -0.38676940160015832 0 0.17910183421640119 -0.39520059623836468 0 0.1646215608890387 -0.38907553280053181 0 0.17822948803450961 -0.38676940160015832 0 0.1737051017910701 -0.38004230502140057 0 0.1646215608890387 -0.38907553280053181 0 0.17822948803450961 -0.38676940160015832 0 0.18267650324237161 -0.39405502657648112 0 0.17910183421640119 -0.39520059623836468 0 0.18221634088723479 -0.40136818287387582 0 0.17910183421640119 -0.39520059623836468 0 0.15805845094365739 -0.40474493864538458 0 0.18963514604776821 -0.39361523539988952 0 0.18267650324237161 -0.39405502657648112 0 0.18221634088723479 -0.40136818287387582 0 0.18267650324237161 -0.39405502657648112 0 0.18221634088723479 -0.40136818287387582 0 0.17910183421640119 -0.39520059623836468 0 0.18221634088723479 -0.40136818287387582 0 0.17910183421640119 -0.39520059623836468 0 0.19262774622386039 -0.39991289132556063 0 0.18221634088723479 -0.40136818287387582 0 0.19262774622386039 -0.39991289132556063 0 0.18449600084559339 -0.40588254157612419 0 0.18221634088723479 -0.40136818287387582 0 0.18449600084559339 -0.40588254157612419 0 0.18221634088723479 -0.40136818287387582 0 0.17910183421640119 -0.39520059623836468 0 0.15805845094365739 -0.40474493864538458 0 0.1646215608890387 -0.38907553280053181 0 0.18221634088723479 -0.40136818287387582 0 0.15805845094365739 -0.40474493864538458 0 0.15805845094365739 -0.40474493864538458 0 0.1646215608890387 -0.38907553280053181 0 0.14706277844018539 -0.39464292458295508 0 0.1737051017910701 -0.38004230502140057 0 0.1646215608890387 -0.38907553280053181 0 0.16307541855137739 -0.37743582412871929 0 0.17035242753357599 -0.36877211446365682 0 0.1737051017910701 -0.38004230502140057 0 0.16307541855137739 -0.37743582412871929 0 0.1569593121701936 -0.36832063090657668 0 0.16307541855137739 -0.37743582412871929 0 0.14973869037300869 -0.38096853745143089 0 0.1646215608890387 -0.38907553280053181 0 0.16307541855137739 -0.37743582412871929 0 0.14973869037300869 -0.38096853745143089 0 0.1646215608890387 -0.38907553280053181 0 0.14973869037300869 -0.38096853745143089 0 0.14706277844018539 -0.39464292458295508 0 0.14973869037300869 -0.38096853745143089 0 0.1375772795987745 -0.38493757303029391 0 0.14706277844018539 -0.39464292458295508 0 0.13524945632583441 -0.37311377610700652 0 0.14973869037300869 -0.38096853745143089 0 0.1375772795987745 -0.38493757303029391 0 0.13524945632583441 -0.37311377610700652 0 0.1375772795987745 -0.38493757303029391 0 0.12609635470998201 -0.38402791619100712 0 0.1375772795987745 -0.38493757303029391 0 0.12609635470998201 -0.38402791619100712 0 0.13569313113510631 -0.39589912548093298 0 0.12645644117523869 -0.39722706905544619 0 0.13569313113510631 -0.39589912548093298 0 0.1339005610000801 -0.40812169441689322 0 0.12645644117523869 -0.39722706905544619 0 0.1339005610000801 -0.40812169441689322 0 0.1250254850364893 -0.40936224001308058 0 0.12609635470998201 -0.38402791619100712 0 0.12645644117523869 -0.39722706905544619 0 0.13569313113510631 -0.39589912548093298 0 0.1375772795987745 -0.38493757303029391 0 0.13569313113510631 -0.39589912548093298 0 0.14706277844018539 -0.39464292458295508 0 0.13569313113510631 -0.39589912548093298 0 0.14706277844018539 -0.39464292458295508 0 0.1339005610000801 -0.40812169441689322 0 0.13569313113510631 -0.39589912548093298 0 0.1339005610000801 -0.40812169441689322 0 0.15805845094365739 -0.40474493864538458 0 0.14706277844018539 -0.39464292458295508 0 0.1339005610000801 -0.40812169441689322 0 0.15805845094365739 -0.40474493864538458 0 0.1339005610000801 -0.40812169441689322 0 0.15805845094365739 -0.40474493864538458 0 0.15398562739609989 -0.414436145328195 0 0.14500783119440661 -0.41410657591589572 0 0.15805845094365739 -0.40474493864538458 0 0.14500783119440661 -0.41410657591589572 0 0.1339005610000801 -0.40812169441689322 0 0.15398562739609989 -0.414436145328195 0 0.15088002640467921 -0.42009116626417142 0 0.14500783119440661 -0.41410657591589572 0 0.15088002640467921 -0.42009116626417142 0 0.15979138776423191 -0.42406840149736191 0 0.15636365466176849 -0.41960526040447821 0 0.15398562739609989 -0.414436145328195 0 0.15088002640467921 -0.42009116626417142 0 0.15636365466176849 -0.41960526040447821 0 0.15088002640467921 -0.42009116626417142 0 0.14500783119440661 -0.41410657591589572 0 0.14354831806896931 -0.42663893719234869 0 0.14500783119440661 -0.41410657591589572 0 0.1339005610000801 -0.40812169441689322 0 0.13212255532719441 -0.42024495614079282 0 0.14500783119440661 -0.41410657591589572 0 0.13212255532719441 -0.42024495614079282 0 0.14354831806896931 -0.42663893719234869 0 0.1339005610000801 -0.40812169441689322 0 0.13212255532719441 -0.42024495614079282 0 0.13212255532719441 -0.42024495614079282 0 0.1250254850364893 -0.40936224001308058 0 0.117866085899093 -0.41583132647739651 0 0.13212255532719441 -0.42024495614079282 0 0.1250254850364893 -0.40936224001308058 0 0.1339005610000801 -0.40812169441689322 0 0.13212255532719441 -0.42024495614079282 0 0.1250254850364893 -0.40936224001308058 0 0.1339005610000801 -0.40812169441689322 0 0.1250254850364893 -0.40936224001308058 0 0.13212255532719441 -0.42024495614079282 0 0.14354831806896931 -0.42663893719234869 0 0.1460535583969573 -0.44160689079445481 0 0.13212255532719441 -0.42024495614079282 0 0.128223579302082 -0.44682997076052833 0 0.13212255532719441 -0.42024495614079282 0 0.128223579302082 -0.44682997076052833 0 0.1159996351348133 -0.43474120747525058 0 0.13212255532719441 -0.42024495614079282 0 0.1460535583969573 -0.44160689079445481 0 0.13212255532719441 -0.42024495614079282 0 0.1460535583969573 -0.44160689079445481 0 0.128223579302082 -0.44682997076052833 0 0.15088002640467921 -0.42009116626417142 0 0.14354831806896931 -0.42663893719234869 0 0.15979138776423191 -0.42406840149736191 0 0.14354831806896931 -0.42663893719234869 0 0.15979138776423191 -0.42406840149736191 0 0.14354831806896931 -0.42663893719234869 0 0.15423293294423909 -0.43386412417913311 0 0.1460535583969573 -0.44160689079445481 0 0.14354831806896931 -0.42663893719234869 0 0.15423293294423909 -0.43386412417913311 0 0.15979138776423191 -0.42406840149736191 0 0.15423293294423909 -0.43386412417913311 0 0.16088991666547389 -0.43196094602310392 0 0.16557730454712019 -0.44172028084172121 0 0.1713980071398 -0.42434598792645378 0 0.15979138776423191 -0.42406840149736191 0 0.1760344574594947 -0.42149786580237669 0 0.15423293294423909 -0.43386412417913311 0 0.16088991666547389 -0.43196094602310392 0 0.15979138776423191 -0.42406840149736191 0 0.15979138776423191 -0.42406840149736191 0 0.1760344574594947 -0.42149786580237669 0 0.16626302434537371 -0.43076979168845952 0 0.17509911994716071 -0.43336510097506958 0 0.16557730454712019 -0.44172028084172121 0 0.16088991666547389 -0.43196094602310392 0 0.16626302434537371 -0.43076979168845952 0 0.16557730454712019 -0.44172028084172121 0 0.16626302434537371 -0.43076979168845952 0 0.1713980071398 -0.42434598792645378 0 0.17509911994716071 -0.43336510097506958 0 0.16626302434537371 -0.43076979168845952 0 0.1713980071398 -0.42434598792645378 0 0.15979138776423191 -0.42406840149736191 0 0.16088991666547389 -0.43196094602310392 0 0.16626302434537371 -0.43076979168845952 0 0.15979138776423191 -0.42406840149736191 0 0.15636365466176849 -0.41960526040447821 0 0.16176651730702801 -0.41283252991975622 0 0.17042982775368151 -0.41274390099030239 0 0.18221634088723479 -0.40136818287387582 0 0.15805845094365739 -0.40474493864538458 0 0.17042982775368151 -0.41274390099030239 0 0.15979138776423191 -0.42406840149736191 0 0.15636365466176849 -0.41960526040447821 0 0.17042982775368151 -0.41274390099030239 0 0.15636365466176849 -0.41960526040447821 0 0.17042982775368151 -0.41274390099030239 0 0.15979138776423191 -0.42406840149736191 0 0.17042982775368151 -0.41274390099030239 0 0.1760344574594947 -0.42149786580237669 0 0.15398562739609989 -0.414436145328195 0 0.15636365466176849 -0.41960526040447821 0 0.16176651730702801 -0.41283252991975622 0 0.15805845094365739 -0.40474493864538458 0 0.15398562739609989 -0.414436145328195 0 0.16176651730702801 -0.41283252991975622 0 0.15805845094365739 -0.40474493864538458 0 0.16176651730702801 -0.41283252991975622 0 0.17042982775368151 -0.41274390099030239 0 0.17042982775368151 -0.41274390099030239 0 0.1760344574594947 -0.42149786580237669 0 0.17986785094481991 -0.4134894736146324 0 0.18449600084559339 -0.40588254157612419 0 0.17042982775368151 -0.41274390099030239 0 0.18449600084559339 -0.40588254157612419 0 0.18221634088723479 -0.40136818287387582 0 0.17042982775368151 -0.41274390099030239 0 0.18449600084559339 -0.40588254157612419 0 0.17042982775368151 -0.41274390099030239 0 0.17986785094481991 -0.4134894736146324 0 0.18851111772050869 -0.41383358608972459 0 0.18449600084559339 -0.40588254157612419 0 0.18851111772050869 -0.41383358608972459 0 0.18449600084559339 -0.40588254157612419 0 0.17986785094481991 -0.4134894736146324 0 0.18851111772050869 -0.41383358608972459 0 0.1760344574594947 -0.42149786580237669 0 0.1911717259170673 -0.41910232791299562 0 0.1760344574594947 -0.42149786580237669 0 0.18851111772050869 -0.41383358608972459 0 0.1760344574594947 -0.42149786580237669 0 0.17986785094481991 -0.4134894736146324 0 0.1911717259170673 -0.41910232791299562 0 0.18851111772050869 -0.41383358608972459 0 0.1760344574594947 -0.42149786580237669 0 0.1911717259170673 -0.41910232791299562 0 0.1760344574594947 -0.42149786580237669 0 0.18484232774876749 -0.43033534366960768 0 0.18484232774876749 -0.43033534366960768 0 0.17509911994716071 -0.43336510097506958 0 0.18590039067086719 -0.44115637567916172 0 0.18484232774876749 -0.43033534366960768 0 0.17509911994716071 -0.43336510097506958 0 0.17653319474121221 -0.42750765242104072 0 0.1713980071398 -0.42434598792645378 0 0.17509911994716071 -0.43336510097506958 0 0.17653319474121221 -0.42750765242104072 0 0.1760344574594947 -0.42149786580237669 0 0.18484232774876749 -0.43033534366960768 0 0.17653319474121221 -0.42750765242104072 0 0.1713980071398 -0.42434598792645378 0 0.1760344574594947 -0.42149786580237669 0 0.17653319474121221 -0.42750765242104072 0 0.1713980071398 -0.42434598792645378 0 0.1760344574594947 -0.42149786580237669 0 0.17791556380287959 -0.4455361086535346 0 0.17376504419967539 -0.46076368888843938 0 0.16557730454712019 -0.44172028084172121 0 0.17509911994716071 -0.43336510097506958 0 0.17791556380287959 -0.4455361086535346 0 0.18590039067086719 -0.44115637567916172 0 0.17509911994716071 -0.43336510097506958 0 0.17791556380287959 -0.4455361086535346 0 0.16557730454712019 -0.44172028084172121 0 0.18923595964957429 -0.45067509688328122 0 0.17791556380287959 -0.4455361086535346 0 0.18590039067086719 -0.44115637567916172 0 0.18923595964957429 -0.45067509688328122 0 0.17791556380287959 -0.4455361086535346 0 0.17376504419967539 -0.46076368888843938 0 0.1938641377332887 -0.4633108835168005 0 0.18923595964957429 -0.45067509688328122 0 0.17376504419967539 -0.46076368888843938 0 0.1938641377332887 -0.4633108835168005 0 0.17376504419967539 -0.46076368888843938 0 0.17718182015316611 -0.48165544175840053 0 0.17376504419967539 -0.46076368888843938 0 0.15550290350416551 -0.45157236434768988 0 0.1539044029471725 -0.46809795184702829 0 0.17376504419967539 -0.46076368888843938 0 0.16557730454712019 -0.44172028084172121 0 0.15550290350416551 -0.45157236434768988 0 0.15423293294423909 -0.43386412417913311 0 0.16557730454712019 -0.44172028084172121 0 0.15550290350416551 -0.45157236434768988 0 0.15423293294423909 -0.43386412417913311 0 0.15550290350416551 -0.45157236434768988 0 0.1460535583969573 -0.44160689079445481 0 0.15550290350416551 -0.45157236434768988 0 0.1460535583969573 -0.44160689079445481 0 0.14153074802588431 -0.45654190970348868 0 0.1460535583969573 -0.44160689079445481 0 0.128223579302082 -0.44682997076052833 0 0.14153074802588431 -0.45654190970348868 0 0.128223579302082 -0.44682997076052833 0 0.12432460327697011 -0.47341498538026422 0 0.128223579302082 -0.44682997076052833 0 0.14153074802588431 -0.45654190970348868 0 0.12432460327697011 -0.47341498538026422 0 0.1539044029471725 -0.46809795184702829 0 0.14153074802588431 -0.45654190970348868 0 0.12432460327697011 -0.47341498538026422 0 0.15550290350416551 -0.45157236434768988 0 0.1539044029471725 -0.46809795184702829 0 0.14153074802588431 -0.45654190970348868 0 0.1539044029471725 -0.46809795184702829 0 0.15048103374274721 -0.48484579871078243 0 0.12432460327697011 -0.47341498538026422 0 0.1404625649124509 -0.5 0 0.15048103374274721 -0.48484579871078243 0 0.12432460327697011 -0.47341498538026422 0 0.1404625649124509 -0.5 0 0.12042562725185831 -0.49999999999999989 0 0.12432460327697011 -0.47341498538026422 0 0.1404625649124509 -0.5 0 0.15048103374274721 -0.48484579871078243 0 0.16049950257304349 -0.50000000000000033 0 0.16049950257304349 -0.50000000000000033 0 0.17718182015316611 -0.48165544175840053 0 0.15048103374274721 -0.48484579871078243 0 0.16049950257304349 -0.50000000000000033 0 0.17718182015316611 -0.48165544175840053 0 0.17376504419967539 -0.46076368888843938 0 0.1539044029471725 -0.46809795184702829 0 0.17718182015316611 -0.48165544175840053 0 0.1539044029471725 -0.46809795184702829 0 0.15048103374274721 -0.48484579871078243 0 0.17718182015316611 -0.48165544175840053 0 0.1938641377332887 -0.4633108835168005 0 0.17718182015316611 -0.48165544175840053 0 0.19122796324104871 -0.48466606029959602 0 0.1938641377332887 -0.4633108835168005 0 0.17718182015316611 -0.48165544175840053 0 0.16049950257304349 -0.50000000000000033 0 0.17718182015316611 -0.48165544175840053 0 0.18744203257390391 -0.5 0 0.19122796324104871 -0.48466606029959602 0 0.17718182015316611 -0.48165544175840053 0 0.18744203257390391 -0.5 0 0.072018957471098571 -0.48629524479662273 0 0.069142552082564368 -0.5 0 0.082735946582200875 -0.4892045976485363 0 0.072018957471098571 -0.48629524479662273 0 0.079568506083734697 -0.4785915255016745 0 0.082735946582200875 -0.4892045976485363 0 0.072018957471098571 -0.48629524479662273 0 0.062670741706174135 -0.48944359682069549 0 0.064881374578912687 -0.4815757870058418 0 0.072018957471098571 -0.48629524479662273 0 0.069142552082564368 -0.5 0 0.062670741706174135 -0.48944359682069549 0 0.073180054077148754 -0.46968413697177741 0 0.079568506083734697 -0.4785915255016745 0 0.081395248040860374 -0.46160025678040811 0 0.067447632246636219 -0.45716428258124142 0 0.05849497948899289 -0.47642287528831911 0 0.061758178687080389 -0.47580514524370598 0 0.072018957471098571 -0.48629524479662273 0 0.064881374578912687 -0.4815757870058418 0 0.070673492561877091 -0.4782128222507579 0 0.064881374578912687 -0.4815757870058418 0 0.066280053791524171 -0.47680462027284459 0 0.061758178687080389 -0.47580514524370598 0 0.064881374578912687 -0.4815757870058418 0 0.066280053791524171 -0.47680462027284459 0 0.070673492561877091 -0.4782128222507579 0 0.066280053791524171 -0.47680462027284459 0 0.067807169338226503 -0.47162472659107291 0 0.061758178687080389 -0.47580514524370598 0 0.066280053791524171 -0.47680462027284459 0 0.067807169338226503 -0.47162472659107291 0 0.070673492561877091 -0.4782128222507579 0 0.067807169338226503 -0.47162472659107291 0 0.073180054077148754 -0.46968413697177741 0 0.070673492561877091 -0.4782128222507579 0 0.073180054077148754 -0.46968413697177741 0 0.070673492561877091 -0.4782128222507579 0 0.079568506083734697 -0.4785915255016745 0 0.072018957471098571 -0.48629524479662273 0 0.070673492561877091 -0.4782128222507579 0 0.079568506083734697 -0.4785915255016745 0 0.096876661376123455 -0.48080012839020431 0 0.081395248040860374 -0.46160025678040811 0 0.096876661376123455 -0.48080012839020431 0 0.095349939854524335 -0.46404107218864848 0 0.081395248040860374 -0.46160025678040811 0 0.079568506083734697 -0.4785915255016745 0 0.082735946582200875 -0.4892045976485363 0 0.096876661376123455 -0.48080012839020431 0 0.079568506083734697 -0.4785915255016745 0 0.096876661376123455 -0.48080012839020431 0 0.081395248040860374 -0.46160025678040811 0 0.090750313396975479 -0.5 0 0.082735946582200875 -0.4892045976485363 0 0.096876661376123455 -0.48080012839020431 0 0.069142552082564368 -0.5 0 0.090750313396975479 -0.5 0 0.082735946582200875 -0.4892045976485363 0 0.1123580747113867 -0.50000000000000033 0 0.1124728586670535 -0.48406595427175642 0 0.096876661376123455 -0.48080012839020431 0 0.090750313396975479 -0.5 0 0.1123580747113867 -0.50000000000000033 0 0.096876661376123455 -0.48080012839020431 0 0.1123580747113867 -0.50000000000000033 0 0.096876661376123455 -0.48080012839020431 0 0.1123580747113867 -0.50000000000000033 0 0.12042562725185831 -0.49999999999999989 0 0.1124728586670535 -0.48406595427175642 0 0.12042562725185831 -0.49999999999999989 0 0.1124728586670535 -0.48406595427175642 0 0.12432460327697011 -0.47341498538026422 0 0.12042562725185831 -0.49999999999999989 0 0.12432460327697011 -0.47341498538026422 0 0.1124728586670535 -0.48406595427175642 0 0.12432460327697011 -0.47341498538026422 0 0.1082250197838846 -0.46311527911574241 0 0.096876661376123455 -0.48080012839020431 0 0.095349939854524335 -0.46404107218864848 0 0.1082250197838846 -0.46311527911574241 0 0.1124728586670535 -0.48406595427175642 0 0.096876661376123455 -0.48080012839020431 0 0.1082250197838846 -0.46311527911574241 0 0.095349939854524335 -0.46404107218864848 0 0.1082250197838846 -0.46311527911574241 0 0.094902830217228867 -0.45064862446823939 0 0.128223579302082 -0.44682997076052833 0 0.12432460327697011 -0.47341498538026422 0 0.1082250197838846 -0.46311527911574241 0 0.128223579302082 -0.44682997076052833 0 0.1069391861142964 -0.44299064961396012 0 0.1159996351348133 -0.43474120747525058 0 0.128223579302082 -0.44682997076052833 0 0.1082250197838846 -0.46311527911574241 0 0.1069391861142964 -0.44299064961396012 0 0.1082250197838846 -0.46311527911574241 0 0.1069391861142964 -0.44299064961396012 0 0.094902830217228867 -0.45064862446823939 0 0.1069391861142964 -0.44299064961396012 0 0.091812697424993442 -0.4386357446441016 0 0.098414951810672224 -0.43233268446502993 0 0.1069391861142964 -0.44299064961396012 0 0.094902830217228867 -0.45064862446823939 0 0.091812697424993442 -0.4386357446441016 0 0.094902830217228867 -0.45064862446823939 0 0.091812697424993442 -0.4386357446441016 0 0.082434724511159588 -0.44537142502386151 0 0.094902830217228867 -0.45064862446823939 0 0.082434724511159588 -0.44537142502386151 0 0.081395248040860374 -0.46160025678040811 0 0.091812697424993442 -0.4386357446441016 0 0.082434724511159588 -0.44537142502386151 0 0.078149012167117934 -0.43357211405594609 0 0.095349939854524335 -0.46404107218864848 0 0.094902830217228867 -0.45064862446823939 0 0.081395248040860374 -0.46160025678040811 0 0.067447632246636219 -0.45716428258124142 0 0.065913834705597293 -0.44240038517061198 0 0.057068655694905858 -0.46015288389510001 0 0.067447632246636219 -0.45716428258124142 0 0.05849497948899289 -0.47642287528831911 0 0.067807169338226503 -0.47162472659107291 0 0.067447632246636219 -0.45716428258124142 0 0.061758178687080389 -0.47580514524370598 0 0.081395248040860374 -0.46160025678040811 0 0.067447632246636219 -0.45716428258124142 0 0.065913834705597293 -0.44240038517061198 0 0.073180054077148754 -0.46968413697177741 0 0.081395248040860374 -0.46160025678040811 0 0.067447632246636219 -0.45716428258124142 0 0.067807169338226503 -0.47162472659107291 0 0.073180054077148754 -0.46968413697177741 0 0.067447632246636219 -0.45716428258124142 0 0.081395248040860374 -0.46160025678040811 0 0.065913834705597293 -0.44240038517061198 0 0.082434724511159588 -0.44537142502386151 0 0.081395248040860374 -0.46160025678040811 0 0.065913834705597293 -0.44240038517061198 0 0.082434724511159588 -0.44537142502386151 0 0.065913834705597293 -0.44240038517061198 0 0.078149012167117934 -0.43357211405594609 0 0.065921365320016911 -0.4273577277455588 0 0.073982485551444349 -0.42005290588181732 0 0.078149012167117934 -0.43357211405594609 0 0.065913834705597293 -0.44240038517061198 0 0.065921365320016911 -0.4273577277455588 0 0.078149012167117934 -0.43357211405594609 0 0.073982485551444349 -0.42005290588181732 0 0.069775570718114244 -0.40426700169235308 0 0.060774245729122177 -0.41691050055794487 0 0.065921365320016911 -0.4273577277455588 0 0.073982485551444349 -0.42005290588181732 0 0.060774245729122177 -0.41691050055794487 0 0.073982485551444349 -0.42005290588181732 0 0.086447448161059384 -0.41120764722282821 0 0.069775570718114244 -0.40426700169235308 0 0.073982485551444349 -0.42005290588181732 0 0.086447448161059384 -0.41120764722282821 0 0.088692331433278357 -0.42535053834926723 0 0.086447448161059384 -0.41120764722282821 0 0.093827427438274241 -0.41775801958915132 0 0.099702730965631758 -0.41290181884877419 0 0.086447448161059384 -0.41120764722282821 0 0.088692331433278357 -0.42535053834926723 0 0.093827427438274241 -0.41775801958915132 0 0.088692331433278357 -0.42535053834926723 0 0.097645949564215143 -0.42435504664253748 0 0.093827427438274241 -0.41775801958915132 0 0.073982485551444349 -0.42005290588181732 0 0.088692331433278357 -0.42535053834926723 0 0.078149012167117934 -0.43357211405594609 0 0.091812697424993442 -0.4386357446441016 0 0.088692331433278357 -0.42535053834926723 0 0.078149012167117934 -0.43357211405594609 0 0.091812697424993442 -0.4386357446441016 0 0.088692331433278357 -0.42535053834926723 0 0.098414951810672224 -0.43233268446502993 0 0.098414951810672224 -0.43233268446502993 0 0.097645949564215143 -0.42435504664253748 0 0.1061961683754654 -0.43004895598907111 0 0.088692331433278357 -0.42535053834926723 0 0.098414951810672224 -0.43233268446502993 0 0.097645949564215143 -0.42435504664253748 0 0.1061961683754654 -0.43004895598907111 0 0.11152958735588871 -0.42539382439527612 0 0.1045809803654715 -0.42051706085107571 0 0.097645949564215143 -0.42435504664253748 0 0.1061961683754654 -0.43004895598907111 0 0.1045809803654715 -0.42051706085107571 0 0.1069391861142964 -0.44299064961396012 0 0.098414951810672224 -0.43233268446502993 0 0.1061961683754654 -0.43004895598907111 0 0.1061961683754654 -0.43004895598907111 0 0.1159996351348133 -0.43474120747525058 0 0.11152958735588871 -0.42539382439527612 0 0.13212255532719441 -0.42024495614079282 0 0.1159996351348133 -0.43474120747525058 0 0.11851153239627241 -0.42275952171654291 0 0.1069391861142964 -0.44299064961396012 0 0.1061961683754654 -0.43004895598907111 0 0.1159996351348133 -0.43474120747525058 0 0.1159996351348133 -0.43474120747525058 0 0.11152958735588871 -0.42539382439527612 0 0.11851153239627241 -0.42275952171654291 0 0.11152958735588871 -0.42539382439527612 0 0.11851153239627241 -0.42275952171654291 0 0.1123596205074209 -0.41890237594444008 0 0.1250254850364893 -0.40936224001308058 0 0.117866085899093 -0.41583132647739651 0 0.1096180349996463 -0.41151587164058129 0 0.1250254850364893 -0.40936224001308058 0 0.1096180349996463 -0.41151587164058129 0 0.13212255532719441 -0.42024495614079282 0 0.11851153239627241 -0.42275952171654291 0 0.117866085899093 -0.41583132647739651 0 0.117866085899093 -0.41583132647739651 0 0.1123596205074209 -0.41890237594444008 0 0.1096180349996463 -0.41151587164058129 0 0.11851153239627241 -0.42275952171654291 0 0.117866085899093 -0.41583132647739651 0 0.1123596205074209 -0.41890237594444008 0 0.11152958735588871 -0.42539382439527612 0 0.1123596205074209 -0.41890237594444008 0 0.1045809803654715 -0.42051706085107571 0 0.1123596205074209 -0.41890237594444008 0 0.1096180349996463 -0.41151587164058129 0 0.1065506547415149 -0.41613106226330793 0 0.1096180349996463 -0.41151587164058129 0 0.1065506547415149 -0.41613106226330793 0 0.099702730965631758 -0.41290181884877419 0 0.1096180349996463 -0.41151587164058129 0 0.099702730965631758 -0.41290181884877419 0 0.1096180349996463 -0.41151587164058129 0 0.099702730965631758 -0.41290181884877419 0 0.1041447551606165 -0.40305668800175581 0 0.1123596205074209 -0.41890237594444008 0 0.1065506547415149 -0.41613106226330793 0 0.1045809803654715 -0.42051706085107571 0 0.1065506547415149 -0.41613106226330793 0 0.1045809803654715 -0.42051706085107571 0 0.099702730965631758 -0.41290181884877419 0 0.1045809803654715 -0.42051706085107571 0 0.093827427438274241 -0.41775801958915132 0 0.099702730965631758 -0.41290181884877419 0 0.097645949564215143 -0.42435504664253748 0 0.1045809803654715 -0.42051706085107571 0 0.093827427438274241 -0.41775801958915132 0 0.086447448161059384 -0.41120764722282821 0 0.099702730965631758 -0.41290181884877419 0 0.095691580682652475 -0.39908469234235189 0 0.095691580682652475 -0.39908469234235189 0 0.1041447551606165 -0.40305668800175581 0 0.1115666739945345 -0.38872436917531578 0 0.099702730965631758 -0.41290181884877419 0 0.095691580682652475 -0.39908469234235189 0 0.1041447551606165 -0.40305668800175581 0 0.1096180349996463 -0.41151587164058129 0 0.1041447551606165 -0.40305668800175581 0 0.1115666739945345 -0.38872436917531578 0 0.1250254850364893 -0.40936224001308058 0 0.1115666739945345 -0.38872436917531578 0 0.1096180349996463 -0.41151587164058129 0 0.1115666739945345 -0.38872436917531578 0 0.1250254850364893 -0.40936224001308058 0 0.1096180349996463 -0.41151587164058129 0 0.1115666739945345 -0.38872436917531578 0 0.12645644117523869 -0.39722706905544619 0 0.1250254850364893 -0.40936224001308058 0 0.1115666739945345 -0.38872436917531578 0 0.12609635470998201 -0.38402791619100712 0 0.1115666739945345 -0.38872436917531578 0 0.113745377556003 -0.36324200547299851 0 0.1115666739945345 -0.38872436917531578 0 0.113745377556003 -0.36324200547299851 0 0.12609635470998201 -0.38402791619100712 0 0.12645644117523869 -0.39722706905544619 0 0.1115666739945345 -0.38872436917531578 0 0.1115666739945345 -0.38872436917531578 0 0.096372132326470572 -0.36542491223168638 0 0.1115666739945345 -0.38872436917531578 0 0.089853218628298884 -0.38394717958202601 0 0.096372132326470572 -0.36542491223168638 0 0.095691580682652475 -0.39908469234235189 0 0.1115666739945345 -0.38872436917531578 0 0.089853218628298884 -0.38394717958202601 0 0.089853218628298884 -0.38394717958202601 0 0.082924844884061683 -0.39714926844771359 0 0.072939106935086151 -0.38728773006234168 0 0.089853218628298884 -0.38394717958202601 0 0.072939106935086151 -0.38728773006234168 0 0.07582030708563034 -0.37256671738353597 0 0.095691580682652475 -0.39908469234235189 0 0.089853218628298884 -0.38394717958202601 0 0.082924844884061683 -0.39714926844771359 0 0.086447448161059384 -0.41120764722282821 0 0.082924844884061683 -0.39714926844771359 0 0.069775570718114244 -0.40426700169235308 0 0.086447448161059384 -0.41120764722282821 0 0.095691580682652475 -0.39908469234235189 0 0.082924844884061683 -0.39714926844771359 0 0.069775570718114244 -0.40426700169235308 0 0.072939106935086151 -0.38728773006234168 0 0.058313699768321348 -0.39007371912844929 0 0.082924844884061683 -0.39714926844771359 0 0.069775570718114244 -0.40426700169235308 0 0.072939106935086151 -0.38728773006234168 0 0.072939106935086151 -0.38728773006234168 0 0.05933500968155693 -0.37671477575793533 0 0.058313699768321348 -0.39007371912844929 0 0.072939106935086151 -0.38728773006234168 0 0.05933500968155693 -0.37671477575793533 0 0.07582030708563034 -0.37256671738353597 0 0.05933500968155693 -0.37671477575793533 0 0.043300396670470892 -0.38581293046691678 0 0.039079294002052851 -0.37065651216905859 0 0.05933500968155693 -0.37671477575793533 0 0.058313699768321348 -0.39007371912844929 0 0.043300396670470892 -0.38581293046691678 0 0.058313699768321348 -0.39007371912844929 0 0.0466875803122518 -0.39705513158652528 0 0.054373060569327003 -0.40663711634463268 0 0.069775570718114244 -0.40426700169235308 0 0.058313699768321348 -0.39007371912844929 0 0.054373060569327003 -0.40663711634463268 0 0.058313699768321348 -0.39007371912844929 0 0.054373060569327003 -0.40663711634463268 0 0.0466875803122518 -0.39705513158652528 0 0.042121557959679479 -0.40689397827368962 0 0.054373060569327003 -0.40663711634463268 0 0.058313699768321348 -0.39007371912844929 0 0.0466875803122518 -0.39705513158652528 0 0.043300396670470892 -0.38581293046691678 0 0.0466875803122518 -0.39705513158652528 0 0.032645317368698572 -0.39721328630736241 0 0.043300396670470892 -0.38581293046691678 0 0.0466875803122518 -0.39705513158652528 0 0.032645317368698572 -0.39721328630736241 0 0.042121557959679479 -0.40689397827368962 0 0.032645317368698572 -0.39721328630736241 0 0.043300396670470892 -0.38581293046691678 0 0.025542853711361019 -0.38384675294920401 0 0.043300396670470892 -0.38581293046691678 0 0.025542853711361019 -0.38384675294920401 0 0.039079294002052851 -0.37065651216905859 0 0.025542853711361019 -0.38384675294920401 0 0.009690974369139977 -0.39295199195252922 0 0.016784443680880379 -0.36713146693108112 0 -0.0064694903547723136 -0.38059021958606692 0 0.009690974369139977 -0.39295199195252922 0 0.016784443680880379 -0.36713146693108112 0 0.032645317368698572 -0.39721328630736241 0 0.009690974369139977 -0.39295199195252922 0 0.030062121183744069 -0.41560348860952728 0 0.032645317368698572 -0.39721328630736241 0 0.025542853711361019 -0.38384675294920401 0 0.009690974369139977 -0.39295199195252922 0 0.009690974369139977 -0.39295199195252922 0 0.030062121183744069 -0.41560348860952728 0 0.01224976062295041 -0.42183763890738629 0 -0.0080625817845775948 -0.40608726553411861 0 0.009690974369139977 -0.39295199195252922 0 0.01224976062295041 -0.42183763890738629 0 0.009690974369139977 -0.39295199195252922 0 0.01224976062295041 -0.42183763890738629 0 0.01224976062295041 -0.42183763890738629 0 0.01480854687676085 -0.45072328586224342 0 0.030062121183744069 -0.41560348860952728 0 0.01224976062295041 -0.42183763890738629 0 0.028535899264767479 -0.43733174884408438 0 0.01224976062295041 -0.42183763890738629 0 0.028535899264767479 -0.43733174884408438 0 0.01480854687676085 -0.45072328586224342 0 0.030062121183744069 -0.41560348860952728 0 0.028535899264767479 -0.43733174884408438 0 0.039909128579099777 -0.42893709763038412 0 0.039909128579099777 -0.42893709763038412 0 0.050432421370333713 -0.42320051356081623 0 0.04400553312424714 -0.45021417746364167 0 0.039909128579099777 -0.42893709763038412 0 0.046509667952406512 -0.41833555967385072 0 0.050432421370333713 -0.42320051356081623 0 0.032645317368698572 -0.39721328630736241 0 0.030062121183744069 -0.41560348860952728 0 0.042121557959679479 -0.40689397827368962 0 0.030062121183744069 -0.41560348860952728 0 0.039909128579099777 -0.42893709763038412 0 0.046509667952406512 -0.41833555967385072 0 0.030062121183744069 -0.41560348860952728 0 0.042121557959679479 -0.40689397827368962 0 0.046509667952406512 -0.41833555967385072 0 0.054373060569327003 -0.40663711634463268 0 0.050432421370333713 -0.42320051356081623 0 0.046509667952406512 -0.41833555967385072 0 0.054373060569327003 -0.40663711634463268 0 0.050432421370333713 -0.42320051356081623 0 0.054373060569327003 -0.40663711634463268 0 0.060774245729122177 -0.41691050055794487 0 0.050432421370333713 -0.42320051356081623 0 0.046509667952406512 -0.41833555967385072 0 0.050432421370333713 -0.42320051356081623 0 0.042121557959679479 -0.40689397827368962 0 0.046509667952406512 -0.41833555967385072 0 0.054373060569327003 -0.40663711634463268 0 0.069775570718114244 -0.40426700169235308 0 0.054373060569327003 -0.40663711634463268 0 0.060774245729122177 -0.41691050055794487 0 0.050432421370333713 -0.42320051356081623 0 0.04400553312424714 -0.45021417746364167 0 0.065913834705597293 -0.44240038517061198 0 0.050432421370333713 -0.42320051356081623 0 0.065913834705597293 -0.44240038517061198 0 0.065921365320016911 -0.4273577277455588 0 0.050432421370333713 -0.42320051356081623 0 0.065921365320016911 -0.4273577277455588 0 0.060774245729122177 -0.41691050055794487 0 0.050432421370333713 -0.42320051356081623 0 0.065913834705597293 -0.44240038517061198 0 0.050432421370333713 -0.42320051356081623 0 0.04400553312424714 -0.45021417746364167 0 0.065913834705597293 -0.44240038517061198 0 0.057068655694905858 -0.46015288389510001 0 0.04400553312424714 -0.45021417746364167 0 0.057068655694905858 -0.46015288389510001 0 0.048043393468649283 -0.46676160836513853 0 0.04400553312424714 -0.45021417746364167 0 0.067447632246636219 -0.45716428258124142 0 0.057068655694905858 -0.46015288389510001 0 0.05849497948899289 -0.47642287528831911 0 0.057068655694905858 -0.46015288389510001 0 0.048043393468649283 -0.46676160836513853 0 0.052635520687858477 -0.47072247146996382 0 0.04400553312424714 -0.45021417746364167 0 0.037578644878161642 -0.47722784136646751 0 0.048043393468649283 -0.46676160836513853 0 0.04400553312424714 -0.45021417746364167 0 0.037578644878161642 -0.47722784136646751 0 0.04400553312424714 -0.45021417746364167 0 0.030366658319331299 -0.45781827645911538 0 0.037578644878161642 -0.47722784136646751 0 0.028535899264767479 -0.43733174884408438 0 0.039909128579099777 -0.42893709763038412 0 0.04400553312424714 -0.45021417746364167 0 0.028535899264767479 -0.43733174884408438 0 0.04400553312424714 -0.45021417746364167 0 0.030366658319331299 -0.45781827645911538 0 0.028535899264767479 -0.43733174884408438 0 0.01480854687676085 -0.45072328586224342 0 0.030366658319331299 -0.45781827645911538 0 -0.008216644178786571 -0.4466179140804285 0 0.01224976062295041 -0.42183763890738629 0 0.01480854687676085 -0.45072328586224342 0 0.01480854687676085 -0.45072328586224342 0 0.017367333130571299 -0.47960893281710049 0 0.0084119176919832291 -0.471974008478943 0 -0.0021957942935651631 -0.46571035637089769 0 0.01480854687676085 -0.45072328586224342 0 0.0084119176919832291 -0.471974008478943 0 -0.008216644178786571 -0.4466179140804285 0 -0.0021957942935651631 -0.46571035637089769 0 0.01480854687676085 -0.45072328586224342 0 0.01480854687676085 -0.45072328586224342 0 0.017367333130571299 -0.47960893281710049 0 0.01480854687676085 -0.45072328586224342 0 0.030366658319331299 -0.45781827645911538 0 0.0269046674527194 -0.47359432875914009 0 0.01480854687676085 -0.45072328586224342 0 0.0269046674527194 -0.47359432875914009 0 0.017367333130571299 -0.47960893281710049 0 0.017367333130571299 -0.47960893281710049 0 0.012735562036971701 -0.48508522326900949 0 0.035615270762982369 -0.48075404927866472 0 0.012735562036971701 -0.48508522326900949 0 0.035615270762982369 -0.48075404927866472 0 0.0269046674527194 -0.47359432875914009 0 0.017367333130571299 -0.47960893281710049 0 0.035615270762982369 -0.48075404927866472 0 0.017367333130571299 -0.47960893281710049 0 0.0084119176919832291 -0.471974008478943 0 0.012735562036971701 -0.48508522326900949 0 -0.00065605929082254884 -0.47874224407546379 0 0.0084119176919832291 -0.471974008478943 0 0.012735562036971701 -0.48508522326900949 0 -0.0021957942935651631 -0.46571035637089769 0 -0.00065605929082254884 -0.47874224407546379 0 0.0084119176919832291 -0.471974008478943 0 -0.010144146689038991 -0.48941639725935437 0 -0.00065605929082254884 -0.47874224407546379 0 0.012735562036971701 -0.48508522326900949 0 -0.010144146689038991 -0.48941639725935437 0 0.012735562036971701 -0.48508522326900949 0 -0.011489863113854141 -0.5 0 0.012735562036971701 -0.48508522326900949 0 0.01802246382714956 -0.5 0 0.01802246382714956 -0.5 0 0.025329369399590369 -0.48901546815995378 0 0.047534790768153173 -0.50000000000000044 0 0.012735562036971701 -0.48508522326900949 0 0.025329369399590369 -0.48901546815995378 0 0.035615270762982369 -0.48075404927866472 0 0.012735562036971701 -0.48508522326900949 0 0.01802246382714956 -0.5 0 0.025329369399590369 -0.48901546815995378 0 0.025329369399590369 -0.48901546815995378 0 0.035615270762982369 -0.48075404927866472 0 0.047534790768153173 -0.50000000000000044 0 0.030366658319331299 -0.45781827645911538 0 0.0269046674527194 -0.47359432875914009 0 0.037578644878161642 -0.47722784136646751 0 0.0269046674527194 -0.47359432875914009 0 0.037578644878161642 -0.47722784136646751 0 0.035615270762982369 -0.48075404927866472 0 0.048043393468649283 -0.46676160836513853 0 0.037578644878161642 -0.47722784136646751 0 0.046296380844488463 -0.47463440362945558 0 0.035615270762982369 -0.48075404927866472 0 0.046296380844488463 -0.47463440362945558 0 0.049693011087844949 -0.4756354888466594 0 0.037578644878161642 -0.47722784136646751 0 0.035615270762982369 -0.48075404927866472 0 0.046296380844488463 -0.47463440362945558 0 0.057068655694905858 -0.46015288389510001 0 0.052635520687858477 -0.47072247146996382 0 0.05849497948899289 -0.47642287528831911 0 0.035615270762982369 -0.48075404927866472 0 0.049693011087844949 -0.4756354888466594 0 0.05849497948899289 -0.47642287528831911 0 0.035615270762982369 -0.48075404927866472 0 0.05849497948899289 -0.47642287528831911 0 0.048043393468649283 -0.46676160836513853 0 0.046296380844488463 -0.47463440362945558 0 0.052635520687858477 -0.47072247146996382 0 0.049693011087844949 -0.4756354888466594 0 0.052635520687858477 -0.47072247146996382 0 0.05849497948899289 -0.47642287528831911 0 0.046296380844488463 -0.47463440362945558 0 0.049693011087844949 -0.4756354888466594 0 0.052635520687858477 -0.47072247146996382 0 0.05849497948899289 -0.47642287528831911 0 0.061758178687080389 -0.47580514524370598 0 0.062670741706174135 -0.48944359682069549 0 0.064881374578912687 -0.4815757870058418 0 0.05849497948899289 -0.47642287528831911 0 0.064881374578912687 -0.4815757870058418 0 0.05849497948899289 -0.47642287528831911 0 0.061758178687080389 -0.47580514524370598 0 0.069142552082564368 -0.5 0 0.062670741706174135 -0.48944359682069549 0 0.047534790768153173 -0.50000000000000044 0 0.05849497948899289 -0.47642287528831911 0 0.047534790768153173 -0.50000000000000044 0 0.035615270762982369 -0.48075404927866472 0 0.05849497948899289 -0.47642287528831911 0 0.047534790768153173 -0.50000000000000044 0 0.062670741706174135 -0.48944359682069549 0 0.05849497948899289 -0.47642287528831911 0 0.047534790768153173 -0.50000000000000044 0 0.089727975817252392 -0.29646224842349211 0 0.069967983226982527 -0.30495776272600778 0 0.075483032258224086 -0.28815868119130272 0 0.089727975817252392 -0.29646224842349211 0 0.088503230311337153 -0.27716835087377989 0 0.101883582619993 -0.28460947857741209 0 0.089727975817252392 -0.29646224842349211 0 0.075483032258224086 -0.28815868119130272 0 0.088503230311337153 -0.27716835087377989 0 0.089727975817252392 -0.29646224842349211 0 0.086214248119208581 -0.31193359067875348 0 0.069967983226982527 -0.30495776272600778 0 0.089727975817252392 -0.29646224842349211 0 0.086214248119208581 -0.31193359067875348 0 0.10049372866807189 -0.31082656242210721 0 0.069967983226982527 -0.30495776272600778 0 0.075483032258224086 -0.28815868119130272 0 0.059449054433483903 -0.28956707473318272 0 0.075483032258224086 -0.28815868119130272 0 0.0646939085167762 -0.2722383315448984 0 0.059449054433483903 -0.28956707473318272 0 0.0646939085167762 -0.2722383315448984 0 0.077350866508299074 -0.27549126298099152 0 0.080723294946858856 -0.26439968831398508 0 0.075483032258224086 -0.28815868119130272 0 0.0646939085167762 -0.2722383315448984 0 0.077350866508299074 -0.27549126298099152 0 0.0646939085167762 -0.2722383315448984 0 0.070005134957367529 -0.25889031236374099 0 0.080723294946858856 -0.26439968831398508 0 0.070005134957367529 -0.25889031236374099 0 0.061490933840310687 -0.25382890142296882 0 0.070069103552599196 -0.24823964670048029 0 0.0646939085167762 -0.2722383315448984 0 0.070005134957367529 -0.25889031236374099 0 0.060614126731859473 -0.2624009925450973 0 0.070005134957367529 -0.25889031236374099 0 0.061490933840310687 -0.25382890142296882 0 0.060614126731859473 -0.2624009925450973 0 0.070005134957367529 -0.25889031236374099 0 0.080071368274292315 -0.25145738896057979 0 0.080723294946858856 -0.26439968831398508 0 0.070005134957367529 -0.25889031236374099 0 0.080071368274292315 -0.25145738896057979 0 0.070069103552599196 -0.24823964670048029 0 0.080071368274292315 -0.25145738896057979 0 0.080723294946858856 -0.26439968831398508 0 0.090706365013478091 -0.25245448435890872 0 0.080723294946858856 -0.26439968831398508 0 0.090706365013478091 -0.25245448435890872 0 0.095060577752172304 -0.26241188567384149 0 0.075483032258224086 -0.28815868119130272 0 0.077350866508299074 -0.27549126298099152 0 0.088503230311337153 -0.27716835087377989 0 0.077350866508299074 -0.27549126298099152 0 0.080723294946858856 -0.26439968831398508 0 0.088503230311337153 -0.27716835087377989 0 0.080723294946858856 -0.26439968831398508 0 0.088503230311337153 -0.27716835087377989 0 0.095060577752172304 -0.26241188567384149 0 0.088503230311337153 -0.27716835087377989 0 0.1016952336099234 -0.27235330725820578 0 0.101883582619993 -0.28460947857741209 0 0.088503230311337153 -0.27716835087377989 0 0.1016952336099234 -0.27235330725820578 0 0.095060577752172304 -0.26241188567384149 0 0.1016952336099234 -0.27235330725820578 0 0.1104739380917857 -0.2612093749811526 0 0.1125548392743288 -0.27636744618484282 0 0.1016952336099234 -0.27235330725820578 0 0.1125548392743288 -0.27636744618484282 0 0.101883582619993 -0.28460947857741209 0 0.090706365013478091 -0.25245448435890872 0 0.099550463170151926 -0.25262580003909579 0 0.095060577752172304 -0.26241188567384149 0 0.1016952336099234 -0.27235330725820578 0 0.095060577752172304 -0.26241188567384149 0 0.1104739380917857 -0.2612093749811526 0 0.099550463170151926 -0.25262580003909579 0 0.095060577752172304 -0.26241188567384149 0 0.1104739380917857 -0.2612093749811526 0 0.099550463170151926 -0.25262580003909579 0 0.1104739380917857 -0.2612093749811526 0 0.1078238037173969 -0.24832262031645649 0 0.1311170075682456 -0.27142576198599933 0 0.1104739380917857 -0.2612093749811526 0 0.1212054647883809 -0.25073068226796852 0 0.1104739380917857 -0.2612093749811526 0 0.1212054647883809 -0.25073068226796852 0 0.1078238037173969 -0.24832262031645649 0 0.1311170075682456 -0.27142576198599933 0 0.1104739380917857 -0.2612093749811526 0 0.1311170075682456 -0.27142576198599933 0 0.1104739380917857 -0.2612093749811526 0 0.1193620271946058 -0.27249351692823448 0 0.1104739380917857 -0.2612093749811526 0 0.1125548392743288 -0.27636744618484282 0 0.1193620271946058 -0.27249351692823448 0 0.1125548392743288 -0.27636744618484282 0 0.1193620271946058 -0.27249351692823448 0 0.1233023238440631 -0.28097148456094378 0 0.1311170075682456 -0.27142576198599933 0 0.1193620271946058 -0.27249351692823448 0 0.1233023238440631 -0.28097148456094378 0 0.1233023238440631 -0.28097148456094378 0 0.1242383748246253 -0.29131174999725179 0 0.1141297936923768 -0.28878453930630188 0 0.1242383748246253 -0.29131174999725179 0 0.1141297936923768 -0.28878453930630188 0 0.1198701537204314 -0.30089140532399938 0 0.1141297936923768 -0.28878453930630188 0 0.10622170970645189 -0.29895353846799488 0 0.1198701537204314 -0.30089140532399938 0 0.1125548392743288 -0.27636744618484282 0 0.1233023238440631 -0.28097148456094378 0 0.1141297936923768 -0.28878453930630188 0 0.1125548392743288 -0.27636744618484282 0 0.1141297936923768 -0.28878453930630188 0 0.101883582619993 -0.28460947857741209 0 0.089727975817252392 -0.29646224842349211 0 0.101883582619993 -0.28460947857741209 0 0.10622170970645189 -0.29895353846799488 0 0.1141297936923768 -0.28878453930630188 0 0.101883582619993 -0.28460947857741209 0 0.10622170970645189 -0.29895353846799488 0 0.089727975817252392 -0.29646224842349211 0 0.10049372866807189 -0.31082656242210721 0 0.10622170970645189 -0.29895353846799488 0 0.10049372866807189 -0.31082656242210721 0 0.10622170970645189 -0.29895353846799488 0 0.1134387524627216 -0.31086840579325631 0 0.10622170970645189 -0.29895353846799488 0 0.1134387524627216 -0.31086840579325631 0 0.1198701537204314 -0.30089140532399938 0 0.1265219532001009 -0.3124330460259736 0 0.1134387524627216 -0.31086840579325631 0 0.1198701537204314 -0.30089140532399938 0 0.1265219532001009 -0.3124330460259736 0 0.1134387524627216 -0.31086840579325631 0 0.1192961391526948 -0.32261879728377291 0 0.1134387524627216 -0.31086840579325631 0 0.1192961391526948 -0.32261879728377291 0 0.1082288303285789 -0.31948708523568958 0 0.1192961391526948 -0.32261879728377291 0 0.1093748658769356 -0.32997486192450581 0 0.1082288303285789 -0.31948708523568958 0 0.1192961391526948 -0.32261879728377291 0 0.1168506625355451 -0.3296807312869221 0 0.1093748658769356 -0.32997486192450581 0 0.1192961391526948 -0.32261879728377291 0 0.12260601330919629 -0.33072698382653798 0 0.1168506625355451 -0.3296807312869221 0 0.13219802669416811 -0.32498852212276208 0 0.1192961391526948 -0.32261879728377291 0 0.12260601330919629 -0.33072698382653798 0 0.13051916655351839 -0.33696304048325831 0 0.12260601330919629 -0.33072698382653798 0 0.1159240811174677 -0.33775964177068091 0 0.12260601330919629 -0.33072698382653798 0 0.1159240811174677 -0.33775964177068091 0 0.1161256318033537 -0.33540228211287182 0 0.12260601330919629 -0.33072698382653798 0 0.1168506625355451 -0.3296807312869221 0 0.1161256318033537 -0.33540228211287182 0 0.13051916655351839 -0.33696304048325831 0 0.1159240811174677 -0.33775964177068091 0 0.13051916655351839 -0.33696304048325831 0 0.1159240811174677 -0.33775964177068091 0 0.123981461538115 -0.35128285539313481 0 0.1159240811174677 -0.33775964177068091 0 0.1161256318033537 -0.33540228211287182 0 0.1168506625355451 -0.3296807312869221 0 0.1161256318033537 -0.33540228211287182 0 0.1093748658769356 -0.32997486192450581 0 0.1159240811174677 -0.33775964177068091 0 0.1161256318033537 -0.33540228211287182 0 0.1093748658769356 -0.32997486192450581 0 0.1159240811174677 -0.33775964177068091 0 0.092335912071574502 -0.33904708650077298 0 0.1159240811174677 -0.33775964177068091 0 0.1093748658769356 -0.32997486192450581 0 0.092335912071574502 -0.33904708650077298 0 0.1093748658769356 -0.32997486192450581 0 0.096347407600029022 -0.32440529872184809 0 0.092335912071574502 -0.33904708650077298 0 0.1159240811174677 -0.33775964177068091 0 0.10211321446004019 -0.35101158716873732 0 0.092335912071574502 -0.33904708650077298 0 0.086214248119208581 -0.31193359067875348 0 0.10049372866807189 -0.31082656242210721 0 0.096347407600029022 -0.32440529872184809 0 0.10049372866807189 -0.31082656242210721 0 0.1134387524627216 -0.31086840579325631 0 0.1082288303285789 -0.31948708523568958 0 0.10049372866807189 -0.31082656242210721 0 0.096347407600029022 -0.32440529872184809 0 0.1082288303285789 -0.31948708523568958 0 0.1093748658769356 -0.32997486192450581 0 0.096347407600029022 -0.32440529872184809 0 0.1082288303285789 -0.31948708523568958 0 0.12784456261830821 -0.36308533366748658 0 0.12609635470998201 -0.38402791619100712 0 0.113745377556003 -0.36324200547299851 0 0.1159240811174677 -0.33775964177068091 0 0.113745377556003 -0.36324200547299851 0 0.123981461538115 -0.35128285539313481 0 0.1159240811174677 -0.33775964177068091 0 0.113745377556003 -0.36324200547299851 0 0.1159240811174677 -0.33775964177068091 0 0.113745377556003 -0.36324200547299851 0 0.10211321446004019 -0.35101158716873732 0 0.12784456261830821 -0.36308533366748658 0 0.113745377556003 -0.36324200547299851 0 0.123981461538115 -0.35128285539313481 0 0.1115666739945345 -0.38872436917531578 0 0.113745377556003 -0.36324200547299851 0 0.096372132326470572 -0.36542491223168638 0 0.113745377556003 -0.36324200547299851 0 0.10211321446004019 -0.35101158716873732 0 0.096372132326470572 -0.36542491223168638 0 0.089853218628298884 -0.38394717958202601 0 0.096372132326470572 -0.36542491223168638 0 0.07582030708563034 -0.37256671738353597 0 0.096372132326470572 -0.36542491223168638 0 0.082110249222110576 -0.35466523699539548 0 0.07582030708563034 -0.37256671738353597 0 0.10211321446004019 -0.35101158716873732 0 0.096372132326470572 -0.36542491223168638 0 0.082110249222110576 -0.35466523699539548 0 0.082110249222110576 -0.35466523699539548 0 0.092335912071574502 -0.33904708650077298 0 0.068747743025681235 -0.34033453123086538 0 0.10211321446004019 -0.35101158716873732 0 0.082110249222110576 -0.35466523699539548 0 0.092335912071574502 -0.33904708650077298 0 0.082110249222110576 -0.35466523699539548 0 0.068747743025681235 -0.34033453123086538 0 0.057272186363266697 -0.35960658745677498 0 0.082110249222110576 -0.35466523699539548 0 0.07582030708563034 -0.37256671738353597 0 0.057272186363266697 -0.35960658745677498 0 0.05933500968155693 -0.37671477575793533 0 0.07582030708563034 -0.37256671738353597 0 0.057272186363266697 -0.35960658745677498 0 0.086214248119208581 -0.31193359067875348 0 0.096347407600029022 -0.32440529872184809 0 0.078030795921920637 -0.32434601069550512 0 0.092335912071574502 -0.33904708650077298 0 0.068747743025681235 -0.34033453123086538 0 0.078030795921920637 -0.32434601069550512 0 0.092335912071574502 -0.33904708650077298 0 0.068747743025681235 -0.34033453123086538 0 0.096347407600029022 -0.32440529872184809 0 0.092335912071574502 -0.33904708650077298 0 0.078030795921920637 -0.32434601069550512 0 0.068747743025681235 -0.34033453123086538 0 0.078030795921920637 -0.32434601069550512 0 0.053863538987460123 -0.3232816795844588 0 0.069967983226982527 -0.30495776272600778 0 0.078030795921920637 -0.32434601069550512 0 0.053863538987460123 -0.3232816795844588 0 0.086214248119208581 -0.31193359067875348 0 0.069967983226982527 -0.30495776272600778 0 0.078030795921920637 -0.32434601069550512 0 0.068747743025681235 -0.34033453123086538 0 0.045159573979787898 -0.34162197596095778 0 0.068747743025681235 -0.34033453123086538 0 0.053863538987460123 -0.3232816795844588 0 0.045159573979787898 -0.34162197596095778 0 0.053863538987460123 -0.3232816795844588 0 0.034832013842728909 -0.33032259781876938 0 0.045159573979787898 -0.34162197596095778 0 0.034832013842728909 -0.33032259781876938 0 0.045159573979787898 -0.34162197596095778 0 0.02157140493389462 -0.34290942069105018 0 0.045159573979787898 -0.34162197596095778 0 0.02157140493389462 -0.34290942069105018 0 0.053863538987460123 -0.3232816795844588 0 0.034832013842728909 -0.33032259781876938 0 0.03621734991660093 -0.31670946998547028 0 0.053863538987460123 -0.3232816795844588 0 0.03621734991660093 -0.31670946998547028 0 0.048768037075517537 -0.30442990221103089 0 0.05933500968155693 -0.37671477575793533 0 0.057272186363266697 -0.35960658745677498 0 0.039079294002052851 -0.37065651216905859 0 0.068747743025681235 -0.34033453123086538 0 0.045159573979787898 -0.34162197596095778 0 0.057272186363266697 -0.35960658745677498 0 0.045159573979787898 -0.34162197596095778 0 0.034512899630155462 -0.3545258348651717 0 0.02157140493389462 -0.34290942069105018 0 0.045159573979787898 -0.34162197596095778 0 0.057272186363266697 -0.35960658745677498 0 0.034512899630155462 -0.3545258348651717 0 0.057272186363266697 -0.35960658745677498 0 0.034512899630155462 -0.3545258348651717 0 0.039079294002052851 -0.37065651216905859 0 0.025542853711361019 -0.38384675294920401 0 0.039079294002052851 -0.37065651216905859 0 0.016784443680880379 -0.36713146693108112 0 0.034512899630155462 -0.3545258348651717 0 0.039079294002052851 -0.37065651216905859 0 0.016784443680880379 -0.36713146693108112 0 0.034512899630155462 -0.3545258348651717 0 0.016784443680880379 -0.36713146693108112 0 0.02157140493389462 -0.34290942069105018 0 -0.0043130761299947744 -0.35643483176966217 0 0.016784443680880379 -0.36713146693108112 0 0.02157140493389462 -0.34290942069105018 0 -0.0038616663111063101 -0.33241552487502413 0 -0.0043130761299947744 -0.35643483176966217 0 0.02157140493389462 -0.34290942069105018 0 -0.0043130761299947744 -0.35643483176966217 0 -0.0064694903547723136 -0.38059021958606692 0 0.016784443680880379 -0.36713146693108112 0 0.03621734991660093 -0.31670946998547028 0 0.020048637459846991 -0.32439583124448262 0 0.029165048793799431 -0.30349547286963757 0 0.034832013842728909 -0.33032259781876938 0 0.03621734991660093 -0.31670946998547028 0 0.020048637459846991 -0.32439583124448262 0 0.020048637459846991 -0.32439583124448262 0 0.0094652366165251054 -0.31053241408104548 0 0.029165048793799431 -0.30349547286963757 0 0.034832013842728909 -0.33032259781876938 0 0.020048637459846991 -0.32439583124448262 0 0.02157140493389462 -0.34290942069105018 0 -0.0038616663111063101 -0.33241552487502413 0 0.020048637459846991 -0.32439583124448262 0 0.02157140493389462 -0.34290942069105018 0 -0.0038616663111063101 -0.33241552487502413 0 0.020048637459846991 -0.32439583124448262 0 0.0094652366165251054 -0.31053241408104548 0 -0.01007927323019326 -0.3103345258507364 0 0.0094652366165251054 -0.31053241408104548 0 0.0017563221397047381 -0.2997067901486577 0 0.0094652366165251054 -0.31053241408104548 0 0.0017563221397047381 -0.2997067901486577 0 0.017453688627786131 -0.29322190620108468 0 0.0017563221397047381 -0.2997067901486577 0 0.0066437179820165657 -0.2861171845936395 0 0.017453688627786131 -0.29322190620108468 0 -0.0080748459131490501 -0.2914060437848453 0 0.0017563221397047381 -0.2997067901486577 0 0.0066437179820165657 -0.2861171845936395 0 0.0066437179820165657 -0.2861171845936395 0 0.017453688627786131 -0.29322190620108468 0 0.01908241754038794 -0.28073467218482329 0 0.017453688627786131 -0.29322190620108468 0 0.029398966714908509 -0.28692964748338379 0 0.029165048793799431 -0.30349547286963757 0 0.017453688627786131 -0.29322190620108468 0 0.029398966714908509 -0.28692964748338379 0 0.01908241754038794 -0.28073467218482329 0 0.0094652366165251054 -0.31053241408104548 0 0.017453688627786131 -0.29322190620108468 0 0.029165048793799431 -0.30349547286963757 0 0.03621734991660093 -0.31670946998547028 0 0.029165048793799431 -0.30349547286963757 0 0.048768037075517537 -0.30442990221103089 0 0.029165048793799431 -0.30349547286963757 0 0.043029943860180789 -0.28970337243015992 0 0.048768037075517537 -0.30442990221103089 0 0.029398966714908509 -0.28692964748338379 0 0.029165048793799431 -0.30349547286963757 0 0.043029943860180789 -0.28970337243015992 0 0.029398966714908509 -0.28692964748338379 0 0.043029943860180789 -0.28970337243015992 0 0.038396769586432553 -0.27977596087564799 0 0.043029943860180789 -0.28970337243015992 0 0.051749435803858171 -0.27840569125857739 0 0.038396769586432553 -0.27977596087564799 0 0.043029943860180789 -0.28970337243015992 0 0.059449054433483903 -0.28956707473318272 0 0.051749435803858171 -0.27840569125857739 0 0.043029943860180789 -0.28970337243015992 0 0.059449054433483903 -0.28956707473318272 0 0.048768037075517537 -0.30442990221103089 0 0.069967983226982527 -0.30495776272600778 0 0.059449054433483903 -0.28956707473318272 0 0.048768037075517537 -0.30442990221103089 0 0.069967983226982527 -0.30495776272600778 0 0.053863538987460123 -0.3232816795844588 0 0.048768037075517537 -0.30442990221103089 0 0.053380735395516472 -0.25867595766617779 0 0.04428054005230446 -0.26275141268032309 0 0.045372505498807933 -0.25408090721008542 0 0.053380735395516472 -0.25867595766617779 0 0.053158010572478251 -0.26777612517812432 0 0.04428054005230446 -0.26275141268032309 0 0.053380735395516472 -0.25867595766617779 0 0.045372505498807933 -0.25408090721008542 0 0.05268811686830014 -0.24901610311096159 0 0.053380735395516472 -0.25867595766617779 0 0.061490933840310687 -0.25382890142296882 0 0.05268811686830014 -0.24901610311096159 0 0.053380735395516472 -0.25867595766617779 0 0.060614126731859473 -0.2624009925450973 0 0.053158010572478251 -0.26777612517812432 0 0.053380735395516472 -0.25867595766617779 0 0.061490933840310687 -0.25382890142296882 0 0.060614126731859473 -0.2624009925450973 0 0.0646939085167762 -0.2722383315448984 0 0.060614126731859473 -0.2624009925450973 0 0.053158010572478251 -0.26777612517812432 0 0.0646939085167762 -0.2722383315448984 0 0.059449054433483903 -0.28956707473318272 0 0.051749435803858171 -0.27840569125857739 0 0.0646939085167762 -0.2722383315448984 0 0.051749435803858171 -0.27840569125857739 0 0.053158010572478251 -0.26777612517812432 0 0.053158010572478251 -0.26777612517812432 0 0.044229316934554799 -0.27218436537367241 0 0.04428054005230446 -0.26275141268032309 0 0.051749435803858171 -0.27840569125857739 0 0.053158010572478251 -0.26777612517812432 0 0.044229316934554799 -0.27218436537367241 0 0.044229316934554799 -0.27218436537367241 0 0.031885251388666561 -0.26470215361104171 0 0.04428054005230446 -0.26275141268032309 0 0.051749435803858171 -0.27840569125857739 0 0.044229316934554799 -0.27218436537367241 0 0.038396769586432553 -0.27977596087564799 0 0.044229316934554799 -0.27218436537367241 0 0.038396769586432553 -0.27977596087564799 0 0.029696712261103771 -0.27487286106778819 0 0.029398966714908509 -0.28692964748338379 0 0.038396769586432553 -0.27977596087564799 0 0.029696712261103771 -0.27487286106778819 0 0.044229316934554799 -0.27218436537367241 0 0.031885251388666561 -0.26470215361104171 0 0.029696712261103771 -0.27487286106778819 0 0.037315510146954597 -0.25849363249326118 0 0.031885251388666561 -0.26470215361104171 0 0.04428054005230446 -0.26275141268032309 0 0.037315510146954597 -0.25849363249326118 0 0.031885251388666561 -0.26470215361104171 0 0.03069464768829987 -0.25176037071845259 0 0.037315510146954597 -0.25849363249326118 0 0.04428054005230446 -0.26275141268032309 0 0.045372505498807933 -0.25408090721008542 0 0.045372505498807933 -0.25408090721008542 0 0.03069464768829987 -0.25176037071845259 0 0.042588116356466379 -0.2448823624008481 0 0.037315510146954597 -0.25849363249326118 0 0.045372505498807933 -0.25408090721008542 0 0.03069464768829987 -0.25176037071845259 0 0.031885251388666561 -0.26470215361104171 0 0.021199614426200629 -0.26114166245967918 0 0.019908913466960752 -0.27058631964059482 0 0.031885251388666561 -0.26470215361104171 0 0.03069464768829987 -0.25176037071845259 0 0.021199614426200629 -0.26114166245967918 0 0.03069464768829987 -0.25176037071845259 0 0.021199614426200629 -0.26114166245967918 0 0.016145176335298529 -0.25210595968411048 0 0.029398966714908509 -0.28692964748338379 0 0.029696712261103771 -0.27487286106778819 0 0.01908241754038794 -0.28073467218482329 0 0.031885251388666561 -0.26470215361104171 0 0.029696712261103771 -0.27487286106778819 0 0.019908913466960752 -0.27058631964059482 0 0.019908913466960752 -0.27058631964059482 0 0.01908241754038794 -0.28073467218482329 0 0.01128192931255503 -0.27464126756021451 0 0.029696712261103771 -0.27487286106778819 0 0.019908913466960752 -0.27058631964059482 0 0.01908241754038794 -0.28073467218482329 0 -0.01145854626600548 -0.26602311564559261 0 0.01128192931255503 -0.27464126756021451 0 0.0057158633005241696 -0.26337829885565528 0 0.0066437179820165657 -0.2861171845936395 0 0.01908241754038794 -0.28073467218482329 0 0.01128192931255503 -0.27464126756021451 0 0.019908913466960752 -0.27058631964059482 0 0.01128192931255503 -0.27464126756021451 0 0.0057158633005241696 -0.26337829885565528 0 -0.002848760243290064 -0.27761611820401882 0 0.0066437179820165657 -0.2861171845936395 0 0.01128192931255503 -0.27464126756021451 0 0.016145176335298529 -0.25210595968411048 0 0.0057158633005241696 -0.26337829885565528 0 0.0054759062840018038 -0.25064707341720888 0 0.021199614426200629 -0.26114166245967918 0 0.019908913466960752 -0.27058631964059482 0 0.0057158633005241696 -0.26337829885565528 0 0.021199614426200629 -0.26114166245967918 0 0.016145176335298529 -0.25210595968411048 0 0.0057158633005241696 -0.26337829885565528 0 -0.0009620894167222515 -0.25496392916579452 0 0.0057158633005241696 -0.26337829885565528 0 0.0054759062840018038 -0.25064707341720888 0 -0.0009620894167222515 -0.25496392916579452 0 -0.0029313858115674811 -0.24854412401401971 0 0.0054759062840018038 -0.25064707341720888 0 0.0054759062840018038 -0.25064707341720888 0 0.0026199421412959989 -0.2430643023623929 0 0.011589873569895199 -0.24127835128668559 0 -0.0029313858115674811 -0.24854412401401971 0 0.0054759062840018038 -0.25064707341720888 0 0.0026199421412959989 -0.2430643023623929 0 0.016145176335298529 -0.25210595968411048 0 0.0054759062840018038 -0.25064707341720888 0 0.011589873569895199 -0.24127835128668559 0 0.011589873569895199 -0.24127835128668559 0 0.010668172172219499 -0.2272828987723072 0 0.020574075722817331 -0.2351284197632682 0 0.0026199421412959989 -0.2430643023623929 0 0.011589873569895199 -0.24127835128668559 0 0.0017465435191736189 -0.23378549097037141 0 -0.00080535468136348092 -0.21995366459000901 0 0.010668172172219499 -0.2272828987723072 0 0.01016515501406726 -0.20926501301563591 0 -0.00080535468136348092 -0.21995366459000901 0 0.0017465435191736189 -0.23378549097037141 0 0.010668172172219499 -0.2272828987723072 0 0.010668172172219499 -0.2272828987723072 0 0.02170661161633574 -0.22145314359659171 0 0.01016515501406726 -0.20926501301563591 0 0.011589873569895199 -0.24127835128668559 0 0.0017465435191736189 -0.23378549097037141 0 0.010668172172219499 -0.2272828987723072 0 0.010668172172219499 -0.2272828987723072 0 0.02170661161633574 -0.22145314359659171 0 0.020574075722817331 -0.2351284197632682 0 0.02170661161633574 -0.22145314359659171 0 0.02866695829179056 -0.22960637228307629 0 0.036392787169896093 -0.22322562645731159 0 0.02170661161633574 -0.22145314359659171 0 0.02866695829179056 -0.22960637228307629 0 0.020574075722817331 -0.2351284197632682 0 0.02866695829179056 -0.22960637228307629 0 0.020574075722817331 -0.2351284197632682 0 0.032071787069821417 -0.24054619649286721 0 0.022195152742869501 -0.2444300013669817 0 0.020574075722817331 -0.2351284197632682 0 0.032071787069821417 -0.24054619649286721 0 0.03069464768829987 -0.25176037071845259 0 0.022195152742869501 -0.2444300013669817 0 0.032071787069821417 -0.24054619649286721 0 0.03069464768829987 -0.25176037071845259 0 0.016145176335298529 -0.25210595968411048 0 0.022195152742869501 -0.2444300013669817 0 0.016145176335298529 -0.25210595968411048 0 0.011589873569895199 -0.24127835128668559 0 0.022195152742869501 -0.2444300013669817 0 0.011589873569895199 -0.24127835128668559 0 0.022195152742869501 -0.2444300013669817 0 0.020574075722817331 -0.2351284197632682 0 -0.003739977245034012 -0.19168309442994089 0 0.010514116253606281 -0.1925853606064957 0 0.01016515501406726 -0.20926501301563591 0 0.010514116253606281 -0.1925853606064957 0 0.01016515501406726 -0.20926501301563591 0 0.018596641755985681 -0.20049862993462389 0 0.02170661161633574 -0.22145314359659171 0 0.01016515501406726 -0.20926501301563591 0 0.028304225500431591 -0.20785134554231141 0 0.01016515501406726 -0.20926501301563591 0 0.028304225500431591 -0.20785134554231141 0 0.018596641755985681 -0.20049862993462389 0 0.02170661161633574 -0.22145314359659171 0 0.028304225500431591 -0.20785134554231141 0 0.036392787169896093 -0.22322562645731159 0 0.028304225500431591 -0.20785134554231141 0 0.018596641755985681 -0.20049862993462389 0 0.02540307025583758 -0.19229280057405279 0 0.010514116253606281 -0.1925853606064957 0 0.018596641755985681 -0.20049862993462389 0 0.02540307025583758 -0.19229280057405279 0 0.010514116253606281 -0.1925853606064957 0 0.02540307025583758 -0.19229280057405279 0 0.015764016274472759 -0.1812646672695073 0 0.02540307025583758 -0.19229280057405279 0 0.041440672425083092 -0.19607701236864419 0 0.030421272951226121 -0.1778391783376792 0 0.028304225500431591 -0.20785134554231141 0 0.02540307025583758 -0.19229280057405279 0 0.041440672425083092 -0.19607701236864419 0 0.041440672425083092 -0.19607701236864419 0 0.042310424588804782 -0.2140630995529598 0 0.055497750511994078 -0.2086068857692274 0 0.028304225500431591 -0.20785134554231141 0 0.041440672425083092 -0.19607701236864419 0 0.042310424588804782 -0.2140630995529598 0 0.028304225500431591 -0.20785134554231141 0 0.042310424588804782 -0.2140630995529598 0 0.036392787169896093 -0.22322562645731159 0 0.042310424588804782 -0.2140630995529598 0 0.055497750511994078 -0.2086068857692274 0 0.052955454276687589 -0.2198291654371925 0 0.062338921595789062 -0.21792006704763969 0 0.055497750511994078 -0.2086068857692274 0 0.052955454276687589 -0.2198291654371925 0 0.062338921595789062 -0.21792006704763969 0 0.055497750511994078 -0.2086068857692274 0 0.067863046951983474 -0.20503048868511209 0 0.055497750511994078 -0.2086068857692274 0 0.056257937900538298 -0.19577788601322099 0 0.067863046951983474 -0.20503048868511209 0 0.041440672425083092 -0.19607701236864419 0 0.056257937900538298 -0.19577788601322099 0 0.051449240160577621 -0.1762857105508405 0 0.041440672425083092 -0.19607701236864419 0 0.055497750511994078 -0.2086068857692274 0 0.056257937900538298 -0.19577788601322099 0 0.040491861427302538 -0.2355872617630255 0 0.042588116356466379 -0.2448823624008481 0 0.052307832003780613 -0.23884346229351339 0 0.040491861427302538 -0.2355872617630255 0 0.045866106706223042 -0.22907627795895011 0 0.052307832003780613 -0.23884346229351339 0 0.03069464768829987 -0.25176037071845259 0 0.042588116356466379 -0.2448823624008481 0 0.032071787069821417 -0.24054619649286721 0 0.040491861427302538 -0.2355872617630255 0 0.042588116356466379 -0.2448823624008481 0 0.032071787069821417 -0.24054619649286721 0 0.02866695829179056 -0.22960637228307629 0 0.040491861427302538 -0.2355872617630255 0 0.032071787069821417 -0.24054619649286721 0 0.02866695829179056 -0.22960637228307629 0 0.040491861427302538 -0.2355872617630255 0 0.036392787169896093 -0.22322562645731159 0 0.042310424588804782 -0.2140630995529598 0 0.036392787169896093 -0.22322562645731159 0 0.045866106706223042 -0.22907627795895011 0 0.040491861427302538 -0.2355872617630255 0 0.036392787169896093 -0.22322562645731159 0 0.045866106706223042 -0.22907627795895011 0 0.045866106706223042 -0.22907627795895011 0 0.058764067980626958 -0.22947949685718549 0 0.052307832003780613 -0.23884346229351339 0 0.045866106706223042 -0.22907627795895011 0 0.052955454276687589 -0.2198291654371925 0 0.058764067980626958 -0.22947949685718549 0 0.042310424588804782 -0.2140630995529598 0 0.045866106706223042 -0.22907627795895011 0 0.052955454276687589 -0.2198291654371925 0 0.062338921595789062 -0.21792006704763969 0 0.058764067980626958 -0.22947949685718549 0 0.065719467571416057 -0.22489822263154319 0 0.062338921595789062 -0.21792006704763969 0 0.052955454276687589 -0.2198291654371925 0 0.058764067980626958 -0.22947949685718549 0 0.058764067980626958 -0.22947949685718549 0 0.062159259289524899 -0.2368834247622158 0 0.052307832003780613 -0.23884346229351339 0 0.062159259289524899 -0.2368834247622158 0 0.052307832003780613 -0.23884346229351339 0 0.061229972926465738 -0.2445427902389527 0 0.045372505498807933 -0.25408090721008542 0 0.042588116356466379 -0.2448823624008481 0 0.05268811686830014 -0.24901610311096159 0 0.042588116356466379 -0.2448823624008481 0 0.052307832003780613 -0.23884346229351339 0 0.05268811686830014 -0.24901610311096159 0 0.061490933840310687 -0.25382890142296882 0 0.05268811686830014 -0.24901610311096159 0 0.061229972926465738 -0.2445427902389527 0 0.052307832003780613 -0.23884346229351339 0 0.05268811686830014 -0.24901610311096159 0 0.061229972926465738 -0.2445427902389527 0 0.061490933840310687 -0.25382890142296882 0 0.061229972926465738 -0.2445427902389527 0 0.070069103552599196 -0.24823964670048029 0 0.061229972926465738 -0.2445427902389527 0 0.070069103552599196 -0.24823964670048029 0 0.069856411684105391 -0.23913895996007839 0 0.062159259289524899 -0.2368834247622158 0 0.061229972926465738 -0.2445427902389527 0 0.069856411684105391 -0.23913895996007839 0 0.062159259289524899 -0.2368834247622158 0 0.069856411684105391 -0.23913895996007839 0 0.067142239376285745 -0.23139328163069281 0 0.069856411684105391 -0.23913895996007839 0 0.077788170153509889 -0.24196191377257101 0 0.076767606518392539 -0.23187249677345001 0 0.080071368274292315 -0.25145738896057979 0 0.070069103552599196 -0.24823964670048029 0 0.077788170153509889 -0.24196191377257101 0 0.070069103552599196 -0.24823964670048029 0 0.069856411684105391 -0.23913895996007839 0 0.077788170153509889 -0.24196191377257101 0 0.080071368274292315 -0.25145738896057979 0 0.090706365013478091 -0.25245448435890872 0 0.085906732882507178 -0.24385162082211831 0 0.080071368274292315 -0.25145738896057979 0 0.077788170153509889 -0.24196191377257101 0 0.085906732882507178 -0.24385162082211831 0 0.077788170153509889 -0.24196191377257101 0 0.085906732882507178 -0.24385162082211831 0 0.083256636250354649 -0.23616880796388259 0 0.077788170153509889 -0.24196191377257101 0 0.083256636250354649 -0.23616880796388259 0 0.076767606518392539 -0.23187249677345001 0 0.085906732882507178 -0.24385162082211831 0 0.089657973372422345 -0.23730775202069579 0 0.094006026236525903 -0.2441335510050745 0 0.085906732882507178 -0.24385162082211831 0 0.083256636250354649 -0.23616880796388259 0 0.089657973372422345 -0.23730775202069579 0 0.083256636250354649 -0.23616880796388259 0 0.089657973372422345 -0.23730775202069579 0 0.089763789457938253 -0.2306791647953326 0 0.089657973372422345 -0.23730775202069579 0 0.089763789457938253 -0.2306791647953326 0 0.096012267649498176 -0.23702186761809721 0 0.089657973372422345 -0.23730775202069579 0 0.094006026236525903 -0.2441335510050745 0 0.096012267649498176 -0.23702186761809721 0 0.090706365013478091 -0.25245448435890872 0 0.085906732882507178 -0.24385162082211831 0 0.094006026236525903 -0.2441335510050745 0 0.086446736705125371 -0.22420087797706609 0 0.091303359373345411 -0.22339335178318359 0 0.089763789457938253 -0.2306791647953326 0 0.086446736705125371 -0.22420087797706609 0 0.091303359373345411 -0.22339335178318359 0 0.086853981468707001 -0.2185547472363609 0 0.091303359373345411 -0.22339335178318359 0 0.086853981468707001 -0.2185547472363609 0 0.09077468002378962 -0.21857675351640271 0 0.091303359373345411 -0.22339335178318359 0 0.09077468002378962 -0.21857675351640271 0 0.094530837428433365 -0.22086489816084981 0 0.091303359373345411 -0.22339335178318359 0 0.089763789457938253 -0.2306791647953326 0 0.098670227838192195 -0.22970514568366851 0 0.086446736705125371 -0.22420087797706609 0 0.089763789457938253 -0.2306791647953326 0 0.083020570332336119 -0.22791650227557511 0 0.083256636250354649 -0.23616880796388259 0 0.083020570332336119 -0.22791650227557511 0 0.076767606518392539 -0.23187249677345001 0 0.083256636250354649 -0.23616880796388259 0 0.089763789457938253 -0.2306791647953326 0 0.083020570332336119 -0.22791650227557511 0 0.083020570332336119 -0.22791650227557511 0 0.077930889523722374 -0.22519622511208121 0 0.076767606518392539 -0.23187249677345001 0 0.083020570332336119 -0.22791650227557511 0 0.081291982893300085 -0.22046062379487821 0 0.077930889523722374 -0.22519622511208121 0 0.086446736705125371 -0.22420087797706609 0 0.083020570332336119 -0.22791650227557511 0 0.081291982893300085 -0.22046062379487821 0 0.086446736705125371 -0.22420087797706609 0 0.081291982893300085 -0.22046062379487821 0 0.086853981468707001 -0.2185547472363609 0 0.081291982893300085 -0.22046062379487821 0 0.077930889523722374 -0.22519622511208121 0 0.073706539318973169 -0.21796036257100029 0 0.072234091795087663 -0.22574485878751241 0 0.065719467571416057 -0.22489822263154319 0 0.073706539318973169 -0.21796036257100029 0 0.077930889523722374 -0.22519622511208121 0 0.072234091795087663 -0.22574485878751241 0 0.073706539318973169 -0.21796036257100029 0 0.069856411684105391 -0.23913895996007839 0 0.076767606518392539 -0.23187249677345001 0 0.067142239376285745 -0.23139328163069281 0 0.072234091795087663 -0.22574485878751241 0 0.076767606518392539 -0.23187249677345001 0 0.067142239376285745 -0.23139328163069281 0 0.077930889523722374 -0.22519622511208121 0 0.072234091795087663 -0.22574485878751241 0 0.076767606518392539 -0.23187249677345001 0 0.058764067980626958 -0.22947949685718549 0 0.062159259289524899 -0.2368834247622158 0 0.067142239376285745 -0.23139328163069281 0 0.058764067980626958 -0.22947949685718549 0 0.067142239376285745 -0.23139328163069281 0 0.065719467571416057 -0.22489822263154319 0 0.072234091795087663 -0.22574485878751241 0 0.067142239376285745 -0.23139328163069281 0 0.065719467571416057 -0.22489822263154319 0 0.062338921595789062 -0.21792006704763969 0 0.065719467571416057 -0.22489822263154319 0 0.073706539318973169 -0.21796036257100029 0 0.062338921595789062 -0.21792006704763969 0 0.067863046951983474 -0.20503048868511209 0 0.073706539318973169 -0.21796036257100029 0 0.067863046951983474 -0.20503048868511209 0 0.073706539318973169 -0.21796036257100029 0 0.079094442607528917 -0.20913243433380641 0 0.067863046951983474 -0.20503048868511209 0 0.081482512553192915 -0.1953056794767786 0 0.079094442607528917 -0.20913243433380641 0 0.056257937900538298 -0.19577788601322099 0 0.067863046951983474 -0.20503048868511209 0 0.066040058368007956 -0.18964665730407451 0 0.067863046951983474 -0.20503048868511209 0 0.066040058368007956 -0.18964665730407451 0 0.081482512553192915 -0.1953056794767786 0 0.081482512553192915 -0.1953056794767786 0 0.095454742848087734 -0.19451486061966669 0 0.093505174579280592 -0.1731787749771625 0 0.081482512553192915 -0.1953056794767786 0 0.08833530696517819 -0.21036332105093219 0 0.095454742848087734 -0.19451486061966669 0 0.08833530696517819 -0.21036332105093219 0 0.097404311116896569 -0.21585094626217091 0 0.095454742848087734 -0.19451486061966669 0 0.081291982893300085 -0.22046062379487821 0 0.073706539318973169 -0.21796036257100029 0 0.082946926161669862 -0.2149195339015407 0 0.082946926161669862 -0.2149195339015407 0 0.079094442607528917 -0.20913243433380641 0 0.08833530696517819 -0.21036332105093219 0 0.073706539318973169 -0.21796036257100029 0 0.082946926161669862 -0.2149195339015407 0 0.079094442607528917 -0.20913243433380641 0 0.081291982893300085 -0.22046062379487821 0 0.082946926161669862 -0.2149195339015407 0 0.086853981468707001 -0.2185547472363609 0 0.081482512553192915 -0.1953056794767786 0 0.079094442607528917 -0.20913243433380641 0 0.08833530696517819 -0.21036332105093219 0 0.082946926161669862 -0.2149195339015407 0 0.08833530696517819 -0.21036332105093219 0 0.086853981468707001 -0.2185547472363609 0 0.08833530696517819 -0.21036332105093219 0 0.086853981468707001 -0.2185547472363609 0 0.09077468002378962 -0.21857675351640271 0 0.08833530696517819 -0.21036332105093219 0 0.09077468002378962 -0.21857675351640271 0 0.092213447725184278 -0.21529843562297729 0 0.08833530696517819 -0.21036332105093219 0 0.092213447725184278 -0.21529843562297729 0 0.097404311116896569 -0.21585094626217091 0 0.09077468002378962 -0.21857675351640271 0 0.094501608789943028 -0.21679829355882299 0 0.094530837428433365 -0.22086489816084981 0 0.09077468002378962 -0.21857675351640271 0 0.092213447725184278 -0.21529843562297729 0 0.094501608789943028 -0.21679829355882299 0 0.094501608789943028 -0.21679829355882299 0 0.097404311116896569 -0.21585094626217091 0 0.094530837428433365 -0.22086489816084981 0 0.092213447725184278 -0.21529843562297729 0 0.094501608789943028 -0.21679829355882299 0 0.097404311116896569 -0.21585094626217091 0 0.097404311116896569 -0.21585094626217091 0 0.095454742848087734 -0.19451486061966669 0 0.097404311116896569 -0.21585094626217091 0 0.1059898830346106 -0.20430933332548051 0 0.095454742848087734 -0.19451486061966669 0 0.097404311116896569 -0.21585094626217091 0 0.1089347031997706 -0.21297733173581901 0 0.1146171121197104 -0.21980430615730401 0 0.097404311116896569 -0.21585094626217091 0 0.1059898830346106 -0.20430933332548051 0 0.1089347031997706 -0.21297733173581901 0 0.095454742848087734 -0.19451486061966669 0 0.1128143282819509 -0.19216489626002589 0 0.10772522460311169 -0.17968171223372481 0 0.1059898830346106 -0.20430933332548051 0 0.095454742848087734 -0.19451486061966669 0 0.1128143282819509 -0.19216489626002589 0 0.1128143282819509 -0.19216489626002589 0 0.1237689835273371 -0.19605207676116951 0 0.1178461100078927 -0.20838697738218431 0 0.1059898830346106 -0.20430933332548051 0 0.1128143282819509 -0.19216489626002589 0 0.1178461100078927 -0.20838697738218431 0 0.1128143282819509 -0.19216489626002589 0 0.1237689835273371 -0.19605207676116951 0 0.1232013989280239 -0.1819146573535104 0 0.1089347031997706 -0.21297733173581901 0 0.1178461100078927 -0.20838697738218431 0 0.1146171121197104 -0.21980430615730401 0 0.1059898830346106 -0.20430933332548051 0 0.1089347031997706 -0.21297733173581901 0 0.1178461100078927 -0.20838697738218431 0 0.1178461100078927 -0.20838697738218431 0 0.1146171121197104 -0.21980430615730401 0 0.12895394136930069 -0.22163642029703709 0 0.1146171121197104 -0.21980430615730401 0 0.12018370186474731 -0.23305432747703519 0 0.12895394136930069 -0.22163642029703709 0 0.097404311116896569 -0.21585094626217091 0 0.1146171121197104 -0.21980430615730401 0 0.12018370186474731 -0.23305432747703519 0 0.1212054647883809 -0.25073068226796852 0 0.12018370186474731 -0.23305432747703519 0 0.1059281586602189 -0.23527494890652931 0 0.13217397618885759 -0.25462043987800831 0 0.1212054647883809 -0.25073068226796852 0 0.12018370186474731 -0.23305432747703519 0 0.1212054647883809 -0.25073068226796852 0 0.1059281586602189 -0.23527494890652931 0 0.1078238037173969 -0.24832262031645649 0 0.1212054647883809 -0.25073068226796852 0 0.1059281586602189 -0.23527494890652931 0 0.099550463170151926 -0.25262580003909579 0 0.1078238037173969 -0.24832262031645649 0 0.10103467245524091 -0.24298905409433241 0 0.1059281586602189 -0.23527494890652931 0 0.1078238037173969 -0.24832262031645649 0 0.10103467245524091 -0.24298905409433241 0 0.099550463170151926 -0.25262580003909579 0 0.10103467245524091 -0.24298905409433241 0 0.094006026236525903 -0.2441335510050745 0 0.090706365013478091 -0.25245448435890872 0 0.099550463170151926 -0.25262580003909579 0 0.094006026236525903 -0.2441335510050745 0 0.1059281586602189 -0.23527494890652931 0 0.10103467245524091 -0.24298905409433241 0 0.096012267649498176 -0.23702186761809721 0 0.10103467245524091 -0.24298905409433241 0 0.094006026236525903 -0.2441335510050745 0 0.096012267649498176 -0.23702186761809721 0 0.1059281586602189 -0.23527494890652931 0 0.096012267649498176 -0.23702186761809721 0 0.098670227838192195 -0.22970514568366851 0 0.089763789457938253 -0.2306791647953326 0 0.096012267649498176 -0.23702186761809721 0 0.098670227838192195 -0.22970514568366851 0 0.097404311116896569 -0.21585094626217091 0 0.12018370186474731 -0.23305432747703519 0 0.097404311116896569 -0.21585094626217091 0 0.12018370186474731 -0.23305432747703519 0 0.1059281586602189 -0.23527494890652931 0 0.097404311116896569 -0.21585094626217091 0 0.1059281586602189 -0.23527494890652931 0 0.098670227838192195 -0.22970514568366851 0 0.091303359373345411 -0.22339335178318359 0 0.098670227838192195 -0.22970514568366851 0 0.094530837428433365 -0.22086489816084981 0 0.097404311116896569 -0.21585094626217091 0 0.098670227838192195 -0.22970514568366851 0 0.094530837428433365 -0.22086489816084981 0 0.097404311116896569 -0.21585094626217091 0 0.098670227838192195 -0.22970514568366851 0 0.1071373084330472 -0.14482826815459701 0 0.1035248479174861 -0.15311019857333261 0 0.098760878024456711 -0.14050656481393209 0 0.1071373084330472 -0.14482826815459701 0 0.1035248479174861 -0.15311019857333261 0 0.1121477659277255 -0.1503271840913511 0 0.1035248479174861 -0.15311019857333261 0 0.098760878024456711 -0.14050656481393209 0 0.091560400862706559 -0.15189516094014111 0 0.098760878024456711 -0.14050656481393209 0 0.099399694252258627 -0.1328638184600745 0 0.089615627146132512 -0.13061154690311971 0 0.099399694252258627 -0.1328638184600745 0 0.099525338641528904 -0.12611341339503321 0 0.089615627146132512 -0.13061154690311971 0 0.099525338641528904 -0.12611341339503321 0 0.1096969331969164 -0.13422374872821319 0 0.1121708616464093 -0.1216807098986791 0 0.099399694252258627 -0.1328638184600745 0 0.099525338641528904 -0.12611341339503321 0 0.1096969331969164 -0.13422374872821319 0 0.098760878024456711 -0.14050656481393209 0 0.099399694252258627 -0.1328638184600745 0 0.1096969331969164 -0.13422374872821319 0 0.1071373084330472 -0.14482826815459701 0 0.098760878024456711 -0.14050656481393209 0 0.1096969331969164 -0.13422374872821319 0 0.1096969331969164 -0.13422374872821319 0 0.1155243526086871 -0.14484298486410191 0 0.12532898621889721 -0.13663811256420449 0 0.1096969331969164 -0.13422374872821319 0 0.11997683785091839 -0.1276371159963853 0 0.12532898621889721 -0.13663811256420449 0 0.1096969331969164 -0.13422374872821319 0 0.11997683785091839 -0.1276371159963853 0 0.1121708616464093 -0.1216807098986791 0 0.1217036921304827 -0.1482443959076799 0 0.1155243526086871 -0.14484298486410191 0 0.12532898621889721 -0.13663811256420449 0 0.1217036921304827 -0.1482443959076799 0 0.1155243526086871 -0.14484298486410191 0 0.1179114041550178 -0.15136128022523329 0 0.1071373084330472 -0.14482826815459701 0 0.1155243526086871 -0.14484298486410191 0 0.1121477659277255 -0.1503271840913511 0 0.1071373084330472 -0.14482826815459701 0 0.1096969331969164 -0.13422374872821319 0 0.1155243526086871 -0.14484298486410191 0 0.1035248479174861 -0.15311019857333261 0 0.1121477659277255 -0.1503271840913511 0 0.1169082366172023 -0.15609331882735419 0 0.1155243526086871 -0.14484298486410191 0 0.1121477659277255 -0.1503271840913511 0 0.1179114041550178 -0.15136128022523329 0 0.1121477659277255 -0.1503271840913511 0 0.1169082366172023 -0.15609331882735419 0 0.1179114041550178 -0.15136128022523329 0 0.1169082366172023 -0.15609331882735419 0 0.1179114041550178 -0.15136128022523329 0 0.12324902196630889 -0.15465793599018671 0 0.1217036921304827 -0.1482443959076799 0 0.1179114041550178 -0.15136128022523329 0 0.12324902196630889 -0.15465793599018671 0 0.1217036921304827 -0.1482443959076799 0 0.12324902196630889 -0.15465793599018671 0 0.12831016946945831 -0.1492440347933528 0 0.1035248479174861 -0.15311019857333261 0 0.12443417021765769 -0.1709717485187108 0 0.1227471198665283 -0.15880086614903269 0 0.12098675462827781 -0.16200852072179159 0 0.1290045142054978 -0.1612372837293575 0 0.1035248479174861 -0.15311019857333261 0 0.12443417021765769 -0.1709717485187108 0 0.12083528946942131 -0.1711597280255607 0 0.1035248479174861 -0.15311019857333261 0 0.12098675462827781 -0.16200852072179159 0 0.12443417021765769 -0.1709717485187108 0 0.1035248479174861 -0.15311019857333261 0 0.1169082366172023 -0.15609331882735419 0 0.12098675462827781 -0.16200852072179159 0 0.1169082366172023 -0.15609331882735419 0 0.1227471198665283 -0.15880086614903269 0 0.12098675462827781 -0.16200852072179159 0 0.1169082366172023 -0.15609331882735419 0 0.12324902196630889 -0.15465793599018671 0 0.1227471198665283 -0.15880086614903269 0 0.12098675462827781 -0.16200852072179159 0 0.12443417021765769 -0.1709717485187108 0 0.12715697753007521 -0.16591248018761531 0 0.1128143282819509 -0.19216489626002589 0 0.1232013989280239 -0.1819146573535104 0 0.1157139550245927 -0.18029465614444529 0 0.12083528946942131 -0.1711597280255607 0 0.1232013989280239 -0.1819146573535104 0 0.1157139550245927 -0.18029465614444529 0 0.12443417021765769 -0.1709717485187108 0 0.12083528946942131 -0.1711597280255607 0 0.1232013989280239 -0.1819146573535104 0 0.12083528946942131 -0.1711597280255607 0 0.1157139550245927 -0.18029465614444529 0 0.10772522460311169 -0.17968171223372481 0 0.1128143282819509 -0.19216489626002589 0 0.1157139550245927 -0.18029465614444529 0 0.10772522460311169 -0.17968171223372481 0 0.095454742848087734 -0.19451486061966669 0 0.10772522460311169 -0.17968171223372481 0 0.093505174579280592 -0.1731787749771625 0 0.12083528946942131 -0.1711597280255607 0 0.093505174579280592 -0.1731787749771625 0 0.095454742848087734 -0.19451486061966669 0 0.093505174579280592 -0.1731787749771625 0 0.12083528946942131 -0.1711597280255607 0 0.10772522460311169 -0.17968171223372481 0 0.093505174579280592 -0.1731787749771625 0 0.1035248479174861 -0.15311019857333261 0 0.093505174579280592 -0.1731787749771625 0 0.091560400862706559 -0.15189516094014111 0 0.1035248479174861 -0.15311019857333261 0 0.12083528946942131 -0.1711597280255607 0 0.093505174579280592 -0.1731787749771625 0 0.078133883947979807 -0.15717501910519549 0 0.093505174579280592 -0.1731787749771625 0 0.091560400862706559 -0.15189516094014111 0 0.078133883947979807 -0.15717501910519549 0 0.093505174579280592 -0.1731787749771625 0 0.072477207369929117 -0.17473224276400179 0 0.093505174579280592 -0.1731787749771625 0 0.091560400862706559 -0.15189516094014111 0 0.081482512553192915 -0.1953056794767786 0 0.093505174579280592 -0.1731787749771625 0 0.072477207369929117 -0.17473224276400179 0 0.093505174579280592 -0.1731787749771625 0 0.072477207369929117 -0.17473224276400179 0 0.066040058368007956 -0.18964665730407451 0 0.072477207369929117 -0.17473224276400179 0 0.051449240160577621 -0.1762857105508405 0 0.066040058368007956 -0.18964665730407451 0 0.081482512553192915 -0.1953056794767786 0 0.072477207369929117 -0.17473224276400179 0 0.078133883947979807 -0.15717501910519549 0 0.072477207369929117 -0.17473224276400179 0 0.063878974636528515 -0.16401540189567099 0 0.072477207369929117 -0.17473224276400179 0 0.063878974636528515 -0.16401540189567099 0 0.051449240160577621 -0.1762857105508405 0 0.078133883947979807 -0.15717501910519549 0 0.063878974636528515 -0.16401540189567099 0 0.06522271263887458 -0.15305574504012881 0 0.06522271263887458 -0.15305574504012881 0 0.069316279952888193 -0.14186668388360371 0 0.075278834721760557 -0.14616760919767161 0 0.06522271263887458 -0.15305574504012881 0 0.069316279952888193 -0.14186668388360371 0 0.05757515479497001 -0.1486962131740798 0 0.069316279952888193 -0.14186668388360371 0 0.075278834721760557 -0.14616760919767161 0 0.079765110473415279 -0.13788087003968491 0 0.078133883947979807 -0.15717501910519549 0 0.06522271263887458 -0.15305574504012881 0 0.075278834721760557 -0.14616760919767161 0 0.098760878024456711 -0.14050656481393209 0 0.091560400862706559 -0.15189516094014111 0 0.089615627146132512 -0.13061154690311971 0 0.078133883947979807 -0.15717501910519549 0 0.083611330147541921 -0.14459745320402559 0 0.091560400862706559 -0.15189516094014111 0 0.091560400862706559 -0.15189516094014111 0 0.089615627146132512 -0.13061154690311971 0 0.078133883947979807 -0.15717501910519549 0 0.075278834721760557 -0.14616760919767161 0 0.083611330147541921 -0.14459745320402559 0 0.083611330147541921 -0.14459745320402559 0 0.091560400862706559 -0.15189516094014111 0 0.089615627146132512 -0.13061154690311971 0 0.075278834721760557 -0.14616760919767161 0 0.083611330147541921 -0.14459745320402559 0 0.079765110473415279 -0.13788087003968491 0 0.099525338641528904 -0.12611341339503321 0 0.089615627146132512 -0.13061154690311971 0 0.081894058627025895 -0.12584863130967919 0 0.083611330147541921 -0.14459745320402559 0 0.089615627146132512 -0.13061154690311971 0 0.079765110473415279 -0.13788087003968491 0 0.089615627146132512 -0.13061154690311971 0 0.079765110473415279 -0.13788087003968491 0 0.081894058627025895 -0.12584863130967919 0 0.081894058627025895 -0.12584863130967919 0 0.065576399090336079 -0.13067912082877309 0 0.057907204523981459 -0.13951585418161591 0 0.081894058627025895 -0.12584863130967919 0 0.057907204523981459 -0.13951585418161591 0 0.069316279952888193 -0.14186668388360371 0 0.081894058627025895 -0.12584863130967919 0 0.057907204523981459 -0.13951585418161591 0 0.081894058627025895 -0.12584863130967919 0 0.068207364780656948 -0.12563827965844471 0 0.065576399090336079 -0.13067912082877309 0 0.069316279952888193 -0.14186668388360371 0 0.079765110473415279 -0.13788087003968491 0 0.081894058627025895 -0.12584863130967919 0 0.068207364780656948 -0.12563827965844471 0 0.065576399090336079 -0.13067912082877309 0 0.054296968429680029 -0.13171371816535249 0 0.054296968429680029 -0.13171371816535249 0 0.057907204523981459 -0.13951585418161591 0 0.034849001543539322 -0.1503583031021323 0 0.054296968429680029 -0.13171371816535249 0 0.045553716665441668 -0.12681104972785159 0 0.052448498866582129 -0.1166826243517366 0 0.065576399090336079 -0.13067912082877309 0 0.054296968429680029 -0.13171371816535249 0 0.057907204523981459 -0.13951585418161591 0 0.069316279952888193 -0.14186668388360371 0 0.057907204523981459 -0.13951585418161591 0 0.05757515479497001 -0.1486962131740798 0 0.06522271263887458 -0.15305574504012881 0 0.05757515479497001 -0.1486962131740798 0 0.052111829065281459 -0.15882829201818821 0 0.046808539919221563 -0.15014413002933799 0 0.052111829065281459 -0.15882829201818821 0 0.043031393960321331 -0.1571354857308308 0 0.05757515479497001 -0.1486962131740798 0 0.046808539919221563 -0.15014413002933799 0 0.052111829065281459 -0.15882829201818821 0 0.057907204523981459 -0.13951585418161591 0 0.05757515479497001 -0.1486962131740798 0 0.046808539919221563 -0.15014413002933799 0 0.057907204523981459 -0.13951585418161591 0 0.046808539919221563 -0.15014413002933799 0 0.033920350420936912 -0.1531830770535528 0 0.057907204523981459 -0.13951585418161591 0 0.034849001543539322 -0.1503583031021323 0 0.033920350420936912 -0.1531830770535528 0 0.054296968429680029 -0.13171371816535249 0 0.034849001543539322 -0.1503583031021323 0 0.038558521200612962 -0.14006542407622449 0 0.054296968429680029 -0.13171371816535249 0 0.034849001543539322 -0.1503583031021323 0 0.057907204523981459 -0.13951585418161591 0 0.033920350420936912 -0.1531830770535528 0 0.046808539919221563 -0.15014413002933799 0 0.040219483271594643 -0.15466785876887121 0 0.033920350420936912 -0.1531830770535528 0 0.046808539919221563 -0.15014413002933799 0 0.040219483271594643 -0.15466785876887121 0 0.043031393960321331 -0.1571354857308308 0 0.040219483271594643 -0.15466785876887121 0 0.033920350420936912 -0.1531830770535528 0 0.037117648785898759 -0.15820874226176301 0 0.034849001543539322 -0.1503583031021323 0 0.031672068294339203 -0.14528428076340441 0 0.030051573782975471 -0.15027594372919439 0 0.034849001543539322 -0.1503583031021323 0 0.033920350420936912 -0.1531830770535528 0 0.030051573782975471 -0.15027594372919439 0 0.034849001543539322 -0.1503583031021323 0 0.031672068294339203 -0.14528428076340441 0 0.038558521200612962 -0.14006542407622449 0 0.031672068294339203 -0.14528428076340441 0 0.038558521200612962 -0.14006542407622449 0 0.030566093298411881 -0.13865773310914861 0 0.054296968429680029 -0.13171371816535249 0 0.038558521200612962 -0.14006542407622449 0 0.040644455285911409 -0.1338393175667463 0 0.038558521200612962 -0.14006542407622449 0 0.040644455285911409 -0.1338393175667463 0 0.030566093298411881 -0.13865773310914861 0 0.034824944079593127 -0.12500853882757099 0 0.040644455285911409 -0.1338393175667463 0 0.030566093298411881 -0.13865773310914861 0 0.034824944079593127 -0.12500853882757099 0 0.045553716665441668 -0.12681104972785159 0 0.040644455285911409 -0.1338393175667463 0 0.054296968429680029 -0.13171371816535249 0 0.045553716665441668 -0.12681104972785159 0 0.040644455285911409 -0.1338393175667463 0 0.072477207369929117 -0.17473224276400179 0 0.051449240160577621 -0.1762857105508405 0 0.056257937900538298 -0.19577788601322099 0 0.066040058368007956 -0.18964665730407451 0 0.051449240160577621 -0.1762857105508405 0 0.063878974636528515 -0.16401540189567099 0 0.051449240160577621 -0.1762857105508405 0 0.052111829065281459 -0.15882829201818821 0 0.051449240160577621 -0.1762857105508405 0 0.052111829065281459 -0.15882829201818821 0 0.040502396519655252 -0.1663673850483231 0 0.063878974636528515 -0.16401540189567099 0 0.06522271263887458 -0.15305574504012881 0 0.052111829065281459 -0.15882829201818821 0 0.043031393960321331 -0.1571354857308308 0 0.037117648785898759 -0.15820874226176301 0 0.040502396519655252 -0.1663673850483231 0 0.052111829065281459 -0.15882829201818821 0 0.043031393960321331 -0.1571354857308308 0 0.040502396519655252 -0.1663673850483231 0 0.040219483271594643 -0.15466785876887121 0 0.043031393960321331 -0.1571354857308308 0 0.037117648785898759 -0.15820874226176301 0 0.033920350420936912 -0.1531830770535528 0 0.033509818979212957 -0.15868168045615499 0 0.027465449436243041 -0.1628752445715565 0 0.037117648785898759 -0.15820874226176301 0 0.034071859908748191 -0.1623715567021686 0 0.040502396519655252 -0.1663673850483231 0 0.033920350420936912 -0.1531830770535528 0 0.037117648785898759 -0.15820874226176301 0 0.033509818979212957 -0.15868168045615499 0 0.037117648785898759 -0.15820874226176301 0 0.033509818979212957 -0.15868168045615499 0 0.034071859908748191 -0.1623715567021686 0 0.033509818979212957 -0.15868168045615499 0 0.034071859908748191 -0.1623715567021686 0 0.027465449436243041 -0.1628752445715565 0 0.031586668938662611 -0.1691709391612749 0 0.040502396519655252 -0.1663673850483231 0 0.030421272951226121 -0.1778391783376792 0 0.034071859908748191 -0.1623715567021686 0 0.031586668938662611 -0.1691709391612749 0 0.040502396519655252 -0.1663673850483231 0 0.051449240160577621 -0.1762857105508405 0 0.040502396519655252 -0.1663673850483231 0 0.030421272951226121 -0.1778391783376792 0 0.041440672425083092 -0.19607701236864419 0 0.051449240160577621 -0.1762857105508405 0 0.030421272951226121 -0.1778391783376792 0 0.051449240160577621 -0.1762857105508405 0 0.030421272951226121 -0.1778391783376792 0 0.02540307025583758 -0.19229280057405279 0 0.015764016274472759 -0.1812646672695073 0 0.030421272951226121 -0.1778391783376792 0 0.031586668938662611 -0.1691709391612749 0 0.030421272951226121 -0.1778391783376792 0 0.021575687727073561 -0.1734893605992324 0 0.015764016274472759 -0.1812646672695073 0 0.021575687727073561 -0.1734893605992324 0 0.012676990919703311 -0.16924925594887871 0 0.015764016274472759 -0.1812646672695073 0 0.030421272951226121 -0.1778391783376792 0 0.021575687727073561 -0.1734893605992324 0 0.033920350420936912 -0.1531830770535528 0 0.009933496317892726 -0.16685029992549011 0 0.02294500892830088 -0.1542832107784407 0 0.033920350420936912 -0.1531830770535528 0 0.027465449436243041 -0.1628752445715565 0 0.009933496317892726 -0.16685029992549011 0 0.019596439448784399 -0.16744493330375371 0 0.027465449436243041 -0.1628752445715565 0 0.009933496317892726 -0.16685029992549011 0 0.033920350420936912 -0.1531830770535528 0 0.009933496317892726 -0.16685029992549011 0 0.021575687727073561 -0.1734893605992324 0 0.019596439448784399 -0.16744493330375371 0 0.012676990919703311 -0.16924925594887871 0 0.021575687727073561 -0.1734893605992324 0 0.019596439448784399 -0.16744493330375371 0 0.025540403417393751 -0.1677775419388785 0 0.031586668938662611 -0.1691709391612749 0 0.021575687727073561 -0.1734893605992324 0 0.025540403417393751 -0.1677775419388785 0 0.019596439448784399 -0.16744493330375371 0 0.025540403417393751 -0.1677775419388785 0 0.027465449436243041 -0.1628752445715565 0 0.034071859908748191 -0.1623715567021686 0 0.031586668938662611 -0.1691709391612749 0 0.027465449436243041 -0.1628752445715565 0 0.031586668938662611 -0.1691709391612749 0 0.025540403417393751 -0.1677775419388785 0 0.027465449436243041 -0.1628752445715565 0 0.009933496317892726 -0.16685029992549011 0 0.01648447247354291 -0.15404273338364399 0 0.02294500892830088 -0.1542832107784407 0 0.009933496317892726 -0.16685029992549011 0 0.01648447247354291 -0.15404273338364399 0 0.0068311679390763679 -0.1533437069849535 0 0.019596439448784399 -0.16744493330375371 0 0.009933496317892726 -0.16685029992549011 0 0.012676990919703311 -0.16924925594887871 0 0.009933496317892726 -0.16685029992549011 0 0.012676990919703311 -0.16924925594887871 0 0.0034571977838801569 -0.17702496179755631 0 0.009933496317892726 -0.16685029992549011 0 0.012676990919703311 -0.16924925594887871 0 -0.0085976242789068957 -0.177408956520272 0 0.009933496317892726 -0.16685029992549011 0 -0.0085976242789068957 -0.177408956520272 0 0.009933496317892726 -0.16685029992549011 0 0.0034571977838801569 -0.17702496179755631 0 0.015764016274472759 -0.1812646672695073 0 0.012676990919703311 -0.16924925594887871 0 0.0034571977838801569 -0.17702496179755631 0 -0.003739977245034012 -0.19168309442994089 0 0.010514116253606281 -0.1925853606064957 0 0.0034571977838801569 -0.17702496179755631 0 0.010514116253606281 -0.1925853606064957 0 0.015764016274472759 -0.1812646672695073 0 0.0034571977838801569 -0.17702496179755631 0 0.02166725362828328 -0.1398342401410575 0 0.019282665512654749 -0.1297026577714144 0 0.01241268948209219 -0.14437852502616319 0 0.034824944079593127 -0.12500853882757099 0 0.019282665512654749 -0.1297026577714144 0 0.030566093298411881 -0.13865773310914861 0 0.02166725362828328 -0.1398342401410575 0 0.019282665512654749 -0.1297026577714144 0 0.030566093298411881 -0.13865773310914861 0 0.031672068294339203 -0.14528428076340441 0 0.030566093298411881 -0.13865773310914861 0 0.024335151646156381 -0.14706399980032239 0 0.02166725362828328 -0.1398342401410575 0 0.030566093298411881 -0.13865773310914861 0 0.024335151646156381 -0.14706399980032239 0 0.031672068294339203 -0.14528428076340441 0 0.024335151646156381 -0.14706399980032239 0 0.030051573782975471 -0.15027594372919439 0 0.033920350420936912 -0.1531830770535528 0 0.030051573782975471 -0.15027594372919439 0 0.02294500892830088 -0.1542832107784407 0 0.024335151646156381 -0.14706399980032239 0 0.030051573782975471 -0.15027594372919439 0 0.02294500892830088 -0.1542832107784407 0 0.024335151646156381 -0.14706399980032239 0 0.01648447247354291 -0.15404273338364399 0 0.01241268948209219 -0.14437852502616319 0 0.024335151646156381 -0.14706399980032239 0 0.01648447247354291 -0.15404273338364399 0 0.02294500892830088 -0.1542832107784407 0 0.02166725362828328 -0.1398342401410575 0 0.024335151646156381 -0.14706399980032239 0 0.01241268948209219 -0.14437852502616319 0 -0.011505986517222349 -0.14810326960451681 0 0.01241268948209219 -0.14437852502616319 0 0.0068311679390763679 -0.1533437069849535 0 -0.011505986517222349 -0.14810326960451681 0 0.009933496317892726 -0.16685029992549011 0 0.0068311679390763679 -0.1533437069849535 0 -0.011505986517222349 -0.14810326960451681 0 0.01241268948209219 -0.14437852502616319 0 0.0027021066240326768 -0.1317064378292063 0 0.01648447247354291 -0.15404273338364399 0 0.01241268948209219 -0.14437852502616319 0 0.0068311679390763679 -0.1533437069849535 0 0.019282665512654749 -0.1297026577714144 0 0.01241268948209219 -0.14437852502616319 0 0.0027021066240326768 -0.1317064378292063 0 0.019282665512654749 -0.1297026577714144 0 0.0027021066240326768 -0.1317064378292063 0 0.005085065621477718 -0.1151057880332567 0 0.019282665512654749 -0.1297026577714144 0 0.005085065621477718 -0.1151057880332567 0 0.024129304522527751 -0.1089818526354679 0 0.034824944079593127 -0.12500853882757099 0 0.019282665512654749 -0.1297026577714144 0 0.024129304522527751 -0.1089818526354679 0 0.024129304522527751 -0.1089818526354679 0 0.01380815825635252 -0.094132232187142617 0 0.031293966725895003 -0.08518965294817829 0 -0.00044729776891663488 -0.1011528385718463 0 0.005085065621477718 -0.1151057880332567 0 0.01380815825635252 -0.094132232187142617 0 0.005085065621477718 -0.1151057880332567 0 0.024129304522527751 -0.1089818526354679 0 0.01380815825635252 -0.094132232187142617 0 0.01380815825635252 -0.094132232187142617 0 0.0042106568376920582 -0.081118225430045127 0 0.020039989671696231 -0.071989185162356889 0 -0.00044729776891663488 -0.1011528385718463 0 0.01380815825635252 -0.094132232187142617 0 0.0042106568376920582 -0.081118225430045127 0 0.0042106568376920582 -0.081118225430045127 0 0.0052181775422467033 -0.064346337314722044 0 0.020039989671696231 -0.071989185162356889 0 -0.0043762627118289626 -0.071729097412358583 0 0.0042106568376920582 -0.081118225430045127 0 0.0052181775422467033 -0.064346337314722044 0 0.0052181775422467033 -0.064346337314722044 0 0.020039989671696231 -0.071989185162356889 0 0.0052181775422467033 -0.064346337314722044 0 0.020039989671696231 -0.071989185162356889 0 0.017880224012190679 -0.058506375123621113 0 0.020039989671696231 -0.071989185162356889 0 0.017880224012190679 -0.058506375123621113 0 0.035073137211611732 -0.060365082031122411 0 0.020039989671696231 -0.071989185162356889 0 0.031293966725895003 -0.08518965294817829 0 0.035073137211611732 -0.060365082031122411 0 0.01380815825635252 -0.094132232187142617 0 0.020039989671696231 -0.071989185162356889 0 0.031293966725895003 -0.08518965294817829 0 0.031293966725895003 -0.08518965294817829 0 0.050629459546369923 -0.074776417317023003 0 0.042727201812981508 -0.099892478072297022 0 0.050629459546369923 -0.074776417317023003 0 0.042727201812981508 -0.099892478072297022 0 0.031293966725895003 -0.08518965294817829 0 0.050629459546369923 -0.074776417317023003 0 0.035073137211611732 -0.060365082031122411 0 0.050629459546369923 -0.074776417317023003 0 0.058531717279758283 -0.049660356561749108 0 0.072219385832792832 -0.066659644627356851 0 0.050629459546369923 -0.074776417317023003 0 0.042727201812981508 -0.099892478072297022 0 0.069701838591585213 -0.089386546866783212 0 0.059655618646742382 -0.10475769562984739 0 0.052448498866582129 -0.1166826243517366 0 0.042727201812981508 -0.099892478072297022 0 0.059655618646742382 -0.10475769562984739 0 0.042727201812981508 -0.099892478072297022 0 0.069701838591585213 -0.089386546866783212 0 0.054296968429680029 -0.13171371816535249 0 0.052448498866582129 -0.1166826243517366 0 0.073744935315820714 -0.1130691332285727 0 0.059655618646742382 -0.10475769562984739 0 0.052448498866582129 -0.1166826243517366 0 0.073744935315820714 -0.1130691332285727 0 0.034824944079593127 -0.12500853882757099 0 0.045553716665441668 -0.12681104972785159 0 0.052448498866582129 -0.1166826243517366 0 0.034824944079593127 -0.12500853882757099 0 0.052448498866582129 -0.1166826243517366 0 0.042727201812981508 -0.099892478072297022 0 0.034824944079593127 -0.12500853882757099 0 0.024129304522527751 -0.1089818526354679 0 0.042727201812981508 -0.099892478072297022 0 0.034824944079593127 -0.12500853882757099 0 0.042727201812981508 -0.099892478072297022 0 0.024129304522527751 -0.1089818526354679 0 0.031293966725895003 -0.08518965294817829 0 0.042727201812981508 -0.099892478072297022 0 0.034885408484197772 0.0062912350017927032 0 0.01265631079038235 -0.01012693536007268 0 0.042517259973231587 -0.011683923625132649 0 -0.00118246574067416 -0.01324232368796026 0 0.0012074066645448821 -0.00065723147797176382 0 0.01265631079038235 -0.01012693536007268 0 0.01265631079038235 -0.01012693536007268 0 0.02406773205363014 -0.026959444655171291 0 0.0015263381015913891 -0.033415212413580753 0 0.01265631079038235 -0.01012693536007268 0 0.0015263381015913891 -0.033415212413580753 0 -0.00118246574067416 -0.01324232368796026 0 0.01265631079038235 -0.01012693536007268 0 0.0015263381015913891 -0.033415212413580753 0 0.01265631079038235 -0.01012693536007268 0 0.02406773205363014 -0.026959444655171291 0 0.042517259973231587 -0.011683923625132649 0 0.02406773205363014 -0.026959444655171291 0 0.021771409900077709 -0.044354063799483319 0 0.04186734150286768 -0.035217088077587062 0 0.02406773205363014 -0.026959444655171291 0 0.021771409900077709 -0.044354063799483319 0 0.0015263381015913891 -0.033415212413580753 0 0.021771409900077709 -0.044354063799483319 0 0.0015263381015913891 -0.033415212413580753 0 0.007298405735321048 -0.051477207310420908 0 -0.0096036345872028556 -0.056703489467087059 0 0.0052181775422467033 -0.064346337314722044 0 0.007298405735321048 -0.051477207310420908 0 0.0052181775422467033 -0.064346337314722044 0 0.007298405735321048 -0.051477207310420908 0 0.017880224012190679 -0.058506375123621113 0 0.021771409900077709 -0.044354063799483319 0 0.017880224012190679 -0.058506375123621113 0 0.035073137211611732 -0.060365082031122411 0 0.021771409900077709 -0.044354063799483319 0 0.007298405735321048 -0.051477207310420908 0 0.017880224012190679 -0.058506375123621113 0 0.035073137211611732 -0.060365082031122411 0 0.058531717279758283 -0.049660356561749108 0 0.04186734150286768 -0.035217088077587062 0 0.050629459546369923 -0.074776417317023003 0 0.058531717279758283 -0.049660356561749108 0 0.050629459546369923 -0.074776417317023003 0 0.035073137211611732 -0.060365082031122411 0 0.058531717279758283 -0.049660356561749108 0 0.058531717279758283 -0.049660356561749108 0 0.066433975013146629 -0.02454429580647528 0 0.058531717279758283 -0.049660356561749108 0 0.04186734150286768 -0.035217088077587062 0 0.066433975013146629 -0.02454429580647528 0 0.021771409900077709 -0.044354063799483319 0 0.035073137211611732 -0.060365082031122411 0 0.04186734150286768 -0.035217088077587062 0 0.02406773205363014 -0.026959444655171291 0 0.04186734150286768 -0.035217088077587062 0 0.042517259973231587 -0.011683923625132649 0 0.04186734150286768 -0.035217088077587062 0 0.042517259973231587 -0.011683923625132649 0 0.066433975013146629 -0.02454429580647528 0 0.052968053050369737 0.0090809173488315582 0 0.042517259973231587 -0.011683923625132649 0 0.067492943165135169 -0.0019794682467893379 0 0.042517259973231587 -0.011683923625132649 0 0.067492943165135169 -0.0019794682467893379 0 0.066433975013146629 -0.02454429580647528 0 0.087040675587819916 -0.0096101539263870796 0 0.066433975013146629 -0.02454429580647528 0 0.098032226742104309 -0.02831505409649597 0 0.083930998993742512 0.0059737405228527038 0 0.087040675587819916 -0.0096101539263870796 0 0.067492943165135169 -0.0019794682467893379 0 0.083930998993742512 0.0059737405228527038 0 0.098495163759696414 0.0029673617968291321 0 0.087040675587819916 -0.0096101539263870796 0 0.087040675587819916 -0.0096101539263870796 0 0.067492943165135169 -0.0019794682467893379 0 0.066433975013146629 -0.02454429580647528 0 0.066433975013146629 -0.02454429580647528 0 0.080663194565618018 -0.042742664855397232 0 0.098032226742104309 -0.02831505409649597 0 0.080663194565618018 -0.042742664855397232 0 0.099119978598511321 -0.045144617550746849 0 0.098032226742104309 -0.02831505409649597 0 0.058531717279758283 -0.049660356561749108 0 0.066433975013146629 -0.02454429580647528 0 0.080663194565618018 -0.042742664855397232 0 0.058531717279758283 -0.049660356561749108 0 0.080663194565618018 -0.042742664855397232 0 0.072219385832792832 -0.066659644627356851 0 0.080663194565618018 -0.042742664855397232 0 0.091985945990252393 -0.059557823171565508 0 0.072219385832792832 -0.066659644627356851 0 0.080663194565618018 -0.042742664855397232 0 0.091985945990252393 -0.059557823171565508 0 0.099119978598511321 -0.045144617550746849 0 0.091985945990252393 -0.059557823171565508 0 0.109385226414503 -0.056941989317685793 0 0.099119978598511321 -0.045144617550746849 0 0.109385226414503 -0.056941989317685793 0 0.1174221699598199 -0.069046986946925279 0 0.12664898879935529 -0.055605769639440771 0 0.109385226414503 -0.056941989317685793 0 0.1155332992800789 -0.038165556312589707 0 0.12664898879935529 -0.055605769639440771 0 0.1155332992800789 -0.038165556312589707 0 0.12954193793015309 -0.041748568408345607 0 0.12664898879935529 -0.055605769639440771 0 0.1155332992800789 -0.038165556312589707 0 0.1294320674019063 -0.023146095115484211 0 0.12954193793015309 -0.041748568408345607 0 0.109385226414503 -0.056941989317685793 0 0.1155332992800789 -0.038165556312589707 0 0.099119978598511321 -0.045144617550746849 0 0.1155332992800789 -0.038165556312589707 0 0.099119978598511321 -0.045144617550746849 0 0.098032226742104309 -0.02831505409649597 0 0.1155332992800789 -0.038165556312589707 0 0.098032226742104309 -0.02831505409649597 0 0.1112777463759113 -0.012222875866518469 0 0.087040675587819916 -0.0096101539263870796 0 0.098032226742104309 -0.02831505409649597 0 0.1112777463759113 -0.012222875866518469 0 0.1155332992800789 -0.038165556312589707 0 0.1112777463759113 -0.012222875866518469 0 0.1294320674019063 -0.023146095115484211 0 0.1158546052028349 0.0064685721448778594 0 0.13464870039648349 0.00080453217212592717 0 0.1112777463759113 -0.012222875866518469 0 0.098495163759696414 0.0029673617968291321 0 0.087040675587819916 -0.0096101539263870796 0 0.1112777463759113 -0.012222875866518469 0 0.1158546052028349 0.0064685721448778594 0 0.098495163759696414 0.0029673617968291321 0 0.1112777463759113 -0.012222875866518469 0 0.093192902201961414 -0.094424548291792879 0 0.088899626305776192 -0.1113374325741409 0 0.073744935315820714 -0.1130691332285727 0 0.093192902201961414 -0.094424548291792879 0 0.073744935315820714 -0.1130691332285727 0 0.069701838591585213 -0.089386546866783212 0 0.093192902201961414 -0.094424548291792879 0 0.073744935315820714 -0.1130691332285727 0 0.081894058627025895 -0.12584863130967919 0 0.088899626305776192 -0.1113374325741409 0 0.09397493983509804 -0.11322330148444169 0 0.081894058627025895 -0.12584863130967919 0 0.079920122843727764 -0.11786127252462281 0 0.075141871126288284 -0.1211898929860986 0 0.081894058627025895 -0.12584863130967919 0 0.088899626305776192 -0.1113374325741409 0 0.079920122843727764 -0.11786127252462281 0 0.088899626305776192 -0.1113374325741409 0 0.079920122843727764 -0.11786127252462281 0 0.073744935315820714 -0.1130691332285727 0 0.068207364780656948 -0.12563827965844471 0 0.054296968429680029 -0.13171371816535249 0 0.073744935315820714 -0.1130691332285727 0 0.054296968429680029 -0.13171371816535249 0 0.073744935315820714 -0.1130691332285727 0 0.068207364780656948 -0.12563827965844471 0 0.073744935315820714 -0.1130691332285727 0 0.075141871126288284 -0.1211898929860986 0 0.079920122843727764 -0.11786127252462281 0 0.073744935315820714 -0.1130691332285727 0 0.075141871126288284 -0.1211898929860986 0 0.081894058627025895 -0.12584863130967919 0 0.068207364780656948 -0.12563827965844471 0 0.075141871126288284 -0.1211898929860986 0 0.059655618646742382 -0.10475769562984739 0 0.073744935315820714 -0.1130691332285727 0 0.069701838591585213 -0.089386546866783212 0 0.050629459546369923 -0.074776417317023003 0 0.069701838591585213 -0.089386546866783212 0 0.072219385832792832 -0.066659644627356851 0 0.069701838591585213 -0.089386546866783212 0 0.072219385832792832 -0.066659644627356851 0 0.089711563165187497 -0.078251462936863553 0 0.091985945990252393 -0.059557823171565508 0 0.072219385832792832 -0.066659644627356851 0 0.089711563165187497 -0.078251462936863553 0 0.093192902201961414 -0.094424548291792879 0 0.069701838591585213 -0.089386546866783212 0 0.089711563165187497 -0.078251462936863553 0 0.093192902201961414 -0.094424548291792879 0 0.089711563165187497 -0.078251462936863553 0 0.1048667032735431 -0.089595599910983495 0 0.089711563165187497 -0.078251462936863553 0 0.1048667032735431 -0.089595599910983495 0 0.1056935618466131 -0.072691272791708894 0 0.1048667032735431 -0.089595599910983495 0 0.1056935618466131 -0.072691272791708894 0 0.11564058922802831 -0.08068930143821873 0 0.091985945990252393 -0.059557823171565508 0 0.089711563165187497 -0.078251462936863553 0 0.1056935618466131 -0.072691272791708894 0 0.091985945990252393 -0.059557823171565508 0 0.109385226414503 -0.056941989317685793 0 0.1056935618466131 -0.072691272791708894 0 0.1174221699598199 -0.069046986946925279 0 0.12840026197867099 -0.078951386265116219 0 0.12664898879935529 -0.055605769639440771 0 0.109385226414503 -0.056941989317685793 0 0.1056935618466131 -0.072691272791708894 0 0.1174221699598199 -0.069046986946925279 0 0.1056935618466131 -0.072691272791708894 0 0.1174221699598199 -0.069046986946925279 0 0.11564058922802831 -0.08068930143821873 0 0.1174221699598199 -0.069046986946925279 0 0.11564058922802831 -0.08068930143821873 0 0.12840026197867099 -0.078951386265116219 0 0.1048667032735431 -0.089595599910983495 0 0.11564058922802831 -0.08068930143821873 0 0.1191358060176364 -0.092450830711447801 0 0.1191358060176364 -0.092450830711447801 0 0.12840026197867099 -0.078951386265116219 0 0.11564058922802831 -0.08068930143821873 0 0.1191358060176364 -0.092450830711447801 0 0.12840026197867099 -0.078951386265116219 0 0.1058809127300703 -0.11218140843774239 0 0.12023297736745781 -0.1110263554770618 0 0.12986776683311119 -0.098514185565799078 0 0.1058809127300703 -0.11218140843774239 0 0.12986776683311119 -0.098514185565799078 0 0.1048667032735431 -0.089595599910983495 0 0.1191358060176364 -0.092450830711447801 0 0.10987135005660249 -0.1059502751577799 0 0.10987135005660249 -0.1059502751577799 0 0.1058809127300703 -0.11218140843774239 0 0.12986776683311119 -0.098514185565799078 0 0.1191358060176364 -0.092450830711447801 0 0.10987135005660249 -0.1059502751577799 0 0.12986776683311119 -0.098514185565799078 0 0.1191358060176364 -0.092450830711447801 0 0.10987135005660249 -0.1059502751577799 0 0.093192902201961414 -0.094424548291792879 0 0.088899626305776192 -0.1113374325741409 0 0.099225161677519755 -0.1035257336162041 0 0.1048667032735431 -0.089595599910983495 0 0.10987135005660249 -0.1059502751577799 0 0.099225161677519755 -0.1035257336162041 0 0.10987135005660249 -0.1059502751577799 0 0.099225161677519755 -0.1035257336162041 0 0.1058809127300703 -0.11218140843774239 0 0.088899626305776192 -0.1113374325741409 0 0.099225161677519755 -0.1035257336162041 0 0.09397493983509804 -0.11322330148444169 0 0.093192902201961414 -0.094424548291792879 0 0.1048667032735431 -0.089595599910983495 0 0.099225161677519755 -0.1035257336162041 0 0.081894058627025895 -0.12584863130967919 0 0.1058809127300703 -0.11218140843774239 0 0.099525338641528904 -0.12611341339503321 0 0.081894058627025895 -0.12584863130967919 0 0.1058809127300703 -0.11218140843774239 0 0.081894058627025895 -0.12584863130967919 0 0.09397493983509804 -0.11322330148444169 0 0.1058809127300703 -0.11218140843774239 0 0.099225161677519755 -0.1035257336162041 0 0.09397493983509804 -0.11322330148444169 0 0.1058809127300703 -0.11218140843774239 0 0.099525338641528904 -0.12611341339503321 0 0.1058809127300703 -0.11218140843774239 0 0.1121708616464093 -0.1216807098986791 0 0.1058809127300703 -0.11218140843774239 0 0.1121708616464093 -0.1216807098986791 0 0.12023297736745781 -0.1110263554770618 0 0.11997683785091839 -0.1276371159963853 0 0.121067612134044 -0.1214532534018402 0 0.13188977167139071 -0.12546883223523481 0 0.12023297736745781 -0.1110263554770618 0 0.121067612134044 -0.1214532534018402 0 0.13188977167139071 -0.12546883223523481 0 0.11997683785091839 -0.1276371159963853 0 0.1121708616464093 -0.1216807098986791 0 0.121067612134044 -0.1214532534018402 0 0.1121708616464093 -0.1216807098986791 0 0.12023297736745781 -0.1110263554770618 0 0.121067612134044 -0.1214532534018402 0 0.12023297736745781 -0.1110263554770618 0 0.12986776683311119 -0.098514185565799078 0 0.13188977167139071 -0.12546883223523481 0 0.12986776683311119 -0.098514185565799078 0 0.13188977167139071 -0.12546883223523481 0 0.14925441928633251 -0.10969288085116551 0 0.13995942417209239 -0.1034127274713456 0 0.13188977167139071 -0.12546883223523481 0 0.14724036225017881 -0.1245170930860646 0 0.14925441928633251 -0.10969288085116551 0 0.13188977167139071 -0.12546883223523481 0 0.14925441928633251 -0.10969288085116551 0 0.15485465026004211 -0.11932571079310079 0 0.15999890680388329 -0.1096406796162286 0 0.14724036225017881 -0.1245170930860646 0 0.15485465026004211 -0.11932571079310079 0 0.15557261582888751 -0.13003178131142151 0 0.14724036225017881 -0.1245170930860646 0 0.14925441928633251 -0.10969288085116551 0 0.15485465026004211 -0.11932571079310079 0 0.14925441928633251 -0.10969288085116551 0 0.14348993397904131 -0.092765062884646393 0 0.1620153957752187 -0.097165399419701551 0 0.14348993397904131 -0.092765062884646393 0 0.1620153957752187 -0.097165399419701551 0 0.14925441928633251 -0.10969288085116551 0 0.13995942417209239 -0.1034127274713456 0 0.14348993397904131 -0.092765062884646393 0 0.13995942417209239 -0.1034127274713456 0 0.12986776683311119 -0.098514185565799078 0 0.13188977167139071 -0.12546883223523481 0 0.13995942417209239 -0.1034127274713456 0 0.12986776683311119 -0.098514185565799078 0 0.14348993397904131 -0.092765062884646393 0 0.12986776683311119 -0.098514185565799078 0 0.12840026197867099 -0.078951386265116219 0 0.1428482005174804 -0.076716741777837147 0 0.1191358060176364 -0.092450830711447801 0 0.12986776683311119 -0.098514185565799078 0 0.12840026197867099 -0.078951386265116219 0 0.12986776683311119 -0.098514185565799078 0 0.12840026197867099 -0.078951386265116219 0 0.12840026197867099 -0.078951386265116219 0 0.12664898879935529 -0.055605769639440771 0 0.12840026197867099 -0.078951386265116219 0 0.12664898879935529 -0.055605769639440771 0 0.14464694777039611 -0.055277979731059648 0 0.12840026197867099 -0.078951386265116219 0 0.1428482005174804 -0.076716741777837147 0 0.14464694777039611 -0.055277979731059648 0 0.12840026197867099 -0.078951386265116219 0 0.14464694777039611 -0.055277979731059648 0 0.1428482005174804 -0.076716741777837147 0 0.15680899227989839 -0.06637062400294011 0 0.14464694777039611 -0.055277979731059648 0 0.1428482005174804 -0.076716741777837147 0 0.15451703372532541 -0.084469533324270707 0 0.15680899227989839 -0.06637062400294011 0 0.12986776683311119 -0.098514185565799078 0 0.15451703372532541 -0.084469533324270707 0 0.12986776683311119 -0.098514185565799078 0 0.14348993397904131 -0.092765062884646393 0 0.15451703372532541 -0.084469533324270707 0 0.14348993397904131 -0.092765062884646393 0 0.15451703372532541 -0.084469533324270707 0 0.1620153957752187 -0.097165399419701551 0 0.12986776683311119 -0.098514185565799078 0 0.1428482005174804 -0.076716741777837147 0 0.15451703372532541 -0.084469533324270707 0 0.15451703372532541 -0.084469533324270707 0 0.1674193516126988 -0.088794767656503876 0 0.1620153957752187 -0.097165399419701551 0 0.15451703372532541 -0.084469533324270707 0 0.1674193516126988 -0.088794767656503876 0 0.16389165652408541 -0.076485311925560115 0 0.1674193516126988 -0.088794767656503876 0 0.16389165652408541 -0.076485311925560115 0 0.17613181446746839 -0.084287857658230353 0 0.15451703372532541 -0.084469533324270707 0 0.15680899227989839 -0.06637062400294011 0 0.16389165652408541 -0.076485311925560115 0 0.16389165652408541 -0.076485311925560115 0 0.1717227713635387 -0.067009979361705274 0 0.17613181446746839 -0.084287857658230353 0 0.15680899227989839 -0.06637062400294011 0 0.16389165652408541 -0.076485311925560115 0 0.1717227713635387 -0.067009979361705274 0 0.15680899227989839 -0.06637062400294011 0 0.1717227713635387 -0.067009979361705274 0 0.1652446184022294 -0.054500080927008407 0 0.1717227713635387 -0.067009979361705274 0 0.17613181446746839 -0.084287857658230353 0 0.1717227713635387 -0.067009979361705274 0 0.18346211879182289 -0.064955309332027283 0 0.18137547142311691 -0.085525622921553163 0 0.18346211879182289 -0.064955309332027283 0 0.18137547142311691 -0.085525622921553163 0 0.1952329782378138 -0.068464889048657496 0 0.1717227713635387 -0.067009979361705274 0 0.18137547142311691 -0.085525622921553163 0 0.1717227713635387 -0.067009979361705274 0 0.18346211879182289 -0.064955309332027283 0 0.1746283364613696 -0.057560297553190053 0 0.18137547142311691 -0.085525622921553163 0 0.17613181446746839 -0.084287857658230353 0 0.18054085757139629 -0.1015657359547559 0 0.17613181446746839 -0.084287857658230353 0 0.18054085757139629 -0.1015657359547559 0 0.1674193516126988 -0.088794767656503876 0 0.17613181446746839 -0.084287857658230353 0 0.18054085757139629 -0.1015657359547559 0 0.1717227713635387 -0.067009979361705274 0 0.18137547142311691 -0.085525622921553163 0 0.17613181446746839 -0.084287857658230353 0 0.18137547142311691 -0.085525622921553163 0 0.19100769245097829 -0.1040519139747048 0 0.18137547142311691 -0.085525622921553163 0 0.18054085757139629 -0.1015657359547559 0 0.19100769245097829 -0.1040519139747048 0 0.18054085757139629 -0.1015657359547559 0 0.1749190978293893 -0.1165979942053425 0 0.16884250162088479 -0.1080310140379921 0 0.18054085757139629 -0.1015657359547559 0 0.19100769245097829 -0.1040519139747048 0 0.18054085757139629 -0.1015657359547559 0 0.1862357176231304 -0.1238823921021804 0 0.1749190978293893 -0.1165979942053425 0 0.18054085757139629 -0.1015657359547559 0 0.1862357176231304 -0.1238823921021804 0 0.19100769245097829 -0.1040519139747048 0 0.18054085757139629 -0.1015657359547559 0 0.1862357176231304 -0.1238823921021804 0 0.1862357176231304 -0.1238823921021804 0 0.1749190978293893 -0.1165979942053425 0 0.17324983187337631 -0.13165498831909611 0 0.1749190978293893 -0.1165979942053425 0 0.16471491079178111 -0.1205264202314431 0 0.16884250162088479 -0.1080310140379921 0 0.16471491079178111 -0.1205264202314431 0 0.15999890680388329 -0.1096406796162286 0 0.16884250162088479 -0.1080310140379921 0 0.1749190978293893 -0.1165979942053425 0 0.16471491079178111 -0.1205264202314431 0 0.17324983187337631 -0.13165498831909611 0 0.15485465026004211 -0.11932571079310079 0 0.16471491079178111 -0.1205264202314431 0 0.15557261582888751 -0.13003178131142151 0 0.15485465026004211 -0.11932571079310079 0 0.16471491079178111 -0.1205264202314431 0 0.15999890680388329 -0.1096406796162286 0 0.18054085757139629 -0.1015657359547559 0 0.1620153957752187 -0.097165399419701551 0 0.1674193516126988 -0.088794767656503876 0 0.18054085757139629 -0.1015657359547559 0 0.1620153957752187 -0.097165399419701551 0 0.14925441928633251 -0.10969288085116551 0 0.15999890680388329 -0.1096406796162286 0 0.1620153957752187 -0.097165399419701551 0 0.15999890680388329 -0.1096406796162286 0 0.1620153957752187 -0.097165399419701551 0 0.16884250162088479 -0.1080310140379921 0 0.18054085757139629 -0.1015657359547559 0 0.1620153957752187 -0.097165399419701551 0 0.16884250162088479 -0.1080310140379921 0 0.13464870039648349 0.00080453217212592717 0 0.15480995508657039 -0.001084596553268768 0 0.14892696920713289 -0.018041582065753459 0 0.13464870039648349 0.00080453217212592717 0 0.1294320674019063 -0.023146095115484211 0 0.14892696920713289 -0.018041582065753459 0 0.13464870039648349 0.00080453217212592717 0 0.1112777463759113 -0.012222875866518469 0 0.1294320674019063 -0.023146095115484211 0 0.1294320674019063 -0.023146095115484211 0 0.14892696920713289 -0.018041582065753459 0 0.14270131340979469 -0.036531096068384838 0 0.14892696920713289 -0.018041582065753459 0 0.14270131340979469 -0.036531096068384838 0 0.16089363356212191 -0.031604573197003549 0 0.14270131340979469 -0.036531096068384838 0 0.14464694777039611 -0.055277979731059648 0 0.16089363356212191 -0.031604573197003549 0 0.14464694777039611 -0.055277979731059648 0 0.15561449558007559 -0.051164132387281437 0 0.16089363356212191 -0.031604573197003549 0 0.14464694777039611 -0.055277979731059648 0 0.16089363356212191 -0.031604573197003549 0 0.14270131340979469 -0.036531096068384838 0 0.12954193793015309 -0.041748568408345607 0 0.14464694777039611 -0.055277979731059648 0 0.1294320674019063 -0.023146095115484211 0 0.14270131340979469 -0.036531096068384838 0 0.12954193793015309 -0.041748568408345607 0 0.12954193793015309 -0.041748568408345607 0 0.12664898879935529 -0.055605769639440771 0 0.14464694777039611 -0.055277979731059648 0 0.15680899227989839 -0.06637062400294011 0 0.14464694777039611 -0.055277979731059648 0 0.15561449558007559 -0.051164132387281437 0 0.15680899227989839 -0.06637062400294011 0 0.15561449558007559 -0.051164132387281437 0 0.1652446184022294 -0.054500080927008407 0 0.15561449558007559 -0.051164132387281437 0 0.1652446184022294 -0.054500080927008407 0 0.1617942405007988 -0.043199732881276223 0 0.1652446184022294 -0.054500080927008407 0 0.1746283364613696 -0.057560297553190053 0 0.1617942405007988 -0.043199732881276223 0 0.1717227713635387 -0.067009979361705274 0 0.1652446184022294 -0.054500080927008407 0 0.1717227713635387 -0.067009979361705274 0 0.1652446184022294 -0.054500080927008407 0 0.1746283364613696 -0.057560297553190053 0 0.1746283364613696 -0.057560297553190053 0 0.1828119860636557 -0.050363577362968731 0 0.1617942405007988 -0.043199732881276223 0 0.18346211879182289 -0.064955309332027283 0 0.1746283364613696 -0.057560297553190053 0 0.1828119860636557 -0.050363577362968731 0 0.18346211879182289 -0.064955309332027283 0 0.1828119860636557 -0.050363577362968731 0 0.19188844298534441 -0.056659859735039647 0 0.1617942405007988 -0.043199732881276223 0 0.18853740735089011 -0.033706188378118708 0 0.1828119860636557 -0.050363577362968731 0 0.1617942405007988 -0.043199732881276223 0 0.18853740735089011 -0.033706188378118708 0 0.15561449558007559 -0.051164132387281437 0 0.16089363356212191 -0.031604573197003549 0 0.1617942405007988 -0.043199732881276223 0 0.16089363356212191 -0.031604573197003549 0 0.1617942405007988 -0.043199732881276223 0 0.18853740735089011 -0.033706188378118708 0 0.16089363356212191 -0.031604573197003549 0 0.17714031935384769 -0.0079311666629475405 0 0.14892696920713289 -0.018041582065753459 0 0.16089363356212191 -0.031604573197003549 0 0.17714031935384769 -0.0079311666629475405 0 0.16089363356212191 -0.031604573197003549 0 0.17714031935384769 -0.0079311666629475405 0 0.18853740735089011 -0.033706188378118708 0 0.1657030786406338 0.0084270166623369204 0 0.15480995508657039 -0.001084596553268768 0 0.17714031935384769 -0.0079311666629475405 0 0.15480995508657039 -0.001084596553268768 0 0.14892696920713289 -0.018041582065753459 0 0.17714031935384769 -0.0079311666629475405 0 0.21351355446813719 -0.0021103410187178909 0 0.2110126965438916 -0.012672932103663791 0 0.2228246624943325 -0.0092295053444410857 0 0.2110126965438916 -0.012672932103663791 0 0.21911622703360889 -0.015650702578479541 0 0.2228246624943325 -0.0092295053444410857 0 0.21351355446813719 -0.0021103410187178909 0 0.2110126965438916 -0.012672932103663791 0 0.19836939172364151 -0.01016904411482358 0 0.1998105265397013 0.00335350757378736 0 0.21351355446813719 -0.0021103410187178909 0 0.19836939172364151 -0.01016904411482358 0 0.1998105265397013 0.00335350757378736 0 0.17714031935384769 -0.0079311666629475405 0 0.19836939172364151 -0.01016904411482358 0 0.17714031935384769 -0.0079311666629475405 0 0.19836939172364151 -0.01016904411482358 0 0.18853740735089011 -0.033706188378118708 0 0.2110126965438916 -0.012672932103663791 0 0.19836939172364151 -0.01016904411482358 0 0.18853740735089011 -0.033706188378118708 0 0.21528057420098159 -0.024212643874961401 0 0.18853740735089011 -0.033706188378118708 0 0.2110126965438916 -0.012672932103663791 0 0.21528057420098159 -0.024212643874961401 0 0.18853740735089011 -0.033706188378118708 0 0.21528057420098159 -0.024212643874961401 0 0.20886364623554921 -0.031523512657201581 0 0.18853740735089011 -0.033706188378118708 0 0.2110126965438916 -0.012672932103663791 0 0.21528057420098159 -0.024212643874961401 0 0.21911622703360889 -0.015650702578479541 0 0.21528057420098159 -0.024212643874961401 0 0.2158000993154765 -0.027276596113623111 0 0.21360323626451261 -0.02858374534336202 0 0.21528057420098159 -0.024212643874961401 0 0.2158000993154765 -0.027276596113623111 0 0.21995729679401421 -0.029331280632926501 0 0.2158000993154765 -0.027276596113623111 0 0.21503400689837671 -0.030930810510401429 0 0.21995729679401421 -0.029331280632926501 0 0.2158000993154765 -0.027276596113623111 0 0.21503400689837671 -0.030930810510401429 0 0.21360323626451261 -0.02858374534336202 0 0.21528057420098159 -0.024212643874961401 0 0.21360323626451261 -0.02858374534336202 0 0.20886364623554921 -0.031523512657201581 0 0.21503400689837671 -0.030930810510401429 0 0.21360323626451261 -0.02858374534336202 0 0.20886364623554921 -0.031523512657201581 0 0.2128060919330283 -0.035124071741943173 0 0.2180191377477218 -0.035203133534298187 0 0.2167024847658664 -0.043974661413588162 0 0.21503400689837671 -0.030930810510401429 0 0.2128060919330283 -0.035124071741943173 0 0.20886364623554921 -0.031523512657201581 0 0.21503400689837671 -0.030930810510401429 0 0.2128060919330283 -0.035124071741943173 0 0.2180191377477218 -0.035203133534298187 0 0.21503400689837671 -0.030930810510401429 0 0.2180191377477218 -0.035203133534298187 0 0.21995729679401421 -0.029331280632926501 0 0.2167024847658664 -0.043974661413588162 0 0.20890374551960481 -0.040729144831228678 0 0.20897987019450001 -0.050060865146210963 0 0.2128060919330283 -0.035124071741943173 0 0.2167024847658664 -0.043974661413588162 0 0.20890374551960481 -0.040729144831228678 0 0.20890374551960481 -0.040729144831228678 0 0.19655169947710091 -0.043788383486002072 0 0.20897987019450001 -0.050060865146210963 0 0.2128060919330283 -0.035124071741943173 0 0.20890374551960481 -0.040729144831228678 0 0.20886364623554921 -0.031523512657201581 0 0.20890374551960481 -0.040729144831228678 0 0.20886364623554921 -0.031523512657201581 0 0.19655169947710091 -0.043788383486002072 0 0.1828119860636557 -0.050363577362968731 0 0.18853740735089011 -0.033706188378118708 0 0.19655169947710091 -0.043788383486002072 0 0.20886364623554921 -0.031523512657201581 0 0.18853740735089011 -0.033706188378118708 0 0.19655169947710091 -0.043788383486002072 0 0.19655169947710091 -0.043788383486002072 0 0.20138343235632811 -0.055727139445542639 0 0.20897987019450001 -0.050060865146210963 0 0.19655169947710091 -0.043788383486002072 0 0.19188844298534441 -0.056659859735039647 0 0.20138343235632811 -0.055727139445542639 0 0.1828119860636557 -0.050363577362968731 0 0.19655169947710091 -0.043788383486002072 0 0.19188844298534441 -0.056659859735039647 0 0.19188844298534441 -0.056659859735039647 0 0.20138343235632811 -0.055727139445542639 0 0.1952329782378138 -0.068464889048657496 0 0.20138343235632811 -0.055727139445542639 0 0.22670270369963491 -0.067064047377793826 0 0.20138343235632811 -0.055727139445542639 0 0.21577564808412511 -0.056666161138016313 0 0.22670270369963491 -0.067064047377793826 0 0.20138343235632811 -0.055727139445542639 0 0.20897987019450001 -0.050060865146210963 0 0.21577564808412511 -0.056666161138016313 0 0.2167024847658664 -0.043974661413588162 0 0.20897987019450001 -0.050060865146210963 0 0.21577564808412511 -0.056666161138016313 0 0.21577564808412511 -0.056666161138016313 0 0.23694359709532001 -0.061394592404840097 0 0.22670270369963491 -0.067064047377793826 0 0.21577564808412511 -0.056666161138016313 0 0.22648325856373289 -0.049317463857355977 0 0.23694359709532001 -0.061394592404840097 0 0.21577564808412511 -0.056666161138016313 0 0.23694359709532001 -0.061394592404840097 0 0.2167024847658664 -0.043974661413588162 0 0.21577564808412511 -0.056666161138016313 0 0.22648325856373289 -0.049317463857355977 0 0.22648325856373289 -0.049317463857355977 0 0.23694359709532001 -0.061394592404840097 0 0.23716366819637241 -0.046229271507985323 0 0.25811154610651499 -0.066123023671663908 0 0.23694359709532001 -0.061394592404840097 0 0.24870160087168189 -0.052882304334001928 0 0.23694359709532001 -0.061394592404840097 0 0.24870160087168189 -0.052882304334001928 0 0.23716366819637241 -0.046229271507985323 0 0.24870160087168189 -0.052882304334001928 0 0.23716366819637241 -0.046229271507985323 0 0.24731406762381819 -0.035960341631652723 0 0.23716366819637241 -0.046229271507985323 0 0.24731406762381819 -0.035960341631652723 0 0.23342582712955959 -0.033308149953783547 0 0.23342582712955959 -0.033308149953783547 0 0.2258308946769807 -0.038322632822349968 0 0.22548915127375299 -0.027513718828695861 0 0.22648325856373289 -0.049317463857355977 0 0.23716366819637241 -0.046229271507985323 0 0.2258308946769807 -0.038322632822349968 0 0.23716366819637241 -0.046229271507985323 0 0.23342582712955959 -0.033308149953783547 0 0.2258308946769807 -0.038322632822349968 0 0.2180191377477218 -0.035203133534298187 0 0.2167024847658664 -0.043974661413588162 0 0.2258308946769807 -0.038322632822349968 0 0.2167024847658664 -0.043974661413588162 0 0.22648325856373289 -0.049317463857355977 0 0.2258308946769807 -0.038322632822349968 0 0.2180191377477218 -0.035203133534298187 0 0.2258308946769807 -0.038322632822349968 0 0.21995729679401421 -0.029331280632926501 0 0.2258308946769807 -0.038322632822349968 0 0.22548915127375299 -0.027513718828695861 0 0.21995729679401421 -0.029331280632926501 0 0.21528057420098159 -0.024212643874961401 0 0.2313313538768734 -0.018514784978234038 0 0.22829619310998309 -0.01520182636873813 0 0.21528057420098159 -0.024212643874961401 0 0.2313313538768734 -0.018514784978234038 0 0.21528057420098159 -0.024212643874961401 0 0.22548915127375299 -0.027513718828695861 0 0.2313313538768734 -0.018514784978234038 0 0.21528057420098159 -0.024212643874961401 0 0.22548915127375299 -0.027513718828695861 0 0.21995729679401421 -0.029331280632926501 0 0.21528057420098159 -0.024212643874961401 0 0.22829619310998309 -0.01520182636873813 0 0.21528057420098159 -0.024212643874961401 0 0.21911622703360889 -0.015650702578479541 0 0.22829619310998309 -0.01520182636873813 0 0.2313313538768734 -0.018514784978234038 0 0.22829619310998309 -0.01520182636873813 0 0.23342582712955959 -0.033308149953783547 0 0.22548915127375299 -0.027513718828695861 0 0.2313313538768734 -0.018514784978234038 0 0.25508119948702751 -0.010083838205662381 0 0.2313313538768734 -0.018514784978234038 0 0.2482857443068576 -0.021714794414400052 0 0.24731406762381819 -0.035960341631652723 0 0.2313313538768734 -0.018514784978234038 0 0.2482857443068576 -0.021714794414400052 0 0.24731406762381819 -0.035960341631652723 0 0.23342582712955959 -0.033308149953783547 0 0.2313313538768734 -0.018514784978234038 0 0.24731406762381819 -0.035960341631652723 0 0.2313313538768734 -0.018514784978234038 0 0.25508119948702751 -0.010083838205662381 0 0.2313313538768734 -0.018514784978234038 0 0.24138147174972829 -0.0061427828714447699 0 0.25508119948702751 -0.010083838205662381 0 0.2313313538768734 -0.018514784978234038 0 0.24138147174972829 -0.0061427828714447699 0 0.22829619310998309 -0.01520182636873813 0 0.25446675038947358 0.0029162606258486688 0 0.2541426920980116 -0.0036136263454906951 0 0.24138147174972829 -0.0061427828714447699 0 0.25446675038947358 0.0029162606258486688 0 0.24138147174972829 -0.0061427828714447699 0 0.22999165343287109 0.0038227322559807589 0 0.24138147174972829 -0.0061427828714447699 0 0.23189167676904729 -0.0064153040848911828 0 0.22999165343287109 0.0038227322559807589 0 0.23189167676904729 -0.0064153040848911828 0 0.2228246624943325 -0.0092295053444410857 0 0.22999165343287109 0.0038227322559807589 0 0.21351355446813719 -0.0021103410187178909 0 0.2228246624943325 -0.0092295053444410857 0 0.23189167676904729 -0.0064153040848911828 0 0.22829619310998309 -0.01520182636873813 0 0.2228246624943325 -0.0092295053444410857 0 0.2313313538768734 -0.018514784978234038 0 0.24138147174972829 -0.0061427828714447699 0 0.22829619310998309 -0.01520182636873813 0 0.24138147174972829 -0.0061427828714447699 0 0.23189167676904729 -0.0064153040848911828 0 0.22829619310998309 -0.01520182636873813 0 0.21911622703360889 -0.015650702578479541 0 0.22829619310998309 -0.01520182636873813 0 0.2228246624943325 -0.0092295053444410857 0 0.22829619310998309 -0.01520182636873813 0 0.2228246624943325 -0.0092295053444410857 0 0.2084634723971549 -0.097930235578601213 0 0.21737999015654699 -0.1103161024944793 0 0.2275791846540145 -0.10054182369239011 0 0.21737999015654699 -0.1103161024944793 0 0.19100769245097829 -0.1040519139747048 0 0.2084634723971549 -0.097930235578601213 0 0.21140608144591419 -0.084503356370523836 0 0.2275791846540145 -0.10054182369239011 0 0.2084634723971549 -0.097930235578601213 0 0.21737999015654699 -0.1103161024944793 0 0.19100769245097829 -0.1040519139747048 0 0.21737999015654699 -0.1103161024944793 0 0.21277072480774051 -0.1248863227998855 0 0.20025029595199689 -0.1218288277367077 0 0.21737999015654699 -0.1103161024944793 0 0.21277072480774051 -0.1248863227998855 0 0.2239597136694004 -0.1277946194696456 0 0.1862357176231304 -0.1238823921021804 0 0.20025029595199689 -0.1218288277367077 0 0.19100769245097829 -0.1040519139747048 0 0.21737999015654699 -0.1103161024944793 0 0.20025029595199689 -0.1218288277367077 0 0.19100769245097829 -0.1040519139747048 0 0.20025029595199689 -0.1218288277367077 0 0.19100769245097829 -0.1040519139747048 0 0.2084634723971549 -0.097930235578601213 0 0.19100769245097829 -0.1040519139747048 0 0.19624682445825681 -0.08914472739044943 0 0.18137547142311691 -0.085525622921553163 0 0.19100769245097829 -0.1040519139747048 0 0.19624682445825681 -0.08914472739044943 0 0.19624682445825681 -0.08914472739044943 0 0.1952329782378138 -0.068464889048657496 0 0.21140608144591419 -0.084503356370523836 0 0.18137547142311691 -0.085525622921553163 0 0.19624682445825681 -0.08914472739044943 0 0.1952329782378138 -0.068464889048657496 0 0.20138343235632811 -0.055727139445542639 0 0.1952329782378138 -0.068464889048657496 0 0.21149591893834541 -0.070957707586151192 0 0.18346211879182289 -0.064955309332027283 0 0.19188844298534441 -0.056659859735039647 0 0.1952329782378138 -0.068464889048657496 0 0.1952329782378138 -0.068464889048657496 0 0.21140608144591419 -0.084503356370523836 0 0.20138343235632811 -0.055727139445542639 0 0.21149591893834541 -0.070957707586151192 0 0.22670270369963491 -0.067064047377793826 0 0.1952329782378138 -0.068464889048657496 0 0.21149591893834541 -0.070957707586151192 0 0.21140608144591419 -0.084503356370523836 0 0.2084634723971549 -0.097930235578601213 0 0.19624682445825681 -0.08914472739044943 0 0.21140608144591419 -0.084503356370523836 0 0.21149591893834541 -0.070957707586151192 0 0.21140608144591419 -0.084503356370523836 0 0.2227543989520358 -0.079029105688238177 0 0.21140608144591419 -0.084503356370523836 0 0.2275791846540145 -0.10054182369239011 0 0.2227543989520358 -0.079029105688238177 0 0.23449163343577681 -0.083610487294907485 0 0.2275791846540145 -0.10054182369239011 0 0.21140608144591419 -0.084503356370523836 0 0.2227543989520358 -0.079029105688238177 0 0.2275791846540145 -0.10054182369239011 0 0.2227543989520358 -0.079029105688238177 0 0.22670270369963491 -0.067064047377793826 0 0.23449163343577681 -0.083610487294907485 0 0.21149591893834541 -0.070957707586151192 0 0.2227543989520358 -0.079029105688238177 0 0.22670270369963491 -0.067064047377793826 0 0.25202197504294188 -0.078400955310045109 0 0.25811154610651499 -0.066123023671663908 0 0.23694359709532001 -0.061394592404840097 0 0.25202197504294188 -0.078400955310045109 0 0.22670270369963491 -0.067064047377793826 0 0.25202197504294188 -0.078400955310045109 0 0.22670270369963491 -0.067064047377793826 0 0.23449163343577681 -0.083610487294907485 0 0.25202197504294188 -0.078400955310045109 0 0.23694359709532001 -0.061394592404840097 0 0.22670270369963491 -0.067064047377793826 0 0.25811154610651499 -0.066123023671663908 0 0.23694359709532001 -0.061394592404840097 0 0.25202197504294188 -0.078400955310045109 0 0.23449163343577681 -0.083610487294907485 0 0.24624903761231479 -0.086847438891893419 0 0.23449163343577681 -0.083610487294907485 0 0.24292322406264641 -0.096552741650977186 0 0.2275791846540145 -0.10054182369239011 0 0.23449163343577681 -0.083610487294907485 0 0.24624903761231479 -0.086847438891893419 0 0.24292322406264641 -0.096552741650977186 0 0.25304747237378489 -0.090741332181114118 0 0.24624903761231479 -0.086847438891893419 0 0.24292322406264641 -0.096552741650977186 0 0.2275791846540145 -0.10054182369239011 0 0.24375228786211539 -0.116580291014256 0 0.24292322406264641 -0.096552741650977186 0 0.2275791846540145 -0.10054182369239011 0 0.24375228786211539 -0.116580291014256 0 0.25771864553297669 -0.099620140202181948 0 0.24292322406264641 -0.096552741650977186 0 0.24375228786211539 -0.116580291014256 0 0.21737999015654699 -0.1103161024944793 0 0.2275791846540145 -0.10054182369239011 0 0.24375228786211539 -0.116580291014256 0 0.21737999015654699 -0.1103161024944793 0 0.24375228786211539 -0.116580291014256 0 0.2239597136694004 -0.1277946194696456 0 0.21737999015654699 -0.1103161024944793 0 0.24375228786211539 -0.116580291014256 0 0.24375228786211539 -0.116580291014256 0 0.235054631712311 -0.13955626642273861 0 0.24955680073527009 -0.143898101237383 0 0.235054631712311 -0.13955626642273861 0 0.24955680073527009 -0.143898101237383 0 0.23627457688356679 -0.15840319400941011 0 0.25449645062408999 -0.16331052089379791 0 0.24955680073527009 -0.143898101237383 0 0.23627457688356679 -0.15840319400941011 0 0.235054631712311 -0.13955626642273861 0 0.22199130801810529 -0.1478171468904442 0 0.23627457688356679 -0.15840319400941011 0 0.24375228786211539 -0.116580291014256 0 0.235054631712311 -0.13955626642273861 0 0.2239597136694004 -0.1277946194696456 0 0.235054631712311 -0.13955626642273861 0 0.22199130801810529 -0.1478171468904442 0 0.2239597136694004 -0.1277946194696456 0 0.20025029595199689 -0.1218288277367077 0 0.20949289945301761 -0.1396057414987095 0 0.22199130801810529 -0.1478171468904442 0 0.2239597136694004 -0.1277946194696456 0 0.20949289945301761 -0.1396057414987095 0 0.21277072480774051 -0.1248863227998855 0 0.20025029595199689 -0.1218288277367077 0 0.20949289945301761 -0.1396057414987095 0 0.21277072480774051 -0.1248863227998855 0 0.2239597136694004 -0.1277946194696456 0 0.20949289945301761 -0.1396057414987095 0 0.22199130801810529 -0.1478171468904442 0 0.20949289945301761 -0.1396057414987095 0 0.2069794531536403 -0.1537888919124783 0 0.20949289945301761 -0.1396057414987095 0 0.2069794531536403 -0.1537888919124783 0 0.1919305776748628 -0.1461990482496055 0 0.2069794531536403 -0.1537888919124783 0 0.1919305776748628 -0.1461990482496055 0 0.19225769977326759 -0.16432491474026781 0 0.1862357176231304 -0.1238823921021804 0 0.1919305776748628 -0.1461990482496055 0 0.19714487019074359 -0.1333469628700395 0 0.20025029595199689 -0.1218288277367077 0 0.20949289945301761 -0.1396057414987095 0 0.19714487019074359 -0.1333469628700395 0 0.20949289945301761 -0.1396057414987095 0 0.1919305776748628 -0.1461990482496055 0 0.19714487019074359 -0.1333469628700395 0 0.1862357176231304 -0.1238823921021804 0 0.1919305776748628 -0.1461990482496055 0 0.1862357176231304 -0.1238823921021804 0 0.20025029595199689 -0.1218288277367077 0 0.19714487019074359 -0.1333469628700395 0 0.19629081049063871 -0.1815365299480412 0 0.19225769977326759 -0.16432491474026781 0 0.17982600751226671 -0.1762593337595659 0 0.19629081049063871 -0.1815365299480412 0 0.19225769977326759 -0.16432491474026781 0 0.22018657323669569 -0.16775416802968299 0 0.2069794531536403 -0.1537888919124783 0 0.19225769977326759 -0.16432491474026781 0 0.22018657323669569 -0.16775416802968299 0 0.22199130801810529 -0.1478171468904442 0 0.2069794531536403 -0.1537888919124783 0 0.22018657323669569 -0.16775416802968299 0 0.19629081049063871 -0.1815365299480412 0 0.22018657323669569 -0.16775416802968299 0 0.21237941264848451 -0.18810475376770611 0 0.22018657323669569 -0.16775416802968299 0 0.23934418379307471 -0.18436482883247621 0 0.22018657323669569 -0.16775416802968299 0 0.23934418379307471 -0.18436482883247621 0 0.21237941264848451 -0.18810475376770611 0 0.22018657323669569 -0.16775416802968299 0 0.23627457688356679 -0.15840319400941011 0 0.23934418379307471 -0.18436482883247621 0 0.22199130801810529 -0.1478171468904442 0 0.22018657323669569 -0.16775416802968299 0 0.23627457688356679 -0.15840319400941011 0 0.25449645062408999 -0.16331052089379791 0 0.23627457688356679 -0.15840319400941011 0 0.23934418379307471 -0.18436482883247621 0 0.25850179434945381 -0.20097548963526929 0 0.23934418379307471 -0.18436482883247621 0 0.25850179434945381 -0.20097548963526929 0 0.23934418379307471 -0.18436482883247621 0 0.23907695871134879 -0.21289681242661959 0 0.23907695871134879 -0.21289681242661959 0 0.22308479462261119 -0.20217133576560289 0 0.21722062693650279 -0.2226466586169516 0 0.23934418379307471 -0.18436482883247621 0 0.22308479462261119 -0.20217133576560289 0 0.21237941264848451 -0.18810475376770611 0 0.23934418379307471 -0.18436482883247621 0 0.23907695871134879 -0.21289681242661959 0 0.22308479462261119 -0.20217133576560289 0 0.25037283077400019 -0.2416092145933311 0 0.23239962387573149 -0.2337287944253621 0 0.2339549802858914 -0.24933471903745599 0 0.25658827463044448 -0.2222138965281123 0 0.23907695871134879 -0.21289681242661959 0 0.2446094219978813 -0.2276121794933563 0 0.25037283077400019 -0.2416092145933311 0 0.2446094219978813 -0.2276121794933563 0 0.23239962387573149 -0.2337287944253621 0 0.23907695871134879 -0.21289681242661959 0 0.2446094219978813 -0.2276121794933563 0 0.23239962387573149 -0.2337287944253621 0 0.23907695871134879 -0.21289681242661959 0 0.23239962387573149 -0.2337287944253621 0 0.21722062693650279 -0.2226466586169516 0 0.23239962387573149 -0.2337287944253621 0 0.2194561222393229 -0.23682627783696539 0 0.21722062693650279 -0.2226466586169516 0 0.23239962387573149 -0.2337287944253621 0 0.22502312889380549 -0.2426362774769398 0 0.2339549802858914 -0.24933471903745599 0 0.2194561222393229 -0.23682627783696539 0 0.22502312889380549 -0.2426362774769398 0 0.21456577207223029 -0.24270171036535029 0 0.23239962387573149 -0.2337287944253621 0 0.2194561222393229 -0.23682627783696539 0 0.22502312889380549 -0.2426362774769398 0 0.22331750647786899 -0.25281133177650322 0 0.22502312889380549 -0.2426362774769398 0 0.21456577207223029 -0.24270171036535029 0 0.22331750647786899 -0.25281133177650322 0 0.22502312889380549 -0.2426362774769398 0 0.2339549802858914 -0.24933471903745599 0 0.2084475354763706 -0.25511513831035743 0 0.2080714594183444 -0.2424179483002232 0 0.21336353465090491 -0.24693864317134839 0 0.2080714594183444 -0.2424179483002232 0 0.21336353465090491 -0.24693864317134839 0 0.2080714594183444 -0.2424179483002232 0 0.21336353465090491 -0.24693864317134839 0 0.21456577207223029 -0.24270171036535029 0 0.2194561222393229 -0.23682627783696539 0 0.2080714594183444 -0.2424179483002232 0 0.21456577207223029 -0.24270171036535029 0 0.21722062693650279 -0.2226466586169516 0 0.20244123733496699 -0.2260211367091485 0 0.19848523837712481 -0.2136299623964425 0 0.2080714594183444 -0.2424179483002232 0 0.21722062693650279 -0.2226466586169516 0 0.2194561222393229 -0.23682627783696539 0 0.2080714594183444 -0.2424179483002232 0 0.21722062693650279 -0.2226466586169516 0 0.2080714594183444 -0.2424179483002232 0 0.21722062693650279 -0.2226466586169516 0 0.20244123733496699 -0.2260211367091485 0 0.2080714594183444 -0.2424179483002232 0 0.18716213711817259 -0.22455639835484539 0 0.2080714594183444 -0.2424179483002232 0 0.20244123733496699 -0.2260211367091485 0 0.18716213711817259 -0.22455639835484539 0 0.20244123733496699 -0.2260211367091485 0 0.19848523837712481 -0.2136299623964425 0 0.18716213711817259 -0.22455639835484539 0 0.2080714594183444 -0.2424179483002232 0 0.19254414318066221 -0.24961624770678509 0 0.1866817818972302 -0.23981118877977231 0 0.2080714594183444 -0.2424179483002232 0 0.1866817818972302 -0.23981118877977231 0 0.18716213711817259 -0.22455639835484539 0 0.19254414318066221 -0.24961624770678509 0 0.18399505531774341 -0.24981832115951039 0 0.1866817818972302 -0.23981118877977231 0 0.21237941264848451 -0.18810475376770611 0 0.20793523744788639 -0.20366419955677639 0 0.19447652973028121 -0.19759128756789451 0 0.22308479462261119 -0.20217133576560289 0 0.21237941264848451 -0.18810475376770611 0 0.20793523744788639 -0.20366419955677639 0 0.22308479462261119 -0.20217133576560289 0 0.21722062693650279 -0.2226466586169516 0 0.20793523744788639 -0.20366419955677639 0 0.21722062693650279 -0.2226466586169516 0 0.20793523744788639 -0.20366419955677639 0 0.19848523837712481 -0.2136299623964425 0 0.19848523837712481 -0.2136299623964425 0 0.19447652973028121 -0.19759128756789451 0 0.1831457957419608 -0.2071674304332729 0 0.20793523744788639 -0.20366419955677639 0 0.19848523837712481 -0.2136299623964425 0 0.19447652973028121 -0.19759128756789451 0 0.19848523837712481 -0.2136299623964425 0 0.1831457957419608 -0.2071674304332729 0 0.18716213711817259 -0.22455639835484539 0 0.19629081049063871 -0.1815365299480412 0 0.19447652973028121 -0.19759128756789451 0 0.1840061663436266 -0.1900566622106199 0 0.19629081049063871 -0.1815365299480412 0 0.21237941264848451 -0.18810475376770611 0 0.19447652973028121 -0.19759128756789451 0 0.19447652973028121 -0.19759128756789451 0 0.1840061663436266 -0.1900566622106199 0 0.1831457957419608 -0.2071674304332729 0 0.1840061663436266 -0.1900566622106199 0 0.1831457957419608 -0.2071674304332729 0 0.16486725365112659 -0.18785963188663279 0 0.1831457957419608 -0.2071674304332729 0 0.16486725365112659 -0.18785963188663279 0 0.1831457957419608 -0.2071674304332729 0 0.16625281481800089 -0.2066948484094672 0 0.18716213711817259 -0.22455639835484539 0 0.16625281481800089 -0.2066948484094672 0 0.18716213711817259 -0.22455639835484539 0 0.16625281481800089 -0.2066948484094672 0 0.18716213711817259 -0.22455639835484539 0 0.16937657335138201 -0.22198425569814831 0 0.16625281481800089 -0.2066948484094672 0 0.15661990237239229 -0.21733625041789439 0 0.14909823278687431 -0.20687378182447139 0 0.16625281481800089 -0.2066948484094672 0 0.15661990237239229 -0.21733625041789439 0 0.16937657335138201 -0.22198425569814831 0 0.1831457957419608 -0.2071674304332729 0 0.16625281481800089 -0.2066948484094672 0 0.16486725365112659 -0.18785963188663279 0 0.16625281481800089 -0.2066948484094672 0 0.16486725365112659 -0.18785963188663279 0 0.14534349251782941 -0.188833298464089 0 0.17619278994504239 -0.24587918172992959 0 0.18399505531774341 -0.24981832115951039 0 0.1866817818972302 -0.23981118877977231 0 0.17619278994504239 -0.24587918172992959 0 0.17450151464944069 -0.23276490516368609 0 0.16609645978724119 -0.24143951784646769 0 0.17619278994504239 -0.24587918172992959 0 0.1866817818972302 -0.23981118877977231 0 0.17450151464944069 -0.23276490516368609 0 0.17450151464944069 -0.23276490516368609 0 0.18716213711817259 -0.22455639835484539 0 0.16937657335138201 -0.22198425569814831 0 0.1866817818972302 -0.23981118877977231 0 0.17450151464944069 -0.23276490516368609 0 0.18716213711817259 -0.22455639835484539 0 0.15661990237239229 -0.21733625041789439 0 0.1623464977989032 -0.22856887614484861 0 0.15090654410468329 -0.22688320449844629 0 0.15661990237239229 -0.21733625041789439 0 0.16937657335138201 -0.22198425569814831 0 0.1623464977989032 -0.22856887614484861 0 0.17450151464944069 -0.23276490516368609 0 0.1623464977989032 -0.22856887614484861 0 0.16609645978724119 -0.24143951784646769 0 0.17450151464944069 -0.23276490516368609 0 0.16937657335138201 -0.22198425569814831 0 0.1623464977989032 -0.22856887614484861 0 0.1623464977989032 -0.22856887614484861 0 0.16609645978724119 -0.24143951784646769 0 0.1528270009437688 -0.23836283418195289 0 0.16001236861667459 -0.2513654190734112 0 0.16609645978724119 -0.24143951784646769 0 0.1528270009437688 -0.23836283418195289 0 0.16978669848249819 -0.25098739912941831 0 0.17619278994504239 -0.24587918172992959 0 0.16609645978724119 -0.24143951784646769 0 0.16001236861667459 -0.2513654190734112 0 0.16978669848249819 -0.25098739912941831 0 0.16609645978724119 -0.24143951784646769 0 0.1429630926125974 -0.2502577086919005 0 0.16001236861667459 -0.2513654190734112 0 0.1528270009437688 -0.23836283418195289 0 0.1429630926125974 -0.2502577086919005 0 0.1528270009437688 -0.23836283418195289 0 0.13988621804673579 -0.23152362256679451 0 0.1528270009437688 -0.23836283418195289 0 0.15090654410468329 -0.22688320449844629 0 0.13988621804673579 -0.23152362256679451 0 0.1623464977989032 -0.22856887614484861 0 0.1528270009437688 -0.23836283418195289 0 0.15090654410468329 -0.22688320449844629 0 0.15661990237239229 -0.21733625041789439 0 0.15090654410468329 -0.22688320449844629 0 0.1428531013616163 -0.21862443918074129 0 0.15090654410468329 -0.22688320449844629 0 0.13988621804673579 -0.23152362256679451 0 0.1428531013616163 -0.21862443918074129 0 0.12018370186474731 -0.23305432747703519 0 0.12895394136930069 -0.22163642029703709 0 0.13988621804673579 -0.23152362256679451 0 0.12895394136930069 -0.22163642029703709 0 0.13988621804673579 -0.23152362256679451 0 0.1428531013616163 -0.21862443918074129 0 0.1429630926125974 -0.2502577086919005 0 0.12018370186474731 -0.23305432747703519 0 0.1429630926125974 -0.2502577086919005 0 0.12018370186474731 -0.23305432747703519 0 0.13988621804673579 -0.23152362256679451 0 0.13217397618885759 -0.25462043987800831 0 0.1429630926125974 -0.2502577086919005 0 0.12018370186474731 -0.23305432747703519 0 0.16625281481800089 -0.2066948484094672 0 0.14534349251782941 -0.188833298464089 0 0.16625281481800089 -0.2066948484094672 0 0.14534349251782941 -0.188833298464089 0 0.14909823278687431 -0.20687378182447139 0 0.14534349251782941 -0.188833298464089 0 0.14909823278687431 -0.20687378182447139 0 0.1346280568372662 -0.20359450925845249 0 0.15661990237239229 -0.21733625041789439 0 0.14909823278687431 -0.20687378182447139 0 0.1428531013616163 -0.21862443918074129 0 0.14909823278687431 -0.20687378182447139 0 0.1428531013616163 -0.21862443918074129 0 0.1346280568372662 -0.20359450925845249 0 0.1178461100078927 -0.20838697738218431 0 0.12895394136930069 -0.22163642029703709 0 0.1346280568372662 -0.20359450925845249 0 0.12895394136930069 -0.22163642029703709 0 0.1428531013616163 -0.21862443918074129 0 0.1346280568372662 -0.20359450925845249 0 0.14534349251782941 -0.188833298464089 0 0.1346280568372662 -0.20359450925845249 0 0.13128332926409281 -0.18787359724935929 0 0.1237689835273371 -0.19605207676116951 0 0.1178461100078927 -0.20838697738218431 0 0.1346280568372662 -0.20359450925845249 0 0.1237689835273371 -0.19605207676116951 0 0.1346280568372662 -0.20359450925845249 0 0.13128332926409281 -0.18787359724935929 0 0.1237689835273371 -0.19605207676116951 0 0.1232013989280239 -0.1819146573535104 0 0.13128332926409281 -0.18787359724935929 0 0.12443417021765769 -0.1709717485187108 0 0.14534349251782941 -0.188833298464089 0 0.12443417021765769 -0.1709717485187108 0 0.1232013989280239 -0.1819146573535104 0 0.13128332926409281 -0.18787359724935929 0 0.12443417021765769 -0.1709717485187108 0 0.14534349251782941 -0.188833298464089 0 0.13128332926409281 -0.18787359724935929 0 0.12443417021765769 -0.1709717485187108 0 0.14534349251782941 -0.188833298464089 0 0.13540865390058859 -0.1688207667960602 0 0.14534349251782941 -0.188833298464089 0 0.14658871156029241 -0.16855183333999291 0 0.13540865390058859 -0.1688207667960602 0 0.16486725365112659 -0.18785963188663279 0 0.14658871156029241 -0.16855183333999291 0 0.16486725365112659 -0.18785963188663279 0 0.14534349251782941 -0.188833298464089 0 0.14658871156029241 -0.16855183333999291 0 0.14658871156029241 -0.16855183333999291 0 0.13391177650968769 -0.15242347890466901 0 0.14971917460686079 -0.1530450482394467 0 0.14658871156029241 -0.16855183333999291 0 0.14971917460686079 -0.1530450482394467 0 0.16192904395431579 -0.15800089119817939 0 0.14658871156029241 -0.16855183333999291 0 0.13391177650968769 -0.15242347890466901 0 0.12831016946945831 -0.1492440347933528 0 0.14658871156029241 -0.16855183333999291 0 0.12831016946945831 -0.1492440347933528 0 0.14658871156029241 -0.16855183333999291 0 0.13540865390058859 -0.1688207667960602 0 0.1290045142054978 -0.1612372837293575 0 0.14658871156029241 -0.16855183333999291 0 0.1290045142054978 -0.1612372837293575 0 0.12831016946945831 -0.1492440347933528 0 0.13540865390058859 -0.1688207667960602 0 0.12715697753007521 -0.16591248018761531 0 0.1290045142054978 -0.1612372837293575 0 0.12443417021765769 -0.1709717485187108 0 0.13540865390058859 -0.1688207667960602 0 0.12715697753007521 -0.16591248018761531 0 0.12098675462827781 -0.16200852072179159 0 0.12715697753007521 -0.16591248018761531 0 0.1290045142054978 -0.1612372837293575 0 0.12324902196630889 -0.15465793599018671 0 0.1227471198665283 -0.15880086614903269 0 0.1290045142054978 -0.1612372837293575 0 0.13391177650968769 -0.15242347890466901 0 0.12831016946945831 -0.1492440347933528 0 0.12532898621889721 -0.13663811256420449 0 0.12324902196630889 -0.15465793599018671 0 0.1290045142054978 -0.1612372837293575 0 0.12831016946945831 -0.1492440347933528 0 0.1217036921304827 -0.1482443959076799 0 0.12831016946945831 -0.1492440347933528 0 0.12532898621889721 -0.13663811256420449 0 0.13391177650968769 -0.15242347890466901 0 0.13188977167139071 -0.12546883223523481 0 0.13391177650968769 -0.15242347890466901 0 0.13188977167139071 -0.12546883223523481 0 0.1446303542042412 -0.1380662602394005 0 0.13391177650968769 -0.15242347890466901 0 0.13188977167139071 -0.12546883223523481 0 0.12532898621889721 -0.13663811256420449 0 0.11997683785091839 -0.1276371159963853 0 0.13188977167139071 -0.12546883223523481 0 0.12532898621889721 -0.13663811256420449 0 0.1446303542042412 -0.1380662602394005 0 0.15557261582888751 -0.13003178131142151 0 0.1621281360659286 -0.14191921566573409 0 0.14724036225017881 -0.1245170930860646 0 0.13188977167139071 -0.12546883223523481 0 0.1446303542042412 -0.1380662602394005 0 0.14724036225017881 -0.1245170930860646 0 0.1446303542042412 -0.1380662602394005 0 0.15557261582888751 -0.13003178131142151 0 0.13391177650968769 -0.15242347890466901 0 0.1446303542042412 -0.1380662602394005 0 0.14971917460686079 -0.1530450482394467 0 0.1446303542042412 -0.1380662602394005 0 0.14971917460686079 -0.1530450482394467 0 0.1621281360659286 -0.14191921566573409 0 0.1621281360659286 -0.14191921566573409 0 0.17324983187337631 -0.13165498831909611 0 0.17651024624945799 -0.1485415537171802 0 0.14971917460686079 -0.1530450482394467 0 0.1621281360659286 -0.14191921566573409 0 0.16192904395431579 -0.15800089119817939 0 0.1621281360659286 -0.14191921566573409 0 0.17651024624945799 -0.1485415537171802 0 0.16192904395431579 -0.15800089119817939 0 0.16471491079178111 -0.1205264202314431 0 0.15557261582888751 -0.13003178131142151 0 0.1639163736399934 -0.1310331013819237 0 0.15557261582888751 -0.13003178131142151 0 0.1621281360659286 -0.14191921566573409 0 0.1639163736399934 -0.1310331013819237 0 0.1621281360659286 -0.14191921566573409 0 0.1639163736399934 -0.1310331013819237 0 0.17324983187337631 -0.13165498831909611 0 0.16471491079178111 -0.1205264202314431 0 0.1639163736399934 -0.1310331013819237 0 0.17324983187337631 -0.13165498831909611 0 0.1862357176231304 -0.1238823921021804 0 0.1919305776748628 -0.1461990482496055 0 0.17324983187337631 -0.13165498831909611 0 0.1919305776748628 -0.1461990482496055 0 0.17324983187337631 -0.13165498831909611 0 0.17651024624945799 -0.1485415537171802 0 0.1919305776748628 -0.1461990482496055 0 0.19225769977326759 -0.16432491474026781 0 0.17651024624945799 -0.1485415537171802 0 0.19225769977326759 -0.16432491474026781 0 0.17526083145963689 -0.16308053239281189 0 0.17982600751226671 -0.1762593337595659 0 0.19225769977326759 -0.16432491474026781 0 0.17651024624945799 -0.1485415537171802 0 0.17526083145963689 -0.16308053239281189 0 0.17526083145963689 -0.16308053239281189 0 0.17982600751226671 -0.1762593337595659 0 0.16627328335530381 -0.17069773137902189 0 0.1840061663436266 -0.1900566622106199 0 0.16486725365112659 -0.18785963188663279 0 0.17982600751226671 -0.1762593337595659 0 0.19629081049063871 -0.1815365299480412 0 0.1840061663436266 -0.1900566622106199 0 0.17982600751226671 -0.1762593337595659 0 0.16486725365112659 -0.18785963188663279 0 0.14658871156029241 -0.16855183333999291 0 0.16627328335530381 -0.17069773137902189 0 0.16486725365112659 -0.18785963188663279 0 0.17982600751226671 -0.1762593337595659 0 0.16627328335530381 -0.17069773137902189 0 0.14658871156029241 -0.16855183333999291 0 0.16192904395431579 -0.15800089119817939 0 0.16627328335530381 -0.17069773137902189 0 0.17526083145963689 -0.16308053239281189 0 0.16192904395431579 -0.15800089119817939 0 0.16627328335530381 -0.17069773137902189 0 0.17651024624945799 -0.1485415537171802 0 0.17526083145963689 -0.16308053239281189 0 0.16192904395431579 -0.15800089119817939 0 
</DataArray>
</Points>
<Cells>
<DataArray type="UInt32" Name="connectivity" format="ascii">
0 1 2 3 4 5 6 7 8 9 10 11 12 13 14 15 16 17 18 19 20 21 22 23 24 25 26 27 28 29 30 31 32 33 34 35 36 37 38 39 40 41 42 43 44 45 46 47 48 49 50 51 52 53 54 55 56 57 58 59 60 61 62 63 64 65 66 67 68 69 70 71 72 73 74 75 76 77 78 79 80 81 82 83 84 85 86 87 88 89 90 91 92 93 94 95 96 97 98 99 100 101 102 103 104 105 106 107 108 109 110 111 112 113 114 115 116 117 118 119 120 121 122 123 124 125 126 127 128 129 130 131 132 133 134 135 136 137 138 139 140 141 142 143 144 145 146 147 148 149 150 151 152 153 154 155 156 157 158 159 160 161 162 163 164 165 166 167 168 169 170 171 172 173 174 175 176 177 178 179 180 181 182 183 184 185 186 187 188 189 190 191 192 193 194 195 196 197 198 199 200 201 202 203 204 205 206 207 208 209 210 211 212 213 214 215 216 217 218 219 220 221 222 223 224 225 226 227 228 229 230 231 232 233 234 235 236 237 238 239 240 241 242 243 244 245 246 247 248 249 250 251 252 253 254 255 256 257 258 259 260 261 262 263 264 265 266 267 268 269 270 271 272 273 274 275 276 277 278 279 280 281 282 283 284 285 286 287 288 289 290 291 292 293 294 295 296 297 298 299 300 301 302 303 304 305 306 307 308 309 310 311 312 313 314 315 316 317 318 319 320 321 322 323 324 325 326 327 328 329 330 331 332 333 334 335 336 337 338 339 340 341 342 343 344 345 346 347 348 349 350 351 352 353 354 355 356 357 358 359 360 361 362 363 364 365 366 367 368 369 370 371 372 373 374 375 376 377 378 379 380 381 382 383 384 385 386 387 388 389 390 391 392 393 394 395 396 397 398 399 400 401 402 403 404 405 406 407 408 409 410 411 412 413 414 415 416 417 418 419 420 421 422 423 424 425 426 427 428 429 430 431 432 433 434 435 436 437 438 439 440 441 442 443 444 445 446 447 448 449 450 451 452 453 454 455 456 457 458 459 460 461 462 463 464 465 466 467 468 469 470 471 472 473 474 475 476 477 478 479 480 481 482 483 484 485 486 487 488 489 490 491 492 493 494 495 496 497 498 499 500 501 502 503 504 505 506 507 508 509 510 511 512 513 514 515 516 517 518 519 520 521 522 523 524 525 526 527 528 529 530 531 532 533 534 535 536 537 538 539 540 541 542 543 544 545 546 547 548 549 550 551 552 553 554 555 556 557 558 559 560 561 562 563 564 565 566 567 568 569 570 571 572 573 574 575 576 577 578 579 580 581 582 583 584 585 586 587 588 589 590 591 592 593 594 595 596 597 598 599 600 601 602 603 604 605 606 607 608 609 610 611 612 613 614 615 616 617 618 619 620 621 622 623 624 625 626 627 628 629 630 631 632 633 634 635 636 637 638 639 640 641 642 643 644 645 646 647 648 649 650 651 652 653 654 655 656 657 658 659 660 661 662 663 664 665 666 667 668 669 670 671 672 673 674 675 676 677 678 679 680 681 682 683 684 685 686 687 688 689 690 691 692 693 694 695 696 697 698 699 700 701 702 703 704 705 706 707 708 709 710 711 712 713 714 715 716 717 718 719 720 721 722 723 724 725 726 727 728 729 730 731 732 733 734 735 736 737 738 739 740 741 742 743 744 745 746 747 748 749 750 751 752 753 754 755 756 757 758 759 760 761 762 763 764 765 766 767 768 769 770 771 772 773 774 775 776 777 778 779 780 781 782 783 784 785 786 787 788 789 790 791 792 793 794 795 796 797 798 799 800 801 802 803 804 805 806 807 808 809 810 811 812 813 814 815 816 817 818 819 820 821 822 823 824 825 826 827 828 829 830 831 832 833 834 835 836 837 838 839 840 841 842 843 844 845 846 847 848 849 850 851 852 853 854 855 856 857 858 859 860 861 862 863 864 865 866 867 868 869 870 871 872 873 874 875 876 877 878 879 880 881 882 883 884 885 886 887 888 889 890 891 892 893 894 895 896 897 898 899 900 901 902 903 904 905 906 907 908 909 910 911 912 913 914 915 916 917 918 919 920 921 922 923 924 925 926 927 928 929 930 931 932 933 934 935 936 937 938 939 940 941 942 943 944 945 946 947 948 949 950 951 952 953 954 955 956 957 958 959 960 961 962 963 964 965 966 967 968 969 970 971 972 973 974 975 976 977 978 979 980 981 982 983 984 985 986 987 988 989 990 991 992 993 994 995 996 997 998 999 1000 1001 1002 1003 1004 1005 1006 1007 1008 1009 1010 1011 1012 1013 1014 1015 1016 1017 1018 1019 1020 1021 1022 1023 1024 1025 1026 1027 1028 1029 1030 1031 1032 1033 1034 1035 1036 1037 1038 1039 1040 1041 1042 1043 1044 1045 1046 1047 1048 1049 1050 1051 1052 1053 1054 1055 1056 1057 1058 1059 1060 1061 1062 1063 1064 1065 1066 1067 1068 1069 1070 1071 1072 1073 1074 1075 1076 1077 1078 1079 1080 1081 1082 1083 1084 1085 1086 1087 1088 1089 1090 1091 1092 1093 1094 1095 1096 1097 1098 1099 1100 1101 1102 1103 1104 1105 1106 1107 1108 1109 1110 1111 1112 1113 1114 1115 1116 1117 1118 1119 1120 1121 1122 1123 1124 1125 1126 1127 1128 1129 1130 1131 1132 1133 1134 1135 1136 1137 1138 1139 1140 1141 1142 1143 1144 1145 1146 1147 1148 1149 1150 1151 1152 1153 1154 1155 1156 1157 1158 1159 1160 1161 1162 1163 1164 1165 1166 1167 1168 1169 1170 1171 1172 1173 1174 1175 1176 1177 1178 1179 1180 1181 1182 1183 1184 1185 1186 1187 1188 1189 1190 1191 1192 1193 1194 1195 1196 1197 1198 1199 1200 1201 1202 1203 1204 1205 1206 1207 1208 1209 1210 1211 1212 1213 1214 1215 1216 1217 1218 1219 1220 1221 1222 1223 1224 1225 1226 1227 1228 1229 1230 1231 1232 1233 1234 1235 1236 1237 1238 1239 1240 1241 1242 1243 1244 1245 1246 1247 1248 1249 1250 1251 1252 1253 1254 1255 1256 1257 1258 1259 1260 1261 1262 1263 1264 1265 1266 1267 1268 1269 1270 1271 1272 1273 1274 1275 1276 1277 1278 1279 1280 1281 1282 1283 1284 1285 1286 1287 1288 1289 1290 1291 1292 1293 1294 1295 1296 1297 1298 1299 1300 1301 1302 1303 1304 1305 1306 1307 1308 1309 1310 1311 1312 1313 1314 1315 1316 1317 1318 1319 1320 1321 1322 1323 1324 1325 1326 1327 1328 1329 1330 1331 1332 1333 1334 1335 1336 1337 1338 1339 1340 1341 1342 1343 1344 1345 1346 1347 1348 1349 1350 1351 1352 1353 1354 1355 1356 1357 1358 1359 1360 1361 1362 1363 1364 1365 1366 1367 1368 1369 1370 1371 1372 1373 1374 1375 1376 1377 1378 1379 1380 1381 1382 1383 1384 1385 1386 1387 1388 1389 1390 1391 1392 1393 1394 1395 1396 1397 1398 1399 1400 1401 1402 1403 1404 1405 1406 1407 1408 1409 1410 1411 1412 1413 1414 1415 1416 1417 1418 1419 1420 1421 1422 1423 1424 1425 1426 1427 1428 1429 1430 1431 1432 1433 1434 1435 1436 1437 1438 1439 1440 1441 1442 1443 1444 1445 1446 1447 1448 1449 1450 1451 1452 1453 1454 1455 1456 1457 1458 1459 1460 1461 1462 1463 1464 1465 1466 1467 1468 1469 1470 1471 1472 1473 1474 1475 1476 1477 1478 1479 1480 1481 1482 1483 1484 1485 1486 1487 1488 1489 1490 1491 1492 1493 1494 1495 1496 1497 1498 1499 1500 1501 1502 1503 1504 1505 1506 1507 1508 1509 1510 1511 1512 1513 1514 1515 1516 1517 1518 1519 1520 1521 1522 1523 1524 1525 1526 1527 1528 1529 1530 1531 1532 1533 1534 1535 1536 1537 1538 1539 1540 1541 1542 1543 1544 1545 1546 1547 1548 1549 1550 1551 1552 1553 1554 1555 1556 1557 1558 1559 1560 1561 1562 1563 1564 1565 1566 1567 1568 1569 1570 1571 1572 1573 1574 1575 1576 1577 1578 1579 1580 1581 1582 1583 1584 1585 1586 1587 1588 1589 1590 1591 1592 1593 1594 1595 1596 1597 1598 1599 1600 1601 1602 1603 1604 1605 1606 1607 1608 1609 1610 1611 1612 1613 1614 1615 1616 1617 1618 1619 1620 1621 1622 1623 1624 1625 1626 1627 1628 1629 1630 1631 1632 1633 1634 1635 1636 1637 1638 1639 1640 1641 1642 1643 1644 1645 1646 1647 1648 1649 1650 1651 1652 1653 1654 1655 1656 1657 1658 1659 1660 1661 1662 1663 1664 1665 1666 1667 1668 1669 1670 1671 1672 1673 1674 1675 1676 1677 1678 1679 1680 1681 1682 1683 1684 1685 1686 1687 1688 1689 1690 1691 1692 1693 1694 1695 1696 1697 1698 1699 1700 1701 1702 1703 1704 1705 1706 1707 1708 1709 1710 1711 1712 1713 1714 1715 1716 1717 1718 1719 1720 1721 1722 1723 1724 1725 1726 1727 1728 1729 1730 1731 1732 1733 1734 1735 1736 1737 1738 1739 1740 1741 1742 1743 1744 1745 1746 1747 1748 1749 1750 1751 1752 1753 1754 1755 1756 1757 1758 1759 1760 1761 1762 1763 1764 1765 1766 1767 1768 1769 1770 1771 1772 1773 1774 1775 1776 1777 1778 1779 1780 1781 1782 1783 1784 1785 1786 1787 1788 1789 1790 1791 1792 1793 1794 1795 1796 1797 1798 1799 1800 1801 1802 1803 1804 1805 1806 1807 1808 1809 1810 1811 1812 1813 1814 1815 1816 1817 1818 1819 1820 1821 1822 1823 1824 1825 1826 1827 1828 1829 1830 1831 1832 1833 1834 1835 1836 1837 1838 1839 1840 1841 1842 1843 1844 1845 1846 1847 1848 1849 1850 1851 1852 1853 1854 1855 1856 1857 1858 1859 1860 1861 1862 1863 1864 1865 1866 1867 1868 1869 1870 1871 1872 1873 1874 1875 1876 1877 1878 1879 1880 1881 1882 1883 1884 1885 1886 1887 1888 1889 1890 1891 1892 1893 1894 1895 1896 1897 1898 1899 1900 1901 1902 1903 1904 1905 1906 1907 1908 1909 1910 1911 1912 1913 1914 1915 1916 1917 1918 1919 1920 1921 1922 1923 1924 1925 1926 1927 1928 1929 1930 1931 1932 1933 1934 1935 1936 1937 1938 1939 1940 1941 1942 1943 1944 1945 1946 1947 1948 1949 1950 1951 1952 1953 1954 1955 1956 1957 1958 1959 1960 1961 1962 1963 1964 1965 1966 1967 1968 1969 1970 1971 1972 1973 1974 1975 1976 1977 1978 1979 1980 1981 1982 1983 1984 1985 1986 1987 1988 1989 1990 1991 1992 1993 1994 1995 1996 1997 1998 1999 2000 2001 2002 2003 2004 2005 2006 2007 2008 2009 2010 2011 2012 2013 2014 2015 2016 2017 2018 2019 2020 2021 2022 2023 2024 2025 2026 2027 2028 2029 2030 2031 2032 2033 2034 2035 2036 2037 2038 2039 2040 2041 2042 2043 2044 2045 2046 2047 2048 2049 2050 2051 2052 2053 2054 2055 2056 2057 2058 2059 2060 2061 2062 2063 2064 2065 2066 2067 2068 2069 2070 2071 2072 2073 2074 2075 2076 2077 2078 2079 2080 2081 2082 2083 2084 2085 2086 2087 2088 2089 2090 2091 2092 2093 2094 2095 2096 2097 2098 2099 2100 2101 2102 2103 2104 2105 2106 2107 2108 2109 2110 2111 2112 2113 2114 2115 2116 2117 2118 2119 2120 2121 2122 2123 2124 2125 2126 2127 2128 2129 2130 2131 2132 2133 2134 2135 2136 2137 2138 2139 2140 2141 2142 2143 2144 2145 2146 2147 2148 2149 2150 2151 2152 2153 2154 2155 2156 2157 2158 2159 2160 2161 2162 2163 2164 2165 2166 2167 2168 2169 2170 2171 2172 2173 2174 2175 2176 2177 2178 2179 2180 2181 2182 2183 2184 2185 2186 2187 2188 2189 2190 2191 2192 2193 2194 2195 2196 2197 2198 2199 2200 2201 2202 2203 2204 2205 2206 2207 2208 2209 2210 2211 2212 2213 2214 2215 2216 2217 2218 2219 2220 2221 2222 2223 2224 2225 2226 2227 2228 2229 2230 2231 2232 2233 2234 2235 2236 2237 2238 2239 2240 2241 2242 2243 2244 2245 2246 2247 2248 2249 2250 2251 2252 2253 2254 2255 2256 2257 2258 2259 2260 2261 2262 2263 2264 2265 2266 2267 2268 2269 2270 2271 2272 2273 2274 2275 2276 2277 2278 2279 2280 2281 2282 2283 2284 2285 2286 2287 2288 2289 2290 2291 2292 2293 2294 2295 2296 2297 2298 2299 2300 2301 2302 2303 2304 2305 2306 2307 2308 2309 2310 2311 2312 2313 2314 2315 2316 2317 2318 2319 2320 2321 2322 2323 2324 2325 2326 2327 2328 2329 2330 2331 2332 2333 2334 2335 2336 2337 2338 2339 2340 2341 2342 2343 2344 2345 2346 2347 2348 2349 2350 2351 2352 2353 2354 2355 2356 2357 2358 2359 2360 2361 2362 2363 2364 2365 2366 2367 2368 2369 2370 2371 2372 2373 2374 2375 2376 2377 2378 2379 2380 2381 2382 2383 2384 2385 2386 2387 2388 2389 2390 2391 2392 2393 2394 2395 2396 2397 2398 2399 2400 2401 2402 2403 2404 2405 2406 2407 2408 2409 2410 2411 2412 2413 2414 2415 2416 2417 2418 2419 2420 2421 2422 2423 2424 2425 2426 2427 2428 2429 2430 2431 2432 2433 2434 2435 2436 2437 2438 2439 2440 2441 2442 2443 2444 2445 2446 2447 2448 2449 2450 2451 2452 2453 2454 2455 2456 2457 2458 2459 2460 2461 2462 2463 2464 2465 2466 2467 2468 2469 2470 2471 2472 2473 2474 2475 2476 2477 2478 2479 2480 2481 2482 2483 2484 2485 2486 2487 2488 2489 2490 2491 2492 2493 2494 2495 2496 2497 2498 2499 2500 2501 2502 2503 2504 2505 2506 2507 2508 2509 2510 2511 2512 2513 2514 2515 2516 2517 2518 2519 2520 2521 2522 2523 2524 2525 2526 2527 2528 2529 2530 2531 2532 2533 2534 2535 2536 2537 2538 2539 2540 2541 2542 2543 2544 2545 2546 2547 2548 2549 2550 2551 2552 2553 2554 2555 2556 2557 2558 2559 2560 2561 2562 2563 2564 2565 2566 2567 2568 2569 2570 2571 2572 2573 2574 2575 2576 2577 2578 2579 2580 2581 2582 2583 2584 2585 2586 2587 2588 2589 2590 2591 2592 2593 2594 2595 2596 2597 2598 2599 2600 2601 2602 2603 2604 2605 2606 2607 2608 2609 2610 2611 2612 2613 2614 2615 2616 2617 2618 2619 2620 2621 2622 2623 2624 2625 2626 2627 2628 2629 2630 2631 2632 2633 2634 2635 2636 2637 2638 2639 2640 2641 2642 2643 2644 2645 2646 2647 2648 2649 2650 2651 2652 2653 2654 2655 2656 2657 2658 2659 2660 2661 2662 2663 2664 2665 2666 2667 2668 2669 2670 2671 2672 2673 2674 2675 2676 2677 2678 2679 2680 2681 2682 2683 2684 2685 2686 2687 2688 2689 2690 2691 2692 2693 2694 2695 2696 2697 2698 2699 2700 2701 2702 2703 2704 2705 2706 2707 2708 2709 2710 2711 2712 2713 2714 2715 2716 2717 2718 2719 2720 2721 2722 2723 2724 2725 2726 2727 2728 2729 2730 2731 2732 2733 2734 2735 2736 2737 2738 2739 2740 2741 2742 2743 2744 2745 2746 2747 2748 2749 2750 2751 2752 2753 2754 2755 2756 2757 2758 2759 2760 2761 2762 2763 2764 2765 2766 2767 2768 2769 2770 2771 2772 2773 2774 2775 2776 2777 2778 2779 2780 2781 2782 2783 2784 2785 2786 2787 2788 2789 2790 2791 2792 2793 2794 2795 2796 2797 2798 2799 2800 2801 2802 2803 2804 2805 2806 2807 2808 2809 2810 2811 2812 2813 2814 2815 2816 2817 2818 2819 2820 2821 2822 2823 2824 2825 2826 2827 2828 2829 2830 2831 2832 2833 2834 2835 2836 2837 2838 2839 2840 2841 2842 2843 2844 2845 2846 2847 2848 2849 2850 2851 2852 2853 2854 2855 2856 2857 2858 2859 2860 2861 2862 2863 2864 2865 2866 2867 2868 2869 2870 2871 2872 2873 2874 2875 2876 2877 2878 2879 2880 2881 2882 2883 2884 2885 2886 2887 2888 2889 2890 2891 2892 2893 2894 2895 2896 2897 2898 2899 2900 2901 2902 2903 2904 2905 2906 2907 2908 2909 2910 2911 2912 2913 2914 2915 2916 2917 2918 2919 2920 2921 2922 2923 2924 2925 2926 2927 2928 2929 2930 2931 2932 2933 2934 2935 2936 2937 2938 2939 2940 2941 2942 2943 2944 2945 2946 2947 2948 2949 2950 2951 2952 2953 2954 2955 2956 2957 2958 2959 2960 2961 2962 2963 2964 2965 2966 2967 2968 2969 2970 2971 2972 2973 2974 2975 2976 2977 2978 2979 2980 2981 2982 2983 2984 2985 2986 2987 2988 2989 2990 2991 2992 2993 2994 2995 2996 2997 2998 2999 3000 3001 3002 3003 3004 3005 3006 3007 3008 3009 3010 3011 3012 3013 3014 3015 3016 3017 3018 3019 3020 3021 3022 3023 3024 3025 3026 3027 3028 3029 3030 3031 3032 3033 3034 3035 3036 3037 3038 3039 3040 3041 3042 3043 3044 3045 3046 3047 3048 3049 3050 3051 3052 3053 3054 3055 3056 3057 3058 3059 3060 3061 3062 3063 3064 3065 3066 3067 3068 3069 3070 3071 3072 3073 3074 3075 3076 3077 3078 3079 3080 3081 3082 3083 3084 3085 3086 3087 3088 3089 3090 3091 3092 3093 3094 3095 3096 3097 3098 3099 3100 3101 3102 3103 3104 3105 3106 3107 3108 3109 3110 3111 3112 3113 3114 3115 3116 3117 3118 3119 3120 3121 3122 3123 3124 3125 3126 3127 3128 3129 3130 3131 3132 3133 3134 3135 3136 3137 3138 3139 3140 3141 3142 3143 3144 3145 3146 3147 3148 3149 3150 3151 3152 3153 3154 3155 3156 3157 3158 3159 3160 3161 3162 3163 3164 3165 3166 3167 3168 3169 3170 3171 3172 3173 3174 3175 3176 3177 3178 3179 3180 3181 3182 3183 3184 3185 3186 3187 3188 3189 3190 3191 3192 3193 3194 3195 3196 3197 3198 3199 3200 3201 3202 3203 3204 3205 3206 3207 3208 3209 3210 3211 3212 3213 3214 3215 3216 3217 3218 3219 3220 3221 3222 3223 3224 3225 3226 3227 3228 3229 3230 3231 3232 3233 3234 3235 3236 3237 3238 3239 3240 3241 3242 3243 3244 3245 3246 3247 3248 3249 3250 3251 3252 3253 3254 3255 3256 3257 3258 3259 3260 3261 3262 3263 3264 3265 3266 3267 3268 3269 3270 3271 3272 3273 3274 3275 3276 3277 3278 3279 3280 3281 3282 3283 3284 3285 3286 3287 3288 3289 3290 3291 3292 3293 3294 3295 3296 3297 3298 3299 3300 3301 3302 3303 3304 3305 3306 3307 3308 3309 3310 3311 3312 3313 3314 3315 3316 3317 3318 3319 3320 3321 3322 3323 3324 3325 3326 3327 3328 3329 3330 3331 3332 3333 3334 3335 3336 3337 3338 3339 3340 3341 3342 3343 3344 3345 3346 3347 3348 3349 3350 3351 3352 3353 3354 3355 3356 3357 3358 3359 3360 3361 3362 3363 3364 3365 3366 3367 3368 3369 3370 3371 3372 3373 3374 3375 3376 3377 3378 3379 3380 3381 3382 3383 3384 3385 3386 3387 3388 3389 3390 3391 3392 3393 3394 3395 3396 3397 3398 3399 3400 3401 3402 3403 3404 3405 3406 3407 3408 3409 3410 3411 3412 3413 3414 3415 3416 3417 3418 3419 3420 3421 3422 3423 3424 3425 3426 3427 3428 3429 3430 3431 3432 3433 3434 3435 3436 3437 3438 3439 3440 3441 3442 3443 3444 3445 3446 3447 3448 3449 3450 3451 3452 3453 3454 3455 3456 3457 3458 3459 3460 3461 3462 3463 3464 3465 3466 3467 3468 3469 3470 3471 3472 3473 3474 3475 3476 3477 3478 3479 3480 3481 3482 3483 3484 3485 3486 3487 3488 3489 3490 3491 3492 3493 3494 3495 3496 3497 3498 3499 3500 3501 3502 3503 3504 3505 3506 3507 3508 3509 3510 3511 3512 3513 3514 3515 3516 3517 3518 3519 3520 3521 3522 3523 3524 3525 3526 3527 3528 3529 3530 3531 3532 3533 3534 3535 3536 3537 3538 3539 3540 3541 3542 3543 3544 3545 3546 3547 3548 3549 3550 3551 3552 3553 3554 3555 3556 3557 3558 3559 3560 3561 3562 3563 3564 3565 3566 3567 3568 3569 3570 3571 3572 3573 3574 3575 3576 3577 3578 3579 3580 3581 3582 3583 3584 3585 3586 3587 3588 3589 3590 3591 3592 3593 3594 3595 3596 3597 3598 3599 3600 3601 3602 3603 3604 3605 3606 3607 3608 3609 3610 3611 3612 3613 3614 3615 3616 3617 3618 3619 3620 3621 3622 3623 3624 3625 3626 3627 3628 3629 3630 3631 3632 3633 3634 3635 3636 3637 3638 3639 3640 3641 3642 3643 3644 3645 3646 3647 3648 3649 3650 3651 3652 3653 3654 3655 3656 3657 3658 3659 3660 3661 3662 3663 3664 3665 3666 3667 3668 3669 3670 3671 3672 3673 3674 3675 3676 3677 3678 3679 3680 3681 3682 3683 3684 3685 3686 3687 3688 3689 3690 3691 3692 3693 3694 3695 3696 3697 3698 3699 3700 3701 3702 3703 3704 3705 3706 3707 3708 3709 3710 3711 3712 3713 3714 3715 3716 3717 3718 3719 3720 3721 3722 3723 3724 3725 3726 3727 3728 3729 3730 3731 3732 3733 3734 3735 3736 3737 3738 3739 3740 3741 3742 3743 3744 3745 3746 3747 3748 3749 3750 3751 3752 3753 3754 3755 3756 3757 3758 3759 3760 3761 3762 3763 3764 3765 3766 3767 3768 3769 3770 3771 3772 3773 3774 3775 3776 3777 3778 3779 3780 3781 3782 3783 3784 3785 3786 3787 3788 3789 3790 3791 3792 3793 3794 3795 3796 3797 3798 3799 3800 3801 3802 3803 3804 3805 3806 3807 3808 3809 3810 3811 3812 3813 3814 3815 3816 3817 3818 3819 3820 3821 3822 3823 3824 3825 3826 3827 3828 3829 3830 3831 3832 3833 3834 3835 3836 3837 3838 3839 3840 3841 3842 3843 3844 3845 3846 3847 3848 3849 3850 3851 3852 3853 3854 3855 3856 3857 3858 3859 3860 3861 3862 3863 3864 3865 3866 3867 3868 3869 3870 3871 3872 3873 3874 3875 3876 3877 3878 3879 3880 3881 3882 3883 3884 3885 3886 3887 3888 3889 3890 3891 3892 3893 3894 3895 3896 3897 3898 3899 3900 3901 3902 3903 3904 3905 3906 3907 3908 3909 3910 3911 3912 3913 3914 3915 3916 3917 3918 3919 3920 3921 3922 3923 3924 3925 3926 3927 3928 3929 3930 3931 3932 3933 3934 3935 3936 3937 3938 3939 3940 3941 3942 3943 3944 3945 3946 3947 3948 3949 3950 3951 3952 3953 3954 3955 3956 3957 3958 3959 3960 3961 3962 3963 3964 3965 3966 3967 3968 3969 3970 3971 3972 3973 3974 3975 3976 3977 3978 3979 3980 3981 3982 3983 3984 3985 3986 3987 3988 3989 3990 3991 3992 3993 3994 3995 3996 3997 3998 3999 4000 4001 4002 4003 4004 4005 4006 4007 4008 4009 4010 4011 4012 4013 4014 4015 4016 4017 4018 4019 4020 4021 4022 4023 4024 4025 4026 4027 4028 4029 4030 4031 4032 4033 4034 4035 4036 4037 4038 4039 4040 4041 4042 4043 4044 4045 4046 4047 4048 4049 4050 4051 4052 4053 4054 4055 4056 4057 4058 4059 4060 4061 4062 4063 4064 4065 4066 4067 4068 4069 4070 4071 4072 4073 4074 4075 4076 4077 4078 4079 4080 4081 4082 4083 4084 4085 4086 4087 4088 4089 4090 4091 4092 4093 4094 4095 4096 4097 4098 4099 4100 4101 4102 4103 4104 4105 4106 4107 4108 4109 4110 4111 4112 4113 4114 4115 4116 4117 4118 4119 4120 4121 4122 4123 4124 4125 4126 4127 4128 4129 4130 4131 4132 4133 4134 4135 4136 4137 4138 4139 4140 4141 4142 4143 4144 4145 4146 4147 4148 4149 4150 4151 4152 4153 4154 4155 4156 4157 4158 4159 4160 4161 4162 4163 4164 4165 4166 4167 4168 4169 4170 4171 4172 4173 4174 4175 4176 4177 4178 4179 4180 4181 4182 4183 4184 4185 4186 4187 4188 4189 4190 4191 4192 4193 4194 4195 4196 4197 4198 4199 4200 4201 4202 4203 4204 4205 4206 4207 4208 4209 4210 4211 4212 4213 4214 4215 4216 4217 4218 4219 4220 4221 4222 4223 4224 4225 4226 4227 4228 4229 4230 4231 4232 4233 4234 4235 4236 4237 4238 4239 4240 4241 4242 4243 4244 4245 4246 4247 4248 4249 4250 4251 4252 4253 4254 4255 4256 4257 4258 4259 4260 4261 4262 4263 4264 4265 4266 4267 4268 4269 4270 4271 4272 4273 4274 4275 4276 4277 4278 4279 4280 4281 4282 4283 4284 4285 4286 4287 4288 4289 4290 4291 4292 4293 4294 4295 4296 4297 4298 4299 4300 4301 4302 4303 4304 4305 4306 4307 4308 4309 4310 4311 4312 4313 4314 4315 4316 4317 4318 4319 4320 4321 4322 4323 4324 4325 4326 4327 4328 4329 4330 4331 4332 4333 4334 4335 4336 4337 4338 4339 4340 4341 4342 4343 4344 4345 4346 4347 4348 4349 4350 4351 4352 4353 4354 4355 4356 4357 4358 4359 4360 4361 4362 4363 4364 4365 4366 4367 4368 4369 4370 4371 4372 4373 4374 4375 4376 4377 4378 4379 4380 4381 4382 4383 4384 4385 4386 4387 4388 4389 4390 4391 4392 4393 4394 4395 4396 4397 4398 4399 4400 4401 4402 4403 4404 4405 4406 4407 4408 4409 4410 4411 4412 4413 4414 4415 4416 4417 4418 4419 4420 4421 4422 4423 4424 4425 4426 4427 4428 4429 4430 4431 4432 4433 4434 4435 4436 4437 4438 4439 4440 4441 4442 4443 4444 4445 4446 4447 4448 4449 4450 4451 4452 4453 4454 4455 4456 4457 4458 4459 4460 4461 4462 4463 4464 4465 4466 4467 4468 4469 4470 4471 4472 4473 4474 4475 4476 4477 4478 4479 4480 4481 4482 4483 4484 4485 4486 4487 4488 4489 4490 4491 4492 4493 4494 4495 4496 4497 4498 4499 4500 4501 4502 4503 4504 4505 4506 4507 4508 4509 4510 4511 4512 4513 4514 4515 4516 4517 4518 4519 4520 4521 4522 4523 4524 4525 4526 4527 4528 4529 4530 4531 4532 4533 4534 4535 4536 4537 4538 4539 4540 4541 4542 4543 4544 4545 4546 4547 4548 4549 4550 4551 4552 4553 4554 4555 4556 4557 4558 4559 4560 4561 4562 4563 4564 4565 4566 4567 4568 4569 4570 4571 4572 4573 4574 4575 4576 4577 4578 4579 4580 4581 4582 4583 4584 4585 4586 4587 4588 4589 4590 4591 4592 4593 4594 4595 4596 4597 4598 4599 4600 4601 4602 4603 4604 4605 4606 4607 4608 4609 4610 4611 4612 4613 4614 4615 4616 4617 4618 4619 4620 4621 4622 4623 4624 4625 4626 4627 4628 4629 4630 4631 4632 4633 4634 4635 4636 4637 4638 4639 4640 4641 4642 4643 4644 4645 4646 4647 4648 4649 4650 4651 4652 4653 4654 4655 4656 4657 4658 4659 4660 4661 4662 4663 4664 4665 4666 4667 4668 4669 4670 4671 4672 4673 4674 4675 4676 4677 4678 4679 4680 4681 4682 4683 4684 4685 4686 4687 4688 4689 4690 4691 4692 4693 4694 4695 4696 4697 4698 4699 4700 4701 4702 4703 4704 4705 4706 4707 4708 4709 4710 4711 4712 4713 4714 4715 4716 4717 4718 4719 4720 4721 4722 4723 4724 4725 4726 4727 4728 4729 4730 4731 4732 4733 4734 4735 4736 4737 4738 4739 4740 4741 4742 4743 4744 4745 4746 4747 4748 4749 4750 4751 4752 4753 4754 4755 4756 4757 4758 4759 4760 4761 4762 4763 4764 4765 4766 4767 4768 4769 4770 4771 4772 4773 4774 4775 4776 4777 4778 4779 4780 4781 4782 4783 4784 4785 4786 4787 4788 4789 4790 4791 4792 4793 4794 4795 4796 4797 4798 4799 4800 4801 4802 4803 4804 4805 4806 4807 4808 4809 4810 4811 4812 4813 4814 4815 4816 4817 4818 4819 4820 4821 4822 4823 4824 4825 4826 4827 4828 4829 4830 4831 4832 4833 4834 4835 4836 4837 4838 4839 4840 4841 4842 4843 4844 4845 4846 4847 4848 4849 4850 4851 4852 4853 4854 4855 4856 4857 4858 4859 4860 4861 4862 4863 4864 4865 4866 4867 4868 4869 4870 4871 4872 4873 4874 4875 4876 4877 4878 4879 4880 4881 4882 4883 4884 4885 4886 4887 4888 4889 4890 4891 4892 4893 4894 4895 4896 4897 4898 4899 4900 4901 4902 4903 4904 4905 4906 4907 4908 4909 4910 4911 4912 4913 4914 4915 4916 4917 4918 4919 4920 4921 4922 4923 4924 4925 4926 4927 4928 4929 4930 4931 4932 4933 4934 4935 4936 4937 4938 4939 4940 4941 4942 4943 4944 4945 4946 4947 4948 4949 4950 4951 4952 4953 4954 4955 4956 4957 4958 4959 4960 4961 4962 4963 4964 4965 4966 4967 4968 4969 4970 4971 4972 4973 4974 4975 4976 4977 4978 4979 4980 4981 4982 4983 4984 4985 4986 4987 4988 4989 4990 4991 4992 4993 4994 4995 4996 4997 4998 4999 5000 5001 5002 5003 5004 5005 5006 5007 5008 5009 5010 5011 5012 5013 5014 5015 5016 5017 5018 5019 5020 5021 5022 5023 5024 5025 5026 5027 5028 5029 5030 5031 5032 5033 5034 5035 5036 5037 5038 5039 5040 5041 5042 5043 5044 5045 5046 5047 5048 5049 5050 5051 5052 5053 5054 5055 5056 5057 5058 5059 5060 5061 5062 5063 5064 5065 5066 5067 5068 5069 5070 5071 5072 5073 5074 5075 5076 5077 5078 5079 5080 5081 5082 5083 5084 5085 5086 5087 5088 5089 5090 5091 5092 5093 5094 5095 5096 5097 5098 5099 5100 5101 5102 5103 5104 5105 5106 5107 5108 5109 5110 5111 5112 5113 5114 5115 5116 5117 5118 5119 5120 5121 5122 5123 5124 5125 5126 5127 5128 5129 5130 5131 5132 5133 5134 5135 5136 5137 5138 5139 5140 5141 5142 5143 5144 5145 5146 5147 5148 5149 5150 5151 5152 5153 5154 5155 5156 5157 5158 5159 5160 5161 5162 5163 5164 5165 5166 5167 5168 5169 5170 5171 5172 5173 5174 5175 5176 5177 5178 5179 5180 5181 5182 5183 5184 5185 5186 5187 5188 5189 5190 5191 5192 5193 5194 5195 5196 5197 5198 5199 5200 5201 5202 5203 5204 5205 5206 5207 5208 5209 5210 5211 5212 5213 5214 5215 5216 5217 5218 5219 5220 5221 5222 5223 5224 5225 5226 5227 5228 5229 5230 5231 5232 5233 5234 5235 5236 5237 5238 5239 5240 5241 5242 5243 5244 5245 5246 5247 5248 5249 5250 5251 5252 5253 5254 5255 5256 5257 5258 5259 5260 5261 5262 5263 5264 5265 5266 5267 5268 5269 5270 5271 5272 5273 5274 5275 5276 5277 5278 5279 5280 5281 5282 5283 5284 5285 5286 5287 5288 5289 5290 5291 5292 5293 5294 5295 5296 5297 5298 5299 5300 5301 5302 5303 5304 5305 5306 5307 5308 5309 5310 5311 5312 5313 5314 5315 5316 5317 5318 5319 5320 5321 5322 5323 5324 5325 5326 5327 5328 5329 5330 5331 5332 5333 5334 5335 5336 5337 5338 5339 5340 5341 5342 5343 5344 5345 5346 5347 5348 5349 5350 5351 5352 5353 5354 5355 5356 5357 5358 5359 5360 5361 5362 5363 5364 5365 5366 5367 5368 5369 5370 5371 5372 5373 5374 5375 5376 5377 5378 5379 5380 5381 5382 5383 5384 5385 5386 5387 5388 5389 5390 5391 5392 5393 5394 5395 5396 5397 5398 5399 5400 5401 5402 5403 5404 5405 5406 5407 5408 5409 5410 5411 5412 5413 5414 5415 5416 5417 5418 5419 5420 5421 5422 5423 5424 5425 5426 5427 5428 5429 5430 5431 5432 5433 5434 5435 5436 5437 5438 5439 5440 5441 5442 5443 5444 5445 5446 5447 5448 5449 5450 5451 5452 5453 5454 5455 5456 5457 5458 5459 5460 5461 5462 5463 5464 5465 5466 5467 5468 5469 5470 5471 5472 5473 5474 5475 5476 5477 5478 5479 5480 5481 5482 5483 5484 5485 5486 5487 5488 5489 5490 5491 5492 5493 5494 5495 5496 5497 5498 5499 5500 5501 5502 5503 5504 5505 5506 5507 5508 5509 5510 5511 5512 5513 5514 5515 5516 5517 5518 5519 5520 5521 5522 5523 5524 5525 5526 5527 5528 5529 5530 5531 5532 5533 5534 5535 5536 5537 5538 5539 5540 5541 5542 5543 5544 5545 5546 5547 5548 5549 5550 5551 5552 5553 5554 5555 5556 5557 5558 5559 5560 5561 5562 5563 5564 5565 5566 5567 5568 5569 5570 5571 5572 5573 5574 5575 5576 5577 5578 5579 5580 5581 5582 5583 5584 5585 5586 5587 5588 5589 5590 5591 5592 5593 5594 5595 5596 5597 5598 5599 5600 5601 5602 5603 5604 5605 5606 5607 5608 5609 5610 5611 5612 5613 5614 5615 5616 5617 5618 5619 5620 5621 5622 5623 5624 5625 5626 5627 5628 5629 5630 5631 5632 5633 5634 5635 5636 5637 5638 5639 5640 5641 5642 5643 5644 5645 5646 5647 5648 5649 5650 5651 5652 5653 5654 5655 5656 5657 5658 5659 5660 5661 5662 5663 5664 5665 5666 5667 5668 5669 5670 5671 5672 5673 5674 5675 5676 5677 5678 5679 5680 5681 5682 5683 5684 5685 5686 5687 5688 5689 5690 5691 5692 5693 5694 5695 5696 5697 5698 5699 5700 5701 5702 5703 5704 5705 5706 5707 5708 5709 5710 5711 5712 5713 5714 5715 5716 5717 5718 5719 5720 5721 5722 5723 5724 5725 5726 5727 5728 5729 5730 5731 5732 5733 5734 5735 5736 5737 5738 5739 5740 5741 5742 5743 5744 5745 5746 5747 5748 5749 5750 5751 5752 5753 5754 5755 5756 5757 5758 5759 5760 5761 5762 5763 5764 5765 5766 5767 5768 5769 5770 5771 5772 5773 5774 5775 5776 5777 5778 5779 5780 5781 5782 5783 5784 5785 5786 5787 5788 5789 5790 5791 5792 5793 5794 5795 5796 5797 5798 5799 5800 5801 5802 5803 5804 5805 5806 5807 5808 5809 5810 5811 5812 5813 5814 5815 5816 5817 5818 5819 5820 5821 5822 5823 5824 5825 5826 5827 5828 5829 5830 5831 5832 5833 5834 5835 5836 5837 5838 5839 5840 5841 5842 5843 5844 5845 5846 5847 5848 5849 5850 5851 5852 5853 5854 5855 5856 5857 5858 5859 5860 5861 5862 5863 5864 5865 5866 5867 5868 5869 5870 5871 5872 5873 5874 5875 5876 5877 5878 5879 5880 5881 5882 5883 5884 5885 5886 5887 5888 5889 5890 5891 5892 5893 5894 5895 5896 5897 5898 5899 5900 5901 5902 5903 5904 5905 5906 5907 5908 5909 5910 5911 5912 5913 5914 5915 5916 5917 5918 5919 5920 5921 5922 5923 5924 5925 5926 5927 5928 5929 5930 5931 5932 5933 5934 5935 5936 5937 5938 5939 5940 5941 5942 5943 5944 5945 5946 5947 5948 5949 5950 5951 5952 5953 5954 5955 5956 5957 5958 5959 5960 5961 5962 5963 5964 5965 5966 5967 5968 5969 5970 5971 5972 5973 5974 5975 5976 5977 5978 5979 5980 5981 5982 5983 5984 5985 5986 5987 5988 5989 5990 5991 5992 5993 5994 5995 5996 5997 5998 5999 6000 6001 6002 6003 6004 6005 6006 6007 6008 6009 6010 6011 6012 6013 6014 6015 6016 6017 6018 6019 6020 6021 6022 6023 6024 6025 6026 6027 6028 6029 6030 6031 6032 6033 6034 6035 6036 6037 6038 6039 6040 6041 6042 6043 6044 6045 6046 6047 6048 6049 6050 6051 6052 6053 6054 6055 6056 6057 6058 6059 6060 6061 6062 6063 6064 6065 6066 6067 6068 6069 6070 6071 6072 6073 6074 6075 6076 6077 6078 6079 6080 6081 6082 6083 6084 6085 6086 6087 6088 6089 6090 6091 6092 6093 6094 6095 6096 6097 6098 6099 6100 6101 6102 6103 6104 6105 6106 6107 6108 6109 6110 6111 6112 6113 6114 6115 6116 6117 6118 6119 6120 6121 6122 6123 6124 6125 6126 6127 6128 6129 6130 6131 6132 6133 6134 6135 6136 6137 6138 6139 6140 6141 6142 6143 6144 6145 6146 6147 6148 6149 6150 6151 6152 6153 6154 6155 6156 6157 6158 6159 6160 6161 6162 6163 6164 6165 6166 6167 6168 6169 6170 6171 6172 6173 6174 6175 6176 6177 6178 6179 6180 6181 6182 6183 6184 6185 6186 6187 6188 6189 6190 6191 6192 6193 6194 6195 6196 6197 6198 6199 6200 6201 6202 6203 6204 6205 6206 6207 6208 6209 6210 6211 6212 6213 6214 6215 6216 6217 6218 6219 6220 6221 6222 6223 6224 6225 6226 6227 6228 6229 6230 6231 6232 6233 6234 6235 6236 6237 6238 6239 6240 6241 6242 6243 6244 6245 6246 6247 6248 6249 6250 6251 6252 6253 6254 6255 6256 6257 6258 6259 6260 6261 6262 6263 6264 6265 6266 6267 6268 6269 6270 6271 6272 6273 6274 6275 6276 6277 6278 6279 6280 6281 6282 6283 6284 6285 6286 6287 6288 6289 6290 6291 6292 6293 6294 6295 6296 6297 6298 6299 6300 6301 6302 6303 6304 6305 6306 6307 6308 6309 6310 6311 6312 6313 6314 6315 6316 6317 6318 6319 6320 6321 6322 6323 6324 6325 6326 6327 6328 6329 6330 6331 6332 6333 6334 6335 6336 6337 6338 6339 6340 6341 6342 6343 6344 6345 6346 6347 6348 6349 6350 6351 6352 6353 6354 6355 6356 6357 6358 6359 6360 6361 6362 6363 6364 6365 6366 6367 6368 6369 6370 6371 6372 6373 6374 6375 6376 6377 6378 6379 6380 6381 6382 6383 6384 6385 6386 6387 6388 6389 6390 6391 6392 6393 6394 6395 6396 6397 6398 6399 6400 6401 6402 6403 6404 6405 6406 6407 6408 6409 6410 6411 6412 6413 6414 6415 6416 6417 6418 6419 6420 6421 6422 6423 6424 6425 6426 6427 6428 6429 6430 6431 6432 6433 6434 6435 6436 6437 6438 6439 6440 6441 6442 6443 6444 6445 6446 6447 6448 6449 6450 6451 6452 6453 6454 6455 6456 6457 6458 6459 6460 6461 6462 6463 6464 6465 6466 6467 6468 6469 6470 6471 6472 6473 6474 6475 6476 6477 6478 6479 6480 6481 6482 6483 6484 6485 6486 6487 6488 6489 6490 6491 6492 6493 6494 6495 6496 6497 6498 6499 6500 6501 6502 6503 6504 6505 6506 6507 6508 6509 6510 6511 6512 6513 6514 6515 6516 6517 6518 6519 6520 6521 6522 6523 6524 6525 6526 6527 6528 6529 6530 6531 6532 6533 6534 6535 6536 6537 6538 6539 6540 6541 6542 6543 6544 6545 6546 6547 6548 6549 6550 6551 6552 6553 6554 6555 6556 6557 6558 6559 6560 6561 6562 6563 6564 6565 6566 6567 6568 6569 6570 6571 6572 6573 6574 6575 6576 6577 6578 6579 6580 6581 6582 6583 6584 6585 6586 6587 6588 6589 6590 6591 6592 6593 6594 6595 6596 6597 6598 6599 6600 6601 6602 6603 6604 6605 6606 6607 6608 6609 6610 6611 6612 6613 6614 6615 6616 6617 6618 6619 6620 6621 6622 6623 6624 6625 6626 6627 6628 6629 6630 6631 6632 6633 6634 6635 6636 6637 6638 6639 6640 6641 6642 6643 6644 6645 6646 6647 6648 6649 6650 6651 6652 6653 6654 6655 6656 6657 6658 6659 6660 6661 6662 6663 6664 6665 6666 6667 6668 6669 6670 6671 6672 6673 6674 6675 6676 6677 6678 6679 6680 6681 6682 6683 6684 6685 6686 6687 6688 6689 6690 6691 6692 6693 6694 6695 6696 6697 6698 6699 6700 6701 6702 6703 6704 6705 6706 6707 6708 6709 6710 6711 6712 6713 6714 6715 6716 6717 6718 6719 6720 6721 6722 6723 6724 6725 6726 6727 6728 6729 6730 6731 6732 6733 6734 6735 6736 6737 6738 6739 6740 6741 6742 6743 6744 6745 6746 6747 6748 6749 6750 6751 6752 6753 6754 6755 6756 6757 6758 6759 6760 6761 6762 6763 6764 6765 6766 6767 6768 6769 6770 6771 6772 6773 6774 6775 6776 6777 6778 6779 6780 6781 6782 6783 6784 6785 6786 6787 6788 6789 6790 6791 6792 6793 6794 6795 6796 6797 6798 6799 6800 6801 6802 6803 6804 6805 6806 6807 6808 6809 6810 6811 6812 6813 6814 6815 6816 6817 6818 6819 6820 6821 6822 6823 6824 6825 6826 6827 6828 6829 6830 6831 6832 6833 6834 6835 6836 6837 6838 6839 6840 6841 6842 6843 6844 6845 6846 6847 6848 6849 6850 6851 6852 6853 6854 6855 6856 6857 6858 6859 6860 6861 6862 6863 6864 6865 6866 6867 6868 6869 6870 6871 6872 6873 6874 6875 6876 6877 6878 6879 6880 6881 6882 6883 6884 6885 6886 6887 6888 6889 6890 6891 6892 6893 6894 6895 6896 6897 6898 6899 6900 6901 6902 6903 6904 6905 6906 6907 6908 6909 6910 6911 6912 6913 6914 6915 6916 6917 6918 6919 6920 6921 6922 6923 6924 6925 6926 6927 6928 6929 6930 6931 6932 6933 6934 6935 6936 6937 6938 6939 6940 6941 6942 6943 6944 6945 6946 6947 6948 6949 6950 6951 6952 6953 6954 6955 6956 6957 6958 6959 6960 6961 6962 6963 6964 6965 6966 6967 6968 6969 6970 6971 6972 6973 6974 6975 6976 6977 6978 6979 6980 6981 6982 6983 6984 6985 6986 6987 6988 6989 6990 6991 6992 6993 6994 6995 6996 6997 6998 6999 7000 7001 7002 7003 7004 7005 7006 7007 7008 7009 7010 7011 7012 7013 7014 7015 7016 7017 7018 7019 7020 7021 7022 7023 7024 7025 7026 7027 7028 7029 7030 7031 7032 7033 7034 7035 7036 7037 7038 7039 7040 7041 7042 7043 7044 7045 7046 7047 7048 7049 7050 7051 7052 7053 7054 7055 7056 7057 7058 7059 7060 7061 7062 7063 7064 7065 7066 7067 7068 7069 7070 7071 7072 7073 7074 7075 7076 7077 7078 7079 7080 7081 7082 7083 7084 7085 7086 7087 7088 7089 7090 7091 7092 7093 7094 7095 7096 7097 7098 7099 7100 7101 7102 7103 7104 7105 7106 7107 7108 7109 7110 7111 7112 7113 7114 7115 7116 7117 7118 7119 7120 7121 7122 7123 7124 7125 7126 7127 7128 7129 7130 7131 7132 7133 7134 7135 7136 7137 7138 7139 7140 7141 7142 7143 7144 7145 7146 7147 7148 7149 7150 7151 7152 7153 7154 7155 7156 7157 7158 7159 7160 7161 7162 7163 7164 7165 7166 7167 7168 7169 7170 7171 7172 7173 7174 7175 7176 7177 7178 7179 7180 7181 7182 7183 7184 7185 7186 7187 7188 7189 7190 7191 7192 7193 7194 7195 7196 7197 7198 7199 7200 7201 7202 7203 7204 7205 7206 7207 7208 7209 7210 7211 7212 7213 7214 7215 7216 7217 7218 7219 7220 7221 7222 7223 7224 7225 7226 7227 7228 7229 7230 7231 7232 7233 7234 7235 7236 7237 7238 7239 7240 7241 7242 7243 7244 7245 7246 7247 7248 7249 7250 7251 7252 7253 7254 7255 7256 7257 7258 7259 7260 7261 7262 7263 7264 7265 7266 7267 7268 7269 7270 7271 7272 7273 7274 7275 7276 7277 7278 7279 7280 7281 7282 7283 7284 7285 7286 7287 7288 7289 7290 7291 7292 7293 7294 7295 7296 7297 7298 7299 7300 7301 7302 7303 7304 7305 7306 7307 7308 7309 7310 7311 7312 7313 7314 7315 7316 7317 7318 7319 7320 7321 7322 7323 7324 7325 7326 7327 7328 7329 7330 7331 7332 7333 7334 7335 7336 7337 7338 7339 7340 7341 7342 7343 7344 7345 7346 7347 7348 7349 7350 7351 7352 7353 7354 7355 7356 7357 7358 7359 7360 7361 7362 7363 7364 7365 7366 7367 7368 7369 7370 7371 7372 7373 7374 7375 7376 7377 7378 7379 7380 7381 7382 7383 7384 7385 7386 7387 7388 7389 7390 7391 7392 7393 7394 7395 7396 7397 7398 7399 7400 7401 7402 7403 7404 7405 7406 7407 7408 7409 7410 7411 7412 7413 7414 7415 7416 7417 7418 7419 7420 7421 7422 7423 7424 7425 7426 7427 7428 7429 7430 7431 7432 7433 7434 7435 7436 7437 7438 7439 7440 7441 7442 7443 7444 7445 7446 7447 7448 7449 7450 7451 7452 7453 7454 7455 7456 7457 7458 7459 7460 7461 7462 7463 7464 7465 7466 7467 7468 7469 7470 7471 7472 7473 7474 7475 7476 7477 7478 7479 7480 7481 7482 7483 7484 7485 7486 7487 7488 7489 7490 7491 7492 7493 7494 7495 7496 7497 7498 7499 7500 7501 7502 7503 7504 7505 7506 7507 7508 7509 7510 7511 7512 7513 7514 7515 7516 7517 7518 7519 7520 7521 7522 7523 7524 7525 7526 7527 7528 7529 7530 7531 7532 7533 7534 7535 7536 7537 7538 7539 7540 7541 7542 7543 7544 7545 7546 7547 7548 7549 7550 7551 7552 7553 7554 7555 7556 7557 7558 7559 7560 7561 7562 7563 7564 7565 7566 7567 7568 7569 7570 7571 7572 7573 7574 7575 7576 7577 7578 7579 7580 7581 7582 7583 7584 7585 7586 7587 7588 7589 7590 7591 7592 7593 7594 7595 7596 7597 7598 7599 7600 7601 7602 7603 7604 7605 7606 7607 7608 7609 7610 7611 7612 7613 7614 7615 7616 7617 7618 7619 7620 7621 7622 7623 7624 7625 7626 7627 7628 7629 7630 7631 7632 7633 7634 7635 7636 7637 7638 7639 7640 7641 7642 7643 7644 7645 7646 7647 7648 7649 7650 7651 7652 7653 7654 7655 7656 7657 7658 7659 7660 7661 7662 7663 7664 7665 7666 7667 7668 7669 7670 7671 7672 7673 7674 7675 7676 7677 7678 7679 7680 7681 7682 7683 7684 7685 7686 7687 7688 7689 7690 7691 7692 7693 7694 7695 7696 7697 7698 7699 7700 7701 7702 7703 7704 7705 7706 7707 7708 7709 7710 7711 7712 7713 7714 7715 7716 7717 7718 7719 7720 7721 7722 7723 7724 7725 7726 7727 7728 7729 7730 7731 7732 7733 7734 7735 7736 7737 7738 7739 7740 7741 7742 7743 7744 7745 7746 7747 7748 7749 7750 7751 7752 7753 7754 7755 7756 7757 7758 7759 7760 7761 7762 7763 7764 7765 7766 7767 7768 7769 7770 7771 7772 7773 7774 7775 7776 7777 7778 7779 7780 7781 7782 7783 7784 7785 7786 7787 7788 7789 7790 7791 7792 7793 7794 7795 7796 7797 7798 7799 7800 7801 7802 7803 7804 7805 7806 7807 7808 7809 7810 7811 7812 7813 7814 7815 7816 7817 7818 7819 7820 7821 7822 7823 7824 7825 7826 7827 7828 7829 7830 7831 7832 7833 7834 7835 7836 7837 7838 7839 7840 7841 7842 7843 7844 7845 7846 7847 7848 7849 7850 7851 7852 7853 7854 7855 7856 7857 7858 7859 7860 7861 7862 7863 7864 7865 7866 7867 7868 7869 7870 7871 7872 7873 7874 7875 7876 7877 7878 7879 7880 7881 7882 7883 7884 7885 7886 7887 7888 7889 7890 7891 7892 7893 7894 7895 7896 7897 7898 7899 7900 7901 7902 7903 7904 7905 7906 7907 7908 7909 7910 7911 7912 7913 7914 7915 7916 7917 7918 7919 7920 7921 7922 7923 7924 7925 7926 7927 7928 7929 7930 7931 7932 7933 7934 7935 7936 7937 7938 7939 7940 7941 7942 7943 7944 7945 7946 7947 7948 7949 7950 7951 7952 7953 7954 7955 7956 7957 7958 7959 7960 7961 7962 7963 7964 7965 7966 7967 7968 7969 7970 7971 7972 7973 7974 7975 7976 7977 7978 7979 7980 7981 7982 7983 7984 7985 7986 7987 7988 7989 7990 7991 7992 7993 7994 7995 7996 7997 7998 7999 8000 8001 8002 8003 8004 8005 8006 8007 8008 8009 8010 8011 8012 8013 8014 8015 8016 8017 8018 8019 8020 8021 8022 8023 8024 8025 8026 8027 8028 8029 8030 8031 8032 8033 8034 8035 8036 8037 8038 8039 8040 8041 8042 8043 8044 8045 8046 8047 8048 8049 8050 8051 8052 8053 8054 8055 8056 8057 8058 8059 8060 8061 8062 8063 8064 8065 8066 8067 8068 8069 8070 8071 8072 8073 8074 8075 8076 8077 8078 8079 8080 8081 8082 8083 8084 8085 8086 8087 8088 8089 8090 8091 8092 8093 8094 8095 8096 8097 8098 8099 8100 8101 8102 8103 8104 8105 8106 8107 8108 8109 8110 8111 8112 8113 8114 8115 8116 8117 8118 8119 8120 8121 8122 8123 8124 8125 8126 8127 8128 8129 8130 8131 8132 8133 8134 8135 8136 8137 8138 8139 8140 8141 8142 8143 8144 8145 8146 8147 8148 8149 8150 8151 8152 8153 8154 8155 8156 8157 8158 8159 8160 8161 8162 8163 8164 8165 8166 8167 8168 8169 8170 8171 8172 8173 8174 8175 8176 8177 8178 8179 8180 8181 8182 8183 8184 8185 8186 8187 8188 8189 8190 8191 8192 8193 8194 8195 8196 8197 8198 8199 8200 8201 8202 8203 8204 8205 8206 8207 8208 8209 8210 8211 8212 8213 8214 8215 8216 8217 8218 8219 8220 8221 8222 8223 8224 8225 8226 8227 8228 8229 8230 8231 8232 8233 8234 8235 8236 8237 8238 8239 8240 8241 8242 8243 8244 8245 8246 8247 8248 8249 8250 8251 8252 8253 8254 8255 8256 8257 8258 8259 8260 8261 8262 8263 8264 8265 8266 8267 8268 8269 8270 8271 8272 8273 8274 8275 8276 8277 8278 8279 8280 8281 8282 8283 8284 8285 8286 8287 8288 8289 8290 8291 8292 8293 8294 8295 8296 8297 8298 8299 8300 8301 8302 8303 8304 8305 8306 8307 8308 8309 8310 8311 8312 8313 8314 8315 8316 8317 8318 8319 8320 8321 8322 8323 8324 8325 8326 8327 8328 8329 8330 8331 8332 8333 8334 8335 8336 8337 8338 8339 8340 8341 8342 8343 8344 8345 8346 8347 8348 8349 8350 8351 8352 8353 8354 8355 8356 8357 8358 8359 8360 8361 8362 8363 8364 8365 8366 8367 8368 8369 8370 8371 8372 8373 8374 8375 8376 8377 8378 8379 8380 8381 8382 8383 8384 8385 8386 8387 8388 8389 8390 8391 8392 8393 8394 8395 8396 8397 8398 8399 8400 8401 8402 8403 8404 8405 8406 8407 8408 8409 8410 8411 8412 8413 8414 8415 8416 8417 8418 8419 8420 8421 8422 8423 8424 8425 8426 8427 8428 8429 8430 8431 8432 8433 8434 8435 8436 8437 8438 8439 8440 8441 8442 8443 8444 8445 8446 8447 8448 8449 8450 8451 8452 8453 8454 8455 8456 8457 8458 8459 8460 8461 8462 8463 8464 8465 8466 8467 8468 8469 8470 8471 8472 8473 8474 8475 8476 8477 8478 8479 8480 8481 8482 8483 8484 8485 8486 8487 8488 8489 8490 8491 8492 8493 8494 8495 8496 8497 8498 8499 8500 8501 8502 8503 8504 8505 8506 8507 8508 8509 8510 8511 8512 8513 8514 8515 8516 8517 8518 8519 8520 8521 8522 8523 8524 8525 8526 8527 8528 8529 8530 8531 8532 8533 8534 8535 8536 8537 8538 8539 8540 8541 8542 8543 8544 8545 8546 8547 8548 8549 8550 8551 8552 8553 8554 8555 8556 8557 8558 8559 8560 8561 8562 8563 8564 8565 8566 8567 8568 8569 8570 8571 8572 8573 8574 8575 8576 8577 8578 8579 8580 8581 8582 8583 8584 8585 8586 8587 8588 8589 8590 8591 8592 8593 8594 8595 8596 8597 8598 8599 8600 8601 8602 8603 8604 8605 8606 8607 8608 8609 8610 8611 8612 8613 8614 8615 8616 8617 8618 8619 8620 8621 8622 8623 8624 8625 8626 8627 8628 8629 8630 8631 8632 8633 8634 8635 8636 8637 8638 8639 8640 8641 8642 8643 8644 8645 8646 8647 8648 8649 8650 8651 8652 8653 8654 8655 8656 8657 8658 8659 8660 8661 8662 8663 8664 8665 8666 8667 8668 8669 8670 8671 8672 8673 8674 8675 8676 8677 8678 8679 8680 8681 8682 8683 8684 8685 8686 8687 8688 8689 8690 8691 8692 8693 8694 8695 8696 8697 8698 8699 8700 8701 8702 8703 8704 8705 8706 8707 8708 8709 8710 8711 8712 8713 8714 8715 8716 8717 8718 8719 8720 8721 8722 8723 8724 8725 8726 8727 8728 8729 8730 8731 8732 8733 8734 8735 8736 8737 8738 8739 8740 8741 8742 8743 8744 8745 8746 8747 8748 8749 8750 8751 8752 8753 8754 8755 8756 8757 8758 8759 8760 8761 8762 8763 8764 8765 8766 8767 8768 8769 8770 8771 8772 8773 8774 8775 8776 8777 8778 8779 8780 8781 8782 8783 8784 8785 8786 8787 8788 8789 8790 8791 8792 8793 8794 8795 8796 8797 8798 8799 8800 8801 8802 8803 8804 8805 8806 8807 8808 8809 8810 8811 8812 8813 8814 8815 8816 8817 8818 8819 8820 8821 8822 8823 8824 8825 8826 8827 8828 8829 8830 8831 8832 8833 8834 8835 8836 8837 8838 8839 8840 8841 8842 8843 8844 8845 8846 8847 8848 8849 8850 8851 8852 8853 8854 8855 8856 8857 8858 8859 8860 8861 8862 8863 8864 8865 8866 8867 8868 8869 8870 8871 8872 8873 8874 8875 8876 8877 8878 8879 8880 8881 8882 8883 8884 8885 8886 8887 8888 8889 8890 8891 8892 8893 8894 8895 8896 8897 8898 8899 8900 8901 8902 8903 8904 8905 8906 8907 8908 8909 8910 8911 8912 8913 8914 8915 8916 8917 8918 8919 8920 8921 8922 8923 8924 8925 8926 8927 8928 8929 8930 8931 8932 8933 8934 8935 8936 8937 8938 8939 8940 8941 8942 8943 8944 8945 8946 8947 8948 8949 8950 8951 8952 8953 8954 8955 8956 8957 8958 8959 8960 8961 8962 8963 8964 8965 8966 8967 8968 8969 8970 8971 8972 8973 8974 8975 8976 8977 8978 8979 8980 8981 8982 8983 8984 8985 8986 8987 8988 8989 8990 8991 8992 8993 8994 8995 8996 8997 8998 8999 9000 9001 9002 9003 9004 9005 9006 9007 9008 9009 9010 9011 9012 9013 9014 9015 9016 9017 9018 9019 9020 9021 9022 9023 9024 9025 9026 9027 9028 9029 9030 9031 9032 9033 9034 9035 9036 9037 9038 9039 9040 9041 9042 9043 9044 9045 9046 9047 9048 9049 9050 9051 9052 9053 9054 9055 9056 9057 9058 9059 9060 9061 9062 9063 9064 9065 9066 9067 9068 9069 9070 9071 9072 9073 9074 9075 9076 9077 9078 9079 9080 9081 9082 9083 9084 9085 9086 9087 9088 9089 9090 9091 9092 9093 9094 9095 9096 9097 9098 9099 9100 9101 9102 9103 9104 9105 9106 9107 9108 9109 9110 9111 9112 9113 9114 9115 9116 9117 9118 9119 9120 9121 9122 9123 9124 9125 9126 9127 9128 9129 9130 9131 9132 9133 9134 9135 9136 9137 9138 9139 9140 9141 9142 9143 9144 9145 9146 9147 9148 9149 9150 9151 9152 9153 9154 9155 9156 9157 9158 9159 9160 9161 9162 9163 9164 9165 9166 9167 9168 9169 9170 9171 9172 9173 9174 9175 9176 9177 9178 9179 9180 9181 9182 9183 9184 9185 9186 9187 9188 9189 9190 9191 9192 9193 9194 9195 9196 9197 9198 9199 9200 9201 9202 9203 9204 9205 9206 9207 9208 9209 9210 9211 9212 9213 9214 9215 9216 9217 9218 9219 9220 9221 9222 9223 9224 9225 9226 9227 9228 9229 9230 9231 9232 9233 9234 9235 9236 9237 9238 9239 9240 9241 9242 9243 9244 9245 9246 9247 9248 9249 9250 9251 9252 9253 9254 9255 9256 9257 9258 9259 9260 9261 9262 9263 9264 9265 9266 9267 9268 9269 9270 9271 9272 9273 9274 9275 9276 9277 9278 9279 9280 9281 9282 9283 9284 9285 9286 9287 9288 9289 9290 9291 9292 9293 9294 9295 9296 9297 9298 9299 9300 9301 9302 9303 9304 9305 9306 9307 9308 9309 9310 9311 9312 9313 9314 9315 9316 9317 9318 9319 9320 9321 9322 9323 9324 9325 9326 9327 9328 9329 9330 9331 9332 9333 9334 9335 9336 9337 9338 9339 9340 9341 9342 9343 9344 9345 9346 9347 9348 9349 9350 9351 9352 9353 9354 9355 9356 9357 9358 9359 9360 9361 9362 9363 9364 9365 9366 9367 9368 9369 9370 9371 9372 9373 9374 9375 9376 9377 9378 9379 9380 9381 9382 9383 9384 9385 9386 9387 9388 9389 9390 9391 9392 9393 9394 9395 9396 9397 9398 9399 9400 9401 9402 9403 9404 9405 9406 9407 9408 9409 9410 9411 9412 9413 9414 9415 9416 9417 9418 9419 9420 9421 9422 9423 9424 9425 9426 9427 9428 9429 9430 9431 9432 9433 9434 9435 9436 9437 9438 9439 9440 9441 9442 9443 9444 9445 9446 9447 9448 9449 9450 9451 9452 9453 9454 9455 9456 9457 9458 9459 9460 9461 9462 9463 9464 9465 9466 9467 9468 9469 9470 9471 9472 9473 9474 9475 9476 9477 9478 9479 9480 9481 9482 9483 9484 9485 9486 9487 9488 9489 9490 9491 9492 9493 9494 9495 9496 9497 9498 9499 9500 9501 9502 9503 9504 9505 9506 9507 9508 9509 9510 9511 9512 9513 9514 9515 9516 9517 9518 9519 9520 9521 9522 9523 9524 9525 9526 9527 9528 9529 9530 9531 9532 9533 9534 9535 9536 9537 9538 9539 9540 9541 9542 9543 9544 9545 9546 9547 9548 9549 9550 9551 9552 9553 9554 9555 9556 9557 9558 9559 9560 9561 9562 9563 9564 9565 9566 9567 9568 9569 9570 9571 9572 9573 9574 9575 9576 9577 9578 9579 9580 9581 9582 9583 9584 9585 9586 9587 9588 9589 9590 9591 9592 9593 9594 9595 9596 9597 9598 9599 9600 9601 9602 9603 9604 9605 9606 9607 9608 9609 9610 9611 9612 9613 9614 9615 9616 9617 9618 9619 9620 9621 9622 9623 9624 9625 9626 9627 9628 9629 9630 9631 9632 9633 9634 9635 9636 9637 9638 9639 9640 9641 9642 9643 9644 9645 9646 9647 9648 9649 9650 9651 9652 9653 9654 9655 9656 9657 9658 9659 9660 9661 9662 9663 9664 9665 9666 9667 9668 9669 9670 9671 9672 9673 9674 9675 9676 9677 9678 9679 9680 9681 9682 9683 9684 9685 9686 9687 9688 9689 9690 9691 9692 9693 9694 9695 9696 9697 9698 9699 9700 9701 9702 9703 9704 9705 9706 9707 9708 9709 9710 9711 9712 9713 9714 9715 9716 9717 9718 9719 9720 9721 9722 9723 9724 9725 9726 9727 9728 9729 9730 9731 9732 9733 9734 9735 9736 9737 9738 9739 9740 9741 9742 9743 9744 9745 9746 9747 9748 9749 9750 9751 9752 9753 9754 9755 9756 9757 9758 9759 9760 9761 9762 9763 9764 9765 9766 9767 9768 9769 9770 9771 9772 9773 9774 9775 9776 9777 9778 9779 9780 9781 9782 9783 9784 9785 9786 9787 9788 9789 9790 9791 9792 9793 9794 9795 9796 9797 9798 9799 9800 9801 9802 9803 9804 9805 9806 9807 9808 9809 9810 9811 9812 9813 9814 9815 9816 9817 9818 9819 9820 9821 9822 9823 9824 9825 9826 9827 9828 9829 9830 9831 9832 9833 9834 9835 9836 9837 9838 9839 9840 9841 9842 9843 9844 9845 9846 9847 9848 9849 9850 9851 9852 9853 9854 9855 9856 9857 9858 9859 9860 9861 9862 9863 9864 9865 9866 9867 9868 9869 9870 9871 9872 9873 9874 9875 9876 9877 9878 9879 9880 9881 9882 9883 9884 9885 9886 9887 9888 9889 9890 9891 9892 9893 9894 9895 9896 9897 9898 9899 9900 9901 9902 9903 9904 9905 9906 9907 9908 9909 9910 9911 9912 9913 9914 9915 9916 9917 9918 9919 9920 9921 9922 9923 9924 9925 9926 9927 9928 9929 9930 9931 9932 9933 9934 9935 9936 9937 9938 9939 9940 9941 9942 9943 9944 9945 9946 9947 9948 9949 9950 9951 9952 9953 9954 9955 9956 9957 9958 9959 9960 9961 9962 9963 9964 9965 9966 9967 9968 9969 9970 9971 9972 9973 9974 9975 9976 9977 9978 9979 9980 9981 9982 9983 9984 9985 9986 9987 9988 9989 9990 9991 9992 9993 9994 9995 9996 9997 9998 9999 10000 10001 10002 10003 10004 10005 10006 10007 10008 10009 10010 10011 10012 10013 10014 10015 10016 10017 10018 10019 10020 10021 10022 10023 10024 10025 10026 10027 10028 10029 10030 10031 10032 10033 10034 10035 10036 10037 10038 10039 10040 10041 10042 10043 10044 10045 10046 10047 10048 10049 10050 10051 10052 10053 10054 10055 10056 10057 10058 10059 10060 10061 10062 10063 10064 10065 10066 10067 10068 10069 10070 10071 10072 10073 10074 10075 10076 10077 10078 10079 10080 10081 10082 10083 10084 10085 10086 10087 10088 10089 10090 10091 10092 10093 10094 10095 10096 10097 10098 10099 10100 10101 10102 10103 10104 10105 10106 10107 10108 10109 10110 10111 10112 10113 10114 10115 10116 10117 10118 10119 10120 10121 10122 10123 10124 10125 10126 10127 10128 10129 10130 10131 10132 10133 10134 10135 10136 10137 10138 10139 10140 10141 10142 10143 10144 10145 10146 10147 10148 10149 10150 10151 10152 10153 10154 10155 10156 10157 10158 10159 10160 10161 10162 10163 10164 10165 10166 10167 10168 10169 10170 10171 10172 10173 10174 10175 10176 10177 10178 10179 10180 10181 10182 10183 10184 10185 10186 10187 10188 10189 10190 10191 10192 10193 10194 10195 10196 10197 10198 10199 10200 10201 10202 10203 10204 10205 10206 10207 10208 10209 10210 10211 10212 10213 10214 10215 10216 10217 10218 10219 10220 10221 10222 10223 10224 10225 10226 10227 10228 10229 10230 10231 10232 10233 10234 10235 10236 10237 10238 10239 10240 10241 10242 10243 10244 10245 10246 10247 10248 10249 10250 10251 10252 10253 10254 10255 10256 10257 10258 10259 10260 10261 10262 10263 10264 10265 10266 10267 10268 10269 10270 10271 10272 10273 10274 10275 10276 10277 10278 10279 10280 10281 10282 10283 10284 10285 10286 10287 10288 10289 10290 10291 10292 10293 10294 10295 10296 10297 10298 10299 10300 10301 10302 10303 10304 10305 10306 10307 10308 10309 10310 10311 10312 10313 10314 10315 10316 10317 10318 10319 10320 10321 10322 10323 10324 10325 10326 10327 10328 10329 10330 10331 10332 10333 10334 10335 10336 10337 10338 10339 10340 10341 10342 10343 10344 10345 10346 10347 10348 10349 10350 10351 10352 10353 10354 10355 10356 10357 10358 10359 10360 10361 10362 10363 10364 10365 10366 10367 10368 10369 10370 10371 10372 10373 10374 10375 10376 10377 10378 10379 10380 10381 10382 10383 10384 10385 10386 10387 10388 10389 10390 10391 10392 10393 10394 10395 10396 10397 10398 10399 10400 10401 10402 10403 10404 10405 10406 10407 10408 10409 10410 10411 10412 10413 10414 10415 10416 10417 10418 10419 10420 10421 10422 10423 10424 10425 10426 10427 10428 10429 10430 10431 10432 10433 10434 10435 10436 10437 10438 10439 10440 10441 10442 10443 10444 10445 10446 10447 10448 10449 10450 10451 10452 10453 10454 10455 10456 10457 10458 10459 10460 10461 10462 10463 10464 10465 10466 10467 10468 10469 10470 10471 10472 10473 10474 10475 10476 10477 10478 10479 10480 10481 10482 10483 10484 10485 10486 10487 10488 10489 10490 10491 10492 10493 10494 10495 10496 10497 10498 10499 10500 10501 10502 10503 10504 10505 10506 10507 10508 10509 10510 10511 10512 10513 10514 10515 10516 10517 10518 10519 10520 10521 10522 10523 10524 10525 10526 10527 10528 10529 10530 10531 10532 10533 10534 10535 10536 10537 10538 10539 10540 10541 10542 10543 10544 10545 10546 10547 10548 10549 10550 10551 10552 10553 10554 10555 10556 10557 10558 10559 10560 10561 10562 10563 10564 10565 10566 10567 10568 10569 10570 10571 10572 10573 10574 10575 10576 10577 10578 10579 10580 10581 10582 10583 10584 10585 10586 10587 10588 10589 10590 10591 10592 10593 10594 10595 10596 10597 10598 10599 10600 10601 10602 10603 10604 10605 10606 10607 10608 10609 10610 10611 10612 10613 10614 10615 10616 10617 10618 10619 10620 10621 10622 10623 10624 10625 10626 10627 10628 10629 10630 10631 10632 10633 10634 10635 10636 10637 10638 10639 10640 10641 10642 10643 10644 10645 10646 10647 10648 10649 10650 10651 10652 10653 10654 10655 10656 10657 10658 10659 10660 10661 10662 10663 10664 10665 10666 10667 10668 10669 10670 10671 10672 10673 10674 10675 10676 10677 10678 10679 10680 10681 10682 10683 10684 10685 10686 10687 10688 10689 10690 10691 10692 10693 10694 10695 10696 10697 10698 10699 10700 10701 10702 10703 10704 10705 10706 10707 10708 10709 10710 10711 10712 10713 10714 10715 10716 10717 10718 10719 10720 10721 10722 10723 10724 10725 10726 10727 10728 10729 10730 10731 10732 10733 10734 10735 10736 10737 10738 10739 10740 10741 10742 10743 10744 10745 10746 10747 10748 10749 10750 10751 10752 10753 10754 10755 10756 10757 10758 10759 10760 10761 10762 10763 10764 10765 10766 10767 10768 10769 10770 10771 10772 10773 10774 10775 10776 10777 10778 10779 10780 10781 10782 10783 10784 10785 10786 10787 10788 10789 10790 10791 10792 10793 10794 10795 10796 10797 10798 10799 10800 10801 10802 10803 10804 10805 10806 10807 10808 10809 10810 10811 10812 10813 10814 10815 10816 10817 10818 10819 10820 10821 10822 10823 10824 10825 10826 10827 10828 10829 10830 10831 10832 10833 10834 10835 10836 10837 10838 10839 10840 10841 10842 10843 10844 10845 10846 10847 10848 10849 10850 10851 10852 10853 10854 10855 10856 10857 10858 10859 10860 10861 10862 10863 10864 10865 10866 10867 10868 10869 10870 10871 10872 10873 10874 10875 10876 10877 10878 10879 10880 10881 10882 10883 10884 10885 10886 10887 10888 10889 10890 10891 10892 10893 10894 10895 10896 10897 10898 10899 10900 10901 10902 10903 10904 10905 10906 10907 10908 10909 10910 10911 10912 10913 10914 10915 10916 10917 10918 10919 10920 10921 10922 10923 10924 10925 10926 10927 10928 10929 10930 10931 10932 10933 10934 10935 10936 10937 10938 10939 10940 10941 10942 10943 10944 10945 10946 10947 10948 10949 10950 10951 10952 10953 10954 10955 10956 10957 10958 10959 10960 10961 10962 10963 10964 10965 10966 10967 10968 10969 10970 10971 10972 10973 10974 10975 10976 10977 10978 10979 10980 10981 10982 10983 10984 10985 10986 10987 10988 10989 10990 10991 10992 10993 10994 10995 10996 10997 10998 10999 11000 11001 11002 11003 11004 11005 11006 11007 11008 11009 11010 11011 11012 11013 11014 11015 11016 11017 11018 11019 11020 11021 11022 11023 11024 11025 11026 11027 11028 11029 11030 11031 11032 11033 11034 11035 11036 11037 11038 11039 11040 11041 11042 11043 11044 11045 11046 11047 11048 11049 11050 11051 11052 11053 11054 11055 11056 11057 11058 11059 11060 11061 11062 11063 11064 11065 11066 11067 11068 11069 11070 11071 11072 11073 11074 11075 11076 11077 11078 11079 11080 11081 11082 11083 11084 11085 11086 11087 11088 11089 11090 11091 11092 11093 11094 11095 11096 11097 11098 11099 11100 11101 11102 11103 11104 11105 11106 11107 11108 11109 11110 11111 11112 11113 11114 11115 11116 11117 11118 11119 11120 11121 11122 11123 11124 11125 11126 11127 11128 11129 11130 11131 11132 11133 11134 11135 11136 11137 11138 11139 11140 11141 11142 11143 11144 11145 11146 11147 11148 11149 11150 11151 11152 11153 11154 11155 11156 11157 11158 11159 11160 11161 11162 11163 11164 11165 11166 11167 11168 11169 11170 11171 11172 11173 11174 11175 11176 11177 11178 11179 11180 11181 11182 11183 11184 11185 11186 11187 11188 11189 11190 11191 11192 11193 11194 11195 11196 11197 11198 11199 11200 11201 11202 11203 11204 11205 11206 11207 11208 11209 11210 11211 11212 11213 11214 11215 11216 11217 11218 11219 11220 11221 11222 11223 11224 11225 11226 11227 11228 11229 11230 11231 11232 11233 11234 11235 11236 11237 11238 11239 11240 11241 11242 11243 11244 11245 11246 11247 11248 11249 11250 11251 11252 11253 11254 11255 11256 11257 11258 11259 11260 11261 11262 11263 11264 11265 11266 11267 11268 11269 11270 11271 11272 11273 11274 11275 11276 11277 11278 11279 11280 11281 11282 11283 11284 11285 11286 11287 11288 11289 11290 11291 11292 11293 11294 11295 11296 11297 11298 11299 11300 11301 11302 11303 11304 11305 11306 11307 11308 11309 11310 11311 11312 11313 11314 11315 11316 11317 11318 11319 11320 11321 11322 11323 11324 11325 11326 11327 11328 11329 11330 11331 11332 11333 11334 11335 11336 11337 11338 11339 11340 11341 11342 11343 11344 11345 11346 11347 11348 11349 11350 11351 11352 11353 11354 11355 11356 11357 11358 11359 11360 11361 11362 11363 11364 11365 11366 11367 11368 11369 11370 11371 11372 11373 11374 11375 11376 11377 11378 11379 11380 11381 11382 11383 11384 11385 11386 11387 11388 11389 11390 11391 11392 11393 11394 11395 11396 11397 11398 11399 11400 11401 11402 11403 11404 11405 11406 11407 11408 11409 11410 11411 11412 11413 11414 11415 11416 11417 11418 11419 11420 11421 11422 11423 11424 11425 11426 11427 11428 11429 11430 11431 11432 11433 11434 11435 11436 11437 11438 11439 11440 11441 11442 11443 11444 11445 11446 11447 11448 11449 11450 11451 11452 11453 11454 11455 11456 11457 11458 11459 11460 11461 11462 11463 11464 11465 11466 11467 11468 11469 11470 11471 11472 11473 11474 11475 11476 11477 11478 11479 11480 11481 11482 11483 11484 11485 11486 11487 11488 11489 11490 11491 11492 11493 11494 11495 11496 11497 11498 11499 11500 11501 11502 11503 11504 11505 11506 11507 11508 11509 11510 11511 11512 11513 11514 11515 11516 11517 11518 11519 11520 11521 11522 11523 11524 11525 11526 11527 11528 11529 11530 11531 11532 11533 11534 11535 11536 11537 11538 11539 11540 11541 11542 11543 11544 11545 11546 11547 11548 11549 11550 11551 11552 11553 11554 11555 11556 11557 11558 11559 11560 11561 11562 11563 11564 11565 11566 11567 11568 11569 11570 11571 11572 11573 11574 11575 11576 11577 11578 11579 11580 11581 11582 11583 11584 11585 11586 11587 11588 11589 11590 11591 11592 11593 11594 11595 11596 11597 11598 11599 11600 11601 11602 11603 11604 11605 11606 11607 11608 11609 11610 11611 11612 11613 11614 11615 11616 11617 11618 11619 11620 11621 11622 11623 11624 11625 11626 11627 11628 11629 11630 11631 11632 11633 11634 11635 11636 11637 11638 11639 11640 11641 11642 11643 11644 11645 11646 11647 11648 11649 11650 11651 11652 11653 11654 11655 11656 11657 11658 11659 11660 11661 11662 11663 11664 11665 11666 11667 11668 11669 11670 11671 11672 11673 11674 11675 11676 11677 11678 11679 11680 11681 11682 11683 11684 11685 11686 11687 11688 11689 11690 11691 11692 11693 11694 11695 11696 11697 11698 11699 11700 11701 11702 11703 11704 11705 11706 11707 11708 11709 11710 11711 11712 11713 11714 11715 11716 11717 11718 11719 11720 11721 11722 11723 11724 11725 11726 11727 11728 11729 11730 11731 11732 11733 11734 11735 11736 11737 11738 11739 11740 11741 11742 11743 11744 11745 11746 11747 11748 11749 11750 11751 11752 11753 11754 11755 11756 11757 11758 11759 11760 11761 11762 11763 11764 11765 11766 11767 11768 11769 11770 11771 11772 11773 11774 11775 11776 11777 11778 11779 11780 11781 11782 11783 11784 11785 11786 11787 11788 11789 11790 11791 11792 11793 11794 11795 11796 11797 11798 11799 11800 11801 11802 11803 11804 11805 11806 11807 11808 11809 11810 11811 11812 11813 11814 11815 11816 11817 11818 11819 11820 11821 11822 11823 11824 11825 11826 11827 11828 11829 11830 11831 11832 11833 11834 11835 11836 11837 11838 11839 11840 11841 11842 11843 11844 11845 11846 11847 11848 11849 11850 11851 11852 11853 11854 11855 11856 11857 11858 11859 11860 11861 11862 11863 11864 11865 11866 11867 11868 11869 11870 11871 11872 11873 11874 11875 11876 11877 11878 11879 11880 11881 11882 11883 11884 11885 11886 11887 11888 11889 11890 11891 11892 11893 11894 11895 11896 11897 11898 11899 11900 11901 11902 11903 11904 11905 11906 11907 11908 11909 11910 11911 11912 11913 11914 11915 11916 11917 11918 11919 11920 11921 11922 11923 11924 11925 11926 11927 11928 11929 11930 11931 11932 11933 11934 11935 11936 11937 11938 11939 11940 11941 11942 11943 11944 11945 11946 11947 11948 11949 11950 11951 11952 11953 11954 11955 11956 11957 11958 11959 11960 11961 11962 11963 11964 11965 11966 11967 11968 11969 11970 11971 11972 11973 11974 11975 11976 11977 11978 11979 11980 11981 11982 11983 11984 11985 11986 11987 11988 11989 11990 11991 11992 11993 11994 11995 11996 11997 11998 11999 12000 12001 12002 12003 12004 12005 12006 12007 12008 12009 12010 12011 12012 12013 12014 12015 12016 12017 12018 12019 12020 12021 12022 12023 12024 12025 12026 12027 12028 12029 12030 12031 12032 12033 12034 12035 12036 12037 12038 12039 12040 12041 12042 12043 12044 12045 12046 12047 12048 12049 12050 12051 12052 12053 12054 12055 12056 12057 12058 12059 12060 12061 12062 12063 12064 12065 12066 12067 12068 12069 12070 12071 12072 12073 12074 12075 12076 12077 12078 12079 12080 12081 12082 12083 12084 12085 12086 12087 12088 12089 12090 12091 12092 12093 12094 12095 12096 12097 12098 12099 12100 12101 12102 12103 12104 12105 12106 12107 12108 12109 12110 12111 12112 12113 12114 12115 12116 12117 12118 12119 12120 12121 12122 12123 12124 12125 12126 12127 12128 12129 12130 12131 12132 12133 12134 12135 12136 12137 12138 12139 12140 12141 12142 12143 12144 12145 12146 12147 12148 12149 12150 12151 12152 12153 12154 12155 12156 12157 12158 12159 12160 12161 12162 12163 12164 12165 12166 12167 12168 12169 12170 12171 12172 12173 12174 12175 12176 12177 12178 12179 12180 12181 12182 12183 12184 12185 12186 12187 12188 12189 12190 12191 12192 12193 12194 12195 12196 12197 12198 12199 12200 12201 12202 12203 12204 12205 12206 12207 12208 12209 12210 12211 12212 12213 12214 12215 12216 12217 12218 12219 12220 12221 12222 12223 12224 12225 12226 12227 12228 12229 12230 12231 12232 12233 12234 12235 12236 12237 12238 12239 12240 12241 12242 12243 12244 12245 12246 12247 12248 12249 12250 12251 12252 12253 12254 12255 12256 12257 12258 12259 12260 12261 12262 12263 12264 12265 12266 12267 12268 12269 12270 12271 12272 12273 12274 12275 12276 12277 12278 12279 12280 12281 12282 12283 12284 12285 12286 12287 12288 12289 12290 12291 12292 12293 12294 12295 12296 12297 12298 12299 12300 12301 12302 12303 12304 12305 12306 12307 12308 12309 12310 12311 12312 12313 12314 12315 12316 12317 12318 12319 12320 12321 12322 12323 12324 12325 12326 12327 12328 12329 12330 12331 12332 12333 12334 12335 12336 12337 12338 12339 12340 12341 12342 12343 12344 12345 12346 12347 12348 12349 12350 12351 12352 12353 12354 12355 12356 12357 12358 12359 12360 12361 12362 12363 12364 12365 12366 12367 12368 12369 12370 12371 12372 12373 12374 12375 12376 12377 12378 12379 12380 12381 12382 12383 12384 12385 12386 12387 12388 12389 12390 12391 12392 12393 12394 12395 12396 12397 12398 12399 12400 12401 12402 12403 12404 12405 12406 12407 12408 12409 12410 12411 12412 12413 12414 12415 12416 12417 12418 12419 12420 12421 12422 12423 12424 12425 12426 12427 12428 12429 12430 12431 12432 12433 12434 12435 12436 12437 12438 12439 12440 12441 12442 12443 12444 12445 12446 12447 12448 12449 12450 12451 12452 12453 12454 12455 12456 12457 12458 12459 12460 12461 12462 12463 12464 12465 12466 12467 12468 12469 12470 12471 12472 12473 12474 12475 12476 12477 12478 12479 12480 12481 12482 12483 12484 12485 12486 12487 12488 12489 12490 12491 12492 12493 12494 12495 12496 12497 12498 12499 12500 12501 12502 12503 12504 12505 12506 12507 12508 12509 12510 12511 12512 12513 12514 12515 12516 12517 12518 12519 12520 12521 12522 12523 12524 12525 12526 12527 12528 12529 12530 12531 12532 12533 12534 12535 12536 12537 12538 12539 12540 12541 12542 12543 12544 12545 12546 12547 12548 12549 12550 12551 12552 12553 12554 12555 12556 12557 12558 12559 12560 12561 12562 12563 12564 12565 12566 12567 12568 12569 12570 12571 12572 12573 12574 12575 12576 12577 12578 12579 12580 12581 12582 12583 12584 12585 12586 12587 12588 12589 12590 12591 12592 12593 12594 12595 12596 12597 12598 12599 12600 12601 12602 12603 12604 12605 12606 12607 12608 12609 12610 12611 12612 12613 12614 12615 12616 12617 12618 12619 12620 12621 12622 12623 12624 12625 12626 12627 12628 12629 12630 12631 12632 12633 12634 12635 12636 12637 12638 12639 12640 12641 12642 12643 12644 12645 12646 12647 12648 12649 12650 12651 12652 12653 12654 12655 12656 12657 12658 12659 12660 12661 12662 12663 12664 12665 12666 12667 12668 12669 12670 12671 12672 12673 12674 12675 12676 12677 12678 12679 12680 12681 12682 12683 12684 12685 12686 12687 12688 12689 12690 12691 12692 12693 12694 12695 12696 12697 12698 12699 12700 12701 12702 12703 12704 12705 12706 12707 12708 12709 12710 12711 12712 12713 12714 12715 12716 12717 12718 12719 12720 12721 12722 12723 12724 12725 12726 12727 12728 12729 12730 12731 12732 12733 12734 12735 12736 12737 12738 12739 12740 12741 12742 12743 12744 12745 12746 12747 12748 12749 12750 12751 12752 12753 12754 12755 12756 12757 12758 12759 12760 12761 12762 12763 12764 12765 12766 12767 12768 12769 12770 12771 12772 12773 12774 12775 12776 12777 12778 12779 12780 12781 12782 12783 12784 12785 12786 12787 12788 12789 12790 12791 12792 12793 12794 12795 12796 12797 12798 12799 12800 12801 12802 12803 12804 12805 12806 12807 12808 12809 12810 12811 12812 12813 12814 12815 12816 12817 12818 12819 12820 12821 12822 12823 12824 12825 12826 12827 12828 12829 12830 12831 12832 12833 12834 12835 12836 12837 12838 12839 12840 12841 12842 12843 12844 12845 12846 12847 12848 12849 12850 12851 12852 12853 12854 12855 12856 12857 12858 12859 12860 12861 12862 12863 12864 12865 12866 12867 12868 12869 12870 12871 12872 12873 12874 12875 12876 12877 12878 12879 12880 12881 12882 12883 12884 12885 12886 12887 12888 12889 12890 12891 12892 12893 12894 12895 12896 12897 12898 12899 12900 12901 12902 12903 12904 12905 12906 12907 12908 12909 12910 12911 12912 12913 12914 12915 12916 12917 12918 12919 12920 12921 12922 12923 12924 12925 12926 12927 12928 12929 12930 12931 12932 12933 12934 12935 12936 12937 12938 12939 12940 12941 12942 12943 12944 12945 12946 12947 12948 12949 12950 12951 12952 12953 12954 12955 12956 12957 12958 12959 12960 12961 12962 12963 12964 12965 12966 12967 12968 12969 12970 12971 12972 12973 12974 12975 12976 12977 12978 12979 12980 12981 12982 12983 12984 12985 12986 12987 12988 12989 12990 12991 12992 12993 12994 12995 12996 12997 12998 12999 13000 13001 13002 13003 13004 13005 13006 13007 13008 13009 13010 13011 13012 13013 13014 13015 13016 13017 13018 13019 13020 13021 13022 13023 13024 13025 13026 13027 13028 13029 13030 13031 13032 13033 13034 13035 13036 13037 13038 13039 13040 13041 13042 13043 13044 13045 13046 13047 13048 13049 13050 13051 13052 13053 13054 13055 13056 13057 13058 13059 13060 13061 13062 13063 13064 13065 13066 13067 13068 13069 13070 13071 13072 13073 13074 13075 13076 13077 13078 13079 13080 13081 13082 13083 13084 13085 13086 13087 13088 13089 13090 13091 13092 13093 13094 13095 13096 13097 13098 13099 13100 13101 13102 13103 13104 13105 13106 13107 13108 13109 13110 13111 13112 13113 13114 13115 13116 13117 13118 13119 13120 13121 13122 13123 13124 13125 13126 13127 13128 13129 13130 13131 13132 13133 13134 13135 13136 13137 13138 13139 13140 13141 13142 13143 13144 13145 13146 13147 13148 13149 13150 13151 13152 13153 13154 13155 13156 13157 13158 13159 13160 13161 13162 13163 13164 13165 13166 13167 13168 13169 13170 13171 13172 13173 13174 13175 13176 13177 13178 13179 13180 13181 13182 13183 13184 13185 13186 13187 13188 13189 13190 13191 13192 13193 13194 13195 13196 13197 13198 13199 13200 13201 13202 13203 13204 13205 13206 13207 13208 13209 13210 13211 13212 13213 13214 13215 13216 13217 13218 13219 13220 13221 13222 13223 13224 13225 13226 13227 13228 13229 13230 13231 13232 13233 13234 13235 13236 13237 13238 13239 13240 13241 13242 13243 13244 13245 13246 13247 13248 13249 13250 13251 13252 13253 13254 13255 13256 13257 13258 13259 13260 13261 13262 13263 13264 13265 13266 13267 13268 13269 13270 13271 13272 13273 13274 13275 13276 13277 13278 13279 13280 13281 13282 13283 13284 13285 13286 13287 13288 13289 13290 13291 13292 13293 13294 13295 13296 13297 13298 13299 13300 13301 13302 13303 13304 13305 13306 13307 13308 13309 13310 13311 13312 13313 13314 13315 13316 13317 13318 13319 13320 13321 13322 13323 13324 13325 13326 13327 13328 13329 13330 13331 13332 13333 13334 13335 13336 13337 13338 13339 13340 13341 13342 13343 13344 13345 13346 13347 13348 13349 13350 13351 13352 13353 13354 13355 13356 13357 13358 13359 13360 13361 13362 13363 13364 13365 13366 13367 13368 13369 13370 13371 13372 13373 13374 13375 13376 13377 13378 13379 13380 13381 13382 13383 13384 13385 13386 13387 13388 13389 13390 13391 13392 13393 13394 13395 13396 13397 13398 13399 13400 13401 13402 13403 13404 13405 13406 13407 13408 13409 13410 13411 13412 13413 13414 13415 13416 13417 13418 13419 13420 13421 13422 13423 13424 13425 13426 13427 13428 13429 13430 13431 13432 13433 13434 13435 13436 13437 13438 13439 13440 13441 13442 13443 13444 13445 13446 13447 13448 13449 13450 13451 13452 13453 13454 13455 13456 13457 13458 13459 13460 13461 13462 13463 13464 13465 13466 13467 13468 13469 13470 13471 13472 13473 13474 13475 13476 13477 13478 13479 13480 13481 13482 13483 13484 13485 13486 13487 13488 13489 13490 13491 13492 13493 13494 13495 13496 13497 13498 13499 13500 13501 13502 13503 13504 13505 13506 13507 13508 13509 13510 13511 13512 13513 13514 13515 13516 13517 13518 13519 13520 13521 13522 13523 13524 13525 13526 13527 13528 13529 13530 13531 13532 13533 13534 13535 13536 13537 13538 13539 13540 13541 13542 13543 13544 13545 13546 13547 13548 13549 13550 13551 13552 13553 13554 13555 13556 13557 13558 13559 13560 13561 13562 13563 13564 13565 13566 13567 13568 13569 13570 13571 13572 13573 13574 13575 13576 13577 13578 13579 13580 13581 13582 13583 13584 13585 13586 13587 13588 13589 13590 13591 13592 13593 13594 13595 13596 13597 13598 13599 13600 13601 13602 13603 13604 13605 13606 13607 13608 13609 13610 13611 13612 13613 13614 13615 13616 13617 13618 13619 13620 13621 13622 13623 13624 13625 13626 13627 13628 13629 13630 13631 13632 13633 13634 13635 13636 13637 13638 13639 13640 13641 13642 13643 13644 13645 13646 13647 13648 13649 13650 13651 13652 13653 13654 13655 13656 13657 13658 13659 13660 13661 13662 13663 13664 13665 13666 13667 13668 13669 13670 13671 13672 13673 13674 13675 13676 13677 13678 13679 13680 13681 13682 13683 13684 13685 13686 13687 13688 13689 13690 13691 13692 13693 13694 13695 13696 13697 13698 13699 13700 13701 13702 13703 13704 13705 13706 13707 13708 13709 13710 13711 13712 13713 13714 13715 13716 13717 13718 13719 13720 13721 13722 13723 13724 13725 13726 13727 13728 13729 13730 13731 13732 13733 13734 13735 13736 13737 13738 13739 13740 13741 13742 13743 13744 13745 13746 13747 13748 13749 13750 13751 13752 13753 13754 13755 13756 13757 13758 13759 13760 13761 13762 13763 13764 13765 13766 13767 13768 13769 13770 13771 13772 13773 13774 13775 13776 13777 13778 13779 13780 13781 13782 13783 13784 13785 13786 13787 13788 13789 13790 13791 13792 13793 13794 13795 13796 13797 13798 13799 13800 13801 13802 13803 13804 13805 13806 13807 13808 13809 13810 13811 13812 13813 13814 13815 13816 13817 13818 13819 13820 13821 13822 13823 13824 13825 13826 13827 13828 13829 13830 13831 13832 13833 13834 13835 13836 13837 13838 13839 13840 13841 13842 13843 13844 13845 13846 13847 13848 13849 13850 13851 13852 13853 13854 13855 13856 13857 13858 13859 13860 13861 13862 13863 13864 13865 13866 13867 13868 13869 13870 13871 13872 13873 13874 13875 13876 13877 13878 13879 13880 13881 13882 13883 13884 13885 13886 13887 13888 13889 13890 13891 13892 13893 13894 13895 13896 13897 13898 13899 13900 13901 13902 13903 13904 13905 13906 13907 13908 13909 13910 13911 13912 13913 13914 13915 13916 13917 13918 13919 13920 13921 13922 13923 13924 13925 13926 13927 13928 13929 13930 13931 13932 13933 13934 13935 13936 13937 13938 13939 13940 13941 13942 13943 13944 13945 13946 13947 13948 13949 13950 13951 13952 13953 13954 13955 13956 13957 13958 13959 13960 13961 13962 13963 13964 13965 13966 13967 13968 13969 13970 13971 13972 13973 13974 13975 13976 13977 13978 13979 13980 13981 13982 13983 13984 13985 13986 13987 13988 13989 13990 13991 13992 13993 13994 13995 13996 13997 13998 13999 14000 14001 14002 14003 14004 14005 14006 14007 14008 14009 14010 14011 14012 14013 14014 14015 14016 14017 14018 14019 14020 14021 14022 14023 14024 14025 14026 14027 14028 14029 14030 14031 14032 14033 14034 14035 14036 14037 14038 14039 14040 14041 14042 14043 14044 14045 14046 14047 14048 14049 14050 14051 14052 14053 14054 14055 14056 14057 14058 14059 14060 14061 14062 14063 14064 14065 14066 14067 14068 14069 14070 14071 14072 14073 14074 14075 14076 14077 14078 14079 14080 14081 14082 14083 14084 14085 14086 14087 14088 14089 14090 14091 14092 14093 14094 14095 14096 14097 14098 14099 14100 14101 14102 14103 14104 14105 14106 14107 14108 14109 14110 14111 14112 14113 14114 14115 14116 14117 14118 14119 14120 14121 14122 14123 14124 14125 14126 14127 14128 14129 14130 14131 14132 14133 14134 14135 14136 14137 14138 14139 14140 14141 14142 14143 14144 14145 14146 14147 14148 14149 14150 14151 14152 14153 14154 14155 14156 14157 14158 14159 14160 14161 14162 14163 14164 14165 14166 14167 14168 14169 14170 14171 14172 14173 14174 14175 14176 14177 14178 14179 14180 14181 14182 14183 14184 14185 14186 14187 14188 14189 14190 14191 14192 14193 14194 14195 14196 14197 14198 14199 14200 14201 14202 14203 14204 14205 14206 14207 14208 14209 14210 14211 14212 14213 14214 14215 14216 14217 14218 14219 14220 14221 14222 14223 14224 14225 14226 14227 14228 14229 14230 14231 14232 14233 14234 14235 14236 14237 14238 14239 14240 14241 14242 14243 14244 14245 14246 14247 14248 14249 14250 14251 14252 14253 14254 14255 14256 14257 14258 14259 14260 14261 14262 14263 14264 14265 14266 14267 14268 14269 14270 14271 14272 14273 14274 14275 14276 14277 14278 14279 14280 14281 14282 14283 14284 14285 14286 14287 14288 14289 14290 14291 14292 14293 14294 14295 14296 14297 14298 14299 14300 14301 14302 14303 14304 14305 14306 14307 14308 14309 14310 14311 14312 14313 14314 14315 14316 14317 14318 14319 14320 14321 14322 14323 14324 14325 14326 14327 14328 14329 14330 14331 14332 14333 14334 14335 14336 14337 14338 14339 14340 14341 14342 14343 14344 14345 14346 14347 14348 14349 14350 14351 14352 14353 14354 14355 14356 14357 14358 14359 14360 14361 14362 14363 14364 14365 14366 14367 14368 14369 14370 14371 14372 14373 14374 14375 14376 14377 14378 14379 14380 14381 14382 14383 14384 14385 14386 14387 14388 14389 14390 14391 14392 14393 14394 14395 14396 14397 14398 14399 14400 14401 14402 14403 14404 14405 14406 14407 14408 14409 14410 14411 14412 14413 14414 14415 14416 14417 14418 14419 14420 14421 14422 14423 14424 14425 14426 14427 14428 14429 14430 14431 14432 14433 14434 14435 14436 14437 14438 14439 14440 14441 14442 14443 14444 14445 14446 14447 14448 14449 14450 14451 14452 14453 14454 14455 14456 14457 14458 14459 14460 14461 14462 14463 14464 14465 14466 14467 14468 14469 14470 14471 14472 14473 14474 14475 14476 14477 14478 14479 14480 14481 14482 14483 14484 14485 14486 14487 14488 14489 14490 14491 14492 14493 14494 14495 14496 14497 14498 14499 14500 14501 14502 14503 14504 14505 14506 14507 14508 14509 14510 14511 14512 14513 14514 14515 14516 14517 14518 14519 14520 14521 14522 14523 14524 14525 14526 14527 14528 14529 14530 14531 14532 14533 14534 14535 14536 14537 14538 14539 14540 14541 14542 14543 14544 14545 14546 14547 14548 14549 14550 14551 14552 14553 14554 14555 14556 14557 14558 14559 14560 14561 14562 14563 14564 14565 14566 14567 14568 14569 14570 14571 14572 14573 14574 14575 14576 14577 14578 14579 14580 14581 14582 14583 14584 14585 14586 14587 14588 14589 14590 14591 14592 14593 14594 14595 14596 14597 14598 14599 14600 14601 14602 14603 14604 14605 14606 14607 14608 14609 14610 14611 14612 14613 14614 14615 14616 14617 14618 14619 14620 14621 14622 14623 14624 14625 14626 14627 14628 14629 14630 14631 14632 14633 14634 14635 14636 14637 14638 14639 14640 14641 14642 14643 14644 14645 14646 14647 14648 14649 14650 14651 14652 14653 14654 14655 14656 14657 14658 14659 14660 14661 14662 14663 14664 14665 14666 14667 14668 14669 14670 14671 14672 14673 14674 14675 14676 14677 14678 14679 14680 14681 14682 14683 14684 14685 14686 14687 14688 14689 14690 14691 14692 14693 14694 14695 14696 14697 14698 14699 14700 14701 14702 14703 14704 14705 14706 14707 14708 14709 14710 14711 14712 14713 14714 14715 14716 14717 14718 14719 14720 14721 14722 14723 14724 14725 14726 14727 14728 14729 14730 14731 14732 14733 14734 14735 14736 14737 14738 14739 14740 14741 14742 14743 14744 14745 14746 14747 14748 14749 14750 14751 14752 14753 14754 14755 14756 14757 14758 14759 14760 14761 14762 14763 14764 14765 14766 14767 14768 14769 14770 14771 14772 14773 14774 14775 14776 14777 14778 14779 14780 14781 14782 14783 14784 14785 14786 14787 14788 14789 14790 14791 14792 14793 14794 14795 14796 14797 14798 14799 14800 14801 14802 14803 14804 14805 14806 14807 14808 14809 14810 14811 14812 14813 14814 14815 14816 14817 14818 14819 14820 14821 14822 14823 14824 14825 14826 14827 14828 14829 14830 14831 14832 14833 14834 14835 14836 14837 14838 14839 14840 14841 14842 14843 14844 14845 14846 14847 14848 14849 14850 14851 14852 14853 14854 14855 14856 14857 14858 14859 14860 14861 14862 14863 14864 14865 14866 14867 14868 14869 14870 14871 14872 14873 14874 14875 14876 14877 14878 14879 14880 14881 14882 14883 14884 14885 14886 14887 14888 14889 14890 14891 14892 14893 14894 14895 14896 14897 14898 14899 14900 14901 14902 14903 14904 14905 14906 14907 14908 14909 14910 14911 14912 14913 14914 14915 14916 14917 14918 14919 14920 14921 14922 14923 14924 14925 14926 14927 14928 14929 14930 14931 14932 14933 14934 14935 14936 14937 14938 14939 14940 14941 14942 14943 14944 14945 14946 14947 14948 14949 14950 14951 14952 14953 14954 14955 14956 14957 14958 14959 14960 14961 14962 14963 14964 14965 14966 14967 14968 14969 14970 14971 14972 14973 14974 14975 14976 14977 14978 14979 14980 14981 14982 14983 14984 14985 14986 14987 14988 14989 14990 14991 14992 14993 14994 14995 14996 14997 14998 14999 15000 15001 15002 15003 15004 15005 15006 15007 15008 15009 15010 15011 15012 15013 15014 15015 15016 15017 15018 15019 15020 15021 15022 15023 15024 15025 15026 15027 15028 15029 15030 15031 15032 15033 15034 15035 15036 15037 15038 15039 15040 15041 15042 15043 15044 15045 15046 15047 15048 15049 15050 15051 15052 15053 15054 15055 15056 15057 15058 15059 15060 15061 15062 15063 15064 15065 15066 15067 15068 15069 15070 15071 15072 15073 15074 15075 15076 15077 15078 15079 15080 15081 15082 15083 15084 15085 15086 15087 15088 15089 15090 15091 15092 15093 15094 15095 15096 15097 15098 15099 15100 15101 15102 15103 15104 15105 15106 15107 15108 15109 15110 15111 15112 15113 15114 15115 15116 15117 15118 15119 15120 15121 15122 15123 15124 15125 15126 15127 15128 15129 15130 15131 15132 15133 15134 15135 15136 15137 15138 15139 15140 15141 15142 15143 15144 15145 15146 15147 15148 15149 15150 15151 15152 15153 15154 15155 15156 15157 15158 15159 15160 15161 15162 15163 15164 15165 15166 15167 15168 15169 15170 15171 15172 15173 15174 15175 15176 15177 15178 15179 15180 15181 15182 15183 15184 15185 15186 15187 15188 15189 15190 15191 15192 15193 15194 15195 15196 15197 15198 15199 15200 15201 15202 15203 15204 15205 15206 15207 15208 15209 15210 15211 15212 15213 15214 15215 15216 15217 15218 15219 15220 15221 15222 15223 15224 15225 15226 15227 15228 15229 15230 15231 15232 15233 15234 15235 15236 15237 15238 15239 15240 15241 15242 15243 15244 15245 15246 15247 15248 15249 15250 15251 15252 15253 15254 15255 15256 15257 15258 15259 15260 15261 15262 15263 15264 15265 15266 15267 15268 15269 15270 15271 15272 15273 15274 15275 15276 15277 15278 15279 15280 15281 15282 15283 15284 15285 15286 15287 15288 15289 15290 15291 15292 15293 15294 15295 15296 15297 15298 15299 15300 15301 15302 15303 15304 15305 15306 15307 15308 15309 15310 15311 15312 15313 15314 15315 15316 15317 15318 15319 15320 15321 15322 15323 15324 15325 15326 15327 15328 15329 15330 15331 15332 15333 15334 15335 15336 15337 15338 15339 15340 15341 15342 15343 15344 15345 15346 15347 15348 15349 15350 15351 15352 15353 15354 15355 15356 15357 15358 15359 15360 15361 15362 15363 15364 15365 15366 15367 15368 15369 15370 15371 15372 15373 15374 15375 15376 15377 15378 15379 15380 15381 15382 15383 15384 15385 15386 15387 15388 15389 15390 15391 15392 15393 15394 15395 15396 15397 15398 15399 15400 15401 15402 15403 15404 15405 15406 15407 15408 15409 15410 15411 15412 15413 15414 15415 15416 15417 15418 15419 15420 15421 15422 15423 15424 15425 15426 15427 15428 15429 15430 15431 15432 15433 15434 15435 15436 15437 15438 15439 15440 15441 15442 15443 15444 15445 15446 15447 15448 15449 15450 15451 15452 15453 15454 15455 15456 15457 15458 15459 15460 15461 15462 15463 15464 15465 15466 15467 15468 15469 15470 15471 15472 15473 15474 15475 15476 15477 15478 15479 15480 15481 15482 15483 15484 15485 15486 15487 15488 15489 15490 15491 15492 15493 15494 15495 15496 15497 15498 15499 15500 15501 15502 15503 15504 15505 15506 15507 15508 15509 15510 15511 15512 15513 15514 15515 15516 15517 15518 15519 15520 15521 15522 15523 15524 15525 15526 15527 15528 15529 15530 15531 15532 15533 15534 15535 15536 15537 15538 15539 15540 15541 15542 15543 15544 15545 15546 15547 15548 15549 15550 15551 15552 15553 15554 15555 15556 15557 15558 15559 15560 15561 15562 15563 15564 15565 15566 15567 15568 15569 15570 15571 15572 15573 15574 15575 15576 15577 15578 15579 15580 15581 15582 15583 15584 15585 15586 15587 15588 15589 15590 15591 15592 15593 15594 15595 15596 15597 15598 15599 15600 15601 15602 15603 15604 15605 15606 15607 15608 15609 15610 15611 15612 15613 15614 15615 15616 15617 15618 15619 15620 15621 15622 15623 15624 15625 15626 15627 15628 15629 15630 15631 15632 15633 15634 15635 15636 15637 15638 15639 15640 15641 15642 15643 15644 15645 15646 15647 15648 15649 15650 15651 15652 15653 15654 15655 15656 15657 15658 15659 15660 15661 15662 15663 15664 15665 15666 15667 15668 15669 15670 15671 15672 15673 15674 15675 15676 15677 15678 15679 15680 15681 15682 15683 15684 15685 15686 15687 15688 15689 15690 15691 15692 15693 15694 15695 15696 15697 15698 15699 15700 15701 15702 15703 15704 15705 15706 15707 15708 15709 15710 15711 15712 15713 15714 15715 15716 15717 15718 15719 15720 15721 15722 15723 15724 15725 15726 15727 15728 15729 15730 15731 15732 15733 15734 15735 15736 15737 15738 15739 15740 15741 15742 15743 15744 15745 15746 15747 15748 15749 15750 15751 15752 15753 15754 15755 15756 15757 15758 15759 15760 15761 15762 15763 15764 15765 15766 15767 15768 15769 15770 15771 15772 15773 15774 15775 15776 15777 15778 15779 15780 15781 15782 15783 15784 15785 15786 15787 15788 15789 15790 15791 15792 15793 15794 15795 15796 15797 15798 15799 15800 15801 15802 15803 15804 15805 15806 15807 15808 15809 15810 15811 15812 15813 15814 15815 15816 15817 15818 15819 15820 15821 15822 15823 15824 15825 15826 15827 15828 15829 15830 15831 15832 15833 15834 15835 15836 15837 15838 15839 15840 15841 15842 15843 15844 15845 15846 15847 15848 15849 15850 15851 15852 15853 15854 15855 15856 15857 15858 15859 15860 15861 15862 15863 15864 15865 15866 15867 15868 15869 15870 15871 15872 15873 15874 15875 15876 15877 15878 15879 15880 15881 15882 15883 15884 15885 15886 15887 15888 15889 15890 15891 15892 15893 15894 15895 15896 15897 15898 15899 15900 15901 15902 15903 15904 15905 15906 15907 15908 15909 15910 15911 15912 15913 15914 15915 15916 15917 15918 15919 15920 15921 15922 15923 15924 15925 15926 15927 15928 15929 15930 15931 15932 15933 15934 15935 15936 15937 15938 15939 15940 15941 15942 15943 15944 15945 15946 15947 15948 15949 15950 15951 15952 15953 15954 15955 15956 15957 15958 15959 15960 15961 15962 15963 15964 15965 15966 15967 15968 15969 15970 15971 15972 15973 15974 15975 15976 15977 15978 15979 15980 15981 15982 15983 15984 15985 15986 15987 15988 15989 15990 15991 15992 15993 15994 15995 15996 15997 15998 15999 16000 16001 16002 16003 16004 16005 16006 16007 16008 16009 16010 16011 16012 16013 16014 16015 16016 16017 16018 16019 16020 16021 16022 16023 16024 16025 16026 16027 16028 16029 16030 16031 16032 16033 16034 16035 16036 16037 16038 16039 16040 16041 16042 16043 16044 16045 16046 16047 16048 16049 16050 16051 16052 16053 16054 16055 16056 16057 16058 16059 16060 16061 16062 16063 16064 16065 16066 16067 16068 16069 16070 16071 16072 16073 16074 16075 16076 16077 16078 16079 16080 16081 16082 16083 16084 16085 16086 16087 16088 16089 16090 16091 16092 16093 16094 16095 16096 16097 16098 16099 16100 16101 16102 16103 16104 16105 16106 16107 16108 16109 16110 16111 16112 16113 16114 16115 16116 16117 16118 16119 16120 16121 16122 16123 16124 16125 16126 16127 16128 16129 16130 16131 16132 16133 16134 16135 16136 16137 16138 16139 16140 16141 16142 16143 16144 16145 16146 16147 16148 16149 16150 16151 16152 16153 16154 16155 16156 16157 16158 16159 16160 16161 16162 16163 16164 16165 16166 16167 16168 16169 16170 16171 16172 16173 16174 16175 16176 16177 16178 16179 16180 16181 16182 16183 16184 16185 16186 16187 16188 16189 16190 16191 16192 16193 16194 16195 16196 16197 16198 16199 16200 16201 16202 16203 16204 16205 16206 16207 16208 16209 16210 16211 16212 16213 16214 16215 16216 16217 16218 16219 16220 16221 16222 16223 16224 16225 16226 16227 16228 16229 16230 16231 16232 16233 16234 16235 16236 16237 16238 16239 16240 16241 16242 16243 16244 16245 16246 16247 16248 16249 16250 16251 16252 16253 16254 16255 16256 16257 16258 16259 16260 16261 16262 16263 16264 16265 16266 16267 16268 16269 16270 16271 16272 16273 16274 16275 16276 16277 16278 16279 16280 16281 16282 16283 16284 16285 16286 16287 16288 16289 16290 16291 16292 16293 16294 16295 16296 16297 16298 16299 16300 16301 16302 16303 16304 16305 16306 16307 16308 16309 16310 16311 16312 16313 16314 16315 16316 16317 16318 16319 16320 16321 16322 16323 16324 16325 16326 16327 16328 16329 16330 16331 16332 16333 16334 16335 16336 16337 16338 16339 16340 16341 16342 16343 16344 16345 16346 16347 16348 16349 16350 16351 16352 16353 16354 16355 16356 16357 16358 16359 16360 16361 16362 16363 16364 16365 16366 16367 16368 16369 16370 16371 16372 16373 16374 16375 16376 16377 16378 16379 16380 16381 16382 16383 16384 16385 16386 16387 16388 16389 16390 16391 16392 16393 16394 16395 16396 16397 16398 16399 16400 16401 16402 16403 16404 16405 16406 16407 16408 16409 16410 16411 16412 16413 16414 16415 16416 16417 16418 16419 16420 16421 16422 16423 16424 16425 16426 16427 16428 16429 16430 16431 16432 16433 16434 16435 16436 16437 16438 16439 16440 16441 16442 16443 16444 16445 16446 16447 16448 16449 16450 16451 16452 16453 16454 16455 16456 16457 16458 16459 16460 16461 16462 16463 16464 16465 16466 16467 16468 16469 16470 16471 16472 16473 16474 16475 16476 16477 16478 16479 16480 16481 16482 16483 16484 16485 16486 16487 16488 16489 16490 16491 16492 16493 16494 16495 16496 16497 16498 16499 16500 16501 16502 16503 16504 16505 16506 16507 16508 16509 16510 16511 16512 16513 16514 16515 16516 16517 16518 16519 16520 16521 16522 16523 16524 16525 16526 16527 16528 16529 16530 16531 16532 16533 16534 16535 16536 16537 16538 16539 16540 16541 16542 16543 16544 16545 16546 16547 16548 16549 16550 16551 16552 16553 16554 16555 16556 16557 16558 16559 16560 16561 16562 16563 16564 16565 16566 16567 16568 16569 16570 16571 16572 16573 16574 16575 16576 16577 16578 16579 16580 16581 16582 16583 16584 16585 16586 16587 16588 16589 16590 16591 16592 16593 16594 16595 16596 16597 16598 16599 16600 16601 16602 16603 16604 16605 16606 16607 16608 16609 16610 16611 16612 16613 16614 16615 16616 16617 16618 16619 16620 16621 16622 16623 16624 16625 16626 16627 16628 16629 16630 16631 16632 16633 16634 16635 16636 16637 16638 16639 16640 16641 16642 16643 16644 16645 16646 16647 16648 16649 16650 16651 16652 16653 16654 16655 16656 16657 16658 16659 16660 16661 16662 16663 16664 16665 16666 16667 16668 16669 16670 16671 16672 16673 16674 16675 16676 16677 16678 16679 16680 16681 16682 16683 16684 16685 16686 16687 16688 16689 16690 16691 16692 16693 16694 16695 16696 16697 16698 16699 16700 16701 16702 16703 16704 16705 16706 16707 16708 16709 16710 16711 16712 16713 16714 16715 16716 16717 16718 16719 16720 16721 16722 16723 16724 16725 16726 16727 16728 16729 16730 16731 16732 16733 16734 16735 16736 16737 16738 16739 16740 16741 16742 16743 16744 16745 16746 16747 16748 16749 16750 16751 16752 16753 16754 16755 16756 16757 16758 16759 16760 16761 16762 16763 16764 16765 16766 16767 16768 16769 16770 16771 16772 16773 16774 16775 16776 16777 16778 16779 16780 16781 16782 16783 16784 16785 16786 16787 16788 16789 16790 16791 16792 16793 16794 16795 16796 16797 16798 16799 16800 16801 16802 16803 16804 16805 16806 16807 16808 16809 16810 16811 16812 16813 16814 16815 16816 16817 16818 16819 16820 16821 16822 16823 16824 16825 16826 16827 16828 16829 16830 16831 16832 16833 16834 16835 16836 16837 16838 16839 16840 16841 16842 16843 16844 16845 16846 16847 16848 16849 16850 16851 16852 16853 16854 16855 16856 16857 16858 16859 16860 16861 16862 16863 16864 16865 16866 16867 16868 16869 16870 16871 16872 16873 16874 16875 16876 16877 16878 16879 16880 16881 16882 16883 16884 16885 16886 16887 16888 16889 16890 16891 16892 16893 16894 16895 16896 16897 16898 16899 16900 16901 16902 16903 16904 16905 16906 16907 16908 16909 16910 16911 16912 16913 16914 16915 16916 16917 16918 16919 16920 16921 16922 16923 16924 16925 16926 16927 16928 16929 16930 16931 16932 16933 16934 16935 16936 16937 16938 16939 16940 16941 16942 16943 16944 16945 16946 16947 16948 16949 16950 16951 16952 16953 16954 16955 16956 16957 16958 16959 16960 16961 16962 16963 16964 16965 16966 16967 16968 16969 16970 16971 16972 16973 16974 16975 16976 16977 16978 16979 16980 16981 16982 16983 16984 16985 16986 16987 16988 16989 16990 16991 16992 16993 16994 16995 16996 16997 16998 16999 17000 17001 17002 17003 17004 17005 17006 17007 17008 17009 17010 17011 17012 17013 17014 17015 17016 17017 17018 17019 17020 17021 17022 17023 17024 17025 17026 17027 17028 17029 17030 17031 17032 17033 17034 17035 17036 17037 17038 17039 17040 17041 17042 17043 17044 17045 17046 17047 17048 17049 17050 17051 17052 17053 17054 17055 17056 17057 17058 17059 17060 17061 17062 17063 17064 17065 17066 17067 17068 17069 17070 17071 17072 17073 17074 17075 17076 17077 17078 17079 17080 17081 17082 17083 17084 17085 17086 17087 17088 17089 17090 17091 17092 17093 17094 17095 17096 17097 17098 17099 17100 17101 17102 17103 17104 17105 17106 17107 17108 17109 17110 17111 17112 17113 17114 17115 17116 17117 17118 17119 17120 17121 17122 17123 17124 17125 17126 17127 17128 17129 17130 17131 17132 17133 17134 17135 17136 17137 17138 17139 17140 17141 17142 17143 17144 17145 17146 17147 17148 17149 17150 17151 17152 17153 17154 17155 17156 17157 17158 17159 17160 17161 17162 17163 17164 17165 17166 17167 17168 17169 17170 17171 17172 17173 17174 17175 17176 17177 17178 17179 17180 17181 17182 17183 17184 17185 17186 17187 17188 17189 17190 17191 17192 17193 17194 17195 17196 17197 17198 17199 17200 17201 17202 17203 17204 17205 17206 17207 17208 17209 17210 17211 17212 17213 17214 17215 17216 17217 17218 17219 17220 17221 17222 17223 17224 17225 17226 17227 17228 17229 17230 17231 17232 17233 17234 17235 17236 17237 17238 17239 17240 17241 17242 17243 17244 17245 17246 17247 17248 17249 17250 17251 17252 17253 17254 17255 17256 17257 17258 17259 17260 17261 17262 17263 17264 17265 17266 17267 17268 17269 17270 17271 17272 17273 17274 17275 17276 17277 17278 17279 17280 17281 17282 17283 17284 17285 17286 17287 17288 17289 17290 17291 17292 17293 17294 17295 17296 17297 17298 17299 17300 17301 17302 17303 17304 17305 17306 17307 17308 17309 17310 17311 17312 17313 17314 17315 17316 17317 17318 17319 17320 17321 17322 17323 17324 17325 17326 17327 17328 17329 17330 17331 17332 17333 17334 17335 17336 17337 17338 17339 17340 17341 17342 17343 17344 17345 17346 17347 17348 17349 17350 17351 17352 17353 17354 17355 17356 17357 17358 17359 17360 17361 17362 17363 17364 17365 17366 17367 17368 17369 17370 17371 17372 17373 17374 17375 17376 17377 17378 17379 17380 17381 17382 17383 17384 17385 17386 17387 17388 17389 17390 17391 17392 17393 17394 17395 17396 17397 17398 17399 17400 17401 17402 17403 17404 17405 17406 17407 17408 17409 17410 17411 17412 17413 17414 17415 17416 17417 17418 17419 17420 17421 17422 17423 17424 17425 17426 17427 17428 17429 17430 17431 17432 17433 17434 17435 17436 17437 17438 17439 17440 17441 17442 17443 17444 17445 17446 17447 17448 17449 17450 17451 17452 17453 17454 17455 17456 17457 17458 17459 17460 17461 17462 17463 17464 17465 17466 17467 17468 17469 17470 17471 17472 17473 17474 17475 17476 17477 17478 17479 17480 17481 17482 17483 17484 17485 17486 17487 17488 17489 17490 17491 17492 17493 17494 17495 17496 17497 17498 17499 17500 17501 17502 17503 17504 17505 17506 17507 17508 17509 17510 17511 17512 17513 17514 17515 17516 17517 17518 17519 17520 17521 17522 17523 17524 17525 17526 17527 17528 17529 17530 17531 17532 17533 17534 17535 17536 17537 17538 17539 17540 17541 17542 17543 17544 17545 17546 17547 17548 17549 17550 17551 17552 17553 17554 17555 17556 17557 17558 17559 17560 17561 17562 17563 17564 17565 17566 17567 17568 17569 17570 17571 17572 17573 17574 17575 17576 17577 17578 17579 17580 17581 17582 17583 17584 17585 17586 17587 17588 17589 17590 17591 17592 17593 17594 17595 17596 17597 17598 17599 17600 17601 17602 17603 17604 17605 17606 17607 17608 17609 17610 17611 17612 17613 17614 17615 17616 17617 17618 17619 17620 17621 17622 17623 17624 17625 17626 17627 17628 17629 17630 17631 17632 17633 17634 17635 17636 17637 17638 17639 17640 17641 17642 17643 17644 17645 17646 17647 17648 17649 17650 17651 17652 17653 17654 17655 17656 17657 17658 17659 17660 17661 17662 17663 17664 17665 17666 17667 17668 17669 17670 17671 17672 17673 17674 17675 17676 17677 17678 17679 17680 17681 17682 17683 17684 17685 17686 17687 17688 17689 17690 17691 17692 17693 17694 17695 17696 17697 17698 17699 17700 17701 17702 17703 17704 17705 17706 17707 17708 17709 17710 17711 17712 17713 17714 17715 17716 17717 17718 17719 17720 17721 17722 17723 17724 17725 17726 17727 17728 17729 17730 17731 17732 17733 17734 17735 17736 17737 17738 17739 17740 17741 17742 17743 17744 17745 17746 17747 17748 17749 17750 17751 17752 17753 17754 17755 17756 17757 17758 17759 17760 17761 17762 17763 17764 17765 17766 17767 17768 17769 17770 17771 17772 17773 17774 17775 17776 17777 17778 17779 17780 17781 17782 17783 17784 17785 17786 17787 17788 17789 17790 17791 17792 17793 17794 17795 17796 17797 17798 17799 17800 17801 17802 17803 17804 17805 17806 17807 17808 17809 17810 17811 17812 17813 17814 17815 17816 17817 17818 17819 17820 17821 17822 17823 17824 17825 17826 17827 17828 17829 17830 17831 17832 17833 17834 17835 17836 17837 17838 17839 17840 17841 17842 17843 17844 17845 17846 17847 17848 17849 17850 17851 17852 17853 17854 17855 17856 17857 17858 17859 17860 17861 17862 17863 17864 17865 17866 17867 17868 17869 17870 17871 17872 17873 17874 17875 17876 17877 17878 17879 17880 17881 17882 17883 17884 17885 17886 17887 17888 17889 17890 17891 17892 17893 17894 17895 17896 17897 17898 17899 17900 17901 17902 17903 17904 17905 17906 17907 17908 17909 17910 17911 17912 17913 17914 17915 17916 17917 17918 17919 17920 17921 17922 17923 17924 17925 17926 17927 17928 17929 17930 17931 17932 17933 17934 17935 17936 17937 17938 17939 17940 17941 17942 17943 17944 17945 17946 17947 17948 17949 17950 17951 17952 17953 17954 17955 17956 17957 17958 17959 17960 17961 17962 17963 17964 17965 17966 17967 17968 17969 17970 17971 17972 17973 17974 17975 17976 17977 17978 17979 17980 17981 17982 17983 17984 17985 17986 17987 17988 17989 17990 17991 17992 17993 17994 17995 17996 17997 17998 17999 18000 18001 18002 18003 18004 18005 18006 18007 18008 18009 18010 18011 18012 18013 18014 18015 18016 18017 18018 18019 18020 18021 18022 18023 18024 18025 18026 18027 18028 18029 18030 18031 18032 18033 18034 18035 18036 18037 18038 18039 18040 18041 18042 18043 18044 18045 18046 18047 18048 18049 18050 18051 18052 18053 18054 18055 18056 18057 18058 18059 18060 18061 18062 18063 18064 18065 18066 18067 18068 18069 18070 18071 18072 18073 18074 18075 18076 18077 18078 18079 18080 18081 18082 18083 18084 18085 18086 18087 18088 18089 18090 18091 18092 18093 18094 18095 18096 18097 18098 18099 18100 18101 18102 18103 18104 18105 18106 18107 18108 18109 18110 18111 18112 18113 18114 18115 18116 18117 18118 18119 18120 18121 18122 18123 18124 18125 18126 18127 18128 18129 18130 18131 18132 18133 18134 18135 18136 18137 18138 18139 18140 18141 18142 18143 18144 18145 18146 18147 18148 18149 18150 18151 18152 18153 18154 18155 18156 18157 18158 18159 18160 18161 18162 18163 18164 18165 18166 18167 18168 18169 18170 18171 18172 18173 18174 18175 18176 18177 18178 18179 18180 18181 18182 18183 18184 18185 18186 18187 18188 18189 18190 18191 18192 18193 18194 18195 18196 18197 18198 18199 18200 18201 18202 18203 18204 18205 18206 18207 18208 18209 18210 18211 18212 18213 18214 18215 18216 18217 18218 18219 18220 18221 18222 18223 18224 18225 18226 18227 18228 18229 18230 18231 18232 18233 18234 18235 18236 18237 18238 18239 18240 18241 18242 18243 18244 18245 18246 18247 18248 18249 18250 18251 18252 18253 18254 18255 18256 18257 18258 18259 18260 18261 18262 18263 18264 18265 18266 18267 18268 18269 18270 18271 18272 18273 18274 18275 18276 18277 18278 18279 18280 18281 18282 18283 18284 18285 18286 18287 18288 18289 18290 18291 18292 18293 18294 18295 18296 18297 18298 18299 18300 18301 18302 18303 18304 18305 18306 18307 18308 18309 18310 18311 18312 18313 18314 18315 18316 18317 18318 18319 18320 18321 18322 18323 18324 18325 18326 18327 18328 18329 18330 18331 18332 18333 18334 18335 18336 18337 18338 18339 18340 18341 18342 18343 18344 18345 18346 18347 18348 18349 18350 18351 18352 18353 18354 18355 18356 18357 18358 18359 18360 18361 18362 18363 18364 18365 18366 18367 18368 18369 18370 18371 18372 18373 18374 18375 18376 18377 18378 18379 18380 18381 18382 18383 18384 18385 18386 18387 18388 18389 18390 18391 18392 18393 18394 18395 18396 18397 18398 18399 18400 18401 18402 18403 18404 18405 18406 18407 18408 18409 18410 18411 18412 18413 18414 18415 18416 18417 18418 18419 18420 18421 18422 18423 18424 18425 18426 18427 18428 18429 18430 18431 18432 18433 18434 18435 18436 18437 18438 18439 18440 18441 18442 18443 18444 18445 18446 18447 18448 18449 18450 18451 18452 18453 18454 18455 18456 18457 18458 18459 18460 18461 18462 18463 18464 18465 18466 18467 18468 18469 18470 18471 18472 18473 18474 18475 18476 18477 18478 18479 18480 18481 18482 18483 18484 18485 18486 18487 18488 18489 18490 18491 18492 18493 18494 18495 18496 18497 18498 18499 18500 18501 18502 18503 18504 18505 18506 18507 18508 18509 18510 18511 18512 18513 18514 18515 18516 18517 18518 18519 18520 18521 18522 18523 18524 18525 18526 18527 18528 18529 18530 18531 18532 18533 18534 18535 18536 18537 18538 18539 18540 18541 18542 18543 18544 18545 18546 18547 18548 18549 18550 18551 18552 18553 18554 18555 18556 18557 18558 18559 18560 18561 18562 18563 18564 18565 18566 18567 18568 18569 18570 18571 18572 18573 18574 18575 18576 18577 18578 18579 18580 18581 18582 18583 18584 18585 18586 18587 18588 18589 18590 18591 18592 18593 18594 18595 18596 18597 18598 18599 18600 18601 18602 18603 18604 18605 18606 18607 18608 18609 18610 18611 18612 18613 18614 18615 18616 18617 18618 18619 18620 18621 18622 18623 18624 18625 18626 18627 18628 18629 18630 18631 18632 18633 18634 18635 18636 18637 18638 18639 18640 18641 18642 18643 18644 18645 18646 18647 18648 18649 18650 18651 18652 18653 18654 18655 18656 18657 18658 18659 18660 18661 18662 18663 18664 18665 18666 18667 18668 18669 18670 18671 18672 18673 18674 18675 18676 18677 18678 18679 18680 18681 18682 18683 18684 18685 18686 18687 18688 18689 18690 18691 18692 18693 18694 18695 18696 18697 18698 18699 18700 18701 18702 18703 18704 18705 18706 18707 18708 18709 18710 18711 18712 18713 18714 18715 18716 18717 18718 18719 18720 18721 18722 18723 18724 18725 18726 18727 18728 18729 18730 18731 18732 18733 18734 18735 18736 18737 18738 18739 18740 18741 18742 18743 18744 18745 18746 18747 18748 18749 18750 18751 18752 18753 18754 18755 18756 18757 18758 18759 18760 18761 18762 18763 18764 18765 18766 18767 18768 18769 18770 18771 18772 18773 18774 18775 18776 18777 18778 18779 18780 18781 18782 18783 18784 18785 18786 18787 18788 18789 18790 18791 18792 18793 18794 18795 18796 18797 18798 18799 18800 18801 18802 18803 18804 18805 18806 18807 18808 18809 18810 18811 18812 18813 18814 18815 18816 18817 18818 18819 18820 18821 18822 18823 18824 18825 18826 18827 18828 18829 18830 18831 18832 18833 18834 18835 18836 18837 18838 18839 18840 18841 18842 18843 18844 18845 18846 18847 18848 18849 18850 18851 18852 18853 18854 18855 18856 18857 18858 18859 18860 18861 18862 18863 18864 18865 18866 18867 18868 18869 18870 18871 18872 18873 18874 18875 18876 18877 18878 18879 18880 18881 18882 18883 18884 18885 18886 18887 18888 18889 18890 18891 18892 18893 18894 18895 18896 18897 18898 18899 18900 18901 18902 18903 18904 18905 18906 18907 18908 18909 18910 18911 18912 18913 18914 18915 18916 18917 18918 18919 18920 18921 18922 18923 18924 18925 18926 18927 18928 18929 18930 18931 18932 18933 18934 18935 18936 18937 18938 18939 18940 18941 18942 18943 18944 18945 18946 18947 18948 18949 18950 18951 18952 18953 18954 18955 18956 18957 18958 18959 18960 18961 18962 18963 18964 18965 18966 18967 18968 18969 18970 18971 18972 18973 18974 18975 18976 18977 18978 18979 18980 18981 18982 18983 18984 18985 18986 18987 18988 18989 18990 18991 18992 18993 18994 18995 18996 18997 18998 18999 19000 19001 19002 19003 19004 19005 19006 19007 19008 19009 19010 19011 19012 19013 19014 19015 19016 19017 19018 19019 19020 19021 19022 19023 19024 19025 19026 19027 19028 19029 19030 19031 19032 19033 19034 19035 19036 19037 19038 19039 19040 19041 19042 19043 19044 19045 19046 19047 19048 19049 19050 19051 19052 19053 19054 19055 19056 19057 19058 19059 19060 19061 19062 19063 19064 19065 19066 19067 19068 19069 19070 19071 19072 19073 19074 19075 19076 19077 19078 19079 19080 19081 19082 19083 19084 19085 19086 19087 19088 19089 19090 19091 19092 19093 19094 19095 19096 19097 19098 19099 19100 19101 19102 19103 19104 19105 19106 19107 19108 19109 19110 19111 19112 19113 19114 19115 19116 19117 19118 19119 19120 19121 19122 19123 19124 19125 19126 19127 19128 19129 19130 19131 19132 19133 19134 19135 19136 19137 19138 19139 19140 19141 19142 19143 19144 19145 19146 19147 19148 19149 19150 19151 19152 19153 19154 19155 19156 19157 19158 19159 19160 19161 19162 19163 19164 19165 19166 19167 19168 19169 19170 19171 19172 19173 19174 19175 19176 19177 19178 19179 19180 19181 19182 19183 19184 19185 19186 19187 19188 19189 19190 19191 19192 19193 19194 19195 19196 19197 19198 19199 19200 19201 19202 19203 19204 19205 19206 19207 19208 19209 19210 19211 19212 19213 19214 19215 19216 19217 19218 19219 19220 19221 19222 19223 19224 19225 19226 19227 19228 19229 19230 19231 19232 19233 19234 19235 19236 19237 19238 19239 19240 19241 19242 19243 19244 19245 19246 19247 19248 19249 19250 19251 19252 19253 19254 19255 19256 19257 19258 19259 19260 19261 19262 19263 19264 19265 19266 19267 19268 19269 19270 19271 19272 19273 19274 19275 19276 19277 19278 19279 19280 19281 19282 19283 19284 19285 19286 19287 19288 19289 19290 19291 19292 19293 19294 19295 19296 19297 19298 19299 19300 19301 19302 19303 19304 19305 19306 19307 19308 19309 19310 19311 19312 19313 19314 19315 19316 19317 19318 19319 19320 19321 19322 19323 19324 19325 19326 19327 19328 19329 19330 19331 19332 19333 19334 19335 19336 19337 19338 19339 19340 19341 19342 19343 19344 19345 19346 19347 19348 19349 19350 19351 19352 19353 19354 19355 19356 19357 19358 19359 19360 19361 19362 19363 19364 19365 19366 19367 19368 19369 19370 19371 19372 19373 19374 19375 19376 19377 19378 19379 19380 19381 19382 19383 19384 19385 19386 19387 19388 19389 19390 19391 19392 19393 19394 19395 19396 19397 19398 19399 19400 19401 19402 19403 19404 19405 19406 19407 19408 19409 19410 19411 19412 19413 19414 19415 19416 19417 19418 19419 19420 19421 19422 19423 19424 19425 19426 19427 19428 19429 19430 19431 19432 19433 19434 19435 19436 19437 19438 19439 19440 19441 19442 19443 19444 19445 19446 19447 19448 19449 19450 19451 19452 19453 19454 19455 19456 19457 19458 19459 19460 19461 19462 19463 19464 19465 19466 19467 19468 19469 19470 19471 19472 19473 19474 19475 19476 19477 19478 19479 19480 19481 19482 19483 19484 19485 19486 19487 19488 19489 19490 19491 19492 19493 19494 19495 19496 19497 19498 19499 19500 19501 19502 19503 19504 19505 19506 19507 19508 19509 19510 19511 19512 19513 19514 19515 19516 19517 19518 19519 19520 19521 19522 19523 19524 19525 19526 19527 19528 19529 19530 19531 19532 19533 19534 19535 19536 19537 19538 19539 19540 19541 19542 19543 19544 19545 19546 19547 19548 19549 19550 19551 19552 19553 19554 19555 19556 19557 19558 19559 19560 19561 19562 19563 19564 19565 19566 19567 19568 19569 19570 19571 19572 19573 19574 19575 19576 19577 19578 19579 19580 19581 19582 19583 19584 19585 19586 19587 19588 19589 19590 19591 19592 19593 19594 19595 19596 19597 19598 19599 19600 19601 19602 19603 19604 19605 19606 19607 19608 19609 19610 19611 19612 19613 19614 19615 19616 19617 19618 19619 19620 19621 19622 19623 19624 19625 19626 19627 19628 19629 19630 19631 19632 19633 19634 19635 19636 19637 19638 19639 19640 19641 19642 19643 19644 19645 19646 19647 19648 19649 19650 19651 19652 19653 19654 19655 19656 19657 19658 19659 19660 19661 19662 19663 19664 19665 19666 19667 19668 19669 19670 19671 19672 19673 19674 19675 19676 19677 19678 19679 19680 19681 19682 19683 19684 19685 19686 19687 19688 19689 19690 19691 19692 19693 19694 19695 19696 19697 19698 19699 19700 19701 19702 19703 19704 19705 19706 19707 19708 19709 19710 19711 19712 19713 19714 19715 19716 19717 19718 19719 19720 19721 19722 19723 19724 19725 19726 19727 19728 19729 19730 19731 19732 19733 19734 19735 19736 19737 19738 19739 19740 19741 19742 19743 19744 19745 19746 19747 19748 19749 19750 19751 19752 19753 19754 19755 19756 19757 19758 19759 19760 19761 19762 19763 19764 19765 19766 19767 19768 19769 19770 19771 19772 19773 19774 19775 19776 19777 19778 19779 19780 19781 19782 19783 19784 19785 19786 19787 19788 19789 19790 19791 19792 19793 19794 19795 19796 19797 19798 19799 19800 19801 19802 19803 19804 19805 19806 19807 19808 19809 19810 19811 19812 19813 19814 19815 19816 19817 19818 19819 19820 19821 19822 19823 19824 19825 19826 19827 19828 19829 19830 19831 19832 19833 19834 19835 19836 19837 19838 19839 19840 19841 19842 19843 19844 19845 19846 19847 19848 19849 19850 19851 19852 19853 19854 19855 19856 19857 19858 19859 19860 19861 19862 19863 19864 19865 19866 19867 19868 19869 19870 19871 19872 19873 19874 19875 19876 19877 19878 19879 19880 19881 19882 19883 19884 19885 19886 19887 19888 19889 19890 19891 19892 19893 19894 19895 19896 19897 19898 19899 19900 19901 19902 19903 19904 19905 19906 19907 19908 19909 19910 19911 19912 19913 19914 19915 19916 19917 19918 19919 19920 19921 19922 19923 19924 19925 19926 19927 19928 19929 19930 19931 19932 19933 19934 19935 19936 19937 19938 19939 19940 19941 19942 19943 19944 19945 19946 19947 19948 19949 19950 19951 19952 19953 19954 19955 19956 19957 19958 19959 19960 19961 19962 19963 19964 19965 19966 19967 19968 19969 19970 19971 19972 19973 19974 19975 19976 19977 19978 19979 19980 19981 19982 19983 19984 19985 19986 19987 19988 19989 19990 19991 19992 19993 19994 19995 19996 19997 19998 19999 20000 20001 20002 20003 20004 20005 20006 20007 20008 20009 20010 20011 20012 20013 20014 20015 20016 20017 20018 20019 20020 20021 20022 20023 20024 20025 20026 20027 20028 20029 20030 20031 20032 20033 20034 20035 20036 20037 20038 20039 20040 20041 20042 20043 20044 20045 20046 20047 20048 20049 20050 20051 20052 20053 20054 20055 20056 20057 20058 20059 20060 20061 20062 20063 20064 20065 20066 20067 20068 20069 20070 20071 20072 20073 20074 20075 20076 20077 20078 20079 20080 20081 20082 20083 20084 20085 20086 20087 20088 20089 20090 20091 20092 20093 20094 20095 20096 20097 20098 20099 20100 20101 20102 20103 20104 20105 20106 20107 20108 20109 20110 20111 20112 20113 20114 20115 20116 20117 20118 20119 20120 20121 20122 20123 20124 20125 20126 20127 20128 20129 20130 20131 20132 20133 20134 20135 20136 20137 20138 20139 20140 20141 20142 20143 20144 20145 20146 20147 20148 20149 20150 20151 20152 20153 20154 20155 20156 20157 20158 20159 20160 20161 20162 20163 20164 20165 20166 20167 20168 20169 20170 20171 20172 20173 20174 20175 20176 20177 20178 20179 20180 20181 20182 20183 20184 20185 20186 20187 20188 20189 20190 20191 20192 20193 20194 20195 20196 20197 20198 20199 20200 20201 20202 20203 20204 20205 20206 20207 20208 20209 20210 20211 20212 20213 20214 20215 20216 20217 20218 20219 20220 20221 20222 20223 20224 20225 20226 20227 20228 20229 20230 20231 20232 20233 20234 20235 20236 20237 20238 20239 20240 20241 20242 20243 20244 20245 20246 20247 20248 20249 20250 20251 20252 20253 20254 20255 20256 20257 20258 20259 20260 20261 20262 20263 20264 20265 20266 20267 20268 20269 20270 20271 20272 20273 20274 20275 20276 20277 20278 20279 20280 20281 20282 20283 20284 20285 20286 20287 20288 20289 20290 20291 20292 20293 20294 20295 20296 20297 20298 20299 20300 20301 20302 20303 20304 20305 20306 20307 20308 20309 20310 20311 20312 20313 20314 20315 20316 20317 20318 20319 20320 20321 20322 20323 20324 20325 20326 20327 20328 20329 20330 20331 20332 20333 20334 20335 20336 20337 20338 20339 20340 20341 20342 20343 20344 20345 20346 20347 20348 20349 20350 20351 20352 20353 20354 20355 20356 20357 20358 20359 20360 20361 20362 20363 20364 20365 20366 20367 20368 20369 20370 20371 20372 20373 20374 20375 20376 20377 20378 20379 20380 20381 20382 20383 20384 20385 20386 20387 20388 20389 20390 20391 20392 20393 20394 20395 20396 20397 20398 20399 20400 20401 20402 20403 20404 20405 20406 20407 20408 20409 20410 20411 20412 20413 20414 20415 20416 20417 20418 20419 20420 20421 20422 20423 20424 20425 20426 20427 20428 20429 20430 20431 20432 20433 20434 20435 20436 20437 20438 20439 20440 20441 20442 20443 20444 20445 20446 20447 20448 20449 20450 20451 20452 20453 20454 20455 20456 20457 20458 20459 20460 20461 20462 20463 20464 20465 20466 20467 20468 20469 20470 20471 20472 20473 20474 20475 20476 20477 20478 20479 20480 20481 20482 20483 20484 20485 20486 20487 20488 20489 20490 20491 20492 20493 20494 20495 20496 20497 20498 20499 20500 20501 20502 20503 20504 20505 20506 20507 20508 20509 20510 20511 20512 20513 20514 20515 20516 20517 20518 20519 20520 20521 20522 20523 20524 20525 20526 20527 20528 20529 20530 20531 20532 20533 20534 20535 20536 20537 20538 20539 20540 20541 20542 20543 20544 20545 20546 20547 20548 20549 20550 20551 20552 20553 20554 20555 20556 20557 20558 20559 20560 20561 20562 20563 20564 20565 20566 20567 20568 20569 20570 20571 20572 20573 20574 20575 20576 20577 20578 20579 20580 20581 20582 20583 20584 20585 20586 20587 20588 20589 20590 20591 20592 20593 20594 20595 20596 20597 20598 20599 20600 20601 20602 20603 20604 20605 20606 20607 20608 20609 20610 20611 20612 20613 20614 20615 20616 20617 20618 20619 20620 20621 20622 20623 20624 20625 20626 20627 20628 20629 20630 20631 20632 20633 20634 20635 20636 20637 20638 20639 20640 20641 20642 20643 20644 20645 20646 20647 20648 20649 20650 20651 20652 20653 20654 20655 20656 20657 20658 20659 20660 20661 20662 20663 20664 20665 20666 20667 20668 20669 20670 20671 20672 20673 20674 20675 20676 20677 20678 20679 20680 20681 20682 20683 20684 20685 20686 20687 20688 20689 20690 20691 20692 20693 20694 20695 20696 20697 20698 20699 20700 20701 20702 20703 20704 20705 20706 20707 20708 20709 20710 20711 20712 20713 20714 20715 20716 20717 20718 20719 20720 20721 20722 20723 20724 20725 20726 20727 20728 20729 20730 20731 20732 20733 20734 20735 20736 20737 20738 20739 20740 20741 20742 20743 20744 20745 20746 20747 20748 20749 20750 20751 20752 20753 20754 20755 20756 20757 20758 20759 20760 20761 20762 20763 20764 20765 20766 20767 20768 20769 20770 20771 20772 20773 20774 20775 20776 20777 20778 20779 20780 20781 20782 20783 20784 20785 20786 20787 20788 20789 20790 20791 20792 20793 20794 20795 20796 20797 20798 20799 20800 20801 20802 20803 20804 20805 20806 20807 20808 20809 20810 20811 20812 20813 20814 20815 20816 20817 20818 20819 20820 20821 20822 20823 20824 20825 20826 20827 20828 20829 20830 20831 20832 20833 20834 20835 20836 20837 20838 20839 20840 20841 20842 20843 20844 20845 20846 20847 20848 20849 20850 20851 20852 20853 20854 20855 20856 20857 20858 20859 20860 20861 20862 20863 20864 20865 20866 20867 20868 20869 20870 20871 20872 20873 20874 20875 20876 20877 20878 20879 20880 20881 20882 20883 20884 20885 20886 20887 20888 20889 20890 20891 20892 20893 20894 20895 20896 20897 20898 20899 20900 20901 20902 20903 20904 20905 20906 20907 20908 20909 20910 20911 20912 20913 20914 20915 20916 20917 20918 20919 20920 20921 20922 20923 20924 20925 20926 20927 20928 20929 20930 20931 20932 20933 20934 20935 20936 20937 20938 20939 20940 20941 20942 20943 20944 20945 20946 20947 20948 20949 20950 20951 20952 20953 20954 20955 20956 20957 20958 20959 20960 20961 20962 20963 20964 20965 20966 20967 20968 20969 20970 20971 20972 20973 20974 20975 20976 20977 20978 20979 20980 20981 20982 20983 20984 20985 20986 20987 20988 20989 20990 20991 20992 20993 20994 20995 20996 20997 20998 20999 21000 21001 21002 21003 21004 21005 21006 21007 21008 21009 21010 21011 21012 21013 21014 21015 21016 21017 21018 21019 21020 21021 21022 21023 21024 21025 21026 21027 21028 21029 21030 21031 21032 21033 21034 21035 21036 21037 21038 21039 21040 21041 21042 21043 21044 21045 21046 21047 21048 21049 21050 21051 21052 21053 21054 21055 21056 21057 21058 21059 21060 21061 21062 21063 21064 21065 21066 21067 21068 21069 21070 21071 21072 21073 21074 21075 21076 21077 21078 21079 21080 21081 21082 21083 21084 21085 21086 21087 21088 21089 21090 21091 21092 21093 21094 21095 21096 21097 21098 21099 21100 21101 21102 21103 21104 21105 21106 21107 21108 21109 21110 21111 21112 21113 21114 21115 21116 21117 21118 21119 21120 21121 21122 21123 21124 21125 21126 21127 21128 21129 21130 21131 21132 21133 21134 21135 21136 21137 21138 21139 21140 21141 21142 21143 21144 21145 21146 21147 21148 21149 21150 21151 21152 21153 21154 21155 21156 21157 21158 21159 21160 21161 21162 21163 21164 21165 21166 21167 21168 21169 21170 21171 21172 21173 21174 21175 21176 21177 21178 21179 21180 21181 21182 21183 21184 21185 21186 21187 21188 21189 21190 21191 21192 21193 21194 21195 21196 21197 21198 21199 21200 21201 21202 21203 21204 21205 21206 21207 21208 21209 21210 21211 21212 21213 21214 21215 21216 21217 21218 21219 21220 21221 21222 21223 21224 21225 21226 21227 21228 21229 21230 21231 21232 21233 21234 21235 21236 21237 21238 21239 21240 21241 21242 21243 21244 21245 21246 21247 21248 21249 21250 21251 21252 21253 21254 21255 21256 21257 21258 21259 21260 21261 21262 21263 21264 21265 21266 21267 21268 21269 21270 21271 21272 21273 21274 21275 21276 21277 21278 21279 21280 21281 21282 21283 21284 21285 21286 21287 21288 21289 21290 21291 21292 21293 21294 21295 21296 21297 21298 21299 21300 21301 21302 21303 21304 21305 21306 21307 21308 21309 21310 21311 21312 21313 21314 21315 21316 21317 21318 21319 21320 21321 21322 21323 21324 21325 21326 21327 21328 21329 21330 21331 21332 21333 21334 21335 21336 21337 21338 21339 21340 21341 21342 21343 21344 21345 21346 21347 21348 21349 21350 21351 21352 21353 21354 21355 21356 21357 21358 21359 21360 21361 21362 21363 21364 21365 21366 21367 21368 21369 21370 21371 21372 21373 21374 21375 21376 21377 21378 21379 21380 21381 21382 21383 21384 21385 21386 21387 21388 21389 21390 21391 21392 21393 21394 21395 21396 21397 21398 21399 21400 21401 21402 21403 21404 21405 21406 21407 21408 21409 21410 21411 21412 21413 21414 21415 21416 21417 21418 21419 21420 21421 21422 21423 21424 21425 21426 21427 21428 21429 21430 21431 21432 21433 21434 21435 21436 21437 21438 21439 21440 21441 21442 21443 21444 21445 21446 21447 21448 21449 21450 21451 21452 21453 21454 21455 21456 21457 21458 21459 21460 21461 21462 21463 21464 21465 21466 21467 21468 21469 21470 21471 21472 21473 21474 21475 21476 21477 21478 21479 21480 21481 21482 21483 21484 21485 21486 21487 21488 21489 21490 21491 21492 21493 21494 21495 21496 21497 21498 21499 21500 21501 21502 21503 21504 21505 21506 21507 21508 21509 21510 21511 21512 21513 21514 21515 21516 21517 21518 21519 21520 21521 21522 21523 21524 21525 21526 21527 21528 21529 21530 21531 21532 21533 21534 21535 21536 21537 21538 21539 21540 21541 21542 21543 21544 21545 21546 21547 21548 21549 21550 21551 21552 21553 21554 21555 21556 21557 21558 21559 21560 21561 21562 21563 21564 21565 21566 21567 21568 21569 21570 21571 21572 21573 21574 21575 21576 21577 21578 21579 21580 21581 21582 21583 21584 21585 21586 21587 21588 21589 21590 21591 21592 21593 21594 21595 21596 21597 21598 21599 21600 21601 21602 21603 21604 21605 21606 21607 21608 21609 21610 21611 21612 21613 21614 21615 21616 21617 21618 21619 21620 21621 21622 21623 21624 21625 21626 21627 21628 21629 21630 21631 21632 21633 21634 21635 21636 21637 21638 21639 21640 21641 21642 21643 21644 21645 21646 21647 21648 21649 21650 21651 21652 21653 21654 21655 21656 21657 21658 21659 21660 21661 21662 21663 21664 21665 21666 21667 21668 21669 21670 21671 21672 21673 21674 21675 21676 21677 21678 21679 21680 21681 21682 21683 21684 21685 21686 21687 21688 21689 21690 21691 21692 21693 21694 21695 21696 21697 21698 21699 21700 21701 21702 21703 21704 21705 21706 21707 21708 21709 21710 21711 21712 21713 21714 21715 21716 21717 21718 21719 21720 21721 21722 21723 21724 21725 21726 21727 21728 21729 21730 21731 21732 21733 21734 21735 21736 21737 21738 21739 21740 21741 21742 21743 21744 21745 21746 21747 21748 21749 21750 21751 21752 21753 21754 21755 21756 21757 21758 21759 21760 21761 21762 21763 21764 21765 21766 21767 21768 21769 21770 21771 21772 21773 21774 21775 21776 21777 21778 21779 21780 21781 21782 21783 21784 21785 21786 21787 21788 21789 21790 21791 21792 21793 21794 21795 21796 21797 21798 21799 21800 21801 21802 21803 21804 21805 21806 21807 21808 21809 21810 21811 21812 21813 21814 21815 21816 21817 21818 21819 21820 21821 21822 21823 21824 21825 21826 21827 21828 21829 21830 21831 21832 21833 21834 21835 21836 21837 21838 21839 21840 21841 21842 21843 21844 21845 21846 21847 21848 21849 21850 21851 21852 21853 21854 21855 21856 21857 21858 21859 21860 21861 21862 21863 21864 21865 21866 21867 21868 21869 21870 21871 21872 21873 21874 21875 21876 21877 21878 21879 21880 21881 21882 21883 21884 21885 21886 21887 21888 21889 21890 21891 21892 21893 21894 21895 21896 21897 21898 21899 21900 21901 21902 21903 21904 21905 21906 21907 21908 21909 21910 21911 21912 21913 21914 21915 21916 21917 21918 21919 21920 21921 21922 21923 21924 21925 21926 21927 21928 21929 21930 21931 21932 21933 21934 21935 21936 21937 21938 21939 21940 21941 21942 21943 21944 21945 21946 21947 21948 21949 21950 21951 21952 21953 21954 21955 21956 21957 21958 21959 21960 21961 21962 21963 21964 21965 21966 21967 21968 21969 21970 21971 21972 21973 21974 21975 21976 21977 21978 21979 21980 21981 21982 21983 21984 21985 21986 21987 21988 21989 21990 21991 21992 21993 21994 21995 21996 21997 21998 21999 22000 22001 22002 22003 22004 22005 22006 22007 22008 22009 22010 22011 22012 22013 22014 22015 22016 22017 22018 22019 22020 22021 22022 22023 22024 22025 22026 22027 22028 22029 22030 22031 22032 22033 22034 22035 22036 22037 22038 22039 22040 22041 22042 22043 22044 22045 22046 22047 22048 22049 22050 22051 22052 22053 22054 22055 22056 22057 22058 22059 22060 22061 22062 22063 22064 22065 22066 22067 22068 22069 22070 22071 22072 22073 22074 22075 22076 22077 22078 22079 22080 22081 22082 22083 22084 22085 22086 22087 22088 22089 22090 22091 22092 22093 22094 22095 22096 22097 22098 22099 22100 22101 22102 22103 22104 22105 22106 22107 22108 22109 22110 22111 22112 22113 22114 22115 22116 22117 22118 22119 22120 22121 22122 22123 22124 22125 22126 22127 22128 22129 22130 22131 22132 22133 22134 22135 22136 22137 22138 22139 22140 22141 22142 22143 22144 22145 22146 22147 22148 22149 22150 22151 22152 22153 22154 22155 22156 22157 22158 22159 22160 22161 22162 22163 22164 22165 22166 22167 22168 22169 22170 22171 22172 22173 22174 22175 22176 22177 22178 22179 22180 22181 22182 22183 22184 22185 22186 22187 22188 22189 22190 22191 22192 22193 22194 22195 22196 22197 22198 22199 22200 22201 22202 22203 22204 22205 22206 22207 22208 22209 22210 22211 22212 22213 22214 22215 22216 22217 22218 22219 22220 22221 22222 22223 22224 22225 22226 22227 22228 22229 22230 22231 22232 22233 22234 22235 22236 22237 22238 22239 22240 22241 22242 22243 22244 22245 22246 22247 22248 22249 22250 22251 22252 22253 22254 22255 22256 22257 22258 22259 22260 22261 22262 22263 22264 22265 22266 22267 22268 22269 22270 22271 22272 22273 22274 22275 22276 22277 22278 22279 22280 22281 22282 22283 22284 22285 22286 22287 22288 22289 22290 22291 22292 22293 22294 22295 22296 22297 22298 22299 22300 22301 22302 22303 22304 22305 22306 22307 22308 22309 22310 22311 22312 22313 22314 22315 22316 22317 22318 22319 22320 22321 22322 22323 22324 22325 22326 22327 22328 22329 22330 22331 22332 22333 22334 22335 22336 22337 22338 22339 22340 22341 22342 22343 22344 22345 22346 22347 22348 22349 22350 22351 22352 22353 22354 22355 22356 22357 22358 22359 22360 22361 22362 22363 22364 22365 22366 22367 22368 22369 22370 22371 22372 22373 22374 22375 22376 22377 22378 22379 22380 22381 22382 22383 22384 22385 22386 22387 22388 22389 22390 22391 22392 22393 22394 22395 22396 22397 22398 22399 22400 22401 22402 22403 22404 22405 22406 22407 22408 22409 22410 22411 22412 22413 22414 22415 22416 22417 22418 22419 22420 22421 22422 22423 22424 22425 22426 22427 22428 22429 22430 22431 22432 22433 22434 22435 22436 22437 22438 22439 22440 22441 22442 22443 22444 22445 22446 22447 22448 22449 22450 22451 22452 22453 22454 22455 22456 22457 22458 22459 22460 22461 22462 22463 22464 22465 22466 22467 22468 22469 22470 22471 22472 22473 22474 22475 22476 22477 22478 22479 22480 22481 22482 22483 22484 22485 22486 22487 22488 22489 22490 22491 22492 22493 22494 22495 22496 22497 22498 22499 22500 22501 22502 22503 22504 22505 22506 22507 22508 22509 22510 22511 22512 22513 22514 22515 22516 22517 22518 22519 22520 22521 22522 22523 22524 22525 22526 22527 22528 22529 22530 22531 22532 22533 22534 22535 22536 22537 22538 22539 22540 22541 22542 22543 22544 22545 22546 22547 22548 22549 22550 22551 22552 22553 22554 22555 22556 22557 22558 22559 22560 22561 22562 22563 22564 22565 22566 22567 22568 22569 22570 22571 22572 22573 22574 22575 22576 22577 22578 22579 22580 22581 22582 22583 22584 22585 22586 22587 22588 22589 22590 22591 22592 22593 22594 22595 22596 22597 22598 22599 22600 22601 22602 22603 22604 22605 22606 22607 22608 22609 22610 22611 22612 22613 22614 22615 22616 22617 22618 22619 22620 22621 22622 22623 22624 22625 22626 22627 22628 22629 22630 22631 22632 22633 22634 22635 22636 22637 22638 22639 22640 22641 22642 22643 22644 22645 22646 22647 22648 22649 22650 22651 22652 22653 22654 22655 22656 22657 22658 22659 22660 22661 22662 22663 22664 22665 22666 22667 22668 22669 22670 22671 22672 22673 22674 22675 22676 22677 22678 22679 22680 22681 22682 22683 22684 22685 22686 22687 22688 22689 22690 22691 22692 22693 22694 22695 22696 22697 22698 22699 22700 22701 22702 22703 22704 22705 22706 22707 22708 22709 22710 22711 22712 22713 22714 22715 22716 22717 22718 22719 22720 22721 22722 22723 22724 22725 22726 22727 22728 22729 22730 22731 22732 22733 22734 22735 22736 22737 22738 22739 22740 22741 22742 22743 22744 22745 22746 22747 22748 22749 22750 22751 22752 22753 22754 22755 22756 22757 22758 22759 22760 22761 22762 22763 22764 22765 22766 22767 22768 22769 22770 22771 22772 22773 22774 22775 22776 22777 22778 22779 22780 22781 22782 22783 22784 22785 22786 22787 22788 22789 22790 22791 22792 22793 22794 22795 22796 22797 22798 22799 22800 22801 22802 22803 22804 22805 22806 22807 22808 22809 22810 22811 22812 22813 22814 22815 22816 22817 22818 22819 22820 22821 22822 22823 22824 22825 22826 22827 22828 22829 22830 22831 22832 22833 22834 22835 22836 22837 22838 22839 22840 22841 22842 22843 22844 22845 22846 22847 22848 22849 22850 22851 22852 22853 22854 22855 22856 22857 22858 22859 22860 22861 22862 22863 22864 22865 22866 22867 22868 22869 22870 22871 22872 22873 22874 22875 22876 22877 22878 22879 22880 22881 22882 22883 22884 22885 22886 22887 22888 22889 22890 22891 22892 22893 22894 22895 22896 22897 22898 22899 22900 22901 22902 22903 22904 22905 22906 22907 22908 22909 22910 22911 22912 22913 22914 22915 22916 22917 22918 22919 22920 22921 22922 22923 22924 22925 22926 22927 22928 22929 22930 22931 22932 22933 22934 22935 22936 22937 22938 22939 22940 22941 22942 22943 22944 22945 22946 22947 22948 22949 22950 22951 22952 22953 22954 22955 22956 22957 22958 22959 22960 22961 22962 22963 22964 22965 22966 22967 22968 22969 22970 22971 22972 22973 22974 22975 22976 22977 22978 22979 22980 22981 22982 22983 22984 22985 22986 22987 22988 22989 22990 22991 22992 22993 22994 22995 22996 22997 22998 22999 23000 23001 23002 23003 23004 23005 23006 23007 23008 23009 23010 23011 23012 23013 23014 23015 23016 23017 23018 23019 23020 23021 23022 23023 23024 23025 23026 23027 23028 23029 23030 23031 23032 23033 23034 23035 23036 23037 23038 23039 23040 23041 23042 23043 23044 23045 23046 23047 23048 23049 23050 23051 23052 23053 23054 23055 23056 23057 23058 23059 23060 23061 23062 23063 23064 23065 23066 23067 23068 23069 23070 23071 23072 23073 23074 23075 23076 23077 23078 23079 23080 23081 23082 23083 23084 23085 23086 23087 23088 23089 23090 23091 23092 23093 23094 23095 23096 23097 23098 23099 23100 23101 23102 23103 23104 23105 23106 23107 23108 23109 23110 23111 23112 23113 23114 23115 23116 23117 23118 23119 23120 23121 23122 23123 23124 23125 23126 23127 23128 23129 23130 23131 23132 23133 23134 23135 23136 23137 23138 23139 23140 23141 23142 23143 23144 23145 23146 23147 23148 23149 23150 23151 23152 23153 23154 23155 23156 23157 23158 23159 23160 23161 23162 23163 23164 23165 23166 23167 23168 23169 23170 23171 23172 23173 23174 23175 23176 23177 23178 23179 23180 23181 23182 23183 23184 23185 23186 23187 23188 23189 23190 23191 23192 23193 23194 23195 23196 23197 23198 23199 23200 23201 23202 23203 23204 23205 23206 23207 23208 23209 23210 23211 23212 23213 23214 23215 23216 23217 23218 23219 23220 23221 23222 23223 23224 23225 23226 23227 23228 23229 23230 23231 23232 23233 23234 23235 23236 23237 23238 23239 23240 23241 23242 23243 23244 23245 23246 23247 23248 23249 23250 23251 23252 23253 23254 23255 23256 23257 23258 23259 23260 23261 23262 23263 23264 23265 23266 23267 23268 23269 23270 23271 23272 23273 23274 23275 23276 23277 23278 23279 23280 23281 23282 23283 23284 23285 23286 23287 23288 23289 23290 23291 23292 23293 23294 23295 23296 23297 23298 23299 23300 23301 23302 23303 23304 23305 23306 23307 23308 23309 23310 23311 23312 23313 23314 23315 23316 23317 23318 23319 23320 23321 23322 23323 23324 23325 23326 23327 23328 23329 23330 23331 23332 23333 23334 23335 23336 23337 23338 23339 23340 23341 23342 23343 23344 23345 23346 23347 23348 23349 23350 23351 23352 23353 23354 23355 23356 23357 23358 23359 23360 23361 23362 23363 23364 23365 23366 23367 23368 23369 23370 23371 23372 23373 23374 23375 23376 23377 23378 23379 23380 23381 23382 23383 23384 23385 23386 23387 23388 23389 23390 23391 23392 23393 23394 23395 23396 23397 23398 23399 23400 23401 23402 23403 23404 23405 23406 23407 23408 23409 23410 23411 23412 23413 23414 23415 23416 23417 23418 23419 23420 23421 23422 23423 23424 23425 23426 23427 23428 23429 23430 23431 23432 23433 23434 23435 23436 23437 23438 23439 23440 23441 23442 23443 23444 23445 23446 23447 23448 23449 23450 23451 23452 23453 23454 23455 23456 23457 23458 23459 23460 23461 23462 23463 23464 23465 23466 23467 23468 23469 23470 23471 23472 23473 23474 23475 23476 23477 23478 23479 23480 23481 23482 23483 23484 23485 23486 23487 23488 23489 23490 23491 23492 23493 23494 23495 23496 23497 23498 23499 23500 23501 23502 23503 23504 23505 23506 23507 23508 23509 23510 23511 23512 23513 23514 23515 23516 23517 23518 23519 23520 23521 23522 23523 23524 23525 23526 23527 23528 23529 23530 23531 23532 23533 23534 23535 23536 23537 23538 23539 23540 23541 23542 23543 23544 23545 23546 23547 23548 23549 23550 23551 23552 23553 23554 23555 23556 23557 23558 23559 23560 23561 23562 23563 23564 23565 23566 23567 23568 23569 23570 23571 23572 23573 23574 23575 23576 23577 23578 23579 23580 23581 23582 23583 23584 23585 23586 23587 23588 23589 23590 23591 23592 23593 23594 23595 23596 23597 23598 23599 23600 23601 23602 23603 23604 23605 23606 23607 23608 23609 23610 23611 23612 23613 23614 23615 23616 23617 23618 23619 23620 23621 23622 23623 23624 23625 23626 23627 23628 23629 23630 23631 23632 23633 23634 23635 23636 23637 23638 23639 23640 23641 23642 23643 23644 23645 23646 23647 23648 23649 23650 23651 23652 23653 23654 23655 23656 23657 23658 23659 23660 23661 23662 23663 23664 23665 23666 23667 23668 23669 23670 23671 23672 23673 23674 23675 23676 23677 23678 23679 23680 23681 23682 23683 23684 23685 23686 23687 23688 23689 23690 23691 23692 23693 23694 23695 23696 23697 23698 23699 23700 23701 23702 23703 23704 23705 23706 23707 23708 23709 23710 23711 23712 23713 23714 23715 23716 23717 23718 23719 23720 23721 23722 23723 23724 23725 23726 23727 23728 23729 23730 23731 23732 23733 23734 23735 23736 23737 23738 23739 23740 23741 23742 23743 23744 23745 23746 23747 23748 23749 23750 23751 23752 23753 23754 23755 23756 23757 23758 23759 23760 23761 23762 23763 23764 23765 23766 23767 23768 23769 23770 23771 23772 23773 23774 23775 23776 23777 23778 23779 23780 23781 23782 23783 23784 23785 23786 23787 23788 23789 23790 23791 23792 23793 23794 23795 23796 23797 23798 23799 23800 23801 23802 23803 23804 23805 23806 23807 23808 23809 23810 23811 23812 23813 23814 23815 23816 23817 23818 23819 23820 23821 23822 23823 23824 23825 23826 23827 23828 23829 23830 23831 23832 23833 23834 23835 23836 23837 23838 23839 23840 23841 23842 23843 23844 23845 23846 23847 23848 23849 23850 23851 23852 23853 23854 23855 23856 23857 23858 23859 23860 23861 23862 23863 23864 23865 23866 23867 23868 23869 23870 23871 23872 23873 23874 23875 23876 23877 23878 23879 23880 23881 23882 23883 23884 23885 23886 23887 23888 23889 23890 23891 23892 23893 23894 23895 23896 23897 23898 23899 23900 23901 23902 23903 23904 23905 23906 23907 23908 23909 23910 23911 23912 23913 23914 23915 23916 23917 23918 23919 23920 23921 23922 23923 23924 23925 23926 23927 23928 23929 23930 23931 23932 23933 23934 23935 23936 23937 23938 23939 23940 23941 23942 23943 23944 23945 23946 23947 23948 23949 23950 23951 23952 23953 23954 23955 23956 23957 23958 23959 23960 23961 23962 23963 23964 23965 23966 23967 23968 23969 23970 23971 23972 23973 23974 23975 23976 23977 23978 23979 23980 23981 23982 23983 23984 23985 23986 23987 23988 23989 23990 23991 23992 23993 23994 23995 23996 23997 23998 23999 24000 24001 24002 24003 24004 24005 24006 24007 24008 24009 24010 24011 24012 24013 24014 24015 24016 24017 24018 24019 24020 24021 24022 24023 24024 24025 24026 24027 24028 24029 24030 24031 24032 24033 24034 24035 24036 24037 24038 24039 24040 24041 24042 24043 24044 24045 24046 24047 24048 24049 24050 24051 24052 24053 24054 24055 24056 24057 24058 24059 24060 24061 24062 24063 24064 24065 24066 24067 24068 24069 24070 24071 24072 24073 24074 24075 24076 24077 24078 24079 24080 24081 24082 24083 24084 24085 24086 24087 24088 24089 24090 24091 24092 24093 24094 24095 24096 24097 24098 24099 24100 24101 24102 24103 24104 24105 24106 24107 24108 24109 24110 24111 24112 24113 24114 24115 24116 24117 24118 24119 24120 24121 24122 24123 24124 24125 24126 24127 24128 24129 24130 24131 24132 24133 24134 24135 24136 24137 24138 24139 24140 24141 24142 24143 24144 24145 24146 24147 24148 24149 24150 24151 24152 24153 24154 24155 24156 24157 24158 24159 24160 24161 24162 24163 24164 24165 24166 24167 24168 24169 24170 24171 24172 24173 24174 24175 24176 24177 24178 24179 24180 24181 24182 24183 24184 24185 24186 24187 24188 24189 24190 24191 24192 24193 24194 24195 24196 24197 24198 24199 24200 24201 24202 24203 24204 24205 24206 24207 24208 24209 24210 24211 24212 24213 24214 24215 24216 24217 24218 24219 24220 24221 24222 24223 24224 24225 24226 24227 24228 24229 24230 24231 24232 24233 24234 24235 24236 24237 24238 24239 24240 24241 24242 24243 24244 24245 24246 24247 24248 24249 24250 24251 24252 24253 24254 24255 24256 24257 24258 24259 24260 24261 24262 24263 24264 24265 24266 24267 24268 24269 24270 24271 24272 24273 24274 24275 24276 24277 24278 24279 24280 24281 24282 24283 24284 24285 24286 24287 24288 24289 24290 24291 24292 24293 24294 24295 24296 24297 24298 24299 24300 24301 24302 24303 24304 24305 24306 24307 24308 24309 24310 24311 24312 24313 24314 24315 24316 24317 24318 24319 24320 24321 24322 24323 24324 24325 24326 24327 24328 24329 24330 24331 24332 24333 24334 24335 24336 24337 24338 24339 24340 24341 24342 24343 24344 24345 24346 24347 24348 24349 24350 24351 24352 24353 24354 24355 24356 24357 24358 24359 24360 24361 24362 24363 24364 24365 24366 24367 24368 24369 24370 24371 24372 24373 24374 24375 24376 24377 24378 24379 24380 24381 24382 24383 24384 24385 24386 24387 24388 24389 24390 24391 24392 24393 24394 24395 24396 24397 24398 24399 24400 24401 24402 24403 24404 24405 24406 24407 24408 24409 24410 24411 24412 24413 24414 24415 24416 24417 24418 24419 24420 24421 24422 24423 24424 24425 24426 24427 24428 24429 24430 24431 24432 24433 24434 24435 24436 24437 24438 24439 24440 24441 24442 24443 24444 24445 24446 24447 24448 24449 24450 24451 24452 24453 24454 24455 24456 24457 24458 24459 24460 24461 24462 24463 24464 24465 24466 24467 24468 24469 24470 24471 24472 24473 24474 24475 24476 24477 24478 24479 24480 24481 24482 24483 24484 24485 24486 24487 24488 24489 24490 24491 24492 24493 24494 24495 24496 24497 24498 24499 24500 24501 24502 24503 24504 24505 24506 24507 24508 24509 24510 24511 24512 24513 24514 24515 24516 24517 24518 24519 24520 24521 24522 24523 24524 24525 24526 24527 24528 24529 24530 24531 24532 24533 24534 24535 24536 24537 24538 24539 24540 24541 24542 24543 24544 24545 24546 24547 24548 24549 24550 24551 24552 24553 24554 24555 24556 24557 24558 24559 24560 24561 24562 24563 24564 24565 24566 24567 24568 24569 24570 24571 24572 24573 24574 24575 24576 24577 24578 24579 24580 24581 24582 24583 24584 24585 24586 24587 24588 24589 24590 24591 24592 24593 24594 24595 24596 24597 24598 24599 24600 24601 24602 24603 24604 24605 24606 24607 24608 24609 24610 24611 24612 24613 24614 24615 24616 24617 24618 24619 24620 24621 24622 24623 24624 24625 24626 24627 24628 24629 24630 24631 24632 24633 24634 24635 24636 24637 24638 24639 24640 24641 24642 24643 24644 24645 24646 24647 24648 24649 24650 24651 24652 24653 24654 24655 24656 24657 24658 24659 24660 24661 24662 24663 24664 24665 24666 24667 24668 24669 24670 24671 24672 24673 24674 24675 24676 24677 24678 24679 24680 24681 24682 24683 24684 24685 24686 24687 24688 24689 24690 24691 24692 24693 24694 24695 24696 24697 24698 24699 24700 24701 24702 24703 24704 24705 24706 24707 24708 24709 24710 24711 24712 24713 24714 24715 24716 24717 24718 24719 24720 24721 24722 24723 24724 24725 24726 24727 24728 24729 24730 24731 24732 24733 24734 24735 24736 24737 24738 24739 24740 24741 24742 24743 24744 24745 24746 24747 24748 24749 24750 24751 24752 24753 24754 24755 24756 24757 24758 24759 24760 24761 24762 24763 24764 24765 24766 24767 24768 24769 24770 24771 24772 24773 24774 24775 24776 24777 24778 24779 24780 24781 24782 24783 24784 24785 24786 24787 24788 24789 24790 24791 24792 24793 24794 24795 24796 24797 24798 24799 24800 24801 24802 24803 24804 24805 24806 24807 24808 24809 24810 24811 24812 24813 24814 24815 24816 24817 24818 24819 24820 24821 24822 24823 24824 24825 24826 24827 24828 24829 24830 24831 24832 24833 24834 24835 24836 24837 24838 24839 24840 24841 24842 24843 24844 24845 24846 24847 24848 24849 24850 24851 24852 24853 24854 24855 24856 24857 24858 24859 24860 24861 24862 24863 24864 24865 24866 24867 24868 24869 24870 24871 24872 24873 24874 24875 24876 24877 24878 24879 24880 24881 24882 24883 24884 24885 24886 24887 24888 24889 24890 24891 24892 24893 24894 24895 24896 24897 24898 24899 24900 24901 24902 24903 24904 24905 24906 24907 24908 24909 24910 24911 24912 24913 24914 24915 24916 24917 24918 24919 24920 24921 24922 24923 24924 24925 24926 24927 24928 24929 24930 24931 24932 24933 24934 24935 24936 24937 24938 24939 24940 24941 24942 24943 24944 24945 24946 24947 24948 24949 24950 24951 24952 24953 24954 24955 24956 24957 24958 24959 24960 24961 24962 24963 24964 24965 24966 24967 24968 24969 24970 24971 24972 24973 24974 24975 24976 24977 24978 24979 24980 24981 24982 24983 24984 24985 24986 24987 24988 24989 24990 24991 24992 24993 24994 24995 24996 24997 24998 24999 25000 25001 25002 25003 25004 25005 25006 25007 25008 25009 25010 25011 25012 25013 25014 25015 25016 25017 25018 25019 25020 25021 25022 25023 25024 25025 25026 25027 25028 25029 25030 25031 25032 25033 25034 25035 25036 25037 25038 25039 25040 25041 25042 25043 25044 25045 25046 25047 25048 25049 25050 25051 25052 25053 25054 25055 25056 25057 25058 25059 25060 25061 25062 25063 25064 25065 25066 25067 25068 25069 25070 25071 25072 25073 25074 25075 25076 25077 25078 25079 25080 25081 25082 25083 25084 25085 25086 25087 25088 25089 25090 25091 25092 25093 25094 25095 25096 25097 25098 25099 25100 25101 25102 25103 25104 25105 25106 25107 25108 25109 25110 25111 25112 25113 25114 25115 25116 25117 25118 25119 25120 25121 25122 25123 25124 25125 25126 25127 25128 25129 25130 25131 25132 25133 25134 25135 25136 25137 25138 25139 25140 25141 25142 25143 25144 25145 25146 25147 25148 25149 25150 25151 25152 25153 25154 25155 25156 25157 25158 25159 25160 25161 25162 25163 25164 25165 25166 25167 25168 25169 25170 25171 25172 25173 25174 25175 25176 25177 25178 25179 25180 25181 25182 25183 25184 25185 25186 25187 25188 25189 25190 25191 25192 25193 25194 25195 25196 25197 25198 25199 25200 25201 25202 25203 25204 25205 25206 25207 25208 25209 25210 25211 25212 25213 25214 25215 25216 25217 25218 25219 25220 25221 25222 25223 25224 25225 25226 25227 25228 25229 25230 25231 25232 25233 25234 25235 25236 25237 25238 25239 25240 25241 25242 25243 25244 25245 25246 25247 25248 25249 25250 25251 25252 25253 25254 25255 25256 25257 25258 25259 25260 25261 25262 25263 25264 25265 25266 25267 25268 25269 25270 25271 25272 25273 25274 25275 25276 25277 25278 25279 25280 25281 25282 25283 25284 25285 25286 25287 25288 25289 25290 25291 25292 25293 25294 25295 25296 25297 25298 25299 25300 25301 25302 25303 25304 25305 25306 25307 25308 25309 25310 25311 25312 25313 25314 25315 25316 25317 25318 25319 25320 25321 25322 25323 25324 25325 25326 25327 25328 25329 25330 25331 25332 25333 25334 25335 25336 25337 25338 25339 25340 25341 25342 25343 25344 25345 25346 25347 25348 25349 25350 25351 25352 25353 25354 25355 25356 25357 25358 25359 25360 25361 25362 25363 25364 25365 25366 25367 25368 25369 25370 25371 25372 25373 25374 25375 25376 25377 25378 25379 25380 25381 25382 25383 25384 25385 25386 25387 25388 25389 25390 25391 25392 25393 25394 25395 25396 25397 25398 25399 25400 25401 25402 25403 25404 25405 25406 25407 25408 25409 25410 25411 25412 25413 25414 25415 25416 25417 25418 25419 25420 25421 25422 25423 25424 25425 25426 25427 25428 25429 25430 25431 25432 25433 25434 25435 25436 25437 25438 25439 25440 25441 25442 25443 25444 25445 25446 25447 25448 25449 25450 25451 25452 25453 25454 25455 25456 25457 25458 25459 25460 25461 25462 25463 25464 25465 25466 25467 25468 25469 25470 25471 25472 25473 25474 25475 25476 25477 25478 25479 25480 25481 25482 25483 25484 25485 25486 25487 25488 25489 25490 25491 25492 25493 25494 25495 25496 25497 25498 25499 25500 25501 25502 25503 25504 25505 25506 25507 25508 25509 25510 25511 25512 25513 25514 25515 25516 25517 25518 25519 25520 25521 25522 25523 25524 25525 25526 25527 25528 25529 25530 25531 25532 25533 25534 25535 25536 25537 25538 25539 25540 25541 25542 25543 25544 25545 25546 25547 25548 25549 25550 25551 25552 25553 25554 25555 25556 25557 25558 25559 25560 25561 25562 25563 25564 25565 25566 25567 25568 25569 25570 25571 25572 25573 25574 25575 25576 25577 25578 25579 25580 25581 25582 25583 25584 25585 25586 25587 25588 25589 25590 25591 25592 25593 25594 25595 25596 25597 25598 25599 25600 25601 25602 25603 25604 25605 25606 25607 25608 25609 25610 25611 25612 25613 25614 25615 25616 25617 25618 25619 25620 25621 25622 25623 25624 25625 25626 25627 25628 25629 25630 25631 25632 25633 25634 25635 25636 25637 25638 25639 25640 25641 25642 25643 25644 25645 25646 25647 25648 25649 25650 25651 25652 25653 25654 25655 25656 25657 25658 25659 25660 25661 25662 25663 25664 25665 25666 25667 25668 25669 25670 25671 25672 25673 25674 25675 25676 25677 25678 25679 25680 25681 25682 25683 25684 25685 25686 25687 25688 25689 25690 25691 25692 25693 25694 25695 25696 25697 25698 25699 25700 25701 25702 25703 25704 25705 25706 25707 25708 25709 25710 25711 25712 25713 25714 25715 25716 25717 25718 25719 25720 25721 25722 25723 25724 25725 25726 25727 25728 25729 25730 25731 25732 25733 25734 25735 25736 25737 25738 25739 25740 25741 25742 25743 25744 25745 25746 25747 25748 25749 25750 25751 25752 25753 25754 25755 25756 25757 25758 25759 25760 25761 25762 25763 25764 25765 25766 25767 25768 25769 25770 25771 25772 25773 25774 25775 25776 25777 25778 25779 25780 25781 25782 25783 25784 25785 25786 25787 25788 25789 25790 25791 25792 25793 25794 25795 25796 25797 25798 25799 25800 25801 25802 25803 25804 25805 25806 25807 25808 25809 25810 25811 25812 25813 25814 25815 25816 25817 25818 25819 25820 25821 25822 25823 25824 25825 25826 25827 25828 25829 25830 25831 25832 25833 25834 25835 25836 25837 25838 25839 25840 25841 25842 25843 25844 25845 25846 25847 25848 25849 25850 25851 25852 25853 25854 25855 25856 25857 25858 25859 25860 25861 25862 25863 25864 25865 25866 25867 25868 25869 25870 25871 25872 25873 25874 25875 25876 25877 25878 25879 25880 25881 25882 25883 25884 25885 25886 25887 25888 25889 25890 25891 25892 25893 25894 25895 25896 25897 25898 25899 25900 25901 25902 25903 25904 25905 25906 25907 25908 25909 25910 25911 25912 25913 25914 25915 25916 25917 25918 25919 25920 25921 25922 25923 25924 25925 25926 25927 25928 25929 25930 25931 25932 25933 25934 25935 25936 25937 25938 25939 25940 25941 25942 25943 25944 25945 25946 25947 25948 25949 25950 25951 25952 25953 25954 25955 25956 25957 25958 25959 25960 25961 25962 25963 25964 25965 25966 25967 25968 25969 25970 25971 25972 25973 25974 25975 25976 25977 25978 25979 25980 25981 25982 25983 25984 25985 25986 25987 25988 25989 25990 25991 25992 25993 25994 25995 25996 25997 25998 25999 26000 26001 26002 26003 26004 26005 26006 26007 26008 26009 26010 26011 26012 26013 26014 26015 26016 26017 26018 26019 26020 26021 26022 26023 26024 26025 26026 26027 26028 26029 26030 26031 26032 26033 26034 26035 26036 26037 26038 26039 26040 26041 26042 26043 26044 26045 26046 26047 26048 26049 26050 26051 26052 26053 26054 26055 26056 26057 26058 26059 26060 26061 26062 26063 26064 26065 26066 26067 26068 26069 26070 26071 26072 26073 26074 26075 26076 26077 26078 26079 26080 26081 26082 26083 26084 26085 26086 26087 26088 26089 26090 26091 26092 26093 26094 26095 26096 26097 26098 26099 26100 26101 26102 26103 26104 26105 26106 26107 26108 26109 26110 26111 26112 26113 26114 26115 26116 26117 26118 26119 26120 26121 26122 26123 26124 26125 26126 26127 26128 26129 26130 26131 26132 26133 26134 26135 26136 26137 26138 26139 26140 26141 26142 26143 26144 26145 26146 26147 26148 26149 26150 26151 26152 26153 26154 26155 26156 26157 26158 26159 26160 26161 26162 26163 26164 26165 26166 26167 26168 26169 26170 26171 26172 26173 26174 26175 26176 26177 26178 26179 26180 26181 26182 26183 26184 26185 26186 26187 26188 26189 26190 26191 26192 26193 26194 26195 26196 26197 26198 26199 26200 26201 26202 26203 26204 26205 26206 26207 26208 26209 26210 26211 26212 26213 26214 26215 26216 26217 26218 26219 26220 26221 26222 26223 26224 26225 26226 26227 26228 26229 26230 26231 26232 26233 26234 26235 26236 26237 26238 26239 26240 26241 26242 26243 26244 26245 26246 26247 26248 26249 26250 26251 26252 26253 26254 26255 26256 26257 26258 26259 26260 26261 26262 26263 26264 26265 26266 26267 26268 26269 26270 26271 26272 26273 26274 26275 26276 26277 26278 26279 26280 26281 26282 26283 26284 26285 26286 26287 26288 26289 26290 26291 26292 26293 26294 26295 26296 26297 26298 26299 26300 26301 26302 26303 26304 26305 26306 26307 26308 26309 26310 26311 26312 26313 26314 26315 26316 26317 26318 26319 26320 26321 26322 26323 26324 26325 26326 26327 26328 26329 26330 26331 26332 26333 26334 26335 26336 26337 26338 26339 26340 26341 26342 26343 26344 26345 26346 26347 26348 26349 26350 26351 26352 26353 26354 26355 26356 26357 26358 26359 26360 26361 26362 26363 26364 26365 26366 26367 26368 26369 26370 26371 26372 26373 26374 26375 26376 26377 26378 26379 26380 26381 26382 26383 26384 26385 26386 26387 26388 26389 26390 26391 26392 26393 26394 26395 26396 26397 26398 26399 26400 26401 26402 26403 26404 26405 26406 26407 26408 26409 26410 26411 26412 26413 26414 26415 26416 26417 26418 26419 26420 26421 26422 26423 26424 26425 26426 26427 26428 26429 26430 26431 26432 26433 26434 26435 26436 26437 26438 26439 26440 26441 26442 26443 26444 26445 26446 26447 26448 26449 26450 26451 26452 26453 26454 26455 26456 26457 26458 26459 26460 26461 26462 26463 26464 26465 26466 26467 26468 26469 26470 26471 26472 26473 26474 26475 26476 26477 26478 26479 26480 26481 26482 26483 26484 26485 26486 26487 26488 26489 26490 26491 26492 26493 26494 26495 26496 26497 26498 26499 26500 26501 26502 26503 26504 26505 26506 26507 26508 26509 26510 26511 26512 26513 26514 26515 26516 26517 26518 26519 26520 26521 26522 26523 26524 26525 26526 26527 26528 26529 26530 26531 26532 26533 26534 26535 26536 26537 26538 26539 26540 26541 26542 26543 26544 26545 26546 26547 26548 26549 26550 26551 26552 26553 26554 26555 26556 26557 26558 26559 26560 26561 26562 26563 26564 26565 26566 26567 26568 26569 26570 26571 26572 26573 26574 26575 26576 26577 26578 26579 26580 26581 26582 26583 26584 26585 26586 26587 26588 26589 26590 26591 26592 26593 26594 26595 26596 26597 26598 26599 26600 26601 26602 26603 26604 26605 26606 26607 26608 26609 26610 26611 26612 26613 26614 26615 26616 26617 26618 26619 26620 26621 26622 26623 26624 26625 26626 26627 26628 26629 26630 26631 26632 26633 26634 26635 26636 26637 26638 26639 26640 26641 26642 26643 26644 26645 26646 26647 26648 26649 26650 26651 26652 26653 26654 26655 26656 26657 26658 26659 26660 26661 26662 26663 26664 26665 26666 26667 26668 26669 26670 26671 26672 26673 26674 26675 26676 26677 26678 26679 26680 26681 26682 26683 26684 26685 26686 26687 26688 26689 26690 26691 26692 26693 26694 26695 26696 26697 26698 26699 26700 26701 26702 26703 26704 26705 26706 26707 26708 26709 26710 26711 26712 26713 26714 26715 26716 26717 26718 26719 26720 26721 26722 26723 26724 26725 26726 26727 26728 26729 26730 26731 26732 26733 26734 26735 26736 26737 26738 26739 26740 26741 26742 26743 26744 26745 26746 26747 26748 26749 26750 26751 26752 26753 26754 26755 26756 26757 26758 26759 26760 26761 26762 26763 26764 26765 26766 26767 26768 26769 26770 26771 26772 26773 26774 26775 26776 26777 26778 26779 26780 26781 26782 26783 26784 26785 26786 26787 26788 26789 26790 26791 26792 26793 26794 26795 26796 26797 26798 26799 26800 26801 26802 26803 26804 26805 26806 26807 26808 26809 26810 26811 26812 26813 26814 26815 26816 26817 26818 26819 26820 26821 26822 26823 26824 26825 26826 26827 26828 26829 26830 26831 26832 26833 26834 26835 26836 26837 26838 26839 26840 26841 26842 26843 26844 26845 26846 26847 26848 26849 26850 26851 26852 26853 26854 26855 26856 26857 26858 26859 26860 26861 26862 26863 26864 26865 26866 26867 26868 26869 26870 26871 26872 26873 26874 26875 26876 26877 26878 26879 26880 26881 26882 26883 26884 26885 26886 26887 26888 26889 26890 26891 26892 26893 26894 26895 26896 26897 26898 26899 26900 26901 26902 26903 26904 26905 26906 26907 26908 26909 26910 26911 26912 26913 26914 26915 26916 26917 26918 26919 26920 26921 26922 26923 26924 26925 26926 26927 26928 26929 26930 26931 26932 26933 26934 26935 26936 26937 26938 26939 26940 26941 26942 26943 26944 26945 26946 26947 26948 26949 26950 26951 26952 26953 26954 26955 26956 26957 26958 26959 26960 26961 26962 26963 26964 26965 26966 26967 26968 26969 26970 26971 26972 26973 26974 26975 26976 26977 26978 26979 26980 26981 26982 26983 26984 26985 26986 26987 26988 26989 26990 26991 26992 26993 26994 26995 26996 26997 26998 26999 27000 27001 27002 27003 27004 27005 27006 27007 27008 27009 27010 27011 27012 27013 27014 27015 27016 27017 27018 27019 27020 27021 27022 27023 27024 27025 27026 27027 27028 27029 27030 27031 27032 27033 27034 27035 27036 27037 27038 27039 27040 27041 27042 27043 27044 27045 27046 27047 27048 27049 27050 27051 27052 27053 27054 27055 27056 27057 27058 27059 27060 27061 27062 27063 27064 27065 27066 27067 27068 27069 27070 27071 27072 27073 27074 27075 27076 27077 27078 27079 27080 27081 27082 27083 27084 27085 27086 27087 27088 27089 27090 27091 27092 27093 27094 27095 27096 27097 27098 27099 27100 27101 27102 27103 27104 27105 27106 27107 27108 27109 27110 27111 27112 27113 27114 27115 27116 27117 27118 27119 27120 27121 27122 27123 27124 27125 27126 27127 27128 27129 27130 27131 27132 27133 27134 27135 27136 27137 27138 27139 27140 27141 27142 27143 27144 27145 27146 27147 27148 27149 27150 27151 27152 27153 27154 27155 27156 27157 27158 27159 27160 27161 27162 27163 27164 27165 27166 27167 27168 27169 27170 27171 27172 27173 27174 27175 27176 27177 27178 27179 27180 27181 27182 27183 27184 27185 27186 27187 27188 27189 27190 27191 27192 27193 27194 27195 27196 27197 27198 27199 27200 27201 27202 27203 27204 27205 27206 27207 27208 27209 27210 27211 27212 27213 27214 27215 27216 27217 27218 27219 27220 27221 27222 27223 27224 27225 27226 27227 27228 27229 27230 27231 27232 27233 27234 27235 27236 27237 27238 27239 27240 27241 27242 27243 27244 27245 27246 27247 27248 27249 27250 27251 27252 27253 27254 27255 27256 27257 27258 27259 27260 27261 27262 27263 27264 27265 27266 27267 27268 27269 27270 27271 27272 27273 27274 27275 27276 27277 27278 27279 27280 27281 27282 27283 27284 27285 27286 27287 27288 27289 27290 27291 27292 27293 27294 27295 27296 27297 27298 27299 27300 27301 27302 27303 27304 27305 27306 27307 27308 27309 27310 27311 27312 27313 27314 27315 27316 27317 27318 27319 27320 27321 27322 27323 27324 27325 27326 27327 27328 27329 27330 27331 27332 27333 27334 27335 27336 27337 27338 27339 27340 27341 27342 27343 27344 27345 27346 27347 27348 27349 27350 27351 27352 27353 27354 27355 27356 27357 27358 27359 27360 27361 27362 27363 27364 27365 27366 27367 27368 27369 27370 27371 27372 27373 27374 27375 27376 27377 27378 27379 27380 27381 27382 27383 27384 27385 27386 27387 27388 27389 27390 27391 27392 27393 27394 27395 27396 27397 27398 27399 27400 27401 27402 27403 27404 27405 27406 27407 27408 27409 27410 27411 27412 27413 27414 27415 27416 27417 27418 27419 27420 27421 27422 27423 27424 27425 27426 27427 27428 27429 27430 27431 27432 27433 27434 27435 27436 27437 27438 27439 27440 27441 27442 27443 27444 27445 27446 27447 27448 27449 27450 27451 27452 27453 27454 27455 27456 27457 27458 27459 27460 27461 27462 27463 27464 27465 27466 27467 27468 27469 27470 27471 27472 27473 27474 27475 27476 27477 27478 27479 27480 27481 27482 27483 27484 27485 27486 27487 27488 27489 27490 27491 27492 27493 27494 27495 27496 27497 27498 27499 27500 27501 27502 27503 27504 27505 27506 27507 27508 27509 27510 27511 27512 27513 27514 27515 27516 27517 27518 27519 27520 27521 27522 27523 27524 27525 27526 27527 27528 27529 27530 27531 27532 27533 27534 27535 27536 27537 27538 27539 27540 27541 27542 27543 27544 27545 27546 27547 27548 27549 27550 27551 27552 27553 27554 27555 27556 27557 27558 27559 27560 27561 27562 27563 27564 27565 27566 27567 27568 27569 27570 27571 27572 27573 27574 27575 27576 27577 27578 27579 27580 27581 27582 27583 27584 27585 27586 27587 27588 27589 27590 27591 27592 27593 27594 27595 27596 27597 27598 27599 27600 27601 27602 27603 27604 27605 27606 27607 27608 27609 27610 27611 27612 27613 27614 27615 27616 27617 27618 27619 27620 27621 27622 27623 27624 27625 27626 27627 27628 27629 27630 27631 27632 27633 27634 27635 27636 27637 27638 27639 27640 27641 27642 27643 27644 27645 27646 27647 27648 27649 27650 27651 27652 27653 27654 27655 27656 27657 27658 27659 27660 27661 27662 27663 27664 27665 27666 27667 27668 27669 27670 27671 27672 27673 27674 27675 27676 27677 27678 27679 27680 27681 27682 27683 27684 27685 27686 27687 27688 27689 27690 27691 27692 27693 27694 27695 27696 27697 27698 27699 27700 27701 27702 27703 27704 27705 27706 27707 27708 27709 27710 27711 27712 27713 27714 27715 27716 27717 27718 27719 27720 27721 27722 27723 27724 27725 27726 27727 27728 27729 27730 27731 27732 27733 27734 27735 27736 27737 27738 27739 27740 27741 27742 27743 27744 27745 27746 27747 27748 27749 27750 27751 27752 27753 27754 27755 27756 27757 27758 27759 27760 27761 27762 27763 27764 27765 27766 27767 27768 27769 27770 27771 27772 27773 27774 27775 27776 27777 27778 27779 27780 27781 27782 27783 27784 27785 27786 27787 27788 27789 27790 27791 27792 27793 27794 27795 27796 27797 27798 27799 27800 27801 27802 27803 27804 27805 27806 27807 27808 27809 27810 27811 27812 27813 27814 27815 27816 27817 27818 27819 27820 27821 27822 27823 27824 27825 27826 27827 27828 27829 27830 27831 27832 27833 27834 27835 27836 27837 27838 27839 27840 27841 27842 27843 27844 27845 27846 27847 27848 27849 27850 27851 27852 27853 27854 27855 27856 27857 27858 27859 27860 27861 27862 27863 27864 27865 27866 27867 27868 27869 27870 27871 27872 27873 27874 27875 27876 27877 27878 27879 27880 27881 27882 27883 27884 27885 27886 27887 27888 27889 27890 27891 27892 27893 27894 27895 27896 27897 27898 27899 27900 27901 27902 27903 27904 27905 27906 27907 27908 27909 27910 27911 27912 27913 27914 27915 27916 27917 27918 27919 27920 27921 27922 27923 27924 27925 27926 27927 27928 27929 27930 27931 27932 27933 27934 27935 27936 27937 27938 27939 27940 27941 27942 27943 27944 27945 27946 27947 27948 27949 27950 27951 27952 27953 27954 27955 27956 27957 27958 27959 27960 27961 27962 27963 27964 27965 27966 27967 27968 27969 27970 27971 27972 27973 27974 27975 27976 27977 27978 27979 27980 27981 27982 27983 27984 27985 27986 27987 27988 27989 27990 27991 27992 27993 27994 27995 27996 27997 27998 27999 28000 28001 28002 28003 28004 28005 28006 28007 28008 28009 28010 28011 28012 28013 28014 28015 28016 28017 28018 28019 28020 28021 28022 28023 28024 28025 28026 28027 28028 28029 28030 28031 28032 28033 28034 28035 28036 28037 28038 28039 28040 28041 28042 28043 28044 28045 28046 28047 28048 28049 28050 28051 28052 28053 28054 28055 28056 28057 28058 28059 28060 28061 28062 28063 28064 28065 28066 28067 28068 28069 28070 28071 28072 28073 28074 28075 28076 28077 28078 28079 28080 28081 28082 28083 28084 28085 28086 28087 28088 28089 28090 28091 28092 28093 28094 28095 28096 28097 28098 28099 28100 28101 28102 28103 28104 28105 28106 28107 28108 28109 28110 28111 28112 28113 28114 28115 28116 28117 28118 28119 28120 28121 28122 28123 28124 28125 28126 28127 28128 28129 28130 28131 28132 28133 28134 28135 28136 28137 28138 28139 28140 28141 28142 28143 28144 28145 28146 28147 28148 28149 28150 28151 28152 28153 28154 28155 28156 28157 28158 28159 28160 28161 28162 28163 28164 28165 28166 28167 28168 28169 28170 28171 28172 28173 28174 28175 28176 28177 28178 28179 28180 28181 28182 28183 28184 28185 28186 28187 28188 28189 28190 28191 28192 28193 28194 28195 28196 28197 28198 28199 28200 28201 28202 28203 28204 28205 28206 28207 28208 28209 28210 28211 28212 28213 28214 28215 28216 28217 28218 28219 28220 28221 28222 28223 28224 28225 28226 28227 28228 28229 28230 28231 28232 28233 28234 28235 28236 28237 28238 28239 28240 28241 28242 28243 28244 28245 28246 28247 28248 28249 28250 28251 28252 28253 28254 28255 28256 28257 28258 28259 28260 28261 28262 28263 28264 28265 28266 28267 28268 28269 28270 28271 28272 28273 28274 28275 28276 28277 28278 28279 28280 28281 28282 28283 28284 28285 28286 28287 28288 28289 28290 28291 28292 28293 28294 28295 28296 28297 28298 28299 28300 28301 28302 28303 28304 28305 28306 28307 28308 28309 28310 28311 28312 28313 28314 28315 28316 28317 28318 28319 28320 28321 28322 28323 28324 28325 28326 28327 28328 28329 28330 28331 28332 28333 28334 28335 28336 28337 28338 28339 28340 28341 28342 28343 28344 28345 28346 28347 28348 28349 28350 28351 28352 28353 28354 28355 28356 28357 28358 28359 28360 28361 28362 28363 28364 28365 28366 28367 28368 28369 28370 28371 28372 28373 28374 28375 28376 28377 28378 28379 28380 28381 28382 28383 28384 28385 28386 28387 28388 28389 28390 28391 28392 28393 28394 28395 28396 28397 28398 28399 28400 28401 28402 28403 28404 28405 28406 28407 28408 28409 28410 28411 28412 28413 28414 28415 28416 28417 28418 28419 28420 28421 28422 28423 28424 28425 28426 28427 28428 28429 28430 28431 28432 28433 28434 28435 28436 28437 28438 28439 28440 28441 28442 28443 28444 28445 28446 28447 28448 28449 28450 28451 28452 28453 28454 28455 28456 28457 28458 28459 28460 28461 28462 28463 28464 28465 28466 28467 28468 28469 28470 28471 28472 28473 28474 28475 28476 28477 28478 28479 28480 28481 28482 28483 28484 28485 28486 28487 28488 28489 28490 28491 28492 28493 28494 28495 28496 28497 28498 28499 28500 28501 28502 28503 28504 28505 28506 28507 28508 28509 28510 28511 28512 28513 28514 28515 28516 28517 28518 28519 28520 28521 28522 28523 28524 28525 28526 28527 28528 28529 28530 28531 28532 28533 28534 28535 28536 28537 28538 28539 28540 28541 28542 28543 28544 28545 28546 28547 28548 28549 28550 28551 28552 28553 28554 28555 28556 28557 28558 28559 28560 28561 28562 28563 28564 28565 28566 28567 28568 28569 28570 28571 28572 28573 28574 28575 28576 28577 28578 28579 28580 28581 28582 28583 28584 28585 28586 28587 28588 28589 28590 28591 28592 28593 28594 28595 28596 28597 28598 28599 28600 28601 28602 28603 28604 28605 28606 28607 28608 28609 28610 28611 28612 28613 28614 28615 28616 28617 28618 28619 28620 28621 28622 28623 28624 28625 28626 28627 28628 28629 28630 28631 28632 28633 28634 28635 28636 28637 28638 28639 28640 28641 28642 28643 28644 28645 28646 28647 28648 28649 28650 28651 28652 28653 28654 28655 28656 28657 28658 28659 28660 28661 28662 28663 28664 28665 28666 28667 28668 28669 28670 28671 28672 28673 28674 28675 28676 28677 28678 28679 28680 28681 28682 28683 28684 28685 28686 28687 28688 28689 28690 28691 28692 28693 28694 28695 28696 28697 28698 28699 28700 28701 28702 28703 28704 28705 28706 28707 28708 28709 28710 28711 28712 28713 28714 28715 28716 28717 28718 28719 28720 28721 28722 28723 28724 28725 28726 28727 28728 28729 28730 28731 28732 28733 28734 28735 28736 28737 28738 28739 28740 28741 28742 28743 28744 28745 28746 28747 28748 28749 28750 28751 28752 28753 28754 28755 28756 28757 28758 28759 28760 28761 28762 28763 28764 28765 28766 28767 28768 28769 28770 28771 28772 28773 28774 28775 28776 28777 28778 28779 28780 28781 28782 28783 28784 28785 28786 28787 28788 28789 28790 28791 28792 28793 28794 28795 28796 28797 28798 28799 28800 28801 28802 28803 28804 28805 28806 28807 28808 28809 28810 28811 28812 28813 28814 28815 28816 28817 28818 28819 28820 28821 28822 28823 28824 28825 28826 28827 28828 28829 28830 28831 28832 28833 28834 28835 28836 28837 28838 28839 28840 28841 28842 28843 28844 28845 28846 28847 28848 28849 28850 28851 28852 28853 28854 28855 28856 28857 28858 28859 28860 28861 28862 28863 28864 28865 28866 28867 28868 28869 28870 28871 28872 28873 28874 28875 28876 28877 28878 28879 28880 28881 28882 28883 28884 28885 28886 28887 28888 28889 28890 28891 28892 28893 28894 28895 28896 28897 28898 28899 28900 28901 28902 28903 28904 28905 28906 28907 28908 28909 28910 28911 28912 28913 28914 28915 28916 28917 28918 28919 28920 28921 28922 28923 28924 28925 28926 28927 28928 28929 28930 28931 28932 28933 28934 28935 28936 28937 28938 28939 28940 28941 28942 28943 28944 28945 28946 28947 28948 28949 28950 28951 28952 28953 28954 28955 28956 28957 28958 28959 28960 28961 28962 28963 28964 28965 28966 28967 28968 28969 28970 28971 28972 28973 28974 28975 28976 28977 28978 28979 28980 28981 28982 28983 28984 28985 28986 28987 28988 28989 28990 28991 28992 28993 28994 28995 28996 28997 28998 28999 29000 29001 29002 29003 29004 29005 29006 29007 29008 29009 29010 29011 29012 29013 29014 29015 29016 29017 29018 29019 29020 29021 29022 29023 29024 29025 29026 29027 29028 29029 29030 29031 29032 29033 29034 29035 29036 29037 29038 29039 29040 29041 29042 29043 29044 29045 29046 29047 29048 29049 29050 29051 29052 29053 29054 29055 29056 29057 29058 29059 29060 29061 29062 29063 29064 29065 29066 29067 29068 29069 29070 29071 29072 29073 29074 29075 29076 29077 29078 29079 29080 29081 29082 29083 29084 29085 29086 29087 29088 29089 29090 29091 29092 29093 29094 29095 29096 29097 29098 29099 29100 29101 29102 29103 29104 29105 29106 29107 29108 29109 29110 29111 29112 29113 29114 29115 29116 29117 29118 29119 29120 29121 29122 29123 29124 29125 29126 29127 29128 29129 29130 29131 29132 29133 29134 29135 29136 29137 29138 29139 29140 29141 29142 29143 29144 29145 29146 29147 29148 29149 29150 29151 29152 29153 29154 29155 29156 29157 29158 29159 29160 29161 29162 29163 29164 29165 29166 29167 29168 29169 29170 29171 29172 29173 29174 29175 29176 29177 29178 29179 29180 29181 29182 29183 29184 29185 29186 29187 29188 29189 29190 29191 29192 29193 29194 29195 29196 29197 29198 29199 29200 29201 29202 29203 29204 29205 29206 29207 29208 29209 29210 29211 29212 29213 29214 29215 29216 29217 29218 29219 29220 29221 29222 29223 29224 29225 29226 29227 29228 29229 29230 29231 29232 29233 29234 29235 29236 29237 29238 29239 29240 29241 29242 29243 29244 29245 29246 29247 29248 29249 29250 29251 29252 29253 29254 29255 29256 29257 29258 29259 29260 29261 29262 29263 29264 29265 29266 29267 29268 29269 29270 29271 29272 29273 29274 29275 29276 29277 29278 29279 29280 29281 29282 29283 29284 29285 29286 29287 29288 29289 29290 29291 29292 29293 29294 29295 29296 29297 29298 29299 29300 29301 29302 29303 29304 29305 29306 29307 29308 29309 29310 29311 29312 29313 29314 29315 29316 29317 29318 29319 29320 29321 29322 29323 29324 29325 29326 29327 29328 29329 29330 29331 29332 29333 29334 29335 29336 29337 29338 29339 29340 29341 29342 29343 29344 29345 29346 29347 29348 29349 29350 29351 29352 29353 29354 29355 29356 29357 29358 29359 29360 29361 29362 29363 29364 29365 29366 29367 29368 29369 29370 29371 29372 29373 29374 29375 29376 29377 29378 29379 29380 29381 29382 29383 29384 29385 29386 29387 29388 29389 29390 29391 29392 29393 29394 29395 29396 29397 29398 29399 29400 29401 29402 29403 29404 29405 29406 29407 29408 29409 29410 29411 29412 29413 29414 29415 29416 29417 29418 29419 29420 29421 29422 29423 29424 29425 29426 29427 29428 29429 29430 29431 29432 29433 29434 29435 29436 29437 29438 29439 29440 29441 29442 29443 29444 29445 29446 29447 29448 29449 29450 29451 29452 29453 29454 29455 29456 29457 29458 29459 29460 29461 29462 29463 29464 29465 29466 29467 29468 29469 29470 29471 29472 29473 29474 29475 29476 29477 29478 29479 29480 29481 29482 29483 29484 29485 29486 29487 29488 29489 29490 29491 29492 29493 29494 29495 29496 29497 29498 29499 29500 29501 29502 29503 29504 29505 29506 29507 29508 29509 29510 29511 29512 29513 29514 29515 29516 29517 29518 29519 29520 29521 29522 29523 29524 29525 29526 29527 29528 29529 29530 29531 29532 29533 29534 29535 29536 29537 29538 29539 29540 29541 29542 29543 29544 29545 29546 29547 29548 29549 29550 29551 29552 29553 29554 29555 29556 29557 29558 29559 29560 29561 29562 29563 29564 29565 29566 29567 29568 29569 29570 29571 29572 29573 29574 29575 29576 29577 29578 29579 29580 29581 29582 29583 29584 29585 29586 29587 29588 29589 29590 29591 29592 29593 29594 29595 29596 29597 29598 29599 29600 29601 29602 29603 29604 29605 29606 29607 29608 29609 29610 29611 29612 29613 29614 29615 29616 29617 29618 29619 29620 29621 29622 29623 29624 29625 29626 29627 29628 29629 29630 29631 29632 29633 29634 29635 29636 29637 29638 29639 29640 29641 29642 29643 29644 29645 29646 29647 29648 29649 29650 29651 29652 29653 29654 29655 29656 29657 29658 29659 29660 29661 29662 29663 29664 29665 29666 29667 29668 29669 29670 29671 29672 29673 29674 29675 29676 29677 29678 29679 29680 29681 29682 29683 29684 29685 29686 29687 29688 29689 29690 29691 29692 29693 29694 29695 29696 29697 29698 29699 29700 29701 29702 29703 29704 29705 29706 29707 29708 29709 29710 29711 29712 29713 29714 29715 29716 29717 29718 29719 29720 29721 29722 29723 29724 29725 29726 29727 29728 29729 29730 29731 29732 29733 29734 29735 29736 29737 29738 29739 29740 29741 29742 29743 29744 29745 29746 29747 29748 29749 29750 29751 29752 29753 29754 29755 29756 29757 29758 29759 29760 29761 29762 29763 29764 29765 29766 29767 29768 29769 29770 29771 29772 29773 29774 29775 29776 29777 29778 29779 29780 29781 29782 29783 29784 29785 29786 29787 29788 29789 29790 29791 29792 29793 29794 29795 29796 29797 29798 29799 29800 29801 29802 29803 29804 29805 29806 29807 29808 29809 29810 29811 29812 29813 29814 29815 29816 29817 29818 29819 29820 29821 29822 29823 29824 29825 29826 29827 29828 29829 29830 29831 29832 29833 29834 29835 29836 29837 29838 29839 29840 29841 29842 29843 29844 29845 29846 29847 29848 29849 29850 29851 29852 29853 29854 29855 29856 29857 29858 29859 29860 29861 29862 29863 29864 29865 29866 29867 29868 29869 29870 29871 29872 29873 29874 29875 29876 29877 29878 29879 29880 29881 29882 29883 29884 29885 29886 29887 29888 29889 29890 29891 29892 29893 29894 29895 29896 29897 29898 29899 29900 29901 29902 29903 29904 29905 29906 29907 29908 29909 29910 29911 29912 29913 29914 29915 29916 29917 29918 29919 29920 29921 29922 29923 29924 29925 29926 29927 29928 29929 29930 29931 29932 29933 29934 29935 29936 29937 29938 29939 29940 29941 29942 29943 29944 29945 29946 29947 29948 29949 29950 29951 29952 29953 29954 29955 29956 29957 29958 29959 29960 29961 29962 29963 29964 29965 29966 29967 29968 29969 29970 29971 29972 29973 29974 29975 29976 29977 29978 29979 29980 29981 29982 29983 29984 29985 29986 29987 29988 29989 29990 29991 29992 29993 29994 29995 29996 29997 29998 29999 30000 30001 30002 30003 30004 30005 30006 30007 30008 30009 30010 30011 30012 30013 30014 30015 30016 30017 30018 30019 30020 30021 30022 30023 30024 30025 30026 30027 30028 30029 30030 30031 30032 30033 30034 30035 30036 30037 30038 30039 30040 30041 30042 30043 30044 30045 30046 30047 30048 30049 30050 30051 30052 30053 30054 30055 30056 30057 30058 30059 30060 30061 30062 30063 30064 30065 30066 30067 30068 30069 30070 30071 30072 30073 30074 30075 30076 30077 30078 30079 30080 30081 30082 30083 30084 30085 30086 30087 30088 30089 30090 30091 30092 30093 30094 30095 30096 30097 30098 30099 30100 30101 30102 30103 30104 30105 30106 30107 30108 30109 30110 30111 30112 30113 30114 30115 30116 30117 30118 30119 30120 30121 30122 30123 30124 30125 30126 30127 30128 30129 30130 30131 30132 30133 30134 30135 30136 30137 30138 30139 30140 30141 30142 30143 30144 30145 30146 30147 30148 30149 30150 30151 30152 30153 30154 30155 30156 30157 30158 30159 30160 30161 30162 30163 30164 30165 30166 30167 30168 30169 30170 30171 30172 30173 30174 30175 30176 30177 30178 30179 30180 30181 30182 30183 30184 30185 30186 30187 30188 30189 30190 30191 30192 30193 30194 30195 30196 30197 30198 30199 30200 30201 30202 30203 30204 30205 30206 30207 30208 30209 30210 30211 30212 30213 30214 30215 30216 30217 30218 30219 30220 30221 30222 30223 30224 30225 30226 30227 30228 30229 30230 30231 30232 30233 30234 30235 30236 30237 30238 30239 30240 30241 30242 30243 30244 30245 30246 30247 30248 30249 30250 30251 30252 30253 30254 30255 30256 30257 30258 30259 30260 30261 30262 30263 30264 30265 30266 30267 30268 30269 30270 30271 30272 30273 30274 30275 30276 30277 30278 30279 30280 30281 30282 30283 30284 30285 30286 30287 30288 30289 30290 30291 30292 30293 30294 30295 30296 30297 30298 30299 30300 30301 30302 30303 30304 30305 30306 30307 30308 30309 30310 30311 30312 30313 30314 30315 30316 30317 30318 30319 30320 30321 30322 30323 30324 30325 30326 30327 30328 30329 30330 30331 30332 30333 30334 30335 30336 30337 30338 30339 30340 30341 30342 30343 30344 30345 30346 30347 30348 30349 30350 30351 30352 30353 30354 30355 30356 30357 30358 30359 30360 30361 30362 30363 30364 30365 30366 30367 30368 30369 30370 30371 30372 30373 30374 30375 30376 30377 30378 30379 30380 30381 30382 30383 30384 30385 30386 30387 30388 30389 30390 30391 30392 30393 30394 30395 30396 30397 30398 30399 30400 30401 30402 30403 30404 30405 30406 30407 30408 30409 30410 30411 30412 30413 30414 30415 30416 30417 30418 30419 30420 30421 30422 30423 30424 30425 30426 30427 30428 30429 30430 30431 30432 30433 30434 30435 30436 30437 30438 30439 30440 30441 30442 30443 30444 30445 30446 30447 30448 30449 30450 30451 30452 30453 30454 30455 30456 30457 30458 30459 30460 30461 30462 30463 30464 30465 30466 30467 30468 30469 30470 30471 30472 30473 30474 30475 30476 30477 30478 30479 30480 30481 30482 30483 30484 30485 30486 30487 30488 30489 30490 30491 30492 30493 30494 30495 30496 30497 30498 30499 30500 30501 30502 30503 30504 30505 30506 30507 30508 30509 30510 30511 30512 30513 30514 30515 30516 30517 30518 30519 30520 30521 30522 30523 30524 30525 30526 30527 30528 30529 30530 30531 30532 30533 30534 30535 30536 30537 30538 30539 30540 30541 30542 30543 30544 30545 30546 30547 30548 30549 30550 30551 30552 30553 30554 30555 30556 30557 30558 30559 30560 30561 30562 30563 30564 30565 30566 30567 30568 30569 30570 30571 30572 30573 30574 30575 30576 30577 30578 30579 30580 30581 30582 30583 30584 30585 30586 30587 30588 30589 30590 30591 30592 30593 30594 30595 30596 30597 30598 30599 30600 30601 30602 30603 30604 30605 30606 30607 30608 30609 30610 30611 30612 30613 30614 30615 30616 30617 30618 30619 30620 30621 30622 30623 30624 30625 30626 30627 30628 30629 30630 30631 30632 30633 30634 30635 30636 30637 30638 30639 30640 30641 30642 30643 30644 30645 30646 30647 30648 30649 30650 30651 30652 30653 30654 30655 30656 30657 30658 30659 30660 30661 30662 30663 30664 30665 30666 30667 30668 30669 30670 30671 30672 30673 30674 30675 30676 30677 30678 30679 30680 30681 30682 30683 30684 30685 30686 30687 30688 30689 30690 30691 30692 30693 30694 30695 30696 30697 30698 30699 30700 30701 30702 30703 30704 30705 30706 30707 30708 30709 30710 30711 30712 30713 30714 30715 30716 30717 30718 30719 30720 30721 30722 30723 30724 30725 30726 30727 30728 30729 30730 30731 30732 30733 30734 30735 30736 30737 30738 30739 30740 30741 30742 30743 30744 30745 30746 30747 30748 30749 30750 30751 30752 30753 30754 30755 30756 30757 30758 30759 30760 30761 30762 30763 30764 30765 30766 30767 30768 30769 30770 30771 30772 30773 30774 30775 30776 30777 30778 30779 30780 30781 30782 30783 30784 30785 30786 30787 30788 30789 30790 30791 30792 30793 30794 30795 30796 30797 30798 30799 30800 30801 30802 30803 30804 30805 30806 30807 30808 30809 30810 30811 30812 30813 30814 30815 30816 30817 30818 30819 30820 30821 30822 30823 30824 30825 30826 30827 30828 30829 30830 30831 30832 30833 30834 30835 30836 30837 30838 30839 30840 30841 30842 30843 30844 30845 30846 30847 30848 30849 30850 30851 30852 30853 30854 30855 30856 30857 30858 30859 30860 30861 30862 30863 30864 30865 30866 30867 30868 30869 30870 30871 30872 30873 30874 30875 30876 30877 30878 30879 30880 30881 30882 30883 30884 30885 30886 30887 30888 30889 30890 30891 30892 30893 30894 30895 30896 30897 30898 30899 30900 30901 30902 30903 30904 30905 30906 30907 30908 30909 30910 30911 30912 30913 30914 30915 30916 30917 30918 30919 30920 30921 30922 30923 30924 30925 30926 30927 30928 30929 30930 30931 30932 30933 30934 30935 30936 30937 30938 30939 30940 30941 30942 30943 30944 30945 30946 30947 30948 30949 30950 30951 30952 30953 30954 30955 30956 30957 30958 30959 30960 30961 30962 30963 30964 30965 30966 30967 30968 30969 30970 30971 30972 30973 30974 30975 30976 30977 30978 30979 30980 30981 30982 30983 30984 30985 30986 30987 30988 30989 30990 30991 30992 30993 30994 30995 30996 30997 30998 30999 31000 31001 31002 31003 31004 31005 31006 31007 31008 31009 31010 31011 31012 31013 31014 31015 31016 31017 31018 31019 31020 31021 31022 31023 31024 31025 31026 31027 31028 31029 31030 31031 31032 31033 31034 31035 31036 31037 31038 31039 31040 31041 31042 31043 31044 31045 31046 31047 31048 31049 31050 31051 31052 31053 31054 31055 31056 31057 31058 31059 31060 31061 31062 31063 31064 31065 31066 31067 31068 31069 31070 31071 31072 31073 31074 31075 31076 31077 31078 31079 31080 31081 31082 31083 31084 31085 31086 31087 31088 31089 31090 31091 31092 31093 31094 31095 31096 31097 31098 31099 31100 31101 31102 31103 31104 31105 31106 31107 31108 31109 31110 31111 31112 31113 31114 31115 31116 31117 31118 31119 31120 31121 31122 31123 31124 31125 31126 31127 31128 31129 31130 31131 31132 31133 31134 31135 31136 31137 31138 31139 31140 31141 31142 31143 31144 31145 31146 31147 31148 31149 31150 31151 31152 31153 31154 31155 31156 31157 31158 31159 31160 31161 31162 31163 31164 31165 31166 31167 31168 31169 31170 31171 31172 31173 31174 31175 31176 31177 31178 31179 31180 31181 31182 31183 31184 31185 31186 31187 31188 31189 31190 31191 31192 31193 31194 31195 31196 31197 31198 31199 31200 31201 31202 31203 31204 31205 31206 31207 31208 31209 31210 31211 31212 31213 31214 31215 31216 31217 31218 31219 31220 31221 31222 31223 31224 31225 31226 31227 31228 31229 31230 31231 31232 31233 31234 31235 31236 31237 31238 31239 31240 31241 31242 31243 31244 31245 31246 31247 31248 31249 31250 31251 31252 31253 31254 31255 31256 31257 31258 31259 31260 31261 31262 31263 31264 31265 31266 31267 31268 31269 31270 31271 31272 31273 31274 31275 31276 31277 31278 31279 31280 31281 31282 31283 31284 31285 31286 31287 31288 31289 31290 31291 31292 31293 31294 31295 31296 31297 31298 31299 31300 31301 31302 31303 31304 31305 31306 31307 31308 31309 31310 31311 31312 31313 31314 31315 31316 31317 31318 31319 31320 31321 31322 31323 31324 31325 31326 31327 31328 31329 31330 31331 31332 31333 31334 31335 31336 31337 31338 31339 31340 31341 31342 31343 31344 31345 31346 31347 31348 31349 31350 31351 31352 31353 31354 31355 31356 31357 31358 31359 31360 31361 31362 31363 31364 31365 31366 31367 31368 31369 31370 31371 31372 31373 31374 31375 31376 31377 31378 31379 31380 31381 31382 31383 31384 31385 31386 31387 31388 31389 31390 31391 31392 31393 31394 31395 31396 31397 31398 31399 31400 31401 31402 31403 31404 31405 31406 31407 31408 31409 31410 31411 31412 31413 31414 31415 31416 31417 31418 31419 31420 31421 31422 31423 31424 31425 31426 31427 31428 31429 31430 31431 31432 31433 31434 31435 31436 31437 31438 31439 31440 31441 31442 31443 31444 31445 31446 31447 31448 31449 31450 31451 31452 31453 31454 31455 31456 31457 31458 31459 31460 31461 31462 31463 31464 31465 31466 31467 31468 31469 31470 31471 31472 31473 31474 31475 31476 31477 31478 31479 31480 31481 31482 31483 31484 31485 31486 31487 31488 31489 31490 31491 31492 31493 31494 31495 31496 31497 31498 31499 31500 31501 31502 31503 31504 31505 31506 31507 31508 31509 31510 31511 31512 31513 31514 31515 31516 31517 31518 31519 31520 31521 31522 31523 31524 31525 31526 31527 31528 31529 31530 31531 31532 31533 31534 31535 31536 31537 31538 31539 31540 31541 31542 31543 31544 31545 31546 31547 31548 31549 31550 31551 31552 31553 31554 31555 31556 31557 31558 31559 31560 31561 31562 31563 31564 31565 31566 31567 31568 31569 31570 31571 31572 31573 31574 31575 31576 31577 31578 31579 31580 31581 31582 31583 31584 31585 31586 31587 31588 31589 31590 31591 31592 31593 31594 31595 31596 31597 31598 31599 31600 31601 31602 31603 31604 31605 31606 31607 31608 31609 31610 31611 31612 31613 31614 31615 31616 31617 31618 31619 31620 31621 31622 31623 31624 31625 31626 31627 31628 31629 31630 31631 31632 31633 31634 31635 31636 31637 31638 31639 31640 31641 31642 31643 31644 31645 31646 31647 31648 31649 31650 31651 31652 31653 31654 31655 31656 31657 31658 31659 31660 31661 31662 31663 31664 31665 31666 31667 31668 31669 31670 31671 31672 31673 31674 31675 31676 31677 31678 31679 31680 31681 31682 31683 31684 31685 31686 31687 31688 31689 31690 31691 31692 31693 31694 31695 31696 31697 31698 31699 31700 31701 31702 31703 31704 31705 31706 31707 31708 31709 31710 31711 31712 31713 31714 31715 31716 31717 31718 31719 31720 31721 31722 31723 31724 31725 31726 31727 31728 31729 31730 31731 31732 31733 31734 31735 31736 31737 31738 31739 31740 31741 31742 31743 31744 31745 31746 31747 31748 31749 31750 31751 31752 31753 31754 31755 31756 31757 31758 31759 31760 31761 31762 31763 31764 31765 31766 31767 31768 31769 31770 31771 31772 31773 31774 31775 31776 31777 31778 31779 31780 31781 31782 31783 31784 31785 31786 31787 31788 31789 31790 31791 31792 31793 31794 31795 31796 31797 31798 31799 31800 31801 31802 31803 31804 31805 31806 31807 31808 31809 31810 31811 31812 31813 31814 31815 31816 31817 31818 31819 31820 31821 31822 31823 31824 31825 31826 31827 31828 31829 31830 31831 31832 31833 31834 31835 31836 31837 31838 31839 31840 31841 31842 31843 31844 31845 31846 31847 31848 31849 31850 31851 31852 31853 31854 31855 31856 31857 31858 31859 31860 31861 31862 31863 31864 31865 31866 31867 31868 31869 31870 31871 31872 31873 31874 31875 31876 31877 31878 31879 31880 31881 31882 31883 31884 31885 31886 31887 31888 31889 31890 31891 31892 31893 31894 31895 31896 31897 
</DataArray>
<DataArray type="UInt32" Name="offsets" format="ascii">
3 6 9 12 15 17 20 23 26 29 32 35 38 40 43 46 49 52 54 57 60 62 65 68 71 74 76 79 82 85 88 90 93 96 99 102 105 108 111 114 117 120 123 126 129 131 134 137 139 142 145 148 151 154 156 159 162 165 168 171 174 177 179 182 185 188 191 193 196 199 202 205 208 211 214 217 220 222 225 228 230 233 236 238 241 244 247 250 252 255 258 261 264 267 270 273 275 277 279 282 285 287 290 293 296 299 302 304 307 310 313 316 319 322 325 328 331 334 337 340 343 345 348 351 354 356 359 362 365 368 371 374 376 379 382 385 388 391 394 397 400 403 406 409 412 415 418 421 424 427 430 433 436 439 442 445 448 451 453 456 459 462 464 467 470 472 475 478 481 484 487 490 493 496 499 502 505 507 510 513 516 519 522 525 528 531 533 536 539 542 545 548 551 554 557 559 562 565 568 571 574 577 580 583 586 588 591 594 597 600 603 606 609 612 615 618 621 624 627 630 633 636 639 642 645 648 651 654 657 659 662 665 668 670 673 675 678 680 683 686 688 691 694 697 699 702 704 707 709 712 714 716 719 721 724 727 729 732 734 737 740 743 745 748 750 752 755 758 760 763 766 769 771 774 776 778 780 783 785 788 791 794 796 799 801 803 805 808 811 813 815 818 821 824 827 829 832 834 837 840 842 845 848 851 853 856 858 860 862 865 868 871 873 876 878 880 882 884 887 890 893 895 897 900 903 905 907 909 912 914 917 920 923 926 928 931 934 937 940 943 946 949 951 954 957 960 963 966 969 971 973 976 979 982 984 987 990 993 995 998 1000 1003 1005 1007 1010 1013 1016 1019 1021 1024 1027 1029 1032 1035 1038 1041 1043 1046 1048 1051 1054 1057 1060 1063 1065 1067 1070 1073 1076 1079 1082 1085 1088 1091 1093 1096 1099 1102 1104 1107 1110 1112 1115 1117 1120 1123 1126 1129 1132 1135 1138 1141 1144 1147 1150 1152 1155 1157 1160 1162 1165 1168 1171 1173 1176 1178 1181 1183 1186 1189 1192 1195 1198 1201 1203 1206 1208 1211 1214 1217 1219 1222 1225 1228 1230 1233 1235 1237 1240 1243 1246 1249 1251 1254 1257 1260 1263 1265 1267 1270 1273 1275 1278 1280 1283 1285 1287 1290 1293 1296 1298 1301 1304 1307 1310 1312 1315 1318 1321 1324 1327 1330 1333 1336 1339 1342 1345 1347 1350 1353 1356 1359 1361 1364 1367 1370 1372 1375 1377 1379 1381 1384 1387 1390 1392 1394 1397 1399 1402 1405 1407 1410 1413 1416 1419 1421 1424 1427 1430 1433 1436 1439 1442 1445 1448 1451 1454 1456 1458 1461 1464 1466 1469 1472 1475 1477 1480 1483 1486 1489 1492 1495 1497 1500 1503 1506 1508 1511 1514 1517 1519 1522 1525 1528 1531 1534 1537 1540 1543 1546 1549 1552 1554 1557 1560 1563 1565 1568 1571 1574 1577 1580 1583 1586 1588 1591 1594 1597 1600 1603 1605 1608 1611 1614 1617 1620 1623 1626 1629 1632 1635 1638 1641 1644 1647 1650 1653 1656 1659 1662 1664 1667 1670 1673 1676 1678 1681 1684 1686 1689 1692 1695 1698 1701 1704 1707 1709 1712 1715 1718 1721 1724 1727 1730 1733 1735 1738 1740 1743 1746 1748 1751 1754 1757 1759 1762 1765 1767 1770 1773 1776 1778 1781 1783 1786 1789 1791 1794 1796 1799 1802 1805 1808 1811 1814 1817 1820 1823 1826 1829 1832 1835 1838 1841 1844 1847 1850 1853 1856 1859 1862 1864 1867 1869 1872 1874 1877 1880 1883 1886 1889 1892 1895 1898 1901 1904 1907 1910 1913 1916 1919 1921 1924 1927 1930 1933 1936 1939 1942 1945 1948 1950 1953 1956 1959 1962 1965 1968 1971 1974 1977 1980 1983 1986 1989 1992 1995 1998 2001 2004 2007 2010 2013 2016 2019 2022 2025 2028 2031 2034 2037 2039 2042 2045 2047 2050 2053 2056 2058 2060 2063 2065 2068 2071 2074 2077 2080 2082 2085 2088 2091 2094 2097 2099 2102 2105 2108 2111 2114 2117 2120 2123 2126 2129 2132 2135 2138 2141 2144 2147 2150 2153 2156 2159 2162 2165 2168 2171 2174 2177 2180 2183 2186 2189 2192 2195 2198 2201 2204 2207 2210 2213 2216 2219 2222 2225 2228 2231 2234 2237 2240 2243 2246 2248 2251 2254 2257 2260 2263 2266 2269 2272 2275 2278 2281 2284 2287 2290 2293 2295 2298 2301 2304 2307 2309 2312 2315 2318 2321 2324 2327 2330 2333 2336 2339 2342 2345 2348 2351 2354 2357 2360 2363 2366 2369 2372 2375 2378 2381 2384 2387 2390 2392 2395 2398 2400 2403 2405 2407 2409 2411 2414 2417 2419 2422 2425 2428 2431 2434 2437 2440 2443 2446 2449 2452 2455 2458 2461 2464 2467 2470 2472 2475 2478 2480 2483 2485 2488 2491 2494 2497 2499 2502 2504 2507 2510 2513 2516 2518 2521 2524 2527 2529 2532 2535 2538 2541 2544 2546 2549 2551 2554 2557 2559 2561 2564 2566 2569 2572 2575 2578 2581 2584 2587 2590 2593 2596 2599 2601 2604 2607 2610 2612 2615 2618 2621 2623 2626 2629 2631 2633 2635 2638 2641 2644 2647 2650 2653 2656 2659 2662 2665 2668 2670 2673 2676 2679 2682 2685 2688 2691 2694 2696 2698 2700 2703 2706 2709 2712 2715 2718 2721 2724 2726 2728 2731 2734 2737 2739 2742 2745 2747 2750 2753 2756 2759 2762 2765 2768 2771 2774 2777 2780 2782 2785 2788 2791 2794 2797 2800 2803 2806 2808 2811 2814 2817 2820 2823 2826 2829 2832 2835 2838 2840 2843 2845 2847 2849 2852 2855 2858 2861 2864 2867 2870 2872 2874 2877 2879 2882 2885 2888 2891 2894 2896 2899 2901 2903 2906 2909 2912 2914 2917 2919 2922 2925 2928 2931 2933 2936 2939 2942 2945 2948 2951 2954 2957 2960 2963 2966 2969 2972 2975 2978 2981 2984 2986 2989 2992 2995 2997 3000 3003 3006 3009 3012 3014 3017 3020 3023 3026 3029 3032 3034 3037 3039 3042 3045 3048 3051 3054 3057 3060 3063 3065 3068 3071 3074 3076 3079 3082 3085 3088 3091 3094 3097 3100 3103 3106 3109 3112 3115 3118 3121 3124 3127 3130 3133 3136 3139 3142 3145 3148 3151 3153 3155 3157 3160 3163 3166 3169 3171 3174 3177 3180 3183 3185 3188 3191 3194 3197 3200 3203 3206 3208 3211 3214 3217 3220 3223 3226 3229 3232 3234 3237 3240 3243 3246 3249 3252 3255 3258 3261 3264 3267 3270 3272 3275 3278 3281 3284 3287 3290 3292 3295 3298 3301 3304 3307 3310 3313 3316 3318 3321 3324 3327 3329 3332 3335 3338 3341 3344 3347 3350 3353 3356 3359 3362 3365 3367 3370 3373 3376 3379 3382 3385 3388 3391 3394 3397 3400 3403 3406 3409 3412 3415 3418 3421 3424 3427 3430 3433 3436 3439 3442 3445 3448 3451 3454 3457 3460 3463 3466 3469 3472 3475 3478 3481 3484 3487 3490 3493 3496 3499 3502 3505 3508 3510 3513 3516 3519 3522 3525 3528 3531 3534 3537 3540 3543 3546 3549 3552 3555 3558 3561 3564 3567 3570 3573 3576 3579 3582 3584 3587 3590 3593 3596 3599 3602 3605 3608 3611 3614 3616 3619 3622 3624 3627 3630 3633 3636 3639 3642 3645 3648 3651 3653 3656 3658 3661 3664 3667 3670 3672 3675 3678 3680 3683 3685 3688 3691 3694 3697 3700 3702 3705 3708 3711 3714 3717 3720 3723 3726 3728 3731 3734 3737 3740 3743 3746 3749 3752 3755 3758 3761 3764 3767 3770 3772 3775 3777 3779 3782 3785 3788 3791 3794 3796 3799 3802 3805 3808 3811 3814 3817 3820 3823 3826 3829 3832 3835 3838 3841 3843 3846 3849 3852 3855 3858 3861 3864 3867 3870 3873 3876 3879 3882 3885 3888 3891 3893 3896 3899 3902 3905 3908 3910 3912 3915 3918 3920 3923 3926 3929 3932 3935 3938 3941 3944 3947 3950 3952 3955 3958 3961 3964 3967 3970 3973 3976 3979 3981 3984 3986 3989 3992 3995 3998 4001 4003 4006 4009 4012 4015 4017 4020 4023 4026 4028 4031 4034 4037 4039 4042 4045 4047 4050 4053 4056 4059 4062 4065 4068 4071 4074 4077 4080 4083 4086 4089 4092 4095 4097 4100 4103 4106 4109 4112 4115 4118 4120 4123 4126 4129 4132 4135 4138 4141 4144 4147 4150 4153 4156 4159 4162 4165 4168 4171 4174 4177 4180 4183 4186 4189 4192 4195 4198 4201 4203 4206 4209 4212 4215 4217 4220 4223 4226 4228 4231 4234 4237 4240 4243 4246 4249 4252 4255 4257 4260 4262 4265 4268 4271 4274 4277 4280 4283 4286 4289 4292 4295 4298 4301 4304 4307 4310 4313 4316 4318 4320 4323 4326 4329 4331 4334 4337 4339 4342 4345 4347 4350 4353 4356 4358 4361 4364 4366 4369 4372 4375 4378 4381 4384 4387 4390 4393 4396 4399 4402 4405 4408 4411 4414 4417 4420 4423 4426 4428 4431 4433 4436 4439 4442 4445 4448 4451 4454 4457 4460 4463 4466 4468 4471 4473 4476 4479 4482 4484 4487 4490 4493 4496 4499 4501 4504 4507 4510 4513 4516 4519 4521 4524 4527 4530 4533 4536 4539 4542 4545 4548 4551 4554 4556 4559 4562 4565 4568 4571 4574 4577 4580 4582 4585 4588 4591 4593 4596 4599 4601 4604 4607 4610 4613 4616 4618 4621 4624 4627 4630 4633 4636 4639 4642 4645 4647 4650 4653 4655 4658 4660 4663 4665 4667 4669 4672 4674 4677 4680 4683 4686 4689 4692 4694 4697 4700 4703 4706 4709 4712 4714 4717 4720 4723 4726 4729 4732 4735 4737 4740 4743 4746 4749 4751 4754 4757 4760 4763 4766 4768 4771 4773 4776 4779 4782 4785 4788 4791 4794 4797 4800 4803 4805 4808 4811 4814 4817 4820 4823 4826 4828 4831 4834 4837 4840 4843 4846 4849 4851 4854 4856 4859 4862 4865 4868 4871 4874 4877 4880 4882 4885 4888 4891 4893 4895 4898 4901 4904 4907 4910 4912 4914 4917 4919 4922 4925 4927 4930 4933 4935 4938 4941 4944 4947 4950 4953 4956 4959 4961 4964 4967 4970 4973 4976 4978 4981 4984 4987 4990 4992 4995 4998 5000 5003 5006 5009 5012 5015 5018 5021 5024 5027 5030 5033 5036 5039 5042 5045 5048 5051 5054 5057 5060 5063 5066 5069 5072 5075 5078 5081 5084 5087 5090 5093 5096 5099 5102 5105 5108 5111 5114 5117 5120 5123 5125 5128 5131 5133 5136 5139 5142 5145 5148 5150 5153 5156 5159 5162 5164 5167 5170 5173 5176 5179 5182 5185 5188 5191 5194 5197 5200 5203 5206 5209 5212 5215 5218 5221 5224 5227 5230 5233 5236 5238 5241 5244 5247 5249 5252 5255 5258 5261 5264 5267 5269 5272 5275 5278 5281 5284 5287 5290 5293 5296 5299 5302 5304 5307 5309 5311 5314 5317 5319 5322 5325 5328 5331 5334 5337 5340 5343 5346 5349 5352 5354 5357 5360 5362 5365 5368 5371 5374 5377 5380 5383 5386 5389 5392 5395 5398 5401 5404 5407 5409 5412 5415 5418 5421 5424 5427 5430 5432 5435 5437 5440 5443 5446 5449 5451 5454 5456 5459 5462 5465 5468 5471 5474 5477 5480 5483 5485 5488 5491 5494 5497 5500 5503 5506 5509 5512 5515 5518 5521 5524 5527 5530 5533 5536 5538 5541 5544 5547 5550 5553 5556 5559 5562 5565 5568 5571 5574 5577 5580 5583 5586 5589 5592 5595 5598 5601 5604 5607 5610 5613 5615 5617 5620 5623 5626 5629 5632 5635 5638 5641 5644 5647 5650 5652 5655 5658 5661 5664 5666 5669 5672 5675 5678 5680 5683 5686 5689 5692 5695 5698 5701 5704 5706 5709 5712 5715 5718 5721 5724 5727 5730 5733 5735 5738 5741 5744 5747 5750 5753 5756 5759 5762 5765 5768 5771 5774 5777 5780 5783 5786 5789 5792 5795 5797 5800 5803 5806 5809 5812 5815 5818 5821 5824 5827 5830 5833 5836 5839 5841 5844 5846 5849 5852 5855 5858 5861 5864 5867 5870 5872 5875 5878 5880 5883 5886 5889 5892 5895 5898 5901 5904 5907 5910 5913 5916 5919 5922 5925 5928 5931 5934 5937 5940 5943 5946 5949 5952 5955 5958 5961 5964 5967 5970 5973 5976 5979 5982 5985 5988 5990 5993 5996 5998 6001 6004 6007 6010 6012 6015 6017 6020 6023 6025 6028 6030 6033 6036 6039 6042 6045 6047 6050 6053 6056 6059 6062 6065 6068 6071 6074 6077 6080 6083 6085 6088 6091 6094 6096 6099 6102 6105 6108 6111 6114 6117 6120 6123 6125 6128 6131 6134 6137 6139 6141 6144 6147 6150 6153 6156 6159 6162 6165 6167 6170 6173 6176 6179 6182 6184 6187 6190 6193 6195 6198 6201 6204 6206 6209 6212 6215 6218 6220 6223 6226 6229 6232 6235 6238 6241 6244 6247 6250 6253 6256 6259 6262 6264 6267 6270 6273 6276 6279 6282 6284 6287 6289 6291 6294 6296 6299 6301 6304 6307 6310 6313 6315 6318 6321 6324 6327 6329 6332 6335 6338 6341 6344 6347 6350 6353 6356 6358 6361 6364 6367 6370 6373 6376 6379 6382 6385 6388 6391 6394 6397 6400 6402 6405 6408 6411 6413 6416 6419 6422 6424 6427 6429 6432 6435 6438 6441 6444 6447 6450 6453 6456 6459 6462 6465 6468 6471 6474 6477 6479 6482 6485 6488 6491 6494 6497 6499 6502 6505 6508 6511 6514 6517 6520 6523 6526 6529 6532 6535 6538 6541 6544 6547 6550 6553 6555 6558 6561 6564 6567 6570 6573 6576 6579 6582 6585 6588 6591 6594 6597 6600 6603 6606 6609 6612 6615 6618 6621 6624 6627 6630 6633 6636 6639 6642 6645 6648 6651 6654 6657 6659 6662 6665 6668 6671 6673 6676 6679 6682 6685 6688 6691 6694 6696 6699 6702 6705 6708 6711 6714 6717 6720 6723 6725 6728 6731 6733 6736 6739 6742 6745 6748 6750 6753 6756 6759 6761 6764 6767 6769 6772 6775 6778 6781 6784 6787 6790 6793 6796 6799 6802 6805 6808 6811 6814 6817 6820 6823 6826 6829 6831 6834 6837 6840 6843 6846 6849 6852 6855 6858 6861 6863 6865 6868 6870 6873 6876 6879 6882 6885 6887 6890 6893 6896 6899 6901 6904 6907 6910 6913 6916 6918 6921 6923 6926 6929 6931 6934 6937 6940 6943 6946 6949 6952 6955 6957 6960 6963 6966 6969 6972 6975 6977 6980 6983 6986 6989 6992 6995 6997 7000 7003 7006 7009 7011 7014 7017 7019 7022 7024 7027 7030 7032 7035 7038 7041 7044 7047 7050 7052 7055 7058 7061 7064 7066 7069 7072 7075 7078 7081 7084 7087 7090 7092 7094 7097 7100 7103 7106 7109 7112 7115 7118 7120 7123 7126 7129 7132 7135 7138 7140 7143 7146 7149 7152 7155 7158 7161 7163 7166 7169 7172 7174 7177 7180 7183 7186 7189 7192 7195 7198 7201 7204 7207 7210 7212 7215 7218 7221 7224 7226 7229 7232 7234 7237 7240 7243 7246 7248 7251 7254 7257 7259 7261 7264 7267 7270 7272 7275 7278 7281 7283 7286 7289 7292 7295 7298 7301 7304 7307 7310 7312 7315 7318 7321 7323 7326 7329 7332 7335 7338 7341 7344 7347 7350 7353 7356 7359 7361 7364 7366 7369 7372 7374 7377 7380 7382 7385 7388 7391 7394 7397 7400 7403 7405 7408 7411 7414 7417 7420 7422 7425 7427 7430 7433 7436 7438 7440 7443 7445 7447 7450 7452 7455 7458 7461 7464 7467 7470 7472 7475 7477 7480 7483 7486 7489 7492 7495 7498 7501 7504 7507 7510 7513 7516 7518 7521 7524 7526 7529 7531 7534 7537 7539 7542 7545 7548 7550 7552 7555 7558 7560 7563 7566 7569 7572 7575 7578 7581 7584 7587 7590 7593 7596 7599 7602 7605 7608 7611 7614 7617 7620 7623 7626 7629 7631 7633 7636 7638 7641 7643 7646 7649 7651 7653 7656 7659 7661 7664 7667 7669 7672 7675 7677 7680 7682 7685 7688 7691 7694 7696 7699 7702 7705 7708 7710 7713 7715 7717 7720 7722 7725 7728 7730 7732 7735 7738 7741 7743 7746 7749 7752 7755 7757 7759 7762 7765 7768 7771 7774 7776 7779 7782 7785 7788 7791 7794 7797 7800 7803 7806 7809 7811 7814 7816 7819 7821 7824 7827 7829 7832 7834 7837 7840 7843 7846 7849 7852 7855 7858 7860 7863 7866 7868 7871 7874 7877 7880 7882 7885 7888 7891 7894 7897 7900 7903 7906 7909 7912 7915 7918 7920 7923 7926 7929 7932 7935 7938 7941 7944 7947 7950 7953 7955 7958 7961 7964 7967 7970 7973 7975 7978 7980 7983 7986 7988 7991 7994 7997 8000 8003 8006 8009 8012 8015 8018 8021 8024 8027 8030 8033 8036 8039 8041 8043 8046 8049 8052 8054 8057 8060 8062 8065 8068 8071 8074 8077 8080 8083 8086 8089 8092 8095 8098 8101 8104 8107 8110 8113 8116 8119 8122 8125 8128 8131 8134 8137 8139 8141 8144 8147 8150 8153 8156 8159 8162 8165 8168 8171 8174 8176 8179 8182 8185 8188 8191 8194 8197 8200 8203 8206 8209 8212 8215 8218 8221 8224 8227 8230 8233 8236 8239 8242 8245 8248 8251 8254 8257 8260 8263 8266 8269 8272 8275 8277 8280 8283 8286 8289 8292 8294 8297 8300 8302 8305 8308 8310 8312 8315 8318 8321 8324 8327 8330 8333 8336 8339 8342 8345 8348 8351 8353 8356 8359 8361 8364 8367 8370 8373 8376 8379 8381 8384 8387 8389 8392 8395 8398 8401 8404 8407 8410 8413 8416 8419 8422 8425 8428 8430 8433 8436 8439 8442 8445 8448 8451 8453 8456 8459 8462 8465 8468 8471 8474 8477 8480 8483 8486 8489 8491 8494 8497 8499 8502 8505 8508 8511 8514 8517 8520 8523 8526 8529 8532 8535 8538 8541 8544 8547 8550 8553 8556 8559 8561 8564 8567 8569 8572 8574 8577 8580 8583 8585 8588 8591 8593 8596 8598 8601 8604 8607 8609 8612 8615 8618 8621 8623 8626 8629 8632 8635 8638 8641 8644 8646 8649 8652 8655 8657 8660 8663 8666 8669 8672 8675 8678 8681 8684 8687 8690 8693 8695 8698 8701 8704 8707 8710 8713 8716 8719 8721 8724 8727 8730 8733 8736 8739 8742 8745 8748 8751 8754 8756 8759 8762 8765 8768 8771 8774 8777 8780 8783 8786 8789 8792 8795 8798 8801 8804 8807 8810 8813 8815 8817 8820 8823 8826 8828 8831 8834 8837 8840 8843 8846 8849 8852 8855 8858 8861 8864 8866 8869 8872 8875 8878 8881 8884 8887 8890 8893 8895 8898 8901 8904 8907 8910 8913 8916 8919 8922 8925 8928 8931 8934 8937 8940 8943 8945 8948 8950 8953 8956 8959 8962 8965 8967 8970 8973 8976 8979 8981 8984 8987 8990 8992 8995 8998 9001 9003 9006 9009 9012 9015 9018 9021 9024 9027 9030 9032 9035 9038 9041 9043 9046 9049 9051 9054 9057 9060 9063 9066 9069 9071 9074 9077 9080 9083 9086 9089 9092 9095 9097 9100 9103 9106 9108 9111 9114 9117 9120 9123 9126 9129 9132 9135 9138 9141 9144 9147 9150 9153 9156 9159 9162 9165 9168 9171 9174 9177 9180 9183 9186 9189 9191 9194 9197 9200 9203 9206 9209 9212 9214 9217 9220 9223 9226 9229 9232 9235 9238 9241 9244 9247 9250 9253 9256 9259 9262 9265 9268 9271 9274 9277 9280 9283 9286 9289 9291 9294 9296 9299 9302 9305 9308 9311 9314 9316 9319 9322 9325 9327 9330 9333 9335 9338 9341 9344 9347 9350 9353 9356 9359 9362 9365 9368 9371 9373 9376 9379 9382 9385 9388 9390 9393 9396 9399 9402 9405 9408 9411 9414 9417 9420 9423 9426 9429 9431 9434 9437 9440 9442 9445 9448 9451 9454 9457 9460 9463 9466 9469 9472 9475 9478 9480 9482 9485 9488 9491 9494 9496 9499 9502 9505 9508 9511 9514 9517 9520 9523 9525 9527 9530 9533 9536 9539 9542 9544 9547 9550 9553 9556 9559 9561 9564 9567 9570 9573 9576 9578 9581 9583 9586 9589 9592 9595 9597 9600 9602 9605 9607 9609 9612 9615 9618 9621 9624 9627 9630 9632 9634 9637 9640 9643 9646 9649 9652 9654 9656 9658 9661 9663 9665 9668 9671 9674 9676 9679 9682 9685 9688 9691 9693 9695 9697 9700 9702 9705 9708 9711 9713 9716 9718 9720 9723 9726 9729 9732 9735 9738 9741 9743 9745 9748 9751 9753 9755 9757 9760 9763 9766 9769 9772 9775 9778 9781 9784 9787 9790 9793 9796 9799 9802 9805 9808 9811 9814 9817 9820 9823 9826 9829 9832 9835 9838 9841 9844 9847 9850 9853 9856 9859 9862 9865 9868 9871 9874 9877 9879 9882 9885 9888 9891 9894 9897 9900 9903 9906 9909 9911 9914 9917 9920 9923 9926 9929 9931 9934 9937 9939 9942 9945 9948 9951 9954 9957 9960 9963 9966 9969 9972 9975 9978 9980 9983 9985 9988 9991 9994 9997 9999 10002 10005 10008 10010 10013 10016 10018 10021 10024 10027 10029 10032 10035 10037 10040 10043 10046 10049 10052 10054 10057 10060 10063 10066 10069 10072 10075 10077 10080 10083 10086 10089 10092 10095 10098 10100 10103 10106 10108 10111 10114 10117 10120 10122 10125 10127 10130 10133 10136 10139 10142 10144 10147 10150 10153 10156 10158 10161 10164 10167 10170 10173 10176 10178 10180 10183 10186 10189 10192 10195 10197 10200 10203 10205 10208 10211 10214 10217 10220 10223 10226 10229 10232 10235 10237 10240 10243 10246 10249 10252 10255 10258 10261 10264 10267 10270 10273 10276 10279 10282 10285 10288 10291 10293 10296 10299 10302 10305 10308 10311 10313 10316 10319 10322 10325 10328 10331 10334 10336 10338 10341 10344 10347 10350 10352 10355 10358 10361 10364 10367 10370 10373 10375 10378 10381 10383 10386 10388 10390 10392 10395 10398 10401 10404 10407 10410 10412 10415 10418 10421 10424 10427 10429 10432 10435 10438 10441 10443 10446 10449 10452 10454 10457 10460 10463 10465 10468 10471 10474 10477 10480 10483 10486 10489 10492 10495 10498 10501 10504 10507 10510 10513 10516 10519 10522 10525 10528 10531 10534 10537 10540 10542 10545 10548 10551 10554 10557 10560 10563 10565 10568 10570 10573 10576 10579 10582 10585 10588 10590 10593 10596 10598 10601 10604 10607 10609 10612 10615 10617 10620 10623 10626 10629 10632 10634 10637 10640 10643 10645 10647 10650 10653 10656 10659 10662 10665 10668 10671 10674 10677 10680 10683 10685 10688 10691 10694 10697 10700 10703 10706 10709 10712 10714 10717 10720 10723 10726 10729 10731 10733 10736 10739 10742 10745 10748 10751 10754 10757 10760 10762 10765 10768 10771 10774 10777 10780 10783 10786 10788 10791 10794 10797 10800 10803 10806 10809 10812 10815 10818 10821 10824 10827 10830 10833 10836 10839 10842 10844 10847 10850 10853 10856 10858 10861 10863 10866 10868 10871 10874 10877 10880 10883 10886 10889 10892 10895 10898 10901 10904 10907 10910 10913 10916 10919 10921 10924 10927 10930 10933 10936 10938 10941 10944 10947 10949 10951 10954 10957 10960 10963 10966 10968 10971 10974 10977 10980 10982 10985 10988 10991 10994 10997 11000 11003 11006 11008 11011 11014 11017 11020 11023 11026 11029 11031 11034 11037 11040 11043 11046 11049 11052 11055 11058 11060 11063 11066 11069 11072 11075 11078 11081 11084 11087 11090 11093 11096 11099 11102 11105 11108 11111 11114 11116 11119 11122 11125 11128 11131 11134 11137 11140 11143 11146 11149 11152 11155 11157 11160 11163 11166 11169 11172 11175 11177 11180 11183 11185 11188 11191 11193 11196 11199 11202 11205 11208 11211 11214 11217 11220 11223 11226 11229 11232 11235 11238 11241 11244 11247 11250 11253 11256 11259 11262 11265 11268 11271 11273 11276 11278 11281 11283 11285 11288 11291 11294 11296 11299 11302 11305 11308 11311 11314 11317 11320 11323 11325 11327 11330 11332 11335 11338 11341 11344 11347 11350 11353 11356 11359 11362 11365 11368 11371 11374 11376 11379 11381 11383 11386 11388 11391 11394 11397 11400 11403 11406 11409 11412 11415 11417 11419 11422 11425 11428 11431 11434 11437 11440 11443 11446 11449 11452 11455 11458 11461 11464 11467 11470 11473 11476 11479 11482 11485 11487 11490 11493 11496 11499 11502 11504 11507 11510 11513 11516 11519 11521 11524 11527 11530 11532 11535 11538 11541 11544 11547 11550 11553 11556 11559 11561 11564 11567 11570 11573 11575 11578 11581 11584 11587 11590 11593 11595 11598 11601 11604 11607 11610 11613 11616 11618 11621 11624 11627 11630 11632 11635 11638 11641 11644 11647 11650 11653 11656 11659 11662 11664 11667 11670 11673 11676 11678 11681 11684 11687 11689 11692 11695 11698 11701 11704 11706 11709 11712 11715 11718 11721 11724 11727 11730 11733 11736 11739 11742 11745 11748 11750 11752 11755 11758 11760 11763 11766 11769 11772 11775 11778 11781 11783 11786 11789 11792 11795 11798 11801 11803 11806 11809 11812 11815 11818 11821 11824 11827 11830 11833 11836 11839 11842 11845 11848 11851 11854 11857 11860 11863 11866 11869 11872 11874 11877 11880 11883 11886 11889 11892 11895 11898 11900 11903 11906 11909 11912 11914 11917 11920 11923 11926 11929 11931 11934 11936 11939 11941 11944 11947 11950 11953 11956 11959 11962 11964 11967 11970 11973 11975 11978 11981 11984 11987 11990 11992 11995 11998 12001 12004 12007 12009 12012 12014 12017 12020 12022 12025 12027 12030 12033 12036 12039 12042 12044 12047 12050 12053 12055 12058 12061 12064 12067 12070 12073 12076 12079 12082 12085 12087 12090 12093 12096 12099 12102 12105 12108 12111 12114 12117 12120 12123 12126 12129 12132 12135 12138 12141 12144 12147 12150 12153 12155 12158 12161 12164 12167 12170 12173 12176 12179 12182 12185 12188 12191 12194 12197 12200 12203 12206 12209 12211 12214 12217 12220 12222 12225 12228 12231 12234 12237 12240 12242 12245 12248 12251 12253 12255 12258 12260 12263 12265 12267 12270 12272 12275 12278 12280 12283 12286 12288 12290 12293 12296 12299 12302 12305 12308 12311 12314 12316 12319 12321 12324 12327 12330 12333 12336 12339 12342 12345 12348 12351 12354 12357 12360 12363 12366 12369 12372 12375 12378 12381 12384 12387 12389 12392 12395 12398 12401 12404 12407 12410 12413 12415 12418 12421 12423 12426 12429 12431 12433 12436 12439 12441 12444 12447 12450 12453 12456 12459 12462 12465 12468 12471 12474 12477 12480 12483 12486 12489 12492 12495 12498 12501 12504 12507 12510 12513 12516 12519 12522 12525 12528 12531 12534 12537 12540 12543 12546 12549 12552 12555 12558 12560 12563 12565 12568 12571 12574 12577 12580 12583 12586 12589 12592 12595 12598 12601 12604 12607 12610 12613 12616 12619 12622 12625 12628 12631 12634 12637 12640 12643 12646 12649 12652 12655 12658 12661 12664 12667 12670 12673 12676 12679 12682 12685 12687 12690 12693 12695 12698 12701 12704 12707 12710 12712 12715 12717 12720 12723 12725 12728 12731 12734 12737 12740 12743 12745 12748 12751 12754 12757 12760 12763 12766 12769 12772 12775 12778 12780 12783 12786 12788 12790 12793 12795 12798 12801 12803 12806 12809 12812 12815 12817 12820 12823 12826 12829 12832 12835 12838 12841 12844 12846 12849 12851 12854 12857 12860 12863 12866 12869 12872 12874 12877 12879 12882 12885 12888 12891 12894 12897 12900 12903 12906 12908 12911 12913 12916 12919 12922 12925 12928 12931 12934 12937 12940 12943 12945 12948 12951 12954 12956 12959 12962 12964 12967 12970 12972 12975 12978 12981 12984 12986 12989 12992 12995 12997 13000 13003 13006 13009 13012 13015 13018 13021 13024 13027 13030 13033 13036 13039 13041 13044 13047 13050 13053 13056 13059 13061 13064 13066 13069 13071 13074 13077 13080 13082 13085 13088 13091 13094 13097 13100 13103 13106 13108 13111 13114 13117 13120 13123 13125 13128 13131 13133 13136 13139 13142 13145 13148 13151 13154 13157 13160 13162 13165 13168 13171 13173 13176 13179 13182 13185 13188 13191 13193 13196 13199 13202 13205 13208 13211 13214 13217 13220 13223 13226 13229 13232 13235 13238 13241 13244 13247 13250 13253 13256 13259 13262 13265 13268 13271 13274 13277 13280 13283 13286 13288 13291 13294 13297 13300 13303 13305 13308 13311 13313 13315 13318 13321 13324 13327 13329 13332 13335 13338 13341 13344 13346 13349 13352 13355 13358 13361 13364 13367 13370 13373 13376 13379 13382 13385 13388 13391 13394 13396 13399 13402 13405 13408 13411 13414 13417 13420 13422 13424 13427 13430 13433 13436 13439 13442 13444 13447 13450 13453 13456 13458 13461 13464 13467 13470 13473 13476 13479 13482 13485 13488 13491 13494 13497 13500 13503 13506 13509 13512 13515 13518 13521 13524 13527 13530 13532 13535 13538 13540 13543 13546 13549 13552 13555 13558 13561 13564 13567 13570 13573 13576 13579 13582 13585 13588 13591 13594 13597 13600 13603 13606 13609 13612 13615 13618 13621 13623 13626 13628 13631 13634 13637 13640 13643 13645 13648 13651 13654 13657 13660 13663 13666 13669 13672 13675 13678 13681 13684 13687 13690 13693 13696 13699 13702 13705 13707 13709 13712 13714 13717 13720 13723 13726 13729 13732 13735 13738 13741 13744 13747 13750 13753 13756 13759 13762 13764 13767 13770 13773 13775 13778 13781 13784 13787 13790 13793 13796 13799 13802 13805 13808 13811 13814 13816 13819 13822 13825 13828 13831 13834 13837 13840 13843 13846 13849 13852 13855 13858 13861 13864 13867 13870 13873 13876 13879 13882 13884 13887 13890 13893 13896 13899 13902 13905 13908 13911 13914 13917 13920 13923 13925 13928 13930 13933 13936 13938 13940 13943 13946 13949 13952 13955 13958 13961 13964 13967 13970 13973 13976 13979 13982 13985 13988 13991 13994 13997 14000 14002 14005 14008 14010 14013 14016 14019 14021 14024 14027 14030 14033 14036 14039 14041 14044 14047 14050 14052 14055 14058 14061 14064 14067 14070 14073 14076 14078 14081 14084 14086 14089 14092 14094 14097 14099 14102 14105 14108 14111 14113 14115 14118 14121 14123 14125 14128 14131 14133 14136 14139 14142 14145 14147 14150 14153 14155 14157 14160 14162 14165 14168 14171 14174 14177 14180 14183 14186 14189 14192 14195 14198 14201 14204 14207 14210 14213 14216 14219 14222 14224 14227 14230 14233 14236 14238 14241 14244 14247 14250 14252 14254 14257 14260 14263 14266 14269 14272 14275 14278 14281 14284 14287 14290 14292 14295 14298 14301 14303 14306 14309 14312 14315 14318 14321 14324 14326 14329 14332 14335 14337 14340 14343 14345 14347 14350 14353 14356 14358 14361 14364 14367 14369 14372 14375 14378 14381 14384 14387 14390 14393 14396 14399 14402 14405 14408 14411 14414 14417 14420 14423 14425 14428 14431 14434 14437 14440 14443 14446 14449 14452 14455 14458 14461 14464 14467 14470 14473 14476 14479 14481 14483 14486 14489 14492 14495 14498 14500 14502 14505 14507 14510 14513 14516 14519 14522 14525 14528 14531 14534 14536 14539 14542 14545 14547 14550 14553 14556 14559 14562 14565 14568 14571 14574 14577 14580 14583 14586 14589 14591 14594 14597 14600 14603 14606 14609 14612 14614 14617 14620 14622 14625 14628 14631 14634 14637 14640 14642 14645 14648 14651 14654 14656 14659 14662 14665 14668 14671 14674 14676 14679 14682 14685 14688 14691 14694 14697 14700 14702 14704 14707 14710 14713 14715 14717 14720 14723 14726 14729 14732 14734 14737 14740 14743 14746 14749 14752 14754 14757 14760 14763 14766 14768 14771 14774 14777 14780 14783 14785 14788 14791 14794 14797 14799 14802 14805 14808 14811 14814 14817 14820 14823 14826 14829 14832 14835 14838 14841 14844 14847 14850 14853 14856 14859 14862 14865 14868 14871 14874 14876 14879 14882 14885 14888 14890 14893 14895 14898 14900 14903 14906 14908 14911 14914 14916 14919 14922 14924 14927 14930 14933 14936 14939 14942 14944 14947 14950 14952 14955 14957 14959 14961 14964 14967 14969 14972 14974 14976 14979 14982 14985 14987 14990 14992 14995 14998 15001 15004 15007 15010 15012 15015 15018 15021 15023 15026 15029 15032 15035 15038 15041 15044 15046 15049 15052 15055 15057 15060 15062 15064 15067 15070 15073 15076 15079 15082 15085 15087 15090 15093 15096 15099 15102 15105 15108 15111 15113 15115 15118 15121 15124 15127 15129 15132 15135 15137 15140 15143 15146 15148 15151 15154 15157 15159 15161 15164 15167 15170 15173 15175 15178 15181 15184 15187 15190 15192 15194 15197 15200 15203 15206 15209 15212 15215 15218 15221 15224 15227 15230 15233 15236 15239 15242 15245 15248 15251 15254 15257 15260 15263 15266 15269 15272 15275 15278 15281 15284 15287 15289 15292 15295 15298 15300 15303 15306 15309 15312 15315 15318 15321 15324 15327 15330 15333 15336 15339 15342 15345 15347 15350 15352 15354 15357 15360 15362 15365 15368 15371 15374 15377 15380 15383 15386 15389 15392 15395 15398 15401 15404 15407 15410 15413 15416 15419 15422 15425 15428 15431 15433 15436 15439 15441 15443 15446 15449 15452 15455 15458 15461 15464 15466 15469 15472 15475 15477 15480 15483 15486 15489 15491 15493 15496 15499 15502 15505 15508 15511 15514 15516 15519 15522 15525 15528 15530 15533 15536 15539 15542 15544 15547 15550 15553 15556 15559 15562 15565 15568 15571 15574 15577 15580 15583 15586 15589 15592 15595 15598 15601 15603 15606 15609 15612 15615 15618 15621 15624 15627 15630 15633 15636 15639 15642 15645 15648 15651 15653 15656 15659 15662 15664 15667 15670 15673 15676 15679 15682 15685 15688 15691 15693 15696 15699 15702 15705 15708 15711 15714 15717 15720 15723 15726 15729 15732 15735 15738 15741 15744 15747 15750 15753 15756 15758 15761 15764 15767 15770 15773 15776 15779 15782 15785 15788 15791 15794 15797 15800 15803 15806 15809 15811 15814 15817 15820 15823 15826 15828 15831 15834 15837 15840 15843 15846 15849 15852 15855 15858 15861 15864 15867 15870 15873 15876 15879 15882 15885 15888 15891 15894 15897 15900 15903 15906 15909 15911 15914 15917 15919 15922 15925 15928 15930 15933 15936 15939 15942 15945 15948 15951 15954 15957 15960 15963 15966 15969 15972 15975 15977 15980 15982 15985 15988 15991 15994 15997 16000 16003 16006 16009 16011 16014 16017 16020 16023 16026 16029 16032 16035 16038 16040 16042 16045 16048 16051 16054 16057 16060 16063 16066 16069 16072 16075 16078 16081 16084 16087 16090 16093 16096 16099 16102 16105 16108 16111 16114 16117 16120 16123 16126 16129 16132 16135 16138 16141 16144 16147 16150 16153 16156 16159 16162 16165 16168 16171 16174 16177 16180 16183 16186 16189 16192 16195 16198 16201 16204 16207 16210 16213 16216 16219 16222 16225 16228 16231 16234 16237 16240 16243 16246 16249 16252 16255 16257 16260 16263 16266 16269 16272 16275 16277 16280 16283 16286 16289 16292 16295 16298 16301 16304 16306 16309 16311 16314 16317 16320 16323 16326 16329 16332 16335 16338 16341 16344 16347 16350 16353 16356 16359 16362 16365 16368 16371 16374 16377 16380 16383 16386 16389 16392 16395 16398 16401 16404 16407 16410 16413 16415 16418 16421 16424 16426 16428 16431 16434 16437 16440 16443 16446 16449 16452 16455 16458 16461 16464 16467 16470 16473 16476 16479 16482 16485 16488 16491 16494 16496 16498 16501 16504 16507 16510 16513 16516 16519 16522 16524 16527 16530 16533 16536 16539 16542 16544 16547 16550 16553 16556 16559 16561 16564 16567 16570 16573 16575 16578 16581 16584 16586 16589 16592 16595 16597 16600 16603 16605 16608 16611 16614 16617 16620 16623 16626 16629 16632 16635 16638 16641 16644 16646 16649 16652 16655 16658 16661 16664 16667 16670 16672 16675 16678 16681 16684 16687 16690 16693 16696 16699 16702 16705 16707 16710 16713 16716 16718 16721 16724 16727 16730 16732 16735 16738 16741 16744 16747 16750 16753 16756 16758 16761 16763 16766 16769 16771 16774 16777 16780 16783 16786 16788 16791 16794 16797 16800 16803 16806 16809 16812 16815 16818 16821 16824 16826 16829 16832 16835 16838 16841 16844 16847 16850 16853 16855 16858 16861 16864 16867 16870 16873 16875 16878 16881 16884 16887 16890 16893 16896 16898 16901 16904 16907 16910 16913 16915 16918 16921 16924 16927 16930 16933 16936 16939 16942 16945 16948 16951 16954 16957 16960 16963 16966 16969 16972 16975 16978 16981 16984 16987 16990 16993 16996 16999 17002 17005 17008 17011 17014 17017 17020 17023 17026 17029 17032 17035 17038 17041 17044 17047 17050 17053 17056 17058 17061 17063 17066 17069 17072 17075 17078 17081 17084 17087 17090 17093 17096 17099 17102 17105 17107 17110 17113 17116 17119 17122 17125 17128 17131 17134 17137 17140 17143 17146 17149 17152 17154 17157 17160 17162 17165 17167 17170 17173 17176 17179 17182 17184 17187 17190 17193 17196 17199 17202 17205 17208 17211 17214 17217 17220 17223 17226 17229 17232 17235 17238 17241 17244 17246 17249 17252 17255 17258 17261 17264 17267 17270 17273 17276 17279 17281 17284 17286 17289 17292 17294 17297 17299 17302 17305 17308 17311 17314 17317 17320 17322 17325 17327 17330 17333 17336 17339 17341 17344 17347 17350 17353 17355 17357 17360 17363 17365 17368 17371 17374 17377 17380 17383 17386 17389 17392 17395 17398 17401 17404 17407 17410 17413 17415 17418 17421 17424 17427 17430 17433 17436 17439 17442 17445 17448 17451 17454 17457 17459 17462 17464 17467 17470 17473 17476 17479 17482 17485 17487 17490 17492 17495 17498 17501 17504 17507 17510 17513 17516 17519 17521 17523 17526 17529 17532 17534 17537 17540 17543 17546 17548 17551 17553 17556 17559 17561 17564 17566 17568 17570 17573 17576 17578 17581 17584 17587 17589 17591 17593 17596 17599 17602 17605 17608 17611 17614 17617 17620 17623 17626 17628 17631 17634 17637 17640 17643 17646 17648 17651 17654 17657 17659 17662 17665 17668 17671 17674 17677 17680 17683 17685 17688 17691 17694 17696 17699 17702 17705 17708 17711 17714 17717 17720 17723 17726 17729 17732 17735 17738 17741 17744 17747 17750 17753 17756 17759 17762 17765 17768 17771 17774 17777 17780 17783 17786 17789 17792 17795 17798 17801 17804 17807 17810 17813 17816 17819 17822 17825 17828 17831 17834 17837 17840 17843 17846 17849 17852 17855 17858 17861 17864 17867 17870 17873 17876 17878 17881 17884 17887 17890 17893 17895 17898 17901 17904 17907 17909 17912 17915 17918 17920 17923 17926 17929 17932 17935 17938 17941 17944 17947 17950 17953 17956 17959 17962 17965 17968 17971 17974 17977 17980 17983 17986 17989 17992 17995 17998 18001 18004 18007 18010 18013 18016 18019 18022 18025 18028 18031 18034 18037 18040 18042 18045 18048 18050 18053 18056 18059 18062 18065 18068 18071 18073 18076 18079 18082 18085 18088 18091 18094 18097 18100 18103 18106 18108 18111 18114 18116 18119 18121 18124 18127 18130 18132 18135 18138 18141 18144 18147 18150 18153 18156 18158 18161 18164 18167 18170 18172 18175 18178 18181 18184 18186 18189 18191 18194 18197 18200 18203 18206 18209 18212 18215 18218 18221 18224 18227 18229 18232 18234 18237 18240 18243 18246 18249 18252 18255 18258 18261 18264 18267 18270 18273 18275 18278 18281 18284 18287 18290 18293 18296 18299 18302 18304 18307 18310 18313 18315 18318 18321 18324 18327 18330 18333 18336 18339 18342 18345 18348 18351 18354 18357 18360 18363 18366 18369 18372 18375 18378 18381 18384 18387 18390 18393 18396 18399 18402 18405 18408 18411 18414 18417 18420 18422 18425 18428 18430 18433 18436 18439 18442 18444 18447 18450 18453 18456 18459 18462 18465 18468 18471 18474 18477 18480 18483 18486 18489 18491 18494 18497 18500 18503 18506 18509 18512 18515 18518 18520 18523 18525 18528 18531 18534 18537 18540 18543 18546 18548 18551 18554 18557 18560 18563 18566 18569 18572 18575 18578 18581 18584 18587 18590 18592 18595 18598 18601 18604 18607 18610 18613 18616 18619 18622 18625 18627 18630 18633 18636 18639 18642 18645 18648 18651 18654 18657 18660 18663 18666 18669 18672 18675 18678 18681 18684 18687 18690 18693 18696 18698 18701 18703 18706 18709 18712 18715 18718 18721 18723 18726 18728 18731 18734 18737 18739 18742 18745 18748 18750 18753 18756 18759 18761 18764 18767 18769 18772 18775 18778 18781 18784 18787 18790 18792 18795 18798 18801 18804 18807 18810 18813 18815 18818 18821 18824 18827 18830 18833 18836 18839 18842 18845 18848 18851 18854 18856 18859 18862 18865 18868 18871 18874 18877 18880 18882 18885 18888 18891 18894 18897 18900 18903 18906 18909 18912 18915 18918 18921 18924 18927 18930 18933 18936 18939 18942 18944 18947 18950 18953 18956 18959 18962 18965 18968 18971 18974 18977 18980 18983 18986 18989 18992 18995 18998 19001 19004 19007 19010 19013 19016 19019 19022 19025 19028 19031 19034 19037 19040 19043 19046 19049 19052 19055 19058 19061 19064 19067 19070 19073 19076 19079 19082 19085 19088 19091 19094 19096 19099 19101 19104 19107 19110 19112 19115 19118 19120 19122 19125 19127 19130 19133 19136 19139 19142 19145 19148 19151 19154 19157 19160 19163 19166 19169 19172 19175 19178 19181 19184 19187 19190 19193 19196 19199 19202 19205 19208 19211 19214 19217 19220 19223 19226 19229 19232 19234 19237 19240 19243 19246 19248 19251 19254 19256 19259 19262 19265 19267 19270 19273 19276 19279 19281 19284 19286 19288 19291 19294 19297 19300 19302 19305 19308 19311 19313 19316 19319 19322 19324 19327 19330 19333 19336 19339 19342 19344 19347 19350 19353 19356 19359 19362 19365 19368 19371 19374 19377 19380 19383 19386 19389 19392 19395 19398 19401 19404 19406 19409 19412 19415 19418 19421 19424 19427 19430 19433 19436 19439 19442 19445 19448 19451 19454 19457 19460 19462 19465 19468 19470 19473 19476 19478 19481 19484 19487 19490 19493 19496 19499 19502 19505 19508 19511 19513 19516 19519 19522 19525 19527 19530 19533 19536 19539 19541 19544 19547 19550 19552 19555 19558 19561 19564 19567 19570 19573 19576 19579 19582 19585 19588 19591 19594 19597 19600 19603 19606 19609 19612 19615 19618 19621 19624 19627 19629 19632 19635 19638 19641 19644 19647 19650 19653 19655 19658 19661 19664 19666 19669 19672 19675 19678 19681 19684 19687 19690 19693 19696 19699 19702 19705 19708 19711 19714 19717 19720 19723 19726 19729 19732 19735 19738 19740 19743 19746 19749 19751 19754 19757 19760 19763 19766 19769 19772 19775 19777 19780 19783 19785 19788 19791 19794 19797 19799 19802 19805 19808 19811 19814 19817 19820 19822 19825 19827 19830 19833 19835 19838 19841 19843 19845 19848 19851 19854 19857 19860 19863 19866 19869 19872 19875 19878 19881 19884 19887 19890 19893 19896 19899 19902 19905 19908 19910 19913 19916 19919 19922 19924 19927 19930 19933 19936 19939 19942 19945 19948 19951 19954 19957 19960 19963 19965 19968 19971 19973 19976 19979 19982 19985 19988 19991 19994 19997 20000 20003 20006 20009 20012 20015 20018 20021 20024 20027 20030 20033 20036 20039 20042 20045 20048 20051 20054 20057 20060 20063 20066 20069 20072 20075 20078 20081 20084 20087 20090 20093 20096 20099 20102 20105 20108 20111 20114 20117 20120 20123 20126 20129 20132 20135 20138 20141 20144 20147 20150 20153 20156 20159 20162 20165 20168 20171 20174 20177 20180 20183 20186 20189 20192 20195 20198 20201 20204 20207 20210 20213 20216 20219 20222 20225 20228 20231 20234 20237 20240 20243 20246 20249 20252 20255 20258 20261 20264 20267 20270 20273 20276 20279 20282 20285 20288 20291 20294 20297 20300 20303 20306 20309 20312 20315 20318 20321 20324 20327 20330 20333 20336 20339 20342 20345 20348 20351 20354 20357 20359 20362 20365 20368 20371 20374 20377 20380 20382 20385 20388 20391 20394 20397 20400 20403 20406 20409 20411 20414 20416 20419 20422 20425 20427 20430 20433 20435 20438 20441 20444 20447 20450 20453 20456 20459 20462 20465 20468 20471 20474 20477 20480 20483 20486 20489 20492 20495 20498 20501 20504 20507 20510 20513 20516 20519 20522 20525 20528 20531 20534 20537 20540 20543 20546 20548 20551 20554 20556 20558 20561 20564 20566 20569 20572 20574 20577 20580 20583 20585 20588 20591 20594 20597 20600 20603 20606 20609 20612 20614 20617 20620 20623 20626 20629 20632 20634 20637 20640 20643 20646 20649 20652 20655 20658 20661 20664 20667 20670 20673 20676 20679 20682 20685 20688 20691 20694 20697 20700 20703 20706 20709 20712 20715 20718 20721 20724 20727 20729 20732 20735 20738 20741 20744 20747 20750 20753 20756 20759 20762 20765 20768 20771 20774 20777 20780 20783 20786 20789 20792 20795 20798 20801 20804 20807 20810 20813 20816 20819 20822 20825 20828 20831 20834 20837 20840 20843 20846 20849 20852 20855 20858 20861 20864 20867 20869 20872 20874 20877 20880 20883 20886 20888 20891 20894 20897 20900 20902 20905 20908 20911 20914 20916 20919 20922 20925 20928 20931 20934 20937 20940 20942 20945 20948 20950 20953 20955 20958 20961 20964 20967 20969 20972 20975 20977 20979 20982 20985 20988 20991 20994 20997 20999 21002 21005 21008 21011 21014 21017 21020 21023 21026 21029 21031 21033 21036 21039 21042 21045 21048 21050 21053 21056 21058 21061 21064 21067 21070 21072 21075 21078 21080 21083 21086 21089 21092 21095 21098 21101 21104 21107 21110 21113 21116 21119 21122 21125 21128 21131 21134 21137 21140 21143 21146 21149 21152 21155 21158 21161 21164 21167 21169 21172 21174 21177 21180 21183 21186 21189 21192 21195 21198 21201 21204 21207 21210 21213 21215 21218 21221 21224 21227 21229 21231 21234 21237 21240 21243 21246 21249 21252 21255 21258 21261 21264 21267 21270 21273 21276 21279 21282 21285 21288 21291 21294 21297 21300 21303 21306 21309 21312 21315 21318 21321 21324 21327 21330 21333 21336 21339 21342 21345 21348 21351 21354 21357 21359 21362 21365 21368 21370 21373 21376 21379 21382 21385 21388 21391 21394 21397 21400 21403 21406 21409 21412 21415 21418 21421 21424 21427 21430 21432 21435 21438 21440 21443 21446 21449 21452 21455 21458 21461 21464 21467 21469 21472 21475 21478 21481 21484 21486 21489 21492 21495 21498 21501 21503 21506 21508 21511 21514 21517 21520 21523 21526 21529 21532 21535 21538 21541 21544 21547 21549 21552 21555 21558 21560 21562 21565 21568 21571 21574 21577 21580 21583 21586 21588 21591 21594 21596 21599 21602 21604 21606 21609 21612 21615 21618 21621 21623 21626 21629 21632 21635 21638 21641 21644 21646 21649 21652 21654 21656 21659 21662 21665 21668 21671 21674 21676 21678 21681 21684 21687 21689 21692 21695 21698 21701 21704 21707 21710 21712 21715 21718 21721 21724 21727 21730 21733 21736 21739 21742 21745 21748 21751 21754 21757 21760 21763 21766 21769 21772 21775 21778 21781 21784 21787 21790 21792 21795 21798 21801 21804 21807 21810 21813 21815 21818 21821 21824 21827 21830 21833 21836 21839 21842 21845 21848 21850 21853 21856 21859 21862 21865 21868 21871 21874 21876 21879 21882 21885 21888 21891 21894 21897 21900 21903 21906 21909 21912 21915 21918 21921 21924 21926 21929 21932 21935 21937 21940 21943 21946 21949 21952 21954 21957 21960 21963 21966 21969 21972 21975 21978 21981 21984 21987 21990 21993 21996 21998 22001 22004 22007 22010 22012 22015 22018 22020 22023 22026 22029 22032 22035 22037 22040 22043 22046 22049 22052 22055 22058 22061 22064 22067 22070 22073 22076 22079 22081 22084 22086 22089 22092 22095 22097 22100 22102 22105 22107 22110 22113 22116 22119 22122 22125 22127 22129 22132 22135 22138 22141 22144 22147 22149 22152 22154 22157 22160 22163 22166 22169 22172 22175 22178 22181 22184 22187 22190 22193 22196 22199 22202 22205 22207 22210 22213 22216 22218 22220 22223 22226 22229 22232 22235 22237 22240 22243 22245 22247 22250 22253 22256 22259 22262 22265 22268 22271 22274 22277 22280 22283 22286 22289 22292 22295 22298 22301 22304 22307 22310 22313 22316 22319 22322 22325 22328 22331 22334 22337 22340 22343 22346 22349 22352 22355 22358 22361 22364 22367 22370 22373 22376 22379 22381 22384 22387 22389 22391 22393 22396 22399 22402 22405 22408 22411 22413 22416 22419 22422 22425 22428 22431 22434 22437 22440 22442 22445 22448 22451 22453 22456 22459 22462 22465 22468 22471 22474 22477 22480 22483 22486 22489 22492 22495 22498 22501 22504 22507 22510 22513 22515 22518 22521 22524 22527 22529 22532 22535 22538 22541 22544 22547 22550 22553 22556 22559 22562 22565 22568 22571 22574 22577 22580 22583 22586 22589 22592 22595 22598 22601 22604 22607 22610 22613 22616 22619 22622 22625 22628 22631 22633 22636 22638 22641 22644 22647 22650 22653 22656 22659 22662 22664 22667 22670 22673 22675 22678 22680 22683 22686 22689 22692 22695 22698 22701 22704 22706 22709 22712 22715 22718 22720 22723 22726 22729 22732 22734 22737 22740 22743 22746 22749 22752 22755 22757 22760 22763 22766 22769 22771 22774 22777 22780 22783 22786 22789 22792 22795 22798 22801 22804 22807 22810 22813 22816 22819 22822 22825 22828 22831 22834 22837 22840 22843 22846 22849 22852 22855 22858 22861 22864 22867 22870 22873 22876 22879 22882 22885 22888 22891 22894 22897 22900 22903 22906 22909 22911 22914 22917 22920 22923 22925 22927 22930 22933 22935 22937 22940 22943 22946 22949 22952 22955 22958 22961 22964 22967 22970 22973 22976 22979 22982 22985 22988 22991 22994 22996 22999 23002 23005 23007 23009 23012 23015 23018 23021 23024 23027 23030 23033 23036 23039 23042 23045 23048 23051 23054 23057 23060 23063 23066 23069 23072 23075 23078 23081 23084 23087 23090 23092 23095 23098 23101 23104 23107 23110 23113 23115 23118 23121 23124 23127 23130 23133 23136 23139 23142 23145 23148 23151 23154 23157 23160 23162 23165 23168 23171 23174 23177 23180 23183 23186 23188 23191 23193 23195 23198 23201 23204 23207 23210 23213 23216 23219 23222 23225 23228 23231 23233 23236 23239 23242 23245 23248 23251 23254 23257 23260 23263 23266 23269 23272 23275 23278 23281 23284 23287 23289 23292 23295 23298 23300 23303 23306 23309 23312 23315 23318 23321 23324 23326 23329 23332 23335 23338 23341 23344 23347 23350 23353 23356 23359 23362 23365 23368 23371 23373 23376 23379 23382 23384 23387 23390 23393 23396 23399 23402 23405 23408 23411 23414 23417 23420 23423 23426 23429 23432 23435 23438 23441 23444 23447 23450 23453 23456 23459 23462 23465 23468 23471 23474 23477 23480 23483 23485 23488 23490 23493 23496 23499 23502 23505 23508 23511 23514 23516 23519 23522 23525 23528 23531 23534 23537 23540 23543 23545 23548 23551 23553 23556 23559 23562 23565 23568 23570 23573 23576 23579 23582 23584 23587 23590 23593 23596 23598 23601 23604 23607 23609 23612 23614 23617 23620 23622 23625 23628 23631 23634 23637 23640 23643 23646 23649 23652 23655 23658 23661 23664 23666 23669 23672 23674 23677 23679 23682 23685 23688 23690 23693 23696 23698 23701 23704 23707 23710 23712 23715 23717 23720 23723 23726 23729 23732 23735 23737 23740 23742 23745 23748 23751 23754 23757 23759 23762 23765 23768 23771 23773 23776 23779 23782 23785 23788 23791 23793 23796 23799 23802 23805 23808 23811 23814 23817 23820 23823 23826 23829 23832 23835 23838 23841 23844 23847 23850 23853 23856 23859 23862 23865 23868 23871 23874 23877 23880 23883 23886 23889 23892 23894 23896 23899 23902 23905 23908 23911 23914 23917 23920 23923 23926 23928 23931 23934 23936 23938 23941 23943 23946 23949 23952 23955 23958 23961 23964 23966 23969 23972 23975 23978 23981 23984 23987 23990 23993 23996 23999 24002 24004 24007 24010 24013 24016 24018 24021 24024 24027 24030 24033 24036 24039 24042 24045 24048 24051 24054 24056 24059 24062 24065 24068 24071 24074 24077 24080 24083 24086 24089 24092 24095 24098 24101 24104 24107 24109 24112 24115 24118 24121 24124 24126 24129 24132 24135 24137 24140 24143 24146 24149 24152 24155 24157 24160 24162 24165 24168 24171 24173 24176 24179 24182 24185 24188 24191 24194 24197 24200 24202 24205 24208 24210 24213 24216 24219 24222 24225 24228 24231 24233 24236 24239 24242 24245 24248 24251 24254 24257 24260 24263 24266 24269 24272 24274 24277 24280 24282 24285 24288 24291 24294 24297 24300 24302 24305 24308 24311 24314 24317 24320 24322 24325 24328 24331 24334 24337 24340 24343 24345 24348 24351 24354 24357 24360 24363 24366 24369 24372 24375 24378 24381 24384 24387 24390 24393 24396 24399 24402 24405 24408 24411 24413 24416 24419 24422 24425 24428 24431 24434 24437 24440 24443 24445 24448 24451 24454 24457 24459 24461 24464 24467 24470 24473 24475 24478 24481 24484 24487 24490 24493 24496 24499 24502 24504 24507 24510 24513 24516 24519 24522 24525 24528 24531 24534 24537 24539 24542 24545 24548 24550 24553 24556 24559 24561 24564 24567 24570 24573 24576 24579 24582 24585 24588 24591 24594 24597 24599 24602 24605 24608 24611 24614 24616 24619 24622 24624 24627 24630 24633 24636 24639 24642 24645 24648 24651 24654 24657 24660 24663 24666 24668 24671 24674 24677 24680 24683 24686 24689 24691 24694 24697 24700 24702 24705 24708 24711 24714 24717 24719 24722 24725 24728 24731 24734 24737 24740 24743 24746 24748 24751 24754 24757 24760 24763 24766 24769 24772 24774 24777 24780 24783 24786 24789 24791 24794 24797 24800 24803 24806 24809 24812 24814 24817 24820 24823 24826 24829 24832 24835 24838 24841 24844 24847 24850 24853 24856 24859 24862 24865 24868 24871 24874 24877 24880 24883 24886 24889 24892 24895 24898 24901 24904 24907 24910 24913 24916 24919 24922 24925 24928 24931 24934 24937 24940 24943 24946 24949 24952 24955 24958 24960 24963 24966 24969 24972 24975 24978 24981 24983 24986 24989 24992 24995 24998 25001 25004 25007 25010 25013 25016 25019 25022 25025 25028 25031 25034 25037 25040 25043 25046 25049 25051 25053 25056 25059 25061 25063 25066 25069 25072 25075 25078 25081 25084 25086 25089 25092 25095 25098 25101 25104 25107 25110 25113 25116 25119 25122 25125 25128 25130 25133 25136 25139 25142 25145 25148 25151 25154 25156 25159 25162 25164 25167 25170 25173 25175 25178 25181 25184 25187 25190 25193 25196 25199 25202 25205 25208 25211 25214 25217 25220 25223 25226 25229 25232 25235 25238 25241 25244 25247 25250 25253 25256 25259 25261 25264 25267 25270 25273 25276 25279 25282 25285 25287 25290 25293 25296 25299 25302 25305 25307 25309 25312 25315 25318 25321 25323 25326 25329 25331 25334 25337 25339 25342 25345 25348 25351 25354 25357 25359 25362 25365 25368 25371 25374 25377 25380 25383 25385 25388 25391 25394 25397 25400 25403 25406 25409 25412 25415 25418 25420 25423 25426 25428 25431 25434 25437 25440 25443 25446 25449 25451 25454 25457 25460 25462 25465 25467 25470 25472 25475 25478 25481 25484 25487 25490 25493 25496 25499 25502 25505 25508 25511 25514 25517 25520 25523 25525 25528 25530 25533 25536 25539 25542 25545 25548 25551 25554 25557 25560 25562 25565 25568 25571 25574 25577 25580 25583 25585 25588 25591 25594 25596 25599 25601 25603 25606 25609 25611 25614 25617 25620 25623 25625 25628 25631 25634 25636 25639 25642 25645 25647 25650 25652 25654 25657 25660 25663 25666 25669 25672 25674 25677 25680 25683 25686 25689 25692 25695 25698 25700 25702 25704 25707 25709 25712 25715 25717 25719 25722 25725 25727 25730 25733 25736 25739 25742 25745 25748 25751 25754 25757 25760 25762 25765 25768 25771 25774 25777 25780 25783 25786 25789 25792 25795 25798 25801 25803 25805 25808 25811 25814 25817 25819 25822 25825 25828 25830 25833 25836 25839 25842 25845 25847 25849 25852 25855 25858 25860 25863 25866 25869 25872 25875 25878 25881 25884 25887 25890 25893 25896 25899 25902 25905 25907 25910 25913 25916 25918 25921 25924 25927 25929 25932 25935 25938 25941 25944 25947 25949 25952 25955 25958 25961 25964 25966 25969 25972 25975 25978 25981 25984 25987 25990 25992 25995 25998 26001 26004 26007 26010 26013 26016 26019 26021 26024 26027 26030 26033 26035 26038 26040 26043 26046 26048 26051 26053 26056 26059 26062 26065 26068 26071 26073 26076 26078 26080 26083 26086 26089 26092 26095 26098 26101 26104 26106 26109 26111 26114 26116 26119 26121 26124 26127 26130 26133 26136 26139 26142 26145 26148 26151 26154 26156 26159 26162 26165 26167 26170 26173 26176 26179 26182 26185 26188 26191 26193 26196 26199 26202 26205 26208 26211 26214 26217 26220 26222 26225 26228 26231 26234 26236 26239 26242 26244 26247 26250 26253 26256 26259 26262 26265 26268 26271 26273 26276 26279 26282 26284 26287 26290 26293 26296 26299 26302 26305 26308 26311 26314 26317 26320 26323 26326 26329 26332 26335 26338 26341 26343 26346 26349 26352 26355 26358 26361 26364 26367 26370 26373 26375 26378 26381 26384 26387 26390 26393 26396 26399 26402 26405 26408 26411 26414 26417 26420 26423 26426 26429 26432 26435 26438 26441 26444 26447 26450 26453 26456 26459 26462 26465 26468 26471 26474 26477 26480 26483 26486 26489 26492 26495 26498 26501 26504 26507 26510 26512 26514 26517 26520 26523 26526 26529 26532 26535 26538 26541 26544 26547 26550 26553 26555 26557 26560 26563 26566 26568 26571 26574 26576 26579 26582 26585 26587 26590 26593 26596 26598 26601 26604 26607 26610 26613 26616 26619 26622 26624 26627 26630 26632 26635 26637 26639 26642 26645 26648 26651 26654 26657 26659 26662 26664 26666 26668 26671 26674 26676 26679 26682 26684 26686 26689 26692 26695 26698 26701 26704 26707 26710 26713 26716 26719 26722 26725 26728 26731 26734 26737 26740 26743 26746 26749 26751 26754 26757 26760 26763 26766 26769 26772 26775 26778 26780 26783 26786 26789 26792 26795 26798 26801 26803 26805 26808 26811 26814 26817 26820 26823 26826 26829 26832 26835 26838 26841 26844 26847 26850 26853 26856 26859 26862 26865 26868 26871 26874 26876 26879 26881 26884 26887 26890 26893 26896 26899 26902 26904 26907 26910 26913 26915 26917 26920 26923 26925 26928 26931 26934 26937 26939 26942 26945 26948 26950 26953 26956 26959 26961 26964 26967 26970 26973 26976 26979 26982 26985 26988 26990 26992 26995 26998 27001 27004 27007 27009 27012 27015 27017 27019 27021 27024 27027 27030 27033 27036 27038 27041 27044 27047 27050 27053 27056 27059 27062 27065 27067 27070 27072 27075 27078 27081 27084 27087 27090 27093 27096 27099 27102 27105 27108 27111 27114 27117 27120 27123 27126 27129 27132 27135 27138 27141 27144 27146 27149 27152 27155 27158 27160 27162 27165 27168 27171 27173 27176 27179 27182 27185 27188 27191 27194 27197 27200 27203 27206 27209 27212 27215 27218 27221 27223 27226 27229 27232 27234 27237 27240 27242 27245 27248 27251 27254 27257 27260 27263 27266 27269 27272 27275 27278 27281 27283 27286 27289 27291 27294 27297 27300 27302 27305 27307 27310 27312 27315 27317 27319 27321 27324 27327 27330 27333 27336 27339 27342 27345 27347 27350 27353 27356 27359 27362 27365 27368 27371 27373 27376 27379 27381 27384 27387 27390 27393 27396 27399 27402 27405 27408 27411 27414 27417 27420 27423 27426 27429 27432 27435 27438 27441 27444 27446 27449 27452 27455 27458 27461 27464 27467 27470 27473 27476 27478 27481 27483 27486 27489 27491 27494 27496 27499 27501 27504 27507 27509 27512 27514 27517 27520 27522 27525 27528 27531 27533 27536 27539 27542 27545 27548 27551 27554 27557 27560 27563 27566 27569 27572 27575 27578 27581 27584 27587 27590 27593 27596 27599 27602 27605 27608 27611 27614 27617 27620 27623 27626 27629 27632 27635 27638 27641 27644 27647 27650 27653 27656 27659 27662 27665 27668 27671 27674 27677 27680 27683 27686 27689 27692 27695 27698 27701 27704 27707 27710 27713 27716 27718 27721 27724 27726 27729 27732 27735 27738 27741 27744 27746 27748 27751 27754 27757 27760 27763 27766 27769 27772 27775 27778 27781 27784 27787 27790 27793 27796 27799 27802 27804 27807 27810 27813 27815 27818 27821 27824 27827 27830 27833 27836 27839 27842 27845 27848 27851 27854 27857 27860 27863 27865 27868 27871 27874 27877 27880 27883 27886 27888 27891 27894 27897 27900 27903 27906 27909 27912 27914 27917 27919 27922 27925 27928 27931 27934 27937 27940 27943 27946 27949 27952 27955 27958 27961 27964 27967 27969 27972 27975 27978 27981 27984 27987 27990 27992 27995 27998 28001 28004 28006 28009 28012 28015 28018 28021 28024 28027 28029 28032 28035 28037 28039 28042 28045 28047 28050 28053 28056 28059 28062 28065 28067 28070 28073 28076 28079 28082 28085 28088 28091 28094 28096 28099 28102 28104 28107 28110 28112 28115 28118 28120 28123 28126 28129 28132 28135 28137 28140 28143 28146 28149 28152 28155 28158 28161 28163 28166 28169 28172 28175 28178 28181 28184 28186 28189 28192 28195 28198 28201 28204 28207 28210 28213 28216 28219 28222 28224 28227 28230 28233 28236 28239 28242 28245 28247 28249 28252 28254 28257 28259 28262 28265 28268 28271 28274 28277 28280 28283 28286 28289 28292 28295 28298 28301 28304 28306 28309 28311 28314 28317 28320 28323 28326 28329 28332 28335 28337 28340 28342 28345 28347 28350 28352 28355 28357 28360 28363 28365 28368 28371 28374 28377 28380 28382 28385 28388 28391 28394 28397 28400 28403 28406 28408 28411 28414 28417 28420 28423 28425 28428 28431 28433 28436 28438 28440 28443 28446 28449 28452 28455 28458 28461 28464 28466 28469 28472 28475 28478 28481 28484 28487 28490 28493 28496 28499 28502 28505 28507 28510 28513 28516 28519 28522 28525 28528 28530 28533 28536 28539 28541 28544 28547 28550 28553 28556 28559 28562 28565 28568 28571 28574 28577 28580 28583 28586 28589 28592 28594 28597 28600 28603 28606 28609 28612 28615 28617 28620 28623 28625 28628 28631 28634 28637 28640 28643 28646 28649 28652 28655 28658 28661 28664 28667 28670 28672 28675 28678 28681 28684 28686 28689 28692 28695 28698 28701 28704 28707 28710 28713 28716 28719 28722 28725 28728 28731 28734 28737 28740 28743 28746 28749 28752 28755 28758 28761 28763 28766 28769 28772 28775 28778 28781 28783 28786 28789 28792 28795 28798 28801 28804 28807 28810 28812 28814 28817 28820 28823 28825 28828 28830 28833 28836 28839 28842 28845 28848 28851 28854 28857 28860 28863 28866 28869 28872 28875 28877 28880 28883 28886 28889 28892 28895 28898 28901 28904 28907 28910 28913 28915 28917 28920 28923 28926 28929 28932 28935 28938 28941 28943 28946 28949 28951 28954 28957 28959 28961 28964 28967 28970 28973 28976 28979 28982 28984 28987 28990 28993 28996 28999 29002 29005 29008 29011 29013 29016 29019 29022 29024 29027 29030 29033 29036 29039 29041 29044 29047 29050 29053 29056 29059 29062 29065 29068 29071 29074 29077 29079 29082 29085 29088 29090 29093 29096 29099 29101 29104 29107 29110 29113 29116 29119 29122 29125 29128 29131 29134 29137 29140 29143 29146 29149 29152 29155 29158 29161 29164 29167 29170 29173 29176 29179 29182 29185 29188 29191 29194 29197 29199 29202 29205 29208 29211 29214 29217 29220 29223 29226 29229 29232 29235 29238 29241 29244 29247 29250 29253 29256 29259 29262 29265 29268 29271 29273 29276 29278 29281 29284 29286 29289 29292 29295 29298 29301 29304 29307 29310 29313 29315 29318 29321 29324 29327 29330 29333 29336 29339 29342 29345 29348 29351 29354 29357 29359 29362 29365 29368 29371 29373 29376 29379 29382 29384 29387 29390 29393 29396 29399 29402 29405 29408 29411 29414 29417 29420 29423 29426 29429 29432 29435 29438 29441 29444 29447 29450 29453 29456 29459 29462 29465 29468 29471 29474 29477 29480 29483 29486 29489 29492 29495 29498 29501 29504 29507 29510 29513 29516 29519 29522 29525 29528 29531 29534 29537 29540 29543 29546 29549 29552 29555 29558 29561 29564 29567 29570 29573 29576 29579 29582 29585 29588 29591 29594 29597 29600 29603 29606 29609 29612 29615 29618 29621 29624 29627 29630 29633 29636 29639 29642 29645 29648 29651 29654 29657 29660 29663 29666 29669 29672 29675 29678 29681 29684 29687 29690 29693 29696 29699 29702 29705 29708 29711 29714 29717 29720 29723 29726 29729 29732 29735 29738 29741 29744 29747 29750 29753 29756 29759 29762 29765 29768 29771 29774 29777 29780 29783 29786 29789 29792 29795 29798 29801 29804 29807 29810 29813 29816 29819 29822 29825 29828 29831 29834 29837 29840 29843 29846 29849 29852 29855 29858 29861 29864 29867 29870 29873 29876 29879 29882 29885 29888 29891 29894 29897 29900 29903 29906 29909 29912 29915 29918 29921 29924 29927 29930 29933 29936 29939 29942 29945 29948 29951 29953 29956 29959 29962 29965 29968 29971 29974 29977 29980 29983 29986 29989 29992 29995 29998 30001 30003 30006 30009 30012 30015 30018 30021 30024 30027 30029 30032 30035 30038 30041 30043 30046 30049 30052 30055 30058 30061 30064 30067 30070 30073 30076 30079 30082 30085 30088 30091 30094 30097 30100 30103 30106 30109 30111 30114 30117 30120 30123 30126 30129 30132 30135 30138 30141 30144 30147 30150 30152 30154 30157 30160 30163 30166 30169 30171 30174 30176 30179 30182 30185 30188 30191 30194 30197 30200 30203 30206 30209 30211 30214 30217 30220 30223 30226 30229 30232 30234 30237 30240 30243 30246 30249 30252 30255 30258 30261 30264 30267 30270 30273 30276 30279 30281 30283 30286 30289 30292 30295 30298 30301 30304 30307 30310 30313 30316 30319 30321 30324 30327 30330 30333 30336 30339 30342 30345 30348 30351 30354 30357 30360 30363 30366 30369 30371 30374 30377 30380 30383 30386 30389 30392 30394 30397 30400 30403 30406 30409 30412 30415 30418 30421 30424 30426 30428 30431 30434 30437 30440 30443 30446 30449 30452 30455 30458 30461 30464 30467 30470 30473 30476 30479 30482 30485 30488 30491 30494 30497 30500 30503 30506 30509 30512 30515 30518 30520 30523 30526 30529 30532 30535 30537 30540 30543 30546 30549 30552 30555 30558 30561 30564 30567 30569 30572 30575 30578 30581 30583 30586 30589 30592 30595 30598 30601 30604 30607 30610 30613 30615 30618 30620 30623 30626 30629 30632 30635 30638 30641 30644 30647 30650 30653 30656 30659 30662 30665 30668 30671 30674 30677 30680 30683 30686 30689 30692 30695 30698 30701 30704 30707 30710 30713 30715 30718 30721 30724 30727 30730 30732 30735 30738 30741 30744 30747 30750 30753 30756 30759 30762 30765 30768 30771 30774 30777 30780 30783 30786 30788 30791 30794 30796 30799 30802 30805 30807 30810 30813 30816 30819 30822 30824 30827 30830 30833 30836 30839 30842 30845 30848 30851 30854 30856 30859 30862 30865 30868 30871 30874 30876 30879 30882 30885 30888 30891 30893 30895 30898 30901 30903 30906 30909 30911 30914 30917 30920 30923 30926 30929 30932 30935 30938 30941 30943 30946 30949 30951 30954 30957 30959 30962 30965 30967 30970 30973 30975 30978 30981 30983 30986 30989 30992 30995 30998 31001 31003 31006 31009 31012 31015 31018 31021 31024 31027 31030 31033 31036 31038 31041 31044 31047 31050 31053 31056 31059 31061 31064 31067 31070 31073 31075 31078 31081 31084 31086 31089 31092 31095 31098 31101 31104 31107 31110 31113 31116 31119 31121 31124 31127 31130 31133 31136 31139 31142 31145 31148 31151 31154 31157 31160 31163 31166 31169 31172 31175 31178 31181 31184 31187 31190 31193 31195 31198 31201 31204 31207 31210 31212 31215 31218 31221 31224 31227 31230 31233 31236 31239 31242 31245 31248 31251 31254 31256 31259 31262 31264 31267 31269 31272 31275 31278 31281 31283 31286 31288 31290 31293 31295 31298 31301 31304 31307 31310 31313 31316 31318 31321 31323 31326 31329 31332 31335 31338 31341 31343 31346 31349 31352 31355 31358 31361 31363 31366 31369 31372 31375 31377 31380 31383 31386 31389 31392 31394 31397 31400 31402 31405 31408 31411 31414 31416 31419 31422 31425 31428 31430 31433 31436 31439 31442 31445 31448 31450 31453 31456 31459 31462 31465 31468 31471 31474 31477 31479 31482 31485 31488 31491 31494 31497 31499 31502 31505 31508 31511 31513 31516 31519 31522 31525 31528 31531 31534 31537 31540 31543 31546 31549 31552 31555 31558 31561 31563 31566 31569 31572 31574 31577 31580 31582 31585 31588 31591 31594 31597 31600 31603 31606 31609 31612 31615 31618 31621 31624 31627 31630 31632 31635 31637 31640 31643 31646 31649 31652 31655 31658 31661 31664 31667 31670 31673 31676 31679 31682 31685 31688 31691 31694 31697 31700 31703 31706 31709 31712 31715 31717 31720 31723 31725 31728 31731 31734 31737 31740 31743 31746 31749 31752 31755 31757 31760 31763 31766 31769 31771 31774 31777 31780 31783 31785 31788 31791 31794 31797 31800 31803 31806 31809 31812 31814 31817 31820 31823 31826 31829 31832 31835 31838 31841 31844 31847 31850 31853 31856 31859 31862 31865 31868 31871 31874 31877 31880 31883 31886 31889 31892 31895 31898 
</DataArray>
<DataArray type="UInt32" Name="types" format="ascii">
5 5 5 5 5 3 5 5 5 5 5 5 5 3 5 5 5 5 3 5 5 3 5 5 5 5 3 5 5 5 5 3 5 5 5 5 5 5 5 5 5 5 5 5 5 3 5 5 3 5 5 5 5 5 3 5 5 5 5 5 5 5 3 5 5 5 5 3 5 5 5 5 5 5 5 5 5 3 5 5 3 5 5 3 5 5 5 5 3 5 5 5 5 5 5 5 3 3 3 5 5 3 5 5 5 5 5 3 5 5 5 5 5 5 5 5 5 5 5 5 5 3 5 5 5 3 5 5 5 5 5 5 3 5 5 5 5 5 5 5 5 5 5 5 5 5 5 5 5 5 5 5 5 5 5 5 5 5 3 5 5 5 3 5 5 3 5 5 5 5 5 5 5 5 5 5 5 3 5 5 5 5 5 5 5 5 3 5 5 5 5 5 5 5 5 3 5 5 5 5 5 5 5 5 5 3 5 5 5 5 5 5 5 5 5 5 5 5 5 5 5 5 5 5 5 5 5 5 5 3 5 5 5 3 5 3 5 3 5 5 3 5 5 5 3 5 3 5 3 5 3 3 5 3 5 5 3 5 3 5 5 5 3 5 3 3 5 5 3 5 5 5 3 5 3 3 3 5 3 5 5 5 3 5 3 3 3 5 5 3 3 5 5 5 5 3 5 3 5 5 3 5 5 5 3 5 3 3 3 5 5 5 3 5 3 3 3 3 5 5 5 3 3 5 5 3 3 3 5 3 5 5 5 5 3 5 5 5 5 5 5 5 3 5 5 5 5 5 5 3 3 5 5 5 3 5 5 5 3 5 3 5 3 3 5 5 5 5 3 5 5 3 5 5 5 5 3 5 3 5 5 5 5 5 3 3 5 5 5 5 5 5 5 5 3 5 5 5 3 5 5 3 5 3 5 5 5 5 5 5 5 5 5 5 5 3 5 3 5 3 5 5 5 3 5 3 5 3 5 5 5 5 5 5 3 5 3 5 5 5 3 5 5 5 3 5 3 3 5 5 5 5 3 5 5 5 5 3 3 5 5 3 5 3 5 3 3 5 5 5 3 5 5 5 5 3 5 5 5 5 5 5 5 5 5 5 5 3 5 5 5 5 3 5 5 5 3 5 3 3 3 5 5 5 3 3 5 3 5 5 3 5 5 5 5 3 5 5 5 5 5 5 5 5 5 5 5 3 3 5 5 3 5 5 5 3 5 5 5 5 5 5 3 5 5 5 3 5 5 5 3 5 5 5 5 5 5 5 5 5 5 5 3 5 5 5 3 5 5 5 5 5 5 5 3 5 5 5 5 5 3 5 5 5 5 5 5 5 5 5 5 5 5 5 5 5 5 5 5 5 3 5 5 5 5 3 5 5 3 5 5 5 5 5 5 5 3 5 5 5 5 5 5 5 5 3 5 3 5 5 3 5 5 5 3 5 5 3 5 5 5 3 5 3 5 5 3 5 3 5 5 5 5 5 5 5 5 5 5 5 5 5 5 5 5 5 5 5 5 5 5 3 5 3 5 3 5 5 5 5 5 5 5 5 5 5 5 5 5 5 5 3 5 5 5 5 5 5 5 5 5 3 5 5 5 5 5 5 5 5 5 5 5 5 5 5 5 5 5 5 5 5 5 5 5 5 5 5 5 5 5 3 5 5 3 5 5 5 3 3 5 3 5 5 5 5 5 3 5 5 5 5 5 3 5 5 5 5 5 5 5 5 5 5 5 5 5 5 5 5 5 5 5 5 5 5 5 5 5 5 5 5 5 5 5 5 5 5 5 5 5 5 5 5 5 5 5 5 5 5 5 5 5 3 5 5 5 5 5 5 5 5 5 5 5 5 5 5 5 3 5 5 5 5 3 5 5 5 5 5 5 5 5 5 5 5 5 5 5 5 5 5 5 5 5 5 5 5 5 5 5 5 3 5 5 3 5 3 3 3 3 5 5 3 5 5 5 5 5 5 5 5 5 5 5 5 5 5 5 5 5 3 5 5 3 5 3 5 5 5 5 3 5 3 5 5 5 5 3 5 5 5 3 5 5 5 5 5 3 5 3 5 5 3 3 5 3 5 5 5 5 5 5 5 5 5 5 5 3 5 5 5 3 5 5 5 3 5 5 3 3 3 5 5 5 5 5 5 5 5 5 5 5 3 5 5 5 5 5 5 5 5 3 3 3 5 5 5 5 5 5 5 5 3 3 5 5 5 3 5 5 3 5 5 5 5 5 5 5 5 5 5 5 3 5 5 5 5 5 5 5 5 3 5 5 5 5 5 5 5 5 5 5 3 5 3 3 3 5 5 5 5 5 5 5 3 3 5 3 5 5 5 5 5 3 5 3 3 5 5 5 3 5 3 5 5 5 5 3 5 5 5 5 5 5 5 5 5 5 5 5 5 5 5 5 5 3 5 5 5 3 5 5 5 5 5 3 5 5 5 5 5 5 3 5 3 5 5 5 5 5 5 5 5 3 5 5 5 3 5 5 5 5 5 5 5 5 5 5 5 5 5 5 5 5 5 5 5 5 5 5 5 5 5 3 3 3 5 5 5 5 3 5 5 5 5 3 5 5 5 5 5 5 5 3 5 5 5 5 5 5 5 5 3 5 5 5 5 5 5 5 5 5 5 5 5 3 5 5 5 5 5 5 3 5 5 5 5 5 5 5 5 3 5 5 5 3 5 5 5 5 5 5 5 5 5 5 5 5 3 5 5 5 5 5 5 5 5 5 5 5 5 5 5 5 5 5 5 5 5 5 5 5 5 5 5 5 5 5 5 5 5 5 5 5 5 5 5 5 5 5 5 5 5 5 5 5 3 5 5 5 5 5 5 5 5 5 5 5 5 5 5 5 5 5 5 5 5 5 5 5 5 3 5 5 5 5 5 5 5 5 5 5 3 5 5 3 5 5 5 5 5 5 5 5 5 3 5 3 5 5 5 5 3 5 5 3 5 3 5 5 5 5 5 3 5 5 5 5 5 5 5 5 3 5 5 5 5 5 5 5 5 5 5 5 5 5 5 3 5 3 3 5 5 5 5 5 3 5 5 5 5 5 5 5 5 5 5 5 5 5 5 5 3 5 5 5 5 5 5 5 5 5 5 5 5 5 5 5 5 3 5 5 5 5 5 3 3 5 5 3 5 5 5 5 5 5 5 5 5 5 3 5 5 5 5 5 5 5 5 5 3 5 3 5 5 5 5 5 3 5 5 5 5 3 5 5 5 3 5 5 5 3 5 5 3 5 5 5 5 5 5 5 5 5 5 5 5 5 5 5 5 3 5 5 5 5 5 5 5 3 5 5 5 5 5 5 5 5 5 5 5 5 5 5 5 5 5 5 5 5 5 5 5 5 5 5 5 3 5 5 5 5 3 5 5 5 3 5 5 5 5 5 5 5 5 5 3 5 3 5 5 5 5 5 5 5 5 5 5 5 5 5 5 5 5 5 5 3 3 5 5 5 3 5 5 3 5 5 3 5 5 5 3 5 5 3 5 5 5 5 5 5 5 5 5 5 5 5 5 5 5 5 5 5 5 5 3 5 3 5 5 5 5 5 5 5 5 5 5 5 3 5 3 5 5 5 3 5 5 5 5 5 3 5 5 5 5 5 5 3 5 5 5 5 5 5 5 5 5 5 5 3 5 5 5 5 5 5 5 5 3 5 5 5 3 5 5 3 5 5 5 5 5 3 5 5 5 5 5 5 5 5 5 3 5 5 3 5 3 5 3 3 3 5 3 5 5 5 5 5 5 3 5 5 5 5 5 5 3 5 5 5 5 5 5 5 3 5 5 5 5 3 5 5 5 5 5 3 5 3 5 5 5 5 5 5 5 5 5 5 3 5 5 5 5 5 5 5 3 5 5 5 5 5 5 5 3 5 3 5 5 5 5 5 5 5 5 3 5 5 5 3 3 5 5 5 5 5 3 3 5 3 5 5 3 5 5 3 5 5 5 5 5 5 5 5 3 5 5 5 5 5 3 5 5 5 5 3 5 5 3 5 5 5 5 5 5 5 5 5 5 5 5 5 5 5 5 5 5 5 5 5 5 5 5 5 5 5 5 5 5 5 5 5 5 5 5 5 5 5 5 5 3 5 5 3 5 5 5 5 5 3 5 5 5 5 3 5 5 5 5 5 5 5 5 5 5 5 5 5 5 5 5 5 5 5 5 5 5 5 5 3 5 5 5 3 5 5 5 5 5 5 3 5 5 5 5 5 5 5 5 5 5 5 3 5 3 3 5 5 3 5 5 5 5 5 5 5 5 5 5 5 3 5 5 3 5 5 5 5 5 5 5 5 5 5 5 5 5 5 5 3 5 5 5 5 5 5 5 3 5 3 5 5 5 5 3 5 3 5 5 5 5 5 5 5 5 5 3 5 5 5 5 5 5 5 5 5 5 5 5 5 5 5 5 5 3 5 5 5 5 5 5 5 5 5 5 5 5 5 5 5 5 5 5 5 5 5 5 5 5 5 3 3 5 5 5 5 5 5 5 5 5 5 5 3 5 5 5 5 3 5 5 5 5 3 5 5 5 5 5 5 5 5 3 5 5 5 5 5 5 5 5 5 3 5 5 5 5 5 5 5 5 5 5 5 5 5 5 5 5 5 5 5 5 3 5 5 5 5 5 5 5 5 5 5 5 5 5 5 3 5 3 5 5 5 5 5 5 5 5 3 5 5 3 5 5 5 5 5 5 5 5 5 5 5 5 5 5 5 5 5 5 5 5 5 5 5 5 5 5 5 5 5 5 5 5 5 5 5 5 3 5 5 3 5 5 5 5 3 5 3 5 5 3 5 3 5 5 5 5 5 3 5 5 5 5 5 5 5 5 5 5 5 5 3 5 5 5 3 5 5 5 5 5 5 5 5 5 3 5 5 5 5 3 3 5 5 5 5 5 5 5 5 3 5 5 5 5 5 3 5 5 5 3 5 5 5 3 5 5 5 5 3 5 5 5 5 5 5 5 5 5 5 5 5 5 5 3 5 5 5 5 5 5 3 5 3 3 5 3 5 3 5 5 5 5 3 5 5 5 5 3 5 5 5 5 5 5 5 5 5 3 5 5 5 5 5 5 5 5 5 5 5 5 5 5 3 5 5 5 3 5 5 5 3 5 3 5 5 5 5 5 5 5 5 5 5 5 5 5 5 5 5 3 5 5 5 5 5 5 3 5 5 5 5 5 5 5 5 5 5 5 5 5 5 5 5 5 5 3 5 5 5 5 5 5 5 5 5 5 5 5 5 5 5 5 5 5 5 5 5 5 5 5 5 5 5 5 5 5 5 5 5 5 3 5 5 5 5 3 5 5 5 5 5 5 5 3 5 5 5 5 5 5 5 5 5 3 5 5 3 5 5 5 5 5 3 5 5 5 3 5 5 3 5 5 5 5 5 5 5 5 5 5 5 5 5 5 5 5 5 5 5 5 3 5 5 5 5 5 5 5 5 5 5 3 3 5 3 5 5 5 5 5 3 5 5 5 5 3 5 5 5 5 5 3 5 3 5 5 3 5 5 5 5 5 5 5 5 3 5 5 5 5 5 5 3 5 5 5 5 5 5 3 5 5 5 5 3 5 5 3 5 3 5 5 3 5 5 5 5 5 5 3 5 5 5 5 3 5 5 5 5 5 5 5 5 3 3 5 5 5 5 5 5 5 5 3 5 5 5 5 5 5 3 5 5 5 5 5 5 5 3 5 5 5 3 5 5 5 5 5 5 5 5 5 5 5 5 3 5 5 5 5 3 5 5 3 5 5 5 5 3 5 5 5 3 3 5 5 5 3 5 5 5 3 5 5 5 5 5 5 5 5 5 3 5 5 5 3 5 5 5 5 5 5 5 5 5 5 5 5 3 5 3 5 5 3 5 5 3 5 5 5 5 5 5 5 3 5 5 5 5 5 3 5 3 5 5 5 3 3 5 3 3 5 3 5 5 5 5 5 5 3 5 3 5 5 5 5 5 5 5 5 5 5 5 5 5 3 5 5 3 5 3 5 5 3 5 5 5 3 3 5 5 3 5 5 5 5 5 5 5 5 5 5 5 5 5 5 5 5 5 5 5 5 5 5 5 3 3 5 3 5 3 5 5 3 3 5 5 3 5 5 3 5 5 3 5 3 5 5 5 5 3 5 5 5 5 3 5 3 3 5 3 5 5 3 3 5 5 5 3 5 5 5 5 3 3 5 5 5 5 5 3 5 5 5 5 5 5 5 5 5 5 5 3 5 3 5 3 5 5 3 5 3 5 5 5 5 5 5 5 5 3 5 5 3 5 5 5 5 3 5 5 5 5 5 5 5 5 5 5 5 5 3 5 5 5 5 5 5 5 5 5 5 5 3 5 5 5 5 5 5 3 5 3 5 5 3 5 5 5 5 5 5 5 5 5 5 5 5 5 5 5 5 5 3 3 5 5 5 3 5 5 3 5 5 5 5 5 5 5 5 5 5 5 5 5 5 5 5 5 5 5 5 5 5 5 5 5 3 3 5 5 5 5 5 5 5 5 5 5 5 3 5 5 5 5 5 5 5 5 5 5 5 5 5 5 5 5 5 5 5 5 5 5 5 5 5 5 5 5 5 5 5 5 5 3 5 5 5 5 5 3 5 5 3 5 5 3 3 5 5 5 5 5 5 5 5 5 5 5 5 5 3 5 5 3 5 5 5 5 5 5 3 5 5 3 5 5 5 5 5 5 5 5 5 5 5 5 5 3 5 5 5 5 5 5 5 3 5 5 5 5 5 5 5 5 5 5 5 5 3 5 5 3 5 5 5 5 5 5 5 5 5 5 5 5 5 5 5 5 5 5 5 5 3 5 5 3 5 3 5 5 5 3 5 5 3 5 3 5 5 5 3 5 5 5 5 3 5 5 5 5 5 5 5 3 5 5 5 3 5 5 5 5 5 5 5 5 5 5 5 5 3 5 5 5 5 5 5 5 5 3 5 5 5 5 5 5 5 5 5 5 5 3 5 5 5 5 5 5 5 5 5 5 5 5 5 5 5 5 5 5 5 3 3 5 5 5 3 5 5 5 5 5 5 5 5 5 5 5 5 3 5 5 5 5 5 5 5 5 5 3 5 5 5 5 5 5 5 5 5 5 5 5 5 5 5 5 3 5 3 5 5 5 5 5 3 5 5 5 5 3 5 5 5 3 5 5 5 3 5 5 5 5 5 5 5 5 5 3 5 5 5 3 5 5 3 5 5 5 5 5 5 3 5 5 5 5 5 5 5 5 3 5 5 5 3 5 5 5 5 5 5 5 5 5 5 5 5 5 5 5 5 5 5 5 5 5 5 5 5 5 5 5 3 5 5 5 5 5 5 5 3 5 5 5 5 5 5 5 5 5 5 5 5 5 5 5 5 5 5 5 5 5 5 5 5 5 3 5 3 5 5 5 5 5 5 3 5 5 5 3 5 5 3 5 5 5 5 5 5 5 5 5 5 5 5 3 5 5 5 5 5 3 5 5 5 5 5 5 5 5 5 5 5 5 5 3 5 5 5 3 5 5 5 5 5 5 5 5 5 5 5 5 3 3 5 5 5 5 3 5 5 5 5 5 5 5 5 5 3 3 5 5 5 5 5 3 5 5 5 5 5 3 5 5 5 5 5 3 5 3 5 5 5 5 3 5 3 5 3 3 5 5 5 5 5 5 5 3 3 5 5 5 5 5 5 3 3 3 5 3 3 5 5 5 3 5 5 5 5 5 3 3 3 5 3 5 5 5 3 5 3 3 5 5 5 5 5 5 5 3 3 5 5 3 3 3 5 5 5 5 5 5 5 5 5 5 5 5 5 5 5 5 5 5 5 5 5 5 5 5 5 5 5 5 5 5 5 5 5 5 5 5 5 5 5 5 3 5 5 5 5 5 5 5 5 5 5 3 5 5 5 5 5 5 3 5 5 3 5 5 5 5 5 5 5 5 5 5 5 5 5 3 5 3 5 5 5 5 3 5 5 5 3 5 5 3 5 5 5 3 5 5 3 5 5 5 5 5 3 5 5 5 5 5 5 5 3 5 5 5 5 5 5 5 3 5 5 3 5 5 5 5 3 5 3 5 5 5 5 5 3 5 5 5 5 3 5 5 5 5 5 5 3 3 5 5 5 5 5 3 5 5 3 5 5 5 5 5 5 5 5 5 5 3 5 5 5 5 5 5 5 5 5 5 5 5 5 5 5 5 5 5 3 5 5 5 5 5 5 3 5 5 5 5 5 5 5 3 3 5 5 5 5 3 5 5 5 5 5 5 5 3 5 5 3 5 3 3 3 5 5 5 5 5 5 3 5 5 5 5 5 3 5 5 5 5 3 5 5 5 3 5 5 5 3 5 5 5 5 5 5 5 5 5 5 5 5 5 5 5 5 5 5 5 5 5 5 5 5 5 3 5 5 5 5 5 5 5 3 5 3 5 5 5 5 5 5 3 5 5 3 5 5 5 3 5 5 3 5 5 5 5 5 3 5 5 5 3 3 5 5 5 5 5 5 5 5 5 5 5 5 3 5 5 5 5 5 5 5 5 5 3 5 5 5 5 5 3 3 5 5 5 5 5 5 5 5 5 3 5 5 5 5 5 5 5 5 3 5 5 5 5 5 5 5 5 5 5 5 5 5 5 5 5 5 5 3 5 5 5 5 3 5 3 5 3 5 5 5 5 5 5 5 5 5 5 5 5 5 5 5 5 5 3 5 5 5 5 5 3 5 5 5 3 3 5 5 5 5 5 3 5 5 5 5 3 5 5 5 5 5 5 5 5 3 5 5 5 5 5 5 5 3 5 5 5 5 5 5 5 5 5 3 5 5 5 5 5 5 5 5 5 5 5 5 5 5 5 5 5 5 3 5 5 5 5 5 5 5 5 5 5 5 5 5 3 5 5 5 5 5 5 3 5 5 3 5 5 3 5 5 5 5 5 5 5 5 5 5 5 5 5 5 5 5 5 5 5 5 5 5 5 5 5 5 3 5 3 5 3 3 5 5 5 3 5 5 5 5 5 5 5 5 5 3 3 5 3 5 5 5 5 5 5 5 5 5 5 5 5 5 5 3 5 3 3 5 3 5 5 5 5 5 5 5 5 5 3 3 5 5 5 5 5 5 5 5 5 5 5 5 5 5 5 5 5 5 5 5 5 5 3 5 5 5 5 5 3 5 5 5 5 5 3 5 5 5 3 5 5 5 5 5 5 5 5 5 3 5 5 5 5 3 5 5 5 5 5 5 3 5 5 5 5 5 5 5 3 5 5 5 5 3 5 5 5 5 5 5 5 5 5 5 3 5 5 5 5 3 5 5 5 3 5 5 5 5 5 3 5 5 5 5 5 5 5 5 5 5 5 5 5 5 3 3 5 5 3 5 5 5 5 5 5 5 3 5 5 5 5 5 5 3 5 5 5 5 5 5 5 5 5 5 5 5 5 5 5 5 5 5 5 5 5 5 5 3 5 5 5 5 5 5 5 5 3 5 5 5 5 3 5 5 5 5 5 3 5 3 5 3 5 5 5 5 5 5 5 3 5 5 5 3 5 5 5 5 5 3 5 5 5 5 5 3 5 3 5 5 3 5 3 5 5 5 5 5 3 5 5 5 3 5 5 5 5 5 5 5 5 5 5 3 5 5 5 5 5 5 5 5 5 5 5 5 5 5 5 5 5 5 5 5 5 5 3 5 5 5 5 5 5 5 5 5 5 5 5 5 5 5 5 5 5 3 5 5 5 3 5 5 5 5 5 5 3 5 5 5 3 3 5 3 5 3 3 5 3 5 5 3 5 5 3 3 5 5 5 5 5 5 5 5 3 5 3 5 5 5 5 5 5 5 5 5 5 5 5 5 5 5 5 5 5 5 5 5 5 3 5 5 5 5 5 5 5 5 3 5 5 3 5 5 3 3 5 5 3 5 5 5 5 5 5 5 5 5 5 5 5 5 5 5 5 5 5 5 5 5 5 5 5 5 5 5 5 5 5 5 5 5 5 5 5 5 5 5 3 5 3 5 5 5 5 5 5 5 5 5 5 5 5 5 5 5 5 5 5 5 5 5 5 5 5 5 5 5 5 5 5 5 5 5 5 5 5 5 5 5 5 3 5 5 3 5 5 5 5 5 3 5 3 5 5 3 5 5 5 5 5 5 3 5 5 5 5 5 5 5 5 5 5 5 3 5 5 3 3 5 3 5 5 3 5 5 5 5 3 5 5 5 5 5 5 5 5 5 3 5 3 5 5 5 5 5 5 5 3 5 3 5 5 5 5 5 5 5 5 5 3 5 3 5 5 5 5 5 5 5 5 5 5 3 5 5 5 3 5 5 3 5 5 3 5 5 5 5 3 5 5 5 3 5 5 5 5 5 5 5 5 5 5 5 5 5 5 3 5 5 5 5 5 5 3 5 3 5 3 5 5 5 3 5 5 5 5 5 5 5 5 3 5 5 5 5 5 3 5 5 3 5 5 5 5 5 5 5 5 5 3 5 5 5 3 5 5 5 5 5 5 3 5 5 5 5 5 5 5 5 5 5 5 5 5 5 5 5 5 5 5 5 5 5 5 5 5 5 5 5 5 5 5 3 5 5 5 5 5 3 5 5 3 3 5 5 5 5 3 5 5 5 5 5 3 5 5 5 5 5 5 5 5 5 5 5 5 5 5 5 5 3 5 5 5 5 5 5 5 5 3 3 5 5 5 5 5 5 3 5 5 5 5 3 5 5 5 5 5 5 5 5 5 5 5 5 5 5 5 5 5 5 5 5 5 5 5 5 3 5 5 3 5 5 5 5 5 5 5 5 5 5 5 5 5 5 5 5 5 5 5 5 5 5 5 5 5 5 5 3 5 3 5 5 5 5 5 3 5 5 5 5 5 5 5 5 5 5 5 5 5 5 5 5 5 5 5 5 3 3 5 3 5 5 5 5 5 5 5 5 5 5 5 5 5 5 5 5 3 5 5 5 3 5 5 5 5 5 5 5 5 5 5 5 5 5 3 5 5 5 5 5 5 5 5 5 5 5 5 5 5 5 5 5 5 5 5 5 5 3 5 5 5 5 5 5 5 5 5 5 5 5 5 3 5 3 5 5 3 3 5 5 5 5 5 5 5 5 5 5 5 5 5 5 5 5 5 5 5 5 3 5 5 3 5 5 5 3 5 5 5 5 5 5 3 5 5 5 3 5 5 5 5 5 5 5 5 3 5 5 3 5 5 3 5 3 5 5 5 5 3 3 5 5 3 3 5 5 3 5 5 5 5 3 5 5 3 3 5 3 5 5 5 5 5 5 5 5 5 5 5 5 5 5 5 5 5 5 5 5 3 5 5 5 5 3 5 5 5 5 3 3 5 5 5 5 5 5 5 5 5 5 5 5 3 5 5 5 3 5 5 5 5 5 5 5 3 5 5 5 3 5 5 3 3 5 5 5 3 5 5 5 3 5 5 5 5 5 5 5 5 5 5 5 5 5 5 5 5 5 5 3 5 5 5 5 5 5 5 5 5 5 5 5 5 5 5 5 5 5 3 3 5 5 5 5 5 3 3 5 3 5 5 5 5 5 5 5 5 5 3 5 5 5 3 5 5 5 5 5 5 5 5 5 5 5 5 5 5 3 5 5 5 5 5 5 5 3 5 5 3 5 5 5 5 5 5 3 5 5 5 5 3 5 5 5 5 5 5 3 5 5 5 5 5 5 5 5 3 3 5 5 5 3 3 5 5 5 5 5 3 5 5 5 5 5 5 3 5 5 5 5 3 5 5 5 5 5 3 5 5 5 5 3 5 5 5 5 5 5 5 5 5 5 5 5 5 5 5 5 5 5 5 5 5 5 5 5 5 3 5 5 5 5 3 5 3 5 3 5 5 3 5 5 3 5 5 3 5 5 5 5 5 5 3 5 5 3 5 3 3 3 5 5 3 5 3 3 5 5 5 3 5 3 5 5 5 5 5 5 3 5 5 5 3 5 5 5 5 5 5 5 3 5 5 5 3 5 3 3 5 5 5 5 5 5 5 3 5 5 5 5 5 5 5 5 3 3 5 5 5 5 3 5 5 3 5 5 5 3 5 5 5 3 3 5 5 5 5 3 5 5 5 5 5 3 3 5 5 5 5 5 5 5 5 5 5 5 5 5 5 5 5 5 5 5 5 5 5 5 5 5 5 5 5 5 5 5 3 5 5 5 3 5 5 5 5 5 5 5 5 5 5 5 5 5 5 5 3 5 3 3 5 5 3 5 5 5 5 5 5 5 5 5 5 5 5 5 5 5 5 5 5 5 5 5 5 5 3 5 5 3 3 5 5 5 5 5 5 5 3 5 5 5 3 5 5 5 5 3 3 5 5 5 5 5 5 5 3 5 5 5 5 3 5 5 5 5 3 5 5 5 5 5 5 5 5 5 5 5 5 5 5 5 5 5 5 5 3 5 5 5 5 5 5 5 5 5 5 5 5 5 5 5 5 3 5 5 5 3 5 5 5 5 5 5 5 5 5 3 5 5 5 5 5 5 5 5 5 5 5 5 5 5 5 5 5 5 5 5 5 3 5 5 5 5 5 5 5 5 5 5 5 5 5 5 5 5 5 3 5 5 5 5 5 3 5 5 5 5 5 5 5 5 5 5 5 5 5 5 5 5 5 5 5 5 5 5 5 5 5 5 5 3 5 5 3 5 5 5 3 5 5 5 5 5 5 5 5 5 5 5 5 5 5 5 3 5 3 5 5 5 5 5 5 5 5 5 3 5 5 5 5 5 5 5 5 5 3 3 5 5 5 5 5 5 5 5 5 5 5 5 5 5 5 5 5 5 5 5 5 5 5 5 5 5 5 5 5 5 5 5 5 5 5 5 5 5 5 5 5 5 5 5 5 5 5 5 5 5 5 5 5 5 5 5 5 5 5 5 5 5 5 5 5 5 5 5 5 5 5 3 5 5 5 5 5 5 3 5 5 5 5 5 5 5 5 5 3 5 3 5 5 5 5 5 5 5 5 5 5 5 5 5 5 5 5 5 5 5 5 5 5 5 5 5 5 5 5 5 5 5 5 5 5 3 5 5 5 3 3 5 5 5 5 5 5 5 5 5 5 5 5 5 5 5 5 5 5 5 5 5 5 3 3 5 5 5 5 5 5 5 5 3 5 5 5 5 5 5 3 5 5 5 5 5 3 5 5 5 5 3 5 5 5 3 5 5 5 3 5 5 3 5 5 5 5 5 5 5 5 5 5 5 5 5 3 5 5 5 5 5 5 5 5 3 5 5 5 5 5 5 5 5 5 5 5 3 5 5 5 3 5 5 5 5 3 5 5 5 5 5 5 5 5 3 5 3 5 5 3 5 5 5 5 5 3 5 5 5 5 5 5 5 5 5 5 5 5 3 5 5 5 5 5 5 5 5 5 3 5 5 5 5 5 5 3 5 5 5 5 5 5 5 3 5 5 5 5 5 3 5 5 5 5 5 5 5 5 5 5 5 5 5 5 5 5 5 5 5 5 5 5 5 5 5 5 5 5 5 5 5 5 5 5 5 5 5 5 5 5 5 5 5 5 5 5 5 3 5 3 5 5 5 5 5 5 5 5 5 5 5 5 5 5 3 5 5 5 5 5 5 5 5 5 5 5 5 5 5 5 3 5 5 3 5 3 5 5 5 5 5 3 5 5 5 5 5 5 5 5 5 5 5 5 5 5 5 5 5 5 5 5 3 5 5 5 5 5 5 5 5 5 5 5 3 5 3 5 5 3 5 3 5 5 5 5 5 5 5 3 5 3 5 5 5 5 3 5 5 5 5 3 3 5 5 3 5 5 5 5 5 5 5 5 5 5 5 5 5 5 5 5 3 5 5 5 5 5 5 5 5 5 5 5 5 5 5 3 5 3 5 5 5 5 5 5 5 3 5 3 5 5 5 5 5 5 5 5 5 3 3 5 5 5 3 5 5 5 5 3 5 3 5 5 3 5 3 3 3 5 5 3 5 5 5 3 3 3 5 5 5 5 5 5 5 5 5 5 5 3 5 5 5 5 5 5 3 5 5 5 3 5 5 5 5 5 5 5 5 3 5 5 5 3 5 5 5 5 5 5 5 5 5 5 5 5 5 5 5 5 5 5 5 5 5 5 5 5 5 5 5 5 5 5 5 5 5 5 5 5 5 5 5 5 5 5 5 5 5 5 5 5 5 5 5 5 5 5 5 5 5 5 5 5 3 5 5 5 5 5 3 5 5 5 5 3 5 5 5 3 5 5 5 5 5 5 5 5 5 5 5 5 5 5 5 5 5 5 5 5 5 5 5 5 5 5 5 5 5 5 5 5 5 5 5 5 5 5 5 5 3 5 5 3 5 5 5 5 5 5 5 3 5 5 5 5 5 5 5 5 5 5 5 3 5 5 3 5 3 5 5 5 3 5 5 5 5 5 5 5 5 3 5 5 5 5 3 5 5 5 5 3 5 3 5 5 5 5 5 5 5 5 5 5 5 5 3 5 3 5 5 5 5 5 5 5 5 5 5 5 5 5 3 5 5 5 5 5 5 5 5 5 3 5 5 5 3 5 5 5 5 5 5 5 5 5 5 5 5 5 5 5 5 5 5 5 5 5 5 5 5 5 5 5 5 5 5 5 5 5 5 5 3 5 5 3 5 5 5 5 3 5 5 5 5 5 5 5 5 5 5 5 5 5 5 5 3 5 5 5 5 5 5 5 5 5 3 5 3 5 5 5 5 5 5 5 3 5 5 5 5 5 5 5 5 5 5 5 5 5 5 3 5 5 5 5 5 5 5 5 5 5 5 3 5 5 5 5 5 5 5 5 5 5 5 5 5 5 5 5 5 5 5 5 5 5 5 3 5 3 5 5 5 5 5 5 3 5 3 5 5 5 3 5 5 5 3 5 5 5 3 5 5 3 5 5 5 5 5 5 5 3 5 5 5 5 5 5 5 3 5 5 5 5 5 5 5 5 5 5 5 5 5 3 5 5 5 5 5 5 5 5 3 5 5 5 5 5 5 5 5 5 5 5 5 5 5 5 5 5 5 5 5 3 5 5 5 5 5 5 5 5 5 5 5 5 5 5 5 5 5 5 5 5 5 5 5 5 5 5 5 5 5 5 5 5 5 5 5 5 5 5 5 5 5 5 5 5 5 5 5 5 5 5 3 5 3 5 5 5 3 5 5 3 3 5 3 5 5 5 5 5 5 5 5 5 5 5 5 5 5 5 5 5 5 5 5 5 5 5 5 5 5 5 5 5 5 5 5 5 5 5 3 5 5 5 5 3 5 5 3 5 5 5 3 5 5 5 5 3 5 3 3 5 5 5 5 3 5 5 5 3 5 5 5 3 5 5 5 5 5 5 3 5 5 5 5 5 5 5 5 5 5 5 5 5 5 5 5 5 5 5 5 3 5 5 5 5 5 5 5 5 5 5 5 5 5 5 5 5 5 5 3 5 5 3 5 5 3 5 5 5 5 5 5 5 5 5 5 5 3 5 5 5 5 3 5 5 5 5 3 5 5 5 3 5 5 5 5 5 5 5 5 5 5 5 5 5 5 5 5 5 5 5 5 5 5 5 5 5 3 5 5 5 5 5 5 5 5 3 5 5 5 3 5 5 5 5 5 5 5 5 5 5 5 5 5 5 5 5 5 5 5 5 5 5 5 5 3 5 5 5 3 5 5 5 5 5 5 5 5 3 5 5 3 5 5 5 5 3 5 5 5 5 5 5 5 3 5 3 5 5 3 5 5 3 3 5 5 5 5 5 5 5 5 5 5 5 5 5 5 5 5 5 5 5 5 5 3 5 5 5 5 3 5 5 5 5 5 5 5 5 5 5 5 5 5 3 5 5 3 5 5 5 5 5 5 5 5 5 5 5 5 5 5 5 5 5 5 5 5 5 5 5 5 5 5 5 5 5 5 5 5 5 5 5 5 5 5 5 5 5 5 5 5 5 5 5 5 5 5 5 5 5 5 5 5 5 5 5 5 5 5 5 5 5 5 5 5 5 5 5 5 5 5 5 5 5 5 5 5 5 5 5 5 5 5 5 5 5 5 5 5 5 5 5 5 5 5 5 5 5 5 5 5 5 5 5 5 5 5 5 5 5 5 5 5 5 5 5 5 5 5 5 5 5 5 5 5 3 5 5 5 5 5 5 5 3 5 5 5 5 5 5 5 5 5 3 5 3 5 5 5 3 5 5 3 5 5 5 5 5 5 5 5 5 5 5 5 5 5 5 5 5 5 5 5 5 5 5 5 5 5 5 5 5 5 5 5 5 5 5 5 5 3 5 5 3 3 5 5 3 5 5 3 5 5 5 3 5 5 5 5 5 5 5 5 5 3 5 5 5 5 5 5 3 5 5 5 5 5 5 5 5 5 5 5 5 5 5 5 5 5 5 5 5 5 5 5 5 5 5 5 5 5 5 5 3 5 5 5 5 5 5 5 5 5 5 5 5 5 5 5 5 5 5 5 5 5 5 5 5 5 5 5 5 5 5 5 5 5 5 5 5 5 5 5 5 5 5 5 5 5 5 3 5 3 5 5 5 5 3 5 5 5 5 3 5 5 5 5 3 5 5 5 5 5 5 5 5 3 5 5 3 5 3 5 5 5 5 3 5 5 3 3 5 5 5 5 5 5 3 5 5 5 5 5 5 5 5 5 5 3 3 5 5 5 5 5 3 5 5 3 5 5 5 5 3 5 5 3 5 5 5 5 5 5 5 5 5 5 5 5 5 5 5 5 5 5 5 5 5 5 5 5 5 5 5 5 5 3 5 3 5 5 5 5 5 5 5 5 5 5 5 5 5 3 5 5 5 5 3 3 5 5 5 5 5 5 5 5 5 5 5 5 5 5 5 5 5 5 5 5 5 5 5 5 5 5 5 5 5 5 5 5 5 5 5 5 5 5 5 5 5 5 3 5 5 5 3 5 5 5 5 5 5 5 5 5 5 5 5 5 5 5 5 5 5 5 5 3 5 5 3 5 5 5 5 5 5 5 5 5 3 5 5 5 5 5 3 5 5 5 5 5 3 5 3 5 5 5 5 5 5 5 5 5 5 5 5 5 3 5 5 5 3 3 5 5 5 5 5 5 5 5 3 5 5 3 5 5 3 3 5 5 5 5 5 3 5 5 5 5 5 5 5 3 5 5 3 3 5 5 5 5 5 5 3 3 5 5 5 3 5 5 5 5 5 5 5 3 5 5 5 5 5 5 5 5 5 5 5 5 5 5 5 5 5 5 5 5 5 5 5 5 5 5 3 5 5 5 5 5 5 5 3 5 5 5 5 5 5 5 5 5 5 5 3 5 5 5 5 5 5 5 5 3 5 5 5 5 5 5 5 5 5 5 5 5 5 5 5 5 3 5 5 5 3 5 5 5 5 5 3 5 5 5 5 5 5 5 5 5 5 5 5 5 5 3 5 5 5 5 3 5 5 3 5 5 5 5 5 3 5 5 5 5 5 5 5 5 5 5 5 5 5 5 3 5 3 5 5 5 3 5 3 5 3 5 5 5 5 5 5 3 3 5 5 5 5 5 5 3 5 3 5 5 5 5 5 5 5 5 5 5 5 5 5 5 5 5 5 3 5 5 5 3 3 5 5 5 5 5 3 5 5 3 3 5 5 5 5 5 5 5 5 5 5 5 5 5 5 5 5 5 5 5 5 5 5 5 5 5 5 5 5 5 5 5 5 5 5 5 5 5 5 5 5 5 5 5 5 3 5 5 3 3 3 5 5 5 5 5 5 3 5 5 5 5 5 5 5 5 5 3 5 5 5 3 5 5 5 5 5 5 5 5 5 5 5 5 5 5 5 5 5 5 5 5 3 5 5 5 5 3 5 5 5 5 5 5 5 5 5 5 5 5 5 5 5 5 5 5 5 5 5 5 5 5 5 5 5 5 5 5 5 5 5 5 3 5 3 5 5 5 5 5 5 5 5 3 5 5 5 3 5 3 5 5 5 5 5 5 5 5 3 5 5 5 5 3 5 5 5 5 3 5 5 5 5 5 5 5 3 5 5 5 5 3 5 5 5 5 5 5 5 5 5 5 5 5 5 5 5 5 5 5 5 5 5 5 5 5 5 5 5 5 5 5 5 5 5 5 5 5 5 5 5 5 5 5 5 5 5 5 3 5 5 5 5 3 3 5 5 3 3 5 5 5 5 5 5 5 5 5 5 5 5 5 5 5 5 5 5 5 3 5 5 5 3 3 5 5 5 5 5 5 5 5 5 5 5 5 5 5 5 5 5 5 5 5 5 5 5 5 5 5 5 3 5 5 5 5 5 5 5 3 5 5 5 5 5 5 5 5 5 5 5 5 5 5 5 3 5 5 5 5 5 5 5 5 3 5 3 3 5 5 5 5 5 5 5 5 5 5 5 5 3 5 5 5 5 5 5 5 5 5 5 5 5 5 5 5 5 5 5 3 5 5 5 3 5 5 5 5 5 5 5 5 3 5 5 5 5 5 5 5 5 5 5 5 5 5 5 5 3 5 5 5 3 5 5 5 5 5 5 5 5 5 5 5 5 5 5 5 5 5 5 5 5 5 5 5 5 5 5 5 5 5 5 5 5 5 3 5 3 5 5 5 5 5 5 5 5 3 5 5 5 5 5 5 5 5 5 3 5 5 3 5 5 5 5 5 3 5 5 5 5 3 5 5 5 5 3 5 5 5 3 5 3 5 5 3 5 5 5 5 5 5 5 5 5 5 5 5 5 5 3 5 5 3 5 3 5 5 5 3 5 5 3 5 5 5 5 3 5 3 5 5 5 5 5 5 3 5 3 5 5 5 5 5 3 5 5 5 5 3 5 5 5 5 5 5 3 5 5 5 5 5 5 5 5 5 5 5 5 5 5 5 5 5 5 5 5 5 5 5 5 5 5 5 5 5 5 5 5 5 3 3 5 5 5 5 5 5 5 5 5 5 3 5 5 3 3 5 3 5 5 5 5 5 5 5 3 5 5 5 5 5 5 5 5 5 5 5 5 3 5 5 5 5 3 5 5 5 5 5 5 5 5 5 5 5 5 3 5 5 5 5 5 5 5 5 5 5 5 5 5 5 5 5 5 3 5 5 5 5 5 3 5 5 5 3 5 5 5 5 5 5 3 5 3 5 5 5 3 5 5 5 5 5 5 5 5 5 3 5 5 3 5 5 5 5 5 5 5 3 5 5 5 5 5 5 5 5 5 5 5 5 5 3 5 5 3 5 5 5 5 5 5 3 5 5 5 5 5 5 3 5 5 5 5 5 5 5 3 5 5 5 5 5 5 5 5 5 5 5 5 5 5 5 5 5 5 5 5 5 5 3 5 5 5 5 5 5 5 5 5 5 3 5 5 5 5 3 3 5 5 5 5 3 5 5 5 5 5 5 5 5 5 3 5 5 5 5 5 5 5 5 5 5 5 3 5 5 5 3 5 5 5 3 5 5 5 5 5 5 5 5 5 5 5 5 3 5 5 5 5 5 3 5 5 3 5 5 5 5 5 5 5 5 5 5 5 5 5 5 3 5 5 5 5 5 5 5 3 5 5 5 3 5 5 5 5 5 3 5 5 5 5 5 5 5 5 5 3 5 5 5 5 5 5 5 5 3 5 5 5 5 5 3 5 5 5 5 5 5 5 3 5 5 5 5 5 5 5 5 5 5 5 5 5 5 5 5 5 5 5 5 5 5 5 5 5 5 5 5 5 5 5 5 5 5 5 5 5 5 5 5 5 5 5 5 5 5 5 5 3 5 5 5 5 5 5 5 3 5 5 5 5 5 5 5 5 5 5 5 5 5 5 5 5 5 5 5 5 5 5 3 3 5 5 3 3 5 5 5 5 5 5 5 3 5 5 5 5 5 5 5 5 5 5 5 5 5 5 3 5 5 5 5 5 5 5 5 3 5 5 3 5 5 5 3 5 5 5 5 5 5 5 5 5 5 5 5 5 5 5 5 5 5 5 5 5 5 5 5 5 5 5 5 3 5 5 5 5 5 5 5 5 3 5 5 5 5 5 5 3 3 5 5 5 5 3 5 5 3 5 5 3 5 5 5 5 5 5 3 5 5 5 5 5 5 5 5 3 5 5 5 5 5 5 5 5 5 5 5 3 5 5 3 5 5 5 5 5 5 5 3 5 5 5 3 5 3 5 3 5 5 5 5 5 5 5 5 5 5 5 5 5 5 5 5 5 3 5 3 5 5 5 5 5 5 5 5 5 5 3 5 5 5 5 5 5 5 3 5 5 5 3 5 3 3 5 5 3 5 5 5 5 3 5 5 5 3 5 5 5 3 5 3 3 5 5 5 5 5 5 3 5 5 5 5 5 5 5 5 3 3 3 5 3 5 5 3 3 5 5 3 5 5 5 5 5 5 5 5 5 5 5 3 5 5 5 5 5 5 5 5 5 5 5 5 5 3 3 5 5 5 5 3 5 5 5 3 5 5 5 5 5 3 3 5 5 5 3 5 5 5 5 5 5 5 5 5 5 5 5 5 5 5 3 5 5 5 3 5 5 5 3 5 5 5 5 5 5 3 5 5 5 5 5 3 5 5 5 5 5 5 5 5 3 5 5 5 5 5 5 5 5 5 3 5 5 5 5 3 5 3 5 5 3 5 3 5 5 5 5 5 5 3 5 3 3 5 5 5 5 5 5 5 5 3 5 3 5 3 5 3 5 5 5 5 5 5 5 5 5 5 5 3 5 5 5 3 5 5 5 5 5 5 5 5 3 5 5 5 5 5 5 5 5 5 3 5 5 5 5 3 5 5 3 5 5 5 5 5 5 5 5 5 3 5 5 5 3 5 5 5 5 5 5 5 5 5 5 5 5 5 5 5 5 5 5 5 3 5 5 5 5 5 5 5 5 5 5 3 5 5 5 5 5 5 5 5 5 5 5 5 5 5 5 5 5 5 5 5 5 5 5 5 5 5 5 5 5 5 5 5 5 5 5 5 5 5 5 5 5 5 5 5 5 3 3 5 5 5 5 5 5 5 5 5 5 5 5 5 3 3 5 5 5 3 5 5 3 5 5 5 3 5 5 5 3 5 5 5 5 5 5 5 5 3 5 5 3 5 3 3 5 5 5 5 5 5 3 5 3 3 3 5 5 3 5 5 3 3 5 5 5 5 5 5 5 5 5 5 5 5 5 5 5 5 5 5 5 5 5 3 5 5 5 5 5 5 5 5 5 3 5 5 5 5 5 5 5 3 3 5 5 5 5 5 5 5 5 5 5 5 5 5 5 5 5 5 5 5 5 5 5 5 3 5 3 5 5 5 5 5 5 5 3 5 5 5 3 3 5 5 3 5 5 5 5 3 5 5 5 3 5 5 5 3 5 5 5 5 5 5 5 5 5 3 3 5 5 5 5 5 3 5 5 3 3 3 5 5 5 5 5 3 5 5 5 5 5 5 5 5 5 3 5 3 5 5 5 5 5 5 5 5 5 5 5 5 5 5 5 5 5 5 5 5 5 5 5 5 3 5 5 5 5 3 3 5 5 5 3 5 5 5 5 5 5 5 5 5 5 5 5 5 5 5 5 3 5 5 5 3 5 5 3 5 5 5 5 5 5 5 5 5 5 5 5 5 3 5 5 3 5 5 5 3 5 3 5 3 5 3 3 3 5 5 5 5 5 5 5 5 3 5 5 5 5 5 5 5 5 3 5 5 3 5 5 5 5 5 5 5 5 5 5 5 5 5 5 5 5 5 5 5 5 5 3 5 5 5 5 5 5 5 5 5 5 3 5 3 5 5 3 5 3 5 3 5 5 3 5 3 5 5 3 5 5 5 3 5 5 5 5 5 5 5 5 5 5 5 5 5 5 5 5 5 5 5 5 5 5 5 5 5 5 5 5 5 5 5 5 5 5 5 5 5 5 5 5 5 5 5 5 5 5 5 5 5 5 5 5 5 5 5 5 5 5 5 5 5 3 5 5 3 5 5 5 5 5 5 3 3 5 5 5 5 5 5 5 5 5 5 5 5 5 5 5 5 5 5 3 5 5 5 3 5 5 5 5 5 5 5 5 5 5 5 5 5 5 5 5 3 5 5 5 5 5 5 5 3 5 5 5 5 5 5 5 5 3 5 3 5 5 5 5 5 5 5 5 5 5 5 5 5 5 5 5 3 5 5 5 5 5 5 5 3 5 5 5 5 3 5 5 5 5 5 5 5 3 5 5 3 3 5 5 3 5 5 5 5 5 5 3 5 5 5 5 5 5 5 5 5 3 5 5 3 5 5 3 5 5 3 5 5 5 5 5 3 5 5 5 5 5 5 5 5 3 5 5 5 5 5 5 5 3 5 5 5 5 5 5 5 5 5 5 5 5 3 5 5 5 5 5 5 5 3 3 5 3 5 3 5 5 5 5 5 5 5 5 5 5 5 5 5 5 5 3 5 3 5 5 5 5 5 5 5 5 3 5 3 5 3 5 3 5 3 5 5 3 5 5 5 5 5 3 5 5 5 5 5 5 5 5 3 5 5 5 5 5 3 5 5 3 5 3 3 5 5 5 5 5 5 5 5 3 5 5 5 5 5 5 5 5 5 5 5 5 5 3 5 5 5 5 5 5 5 3 5 5 5 3 5 5 5 5 5 5 5 5 5 5 5 5 5 5 5 5 5 3 5 5 5 5 5 5 5 3 5 5 3 5 5 5 5 5 5 5 5 5 5 5 5 5 5 5 3 5 5 5 5 3 5 5 5 5 5 5 5 5 5 5 5 5 5 5 5 5 5 5 5 5 5 5 5 5 5 3 5 5 5 5 5 5 3 5 5 5 5 5 5 5 5 5 3 3 5 5 5 3 5 3 5 5 5 5 5 5 5 5 5 5 5 5 5 5 5 3 5 5 5 5 5 5 5 5 5 5 5 5 3 3 5 5 5 5 5 5 5 5 3 5 5 3 5 5 3 3 5 5 5 5 5 5 5 3 5 5 5 5 5 5 5 5 5 3 5 5 5 3 5 5 5 5 5 3 5 5 5 5 5 5 5 5 5 5 5 5 3 5 5 5 3 5 5 5 3 5 5 5 5 5 5 5 5 5 5 5 5 5 5 5 5 5 5 5 5 5 5 5 5 5 5 5 5 5 5 5 5 3 5 5 5 5 5 5 5 5 5 5 5 5 5 5 5 5 5 5 5 5 5 5 5 5 3 5 3 5 5 3 5 5 5 5 5 5 5 5 5 3 5 5 5 5 5 5 5 5 5 5 5 5 5 5 3 5 5 5 5 3 5 5 5 3 5 5 5 5 5 5 5 5 5 5 5 5 5 5 5 5 5 5 5 5 5 5 5 5 5 5 5 5 5 5 5 5 5 5 5 5 5 5 5 5 5 5 5 5 5 5 5 5 5 5 5 5 5 5 5 5 5 5 5 5 5 5 5 5 5 5 5 5 5 5 5 5 5 5 5 5 5 5 5 5 5 5 5 5 5 5 5 5 5 5 5 5 5 5 5 5 5 5 5 5 5 5 5 5 5 5 5 5 5 5 5 5 5 5 5 5 5 5 5 5 5 5 5 5 5 5 5 5 5 5 5 5 5 5 5 5 5 5 5 5 5 5 5 5 5 5 5 5 5 5 5 5 5 5 5 5 5 5 5 5 5 5 5 5 5 5 5 5 5 5 5 5 5 5 5 5 5 5 5 5 5 5 5 5 5 5 5 5 5 3 5 5 5 5 5 5 5 5 5 5 5 5 5 5 5 5 3 5 5 5 5 5 5 5 5 3 5 5 5 5 3 5 5 5 5 5 5 5 5 5 5 5 5 5 5 5 5 5 5 5 5 5 5 3 5 5 5 5 5 5 5 5 5 5 5 5 5 3 3 5 5 5 5 5 3 5 3 5 5 5 5 5 5 5 5 5 5 5 3 5 5 5 5 5 5 5 3 5 5 5 5 5 5 5 5 5 5 5 5 5 5 5 3 3 5 5 5 5 5 5 5 5 5 5 5 5 3 5 5 5 5 5 5 5 5 5 5 5 5 5 5 5 5 3 5 5 5 5 5 5 5 3 5 5 5 5 5 5 5 5 5 5 3 3 5 5 5 5 5 5 5 5 5 5 5 5 5 5 5 5 5 5 5 5 5 5 5 5 5 5 5 5 5 5 3 5 5 5 5 5 3 5 5 5 5 5 5 5 5 5 5 3 5 5 5 5 3 5 5 5 5 5 5 5 5 5 5 3 5 3 5 5 5 5 5 5 5 5 5 5 5 5 5 5 5 5 5 5 5 5 5 5 5 5 5 5 5 5 5 5 5 3 5 5 5 5 5 3 5 5 5 5 5 5 5 5 5 5 5 5 5 5 5 5 5 5 3 5 5 3 5 5 5 3 5 5 5 5 5 3 5 5 5 5 5 5 5 5 5 5 3 5 5 5 5 5 5 3 5 5 5 5 5 3 3 5 5 3 5 5 3 5 5 5 5 5 5 5 5 5 5 3 5 5 3 5 5 3 5 5 3 5 5 3 5 5 3 5 5 5 5 5 5 3 5 5 5 5 5 5 5 5 5 5 5 3 5 5 5 5 5 5 5 3 5 5 5 5 3 5 5 5 3 5 5 5 5 5 5 5 5 5 5 5 3 5 5 5 5 5 5 5 5 5 5 5 5 5 5 5 5 5 5 5 5 5 5 5 5 3 5 5 5 5 5 3 5 5 5 5 5 5 5 5 5 5 5 5 5 5 3 5 5 3 5 3 5 5 5 5 3 5 3 3 5 3 5 5 5 5 5 5 5 3 5 3 5 5 5 5 5 5 3 5 5 5 5 5 5 3 5 5 5 5 3 5 5 5 5 5 3 5 5 3 5 5 5 5 3 5 5 5 5 3 5 5 5 5 5 5 3 5 5 5 5 5 5 5 5 5 3 5 5 5 5 5 5 3 5 5 5 5 3 5 5 5 5 5 5 5 5 5 5 5 5 5 5 5 5 3 5 5 5 3 5 5 3 5 5 5 5 5 5 5 5 5 5 5 5 5 5 5 5 3 5 3 5 5 5 5 5 5 5 5 5 5 5 5 5 5 5 5 5 5 5 5 5 5 5 5 5 5 3 5 5 3 5 5 5 5 5 5 5 5 5 5 3 5 5 5 5 3 5 5 5 5 3 5 5 5 5 5 5 5 5 5 3 5 5 5 5 5 5 5 5 5 5 5 5 5 5 5 5 5 5 5 5 5 5 5 5 5 5 5 5 
</DataArray>
</Cells>
<PointData Scalars="" Vectors="displacement," Tensors="">
<DataArray type="Float64" Name="displacement" NumberOfComponents="3" format="ascii">
-0.034997500466011446 -0.034998036453779427 0 -0.03263386342321891 -0.034384612423803043 0 -0.029503245246173516 -0.034995344163500378 0 -0.034997500466011446 -0.034998036453779427 0 -0.034449255428080923 -0.033732756681617508 0 -0.03263386342321891 -0.034384612423803043 0 -0.034997500466011446 -0.034998036453779427 0 -0.034449255428080923 -0.033732756681617508 0 -0.034998036984157224 -0.031405329535589596 0 -0.034449255428080923 -0.033732756681617508 0 -0.034998036984157224 -0.031405329535589596 0 -0.034672708139999384 -0.033274048165604933 0 -0.034998036984157224 -0.031405329535589596 0 -0.034672708139999384 -0.033274048165604933 0 -0.035119248227096188 -0.030754847619336619 0 -0.032846323860181457 -0.034096229945355425 0 -0.032443627716148539 -0.034106794784014294 0 -0.034672708139999384 -0.033274048165604933 0 -0.037845819710921914 -0.033699047852650717 0 -0.038089859305698422 -0.032079599660152648 0 -0.034672708139999384 -0.033274048165604933 0 -0.038089859305698422 -0.032079599660152648 0 -0.036736335735561731 -0.030866083573575627 0 -0.034449255428080923 -0.033732756681617508 0 -0.034672708139999384 -0.033274048165604933 0 -0.03263386342321891 -0.034384612423803043 0 -0.034672708139999384 -0.033274048165604933 0 -0.03263386342321891 -0.034384612423803043 0 -0.031835840230957251 -0.035003230205370502 0 -0.03263386342321891 -0.034384612423803043 0 -0.030354551319601249 -0.034634553836180075 0 -0.031835840230957251 -0.035003230205370502 0 -0.03263386342321891 -0.034384612423803043 0 -0.029503245246173516 -0.034995344163500378 0 -0.030354551319601249 -0.034634553836180075 0 -0.029492671164934141 -0.034999997288177334 0 -0.028747787186589876 -0.036322615918954734 0 -0.027572039574325066 -0.034999995905380277 0 -0.029493396101178293 -0.034999223727759432 0 -0.029783287885381083 -0.034594418809837879 0 -0.027572039574325066 -0.034999995905380277 0 -0.027286451183262964 -0.036494167006238622 0 -0.025992891883264712 -0.036098641187163799 0 -0.027572039574325066 -0.034999995905380277 0 -0.02565139786866669 -0.034999995268318464 0 -0.025992891883264712 -0.036098641187163799 0 -0.028747787186589876 -0.036322615918954734 0 -0.027572039574325066 -0.034999995905380277 0 -0.027286451183262964 -0.036494167006238622 0 -0.028747787186589876 -0.036322615918954734 0 -0.027286451183262964 -0.036494167006238622 0 -0.028006770451656254 -0.037642296945597585 0 -0.029783287885381083 -0.034594418809837879 0 -0.030254172710470983 -0.033819264082934987 0 -0.027286451183262964 -0.036494167006238622 0 -0.026365480644928975 -0.037280595799713885 0 -0.028006770451656254 -0.037642296945597585 0 -0.027286451183262964 -0.036494167006238622 0 -0.026365480644928975 -0.037280595799713885 0 -0.025992891883264712 -0.036098641187163799 0 -0.027283227020509539 -0.034394859246103734 0 -0.030254172710470983 -0.033819264082934987 0 -0.023692789842584095 -0.036968792041860959 0 -0.023568611769976482 -0.036876656634612197 0 -0.023433850551264148 -0.036933614612223276 0 -0.023692789842584095 -0.036968792041860959 0 -0.023568611769976482 -0.036876656634612197 0 -0.023660476306594794 -0.03686859515790826 0 -0.023568611769976482 -0.036876656634612197 0 -0.023433850551264148 -0.036933614612223276 0 -0.023522709980944221 -0.036736500771272322 0 -0.040231355963548078 -0.033981765229098848 0 -0.040970032875842978 -0.032393109372676809 0 -0.039381811893870161 -0.032827000484397295 0 -0.030254172710470983 -0.033819264082934987 0 -0.029983142301273642 -0.032895093565468138 0 -0.040970032875842978 -0.032393109372676809 0 -0.039381811893870161 -0.032827000484397295 0 -0.039885174306760959 -0.031809134107714597 0 -0.023522709980944221 -0.036736500771272322 0 -0.023660476306594794 -0.03686859515790826 0 -0.023685461137680709 -0.036728918456530549 0 -0.023568611769976482 -0.036876656634612197 0 -0.023522709980944221 -0.036736500771272322 0 -0.023660476306594794 -0.03686859515790826 0 -0.040231355963548078 -0.033981765229098848 0 -0.037845819710921914 -0.033699047852650717 0 -0.039381811893870161 -0.032827000484397295 0 -0.030254172710470983 -0.033819264082934987 0 -0.032443627716148539 -0.034106794784014294 0 -0.030354551319601249 -0.034634553836180075 0 -0.030192816253138459 -0.035168436134620229 0 -0.031835840230957251 -0.035003230205370502 0 -0.039381811893870161 -0.032827000484397295 0 -0.038089859305698422 -0.032079599660152648 0 -0.039118931472683638 -0.031947688735357416 0 -0.039381811893870161 -0.032827000484397295 0 -0.039118931472683638 -0.031947688735357416 0 -0.039885174306760959 -0.031809134107714597 0 -0.037845819710921914 -0.033699047852650717 0 -0.039381811893870161 -0.032827000484397295 0 -0.038089859305698422 -0.032079599660152648 0 -0.038089859305698422 -0.032079599660152648 0 -0.038060816345855931 -0.031024719679666714 0 -0.036736335735561731 -0.030866083573575627 0 -0.038060816345855931 -0.031024719679666714 0 -0.037827327852510154 -0.030050136611428725 0 -0.036736335735561731 -0.030866083573575627 0 -0.038060816345855931 -0.031024719679666714 0 -0.038584930236697547 -0.031010562334524119 0 -0.038530077061867708 -0.030535020665356401 0 -0.038060816345855931 -0.031024719679666714 0 -0.038707258018087949 -0.031440148145949962 0 -0.038584930236697547 -0.031010562334524119 0 -0.038089859305698422 -0.032079599660152648 0 -0.038060816345855931 -0.031024719679666714 0 -0.038707258018087949 -0.031440148145949962 0 -0.038089859305698422 -0.032079599660152648 0 -0.039118931472683638 -0.031947688735357416 0 -0.038707258018087949 -0.031440148145949962 0 -0.039118931472683638 -0.031947688735357416 0 -0.038707258018087949 -0.031440148145949962 0 -0.039252398626691935 -0.031331267505998434 0 -0.039118931472683638 -0.031947688735357416 0 -0.039252398626691935 -0.031331267505998434 0 -0.039885174306760959 -0.031809134107714597 0 -0.039252398626691935 -0.031331267505998434 0 -0.039885174306760959 -0.031809134107714597 0 -0.039875173514912349 -0.031081326509744947 0 -0.035704355719772804 -0.027550158192502731 0 -0.035680447457844613 -0.027418198145747783 0 -0.039252398626691935 -0.031331267505998434 0 -0.039042651716683405 -0.031045709135277856 0 -0.039412873512441868 -0.030400581103684612 0 -0.039252398626691935 -0.031331267505998434 0 -0.039380160043494115 -0.030771792407554351 0 -0.039875173514912349 -0.031081326509744947 0 -0.035690837095717416 -0.027462907474065906 0 -0.035680447457844613 -0.027418198145747783 0 -0.039042651716683405 -0.031045709135277856 0 -0.038530077061867708 -0.030535020665356401 0 -0.039348756181433353 -0.030463545247910614 0 -0.038707258018087949 -0.031440148145949962 0 -0.038584930236697547 -0.031010562334524119 0 -0.039042651716683405 -0.031045709135277856 0 -0.038707258018087949 -0.031440148145949962 0 -0.039252398626691935 -0.031331267505998434 0 -0.039042651716683405 -0.031045709135277856 0 -0.038584930236697547 -0.031010562334524119 0 -0.039042651716683405 -0.031045709135277856 0 -0.038530077061867708 -0.030535020665356401 0 -0.038530077061867708 -0.030535020665356401 0 -0.039348756181433353 -0.030463545247910614 0 -0.038640596236557433 -0.029614013819868439 0 -0.035680447457844613 -0.027418198145747783 0 -0.035951249584045539 -0.026819921056579248 0 -0.039348756181433353 -0.030463545247910614 0 -0.038640596236557433 -0.029614013819868439 0 -0.039587050153671026 -0.028592986292581935 0 -0.038640596236557433 -0.029614013819868439 0 -0.037827327852510154 -0.030050136611428725 0 -0.037922158238912193 -0.028462465663837633 0 -0.037827327852510154 -0.030050136611428725 0 -0.037922158238912193 -0.028462465663837633 0 -0.036744932795776515 -0.029748875547636906 0 -0.038530077061867708 -0.030535020665356401 0 -0.038640596236557433 -0.029614013819868439 0 -0.037827327852510154 -0.030050136611428725 0 -0.038060816345855931 -0.031024719679666714 0 -0.038530077061867708 -0.030535020665356401 0 -0.037827327852510154 -0.030050136611428725 0 -0.040970032875842978 -0.032393109372676809 0 -0.041553192504879766 -0.030997609272793498 0 -0.040582564384804475 -0.031190333360226752 0 -0.023522709980944221 -0.036736500771272322 0 -0.023603877313624635 -0.036506562316648963 0 -0.023685461137680709 -0.036728918456530549 0 -0.029983142301273642 -0.032895093565468138 0 -0.029520295450617719 -0.031599085305062266 0 -0.041553192504879766 -0.030997609272793498 0 -0.040582564384804475 -0.031190333360226752 0 -0.040927057081258808 -0.03057701481032904 0 -0.040970032875842978 -0.032393109372676809 0 -0.040582564384804475 -0.031190333360226752 0 -0.039885174306760959 -0.031809134107714597 0 -0.040582564384804475 -0.031190333360226752 0 -0.039885174306760959 -0.031809134107714597 0 -0.039875173514912349 -0.031081326509744947 0 -0.039380160043494115 -0.030771792407554351 0 -0.040276480937455138 -0.030358136471376251 0 -0.040231120997154098 -0.029403137426665032 0 -0.035680447457844613 -0.027418198145747783 0 -0.035242936590699291 -0.026678878549483264 0 -0.040582564384804475 -0.031190333360226752 0 -0.039875173514912349 -0.031081326509744947 0 -0.040276480937455138 -0.030358136471376251 0 -0.039380160043494115 -0.030771792407554351 0 -0.039875173514912349 -0.031081326509744947 0 -0.040276480937455138 -0.030358136471376251 0 -0.040582564384804475 -0.031190333360226752 0 -0.040276480937455138 -0.030358136471376251 0 -0.040927057081258808 -0.03057701481032904 0 -0.040276480937455138 -0.030358136471376251 0 -0.040927057081258808 -0.03057701481032904 0 -0.041291898234403657 -0.029774482526166209 0 -0.041553192504879766 -0.030997609272793498 0 -0.041291898234403657 -0.029774482526166209 0 -0.042174034091565504 -0.029751997932659681 0 -0.041553192504879766 -0.030997609272793498 0 -0.040927057081258808 -0.03057701481032904 0 -0.041291898234403657 -0.029774482526166209 0 -0.041291898234403657 -0.029774482526166209 0 -0.041028566592470624 -0.029088829527564468 0 -0.040231120997154098 -0.029403137426665032 0 -0.041291898234403657 -0.029774482526166209 0 -0.041028566592470624 -0.029088829527564468 0 -0.04161139256685225 -0.029014327706661805 0 -0.040276480937455138 -0.030358136471376251 0 -0.041291898234403657 -0.029774482526166209 0 -0.040231120997154098 -0.029403137426665032 0 -0.035242936590699291 -0.026678878549483264 0 -0.034281921722128114 -0.025869030354821198 0 -0.035668848709240732 -0.026326100780824212 0 -0.035447683204739226 -0.025524962529034419 0 -0.036116895437319808 -0.025534229996668718 0 -0.035668848709240732 -0.026326100780824212 0 -0.035447683204739226 -0.025524962529034419 0 -0.035333876992066131 -0.026321508224803714 0 -0.036052656316384879 -0.025958756670394333 0 -0.034281921722128114 -0.025869030354821198 0 -0.040969784999679161 -0.028181077178920537 0 -0.04161139256685225 -0.029014327706661805 0 -0.041897730705175502 -0.028215834515357974 0 -0.041028566592470624 -0.029088829527564468 0 -0.040969784999679161 -0.028181077178920537 0 -0.04161139256685225 -0.029014327706661805 0 -0.034281921722128114 -0.025869030354821198 0 -0.031843947722255461 -0.026598202413812052 0 -0.041028566592470624 -0.029088829527564468 0 -0.040231120997154098 -0.029403137426665032 0 -0.040969784999679161 -0.028181077178920537 0 -0.035220635368861435 -0.027117539379599286 0 -0.035668848709240732 -0.026326100780824212 0 -0.035333876992066131 -0.026321508224803714 0 -0.038640596236557433 -0.029614013819868439 0 -0.037922158238912193 -0.028462465663837633 0 -0.039587050153671026 -0.028592986292581935 0 -0.03984524501525924 -0.026760850100615751 0 -0.037922158238912193 -0.028462465663837633 0 -0.039587050153671026 -0.028592986292581935 0 -0.036052656316384879 -0.025958756670394333 0 -0.035951249584045539 -0.026819921056579248 0 -0.03984524501525924 -0.026760850100615751 0 -0.037922158238912193 -0.028462465663837633 0 -0.037385387506889141 -0.026731522569431322 0 -0.037922158238912193 -0.028462465663837633 0 -0.036483284638300327 -0.028225150857693348 0 -0.037385387506889141 -0.026731522569431322 0 -0.036483284638300327 -0.028225150857693348 0 -0.034933568152979599 -0.026697312036172947 0 -0.037385387506889141 -0.026731522569431322 0 -0.037922158238912193 -0.028462465663837633 0 -0.036483284638300327 -0.028225150857693348 0 -0.036744932795776515 -0.029748875547636906 0 -0.036483284638300327 -0.028225150857693348 0 -0.035588052729210111 -0.029119442174854005 0 -0.036744932795776515 -0.029748875547636906 0 -0.036074397019047758 -0.029273441686444874 0 -0.035609357102280491 -0.028152761645861293 0 -0.035597823910012809 -0.029597057985060626 0 -0.037914553100319187 -0.028220767847853542 0 -0.037642144045083765 -0.027213753166687189 0 -0.036469797173051467 -0.027444425350450309 0 -0.036461322300382945 -0.02717948153236828 0 -0.035762979627406426 -0.026987393516445593 0 -0.036461322300382945 -0.02717948153236828 0 -0.036462181514591636 -0.027185757833166683 0 -0.036461322300382945 -0.02717948153236828 0 -0.036503720292710366 -0.02682691185403311 0 -0.036483284638300327 -0.028225150857693348 0 -0.035588052729210111 -0.029119442174854005 0 -0.035261126782950195 -0.027907132961763743 0 -0.036483284638300327 -0.028225150857693348 0 -0.035261126782950195 -0.027907132961763743 0 -0.034933568152979599 -0.026697312036172947 0 -0.036503720292710366 -0.02682691185403311 0 -0.036515757883729599 -0.026307987012820843 0 -0.037642144045083765 -0.027213753166687189 0 -0.036959065374893497 -0.026849442541138961 0 -0.037369652908974135 -0.026200281411272348 0 -0.036959065374893497 -0.026849442541138961 0 -0.036469797173051467 -0.027444425350450309 0 -0.03656836212313725 -0.026185477670452564 0 -0.036469797173051467 -0.027444425350450309 0 -0.0357107341913512 -0.026066948058014801 0 -0.03656836212313725 -0.026185477670452564 0 -0.036959065374893497 -0.026849442541138961 0 -0.03656836212313725 -0.026185477670452564 0 -0.037369652908974135 -0.026200281411272348 0 -0.037642144045083765 -0.027213753166687189 0 -0.036959065374893497 -0.026849442541138961 0 -0.036469797173051467 -0.027444425350450309 0 -0.035001336985510174 -0.026666738695599469 0 -0.035762979627406426 -0.026987393516445593 0 -0.035000002500313834 -0.026666263468993343 0 -0.036469797173051467 -0.027444425350450309 0 -0.0357107341913512 -0.026066948058014801 0 -0.034999888698693908 -0.026667482562608431 0 -0.035609357102280491 -0.028152761645861293 0 -0.034999134709072593 -0.028699041963181682 0 -0.035609357102280491 -0.028152761645861293 0 -0.035597823910012809 -0.029597057985060626 0 -0.034999134709072593 -0.028699041963181682 0 -0.035597823910012809 -0.029597057985060626 0 -0.034999134709072593 -0.028699041963181682 0 -0.035119248227096188 -0.030754847619336619 0 -0.034998036984157224 -0.031405329535589596 0 -0.034999134709072593 -0.028699041963181682 0 -0.035119248227096188 -0.030754847619336619 0 -0.035597823910012809 -0.029597057985060626 0 -0.035119248227096188 -0.030754847619336619 0 -0.035546752395583366 -0.030822548457897177 0 -0.034672708139999384 -0.033274048165604933 0 -0.035119248227096188 -0.030754847619336619 0 -0.035546752395583366 -0.030822548457897177 0 -0.034672708139999384 -0.033274048165604933 0 -0.035546752395583366 -0.030822548457897177 0 -0.036736335735561731 -0.030866083573575627 0 -0.035546752395583366 -0.030822548457897177 0 -0.036736335735561731 -0.030866083573575627 0 -0.03609393270694284 -0.030059380369718888 0 -0.036736335735561731 -0.030866083573575627 0 -0.036744932795776515 -0.029748875547636906 0 -0.03609393270694284 -0.030059380369718888 0 -0.037827327852510154 -0.030050136611428725 0 -0.036736335735561731 -0.030866083573575627 0 -0.036744932795776515 -0.029748875547636906 0 -0.03603566310830187 -0.029275387463271321 0 -0.036744932795776515 -0.029748875547636906 0 -0.036068882523890629 -0.029415276501143287 0 -0.036744932795776515 -0.029748875547636906 0 -0.036068882523890629 -0.029415276501143287 0 -0.03609393270694284 -0.030059380369718888 0 -0.036461322300382945 -0.02717948153236828 0 -0.036539269170654406 -0.027296539914103548 0 -0.035597823910012809 -0.029597057985060626 0 -0.036068882523890629 -0.029415276501143287 0 -0.03609393270694284 -0.030059380369718888 0 -0.036074397019047758 -0.029273441686444874 0 -0.035597823910012809 -0.029597057985060626 0 -0.036068882523890629 -0.029415276501143287 0 -0.035597823910012809 -0.029597057985060626 0 -0.035546752395583366 -0.030822548457897177 0 -0.03609393270694284 -0.030059380369718888 0 -0.015028927100744896 -0.034657883065481551 0 -0.014626779620267346 -0.032683764657327086 0 -0.017676025306073821 -0.037864264799006321 0 -0.017580625070136458 -0.039996014444269271 0 -0.016450601609461719 -0.038379245025025689 0 -0.01925262395568254 -0.038249893274755566 0 -0.017956483180654816 -0.037820863013531818 0 -0.017850196270788089 -0.039282629182038342 0 -0.01925262395568254 -0.038249893274755566 0 -0.019184021537966084 -0.039520910714450332 0 -0.017850196270788089 -0.039282629182038342 0 -0.01925262395568254 -0.038249893274755566 0 -0.020435954380116771 -0.038794663594853868 0 -0.019184021537966084 -0.039520910714450332 0 -0.01925262395568254 -0.038249893274755566 0 -0.018753983382989364 -0.037126716267539966 0 -0.019784730229356163 -0.036997133664232656 0 -0.01925262395568254 -0.038249893274755566 0 -0.018753983382989364 -0.037126716267539966 0 -0.017956483180654816 -0.037820863013531818 0 -0.015028927100744896 -0.034657883065481551 0 -0.01517780506080426 -0.03504428261472696 0 -0.018753983382989364 -0.037126716267539966 0 -0.017956483180654816 -0.037820863013531818 0 -0.017977080007859123 -0.036299516173153329 0 -0.017676025306073821 -0.037864264799006321 0 -0.017977080007859123 -0.036299516173153329 0 -0.016191462762635785 -0.03670416241698566 0 -0.017977080007859123 -0.036299516173153329 0 -0.017968724152282546 -0.034999706515065794 0 -0.019161840249012123 -0.036032920605520165 0 -0.017977080007859123 -0.036299516173153329 0 -0.017968724152282546 -0.034999706515065794 0 -0.016811895085293946 -0.035691508686502539 0 -0.017968724152282546 -0.034999706515065794 0 -0.019161840249012123 -0.036032920605520165 0 -0.01988941996716307 -0.034999968969106184 0 -0.018753983382989364 -0.037126716267539966 0 -0.017977080007859123 -0.036299516173153329 0 -0.019161840249012123 -0.036032920605520165 0 -0.018753983382989364 -0.037126716267539966 0 -0.019161840249012123 -0.036032920605520165 0 -0.019784730229356163 -0.036997133664232656 0 -0.019784730229356163 -0.036997133664232656 0 -0.020405390093111122 -0.035925428449546187 0 -0.020844249274546502 -0.03683752358382756 0 -0.019161840249012123 -0.036032920605520165 0 -0.019784730229356163 -0.036997133664232656 0 -0.020405390093111122 -0.035925428449546187 0 -0.01988941996716307 -0.034999968969106184 0 -0.020405390093111122 -0.035925428449546187 0 -0.02181002952285092 -0.034999948813181345 0 -0.019161840249012123 -0.036032920605520165 0 -0.01988941996716307 -0.034999968969106184 0 -0.020405390093111122 -0.035925428449546187 0 -0.020405390093111122 -0.035925428449546187 0 -0.02181002952285092 -0.034999948813181345 0 -0.02138469648815906 -0.036138149536213353 0 -0.02138469648815906 -0.036138149536213353 0 -0.020844249274546502 -0.03683752358382756 0 -0.021920410137377468 -0.03680114635779104 0 -0.020405390093111122 -0.035925428449546187 0 -0.02138469648815906 -0.036138149536213353 0 -0.020844249274546502 -0.03683752358382756 0 -0.020844249274546502 -0.03683752358382756 0 -0.021370875892426006 -0.037497417919576663 0 -0.021920410137377468 -0.03680114635779104 0 -0.021370875892426006 -0.037497417919576663 0 -0.021156407910734146 -0.038380975145430499 0 -0.021841052376460786 -0.038035597680100751 0 -0.021370875892426006 -0.037497417919576663 0 -0.020454574217046797 -0.037787162479179917 0 -0.021156407910734146 -0.038380975145430499 0 -0.020844249274546502 -0.03683752358382756 0 -0.021370875892426006 -0.037497417919576663 0 -0.020454574217046797 -0.037787162479179917 0 -0.01925262395568254 -0.038249893274755566 0 -0.019784730229356163 -0.036997133664232656 0 -0.020454574217046797 -0.037787162479179917 0 -0.019784730229356163 -0.036997133664232656 0 -0.020844249274546502 -0.03683752358382756 0 -0.020454574217046797 -0.037787162479179917 0 -0.01925262395568254 -0.038249893274755566 0 -0.020454574217046797 -0.037787162479179917 0 -0.020435954380116771 -0.038794663594853868 0 -0.020454574217046797 -0.037787162479179917 0 -0.020435954380116771 -0.038794663594853868 0 -0.021156407910734146 -0.038380975145430499 0 -0.020435954380116771 -0.038794663594853868 0 -0.021156407910734146 -0.038380975145430499 0 -0.021196730522327716 -0.039171848456959493 0 -0.021156407910734146 -0.038380975145430499 0 -0.02213043429241543 -0.038835865361140594 0 -0.021196730522327716 -0.039171848456959493 0 -0.021156407910734146 -0.038380975145430499 0 -0.021841052376460786 -0.038035597680100751 0 -0.02213043429241543 -0.038835865361140594 0 -0.019629650532912473 -0.03362288723181369 0 -0.019611565742018541 -0.034069319352914886 0 -0.022152030881896941 -0.038700092251890111 0 -0.023161581774612333 -0.038768019924021763 0 -0.022602822058626827 -0.037713633136556901 0 -0.021841052376460786 -0.038035597680100751 0 -0.02213043429241543 -0.038835865361140594 0 -0.022602822058626827 -0.037713633136556901 0 -0.023013968031321316 -0.037748086345188392 0 -0.023083318440689626 -0.037458280595512594 0 -0.0227336473438088 -0.036951348111397657 0 -0.021849721489186708 -0.033328089652785373 0 -0.021857182420319456 -0.033875184911754008 0 -0.023013968031321316 -0.037748086345188392 0 -0.023083318440689626 -0.037458280595512594 0 -0.023397525208402825 -0.037408044879034763 0 -0.023083318440689626 -0.037458280595512594 0 -0.0227336473438088 -0.036951348111397657 0 -0.022983777814227474 -0.037071055853631033 0 -0.021849721489186708 -0.033328089652785373 0 -0.02217817780751723 -0.034713546246375078 0 -0.023161581774612333 -0.038768019924021763 0 -0.0227336473438088 -0.036951348111397657 0 -0.022602822058626827 -0.037713633136556901 0 -0.023083318440689626 -0.037458280595512594 0 -0.023128946492136856 -0.03720401926767529 0 -0.023287845947809114 -0.037229600143924992 0 -0.023083318440689626 -0.037458280595512594 0 -0.023128946492136856 -0.03720401926767529 0 -0.022983777814227474 -0.037071055853631033 0 -0.023128946492136856 -0.03720401926767529 0 -0.023209571403953296 -0.037028243602896888 0 -0.023287845947809114 -0.037229600143924992 0 -0.023128946492136856 -0.03720401926767529 0 -0.023209571403953296 -0.037028243602896888 0 -0.022983777814227474 -0.037071055853631033 0 -0.0227336473438088 -0.036951348111397657 0 -0.022098196854291426 -0.037394012992872018 0 -0.021920410137377468 -0.03680114635779104 0 -0.0227336473438088 -0.036951348111397657 0 -0.022602822058626827 -0.037713633136556901 0 -0.022098196854291426 -0.037394012992872018 0 -0.021370875892426006 -0.037497417919576663 0 -0.021841052376460786 -0.038035597680100751 0 -0.022098196854291426 -0.037394012992872018 0 -0.021841052376460786 -0.038035597680100751 0 -0.022602822058626827 -0.037713633136556901 0 -0.022098196854291426 -0.037394012992872018 0 -0.021370875892426006 -0.037497417919576663 0 -0.022098196854291426 -0.037394012992872018 0 -0.021920410137377468 -0.03680114635779104 0 -0.02138469648815906 -0.036138149536213353 0 -0.021920410137377468 -0.03680114635779104 0 -0.022777541424224758 -0.036532132766720543 0 -0.023751250138813997 -0.034916455096815111 0 -0.024251278645199093 -0.034898368635993077 0 -0.02138469648815906 -0.036138149536213353 0 -0.022371215244125574 -0.03584085475258296 0 -0.023072906767756293 -0.036554705677957974 0 -0.0227336473438088 -0.036951348111397657 0 -0.021920410137377468 -0.03680114635779104 0 -0.022777541424224758 -0.036532132766720543 0 -0.02181002952285092 -0.034999948813181345 0 -0.02373076135615956 -0.034999991999580572 0 -0.023066072045536359 -0.035653314570156747 0 -0.02181002952285092 -0.034999948813181345 0 -0.022371215244125574 -0.03584085475258296 0 -0.023066072045536359 -0.035653314570156747 0 -0.02181002952285092 -0.034999948813181345 0 -0.02138469648815906 -0.036138149536213353 0 -0.022371215244125574 -0.03584085475258296 0 -0.022371215244125574 -0.03584085475258296 0 -0.023066072045536359 -0.035653314570156747 0 -0.023072906767756293 -0.036554705677957974 0 -0.023066072045536359 -0.035653314570156747 0 -0.023072906767756293 -0.036554705677957974 0 -0.024358517562002045 -0.035898473664562246 0 -0.02373076135615956 -0.034999991999580572 0 -0.023066072045536359 -0.035653314570156747 0 -0.024358517562002045 -0.035898473664562246 0 -0.024251278645199093 -0.034898368635993077 0 -0.025445483654690539 -0.034751168618870648 0 -0.023072906767756293 -0.036554705677957974 0 -0.024721503674256712 -0.036918558807587105 0 -0.024358517562002045 -0.035898473664562246 0 -0.023209571403953296 -0.037028243602896888 0 -0.022777541424224758 -0.036532132766720543 0 -0.02356270128999426 -0.03681987719144799 0 -0.0227336473438088 -0.036951348111397657 0 -0.022983777814227474 -0.037071055853631033 0 -0.022777541424224758 -0.036532132766720543 0 -0.023209571403953296 -0.037028243602896888 0 -0.022983777814227474 -0.037071055853631033 0 -0.022777541424224758 -0.036532132766720543 0 -0.024721503674256712 -0.036918558807587105 0 -0.024358517562002045 -0.035898473664562246 0 -0.025992891883264712 -0.036098641187163799 0 -0.02373076135615956 -0.034999991999580572 0 -0.024358517562002045 -0.035898473664562246 0 -0.02565139786866669 -0.034999995268318464 0 -0.024358517562002045 -0.035898473664562246 0 -0.02565139786866669 -0.034999995268318464 0 -0.025992891883264712 -0.036098641187163799 0 -0.026365480644928975 -0.037280595799713885 0 -0.024721503674256712 -0.036918558807587105 0 -0.025992891883264712 -0.036098641187163799 0 -0.027283227020509539 -0.034394859246103734 0 -0.025445483654690539 -0.034751168618870648 0 -0.023692789842584095 -0.036968792041860959 0 -0.023660476306594794 -0.03686859515790826 0 -0.023690774743873797 -0.036972227375701813 0 -0.023692789842584095 -0.036968792041860959 0 -0.02356270128999426 -0.03681987719144799 0 -0.023690774743873797 -0.036972227375701813 0 -0.023660476306594794 -0.03686859515790826 0 -0.023690774743873797 -0.036972227375701813 0 -0.023731853383043251 -0.03684599242874214 0 -0.02356270128999426 -0.03681987719144799 0 -0.023690774743873797 -0.036972227375701813 0 -0.023453302907250007 -0.037084347131032473 0 -0.023209571403953296 -0.037028243602896888 0 -0.02356270128999426 -0.03681987719144799 0 -0.023453302907250007 -0.037084347131032473 0 -0.023209571403953296 -0.037028243602896888 0 -0.023453302907250007 -0.037084347131032473 0 -0.023287845947809114 -0.037229600143924992 0 -0.023453302907250007 -0.037084347131032473 0 -0.023287845947809114 -0.037229600143924992 0 -0.023397525208402825 -0.037408044879034763 0 -0.023690774743873797 -0.036972227375701813 0 -0.023921609740526612 -0.036836051040610898 0 -0.023731853383043251 -0.03684599242874214 0 -0.023690774743873797 -0.036972227375701813 0 -0.023453302907250007 -0.037084347131032473 0 -0.023397525208402825 -0.037408044879034763 0 -0.021869241712316516 -0.034043104067430122 0 -0.021857182420319456 -0.033875184911754008 0 -0.023921609740526612 -0.036836051040610898 0 -0.023814106269903761 -0.036759279119657116 0 -0.023731853383043251 -0.03684599242874214 0 -0.023083318440689626 -0.037458280595512594 0 -0.023287845947809114 -0.037229600143924992 0 -0.023397525208402825 -0.037408044879034763 0 -0.023921609740526612 -0.036836051040610898 0 -0.023947993744788565 -0.036737788926397126 0 -0.023814106269903761 -0.036759279119657116 0 -0.024133115385950473 -0.036657373053216549 0 -0.023921609740526612 -0.036836051040610898 0 -0.023947993744788565 -0.036737788926397126 0 -0.023947993744788565 -0.036737788926397126 0 -0.023870568027636523 -0.036674778961900599 0 -0.023914477936995322 -0.036587596554398479 0 -0.023947993744788565 -0.036737788926397126 0 -0.023870568027636523 -0.036674778961900599 0 -0.023814106269903761 -0.036759279119657116 0 -0.023870568027636523 -0.036674778961900599 0 -0.023814106269903761 -0.036759279119657116 0 -0.02377578927152707 -0.036613567157377458 0 -0.023814106269903761 -0.036759279119657116 0 -0.023685461137680709 -0.036728918456530549 0 -0.02377578927152707 -0.036613567157377458 0 -0.023660476306594794 -0.03686859515790826 0 -0.023685461137680709 -0.036728918456530549 0 -0.023731853383043251 -0.03684599242874214 0 -0.023814106269903761 -0.036759279119657116 0 -0.023685461137680709 -0.036728918456530549 0 -0.023731853383043251 -0.03684599242874214 0 -0.023603877313624635 -0.036506562316648963 0 -0.023685461137680709 -0.036728918456530549 0 -0.02377578927152707 -0.036613567157377458 0 -0.023603877313624635 -0.036506562316648963 0 -0.02377578927152707 -0.036613567157377458 0 -0.023764430625966563 -0.036443873037392722 0 -0.02377578927152707 -0.036613567157377458 0 -0.023870212698600232 -0.036481895828590551 0 -0.023764430625966563 -0.036443873037392722 0 -0.023947993744788565 -0.036737788926397126 0 -0.023914477936995322 -0.036587596554398479 0 -0.024053931431740019 -0.036505835446091463 0 -0.023870568027636523 -0.036674778961900599 0 -0.02377578927152707 -0.036613567157377458 0 -0.023914477936995322 -0.036587596554398479 0 -0.023914477936995322 -0.036587596554398479 0 -0.023965975331868856 -0.036485603339419796 0 -0.023870212698600232 -0.036481895828590551 0 -0.023914477936995322 -0.036587596554398479 0 -0.023965975331868856 -0.036485603339419796 0 -0.024053931431740019 -0.036505835446091463 0 -0.02377578927152707 -0.036613567157377458 0 -0.023914477936995322 -0.036587596554398479 0 -0.023870212698600232 -0.036481895828590551 0 -0.023870212698600232 -0.036481895828590551 0 -0.023855939388349137 -0.036362649684399624 0 -0.023764430625966563 -0.036443873037392722 0 -0.023855939388349137 -0.036362649684399624 0 -0.02372399279565917 -0.036254220157941677 0 -0.024002547636719027 -0.036241757135669572 0 -0.023870212698600232 -0.036481895828590551 0 -0.023952697511502037 -0.036418309713934553 0 -0.023855939388349137 -0.036362649684399624 0 -0.023965975331868856 -0.036485603339419796 0 -0.023870212698600232 -0.036481895828590551 0 -0.023952697511502037 -0.036418309713934553 0 -0.023965975331868856 -0.036485603339419796 0 -0.023952697511502037 -0.036418309713934553 0 -0.02403826086401217 -0.036435020691745881 0 -0.023003037810930715 -0.031417997490790425 0 -0.02295598019984375 -0.031374611346126312 0 -0.023952697511502037 -0.036418309713934553 0 -0.023855939388349137 -0.036362649684399624 0 -0.024002547636719027 -0.036241757135669572 0 -0.023952697511502037 -0.036418309713934553 0 -0.024002547636719027 -0.036241757135669572 0 -0.024043600346043453 -0.036432989700904597 0 -0.023603877313624635 -0.036506562316648963 0 -0.023764430625966563 -0.036443873037392722 0 -0.02372399279565917 -0.036254220157941677 0 -0.029520295450617719 -0.031599085305062266 0 -0.028763551316166078 -0.02987095965372898 0 -0.023855939388349137 -0.036362649684399624 0 -0.023764430625966563 -0.036443873037392722 0 -0.02372399279565917 -0.036254220157941677 0 -0.029912833440698502 -0.029845412408451923 0 -0.028763551316166078 -0.02987095965372898 0 -0.041291898234403657 -0.029774482526166209 0 -0.042000386766070721 -0.029728066818638575 0 -0.04161139256685225 -0.029014327706661805 0 -0.028763551316166078 -0.02987095965372898 0 -0.028599531129646475 -0.028414084203304268 0 -0.042000386766070721 -0.029728066818638575 0 -0.04161139256685225 -0.029014327706661805 0 -0.042400817534699924 -0.028974085163160249 0 -0.04161139256685225 -0.029014327706661805 0 -0.042400817534699924 -0.028974085163160249 0 -0.041897730705175502 -0.028215834515357974 0 -0.031843947722255461 -0.026598202413812052 0 -0.027854052629511898 -0.02724684489492489 0 -0.042400817534699924 -0.028974085163160249 0 -0.041897730705175502 -0.028215834515357974 0 -0.042795201747842557 -0.028234328373231487 0 -0.026972231948154356 -0.02990763061522201 0 -0.027626383859421361 -0.028937125505337467 0 -0.028064961187409979 -0.03083391596454824 0 -0.024067703321815046 -0.026218719889449904 0 -0.024442867556437351 -0.027850885122836511 0 -0.024829686805266128 -0.026970225752908139 0 -0.027469461033883199 -0.027221932342777783 0 -0.024827143860109369 -0.029622760253128606 0 -0.027614918263899824 -0.026928877686975869 0 -0.028246181580927083 -0.026938367649758096 0 -0.027578912850232253 -0.026772647955605539 0 -0.027469461033883199 -0.027221932342777783 0 -0.025829665316247405 -0.026799323325390007 0 -0.028841632157807169 -0.030548625219481679 0 -0.025776092006319896 -0.030504246703831884 0 -0.027933574876012928 -0.026648042518386227 0 -0.027469461033883199 -0.027221932342777783 0 -0.027854052629511898 -0.02724684489492489 0 -0.026972231948154356 -0.02990763061522201 0 -0.027626383859421361 -0.028937125505337467 0 -0.027513855583410646 -0.028935470339257259 0 -0.028599531129646475 -0.028414084203304268 0 -0.027854052629511898 -0.02724684489492489 0 -0.028763551316166078 -0.02987095965372898 0 -0.024827143860109369 -0.029622760253128606 0 -0.026431918989412176 -0.030878896422993966 0 -0.026972231948154356 -0.02990763061522201 0 -0.028064961187409979 -0.03083391596454824 0 -0.024827143860109369 -0.029622760253128606 0 -0.022556695327350457 -0.029265840403028438 0 -0.02530151125386235 -0.027826913112827579 0 -0.024829686805266128 -0.026970225752908139 0 -0.025769213194728309 -0.026728917394194886 0 -0.024442867556437351 -0.027850885122836511 0 -0.02530151125386235 -0.027826913112827579 0 -0.024829686805266128 -0.026970225752908139 0 -0.025829665316247405 -0.026799323325390007 0 -0.021667765329553529 -0.025587253094591488 0 -0.024829686805266128 -0.026970225752908139 0 -0.024566722701229858 -0.026226019060491896 0 -0.025769213194728309 -0.026728917394194886 0 -0.025829665316247405 -0.026799323325390007 0 -0.022022314969919524 -0.026899249305987364 0 -0.024067703321815046 -0.026218719889449904 0 -0.024829686805266128 -0.026970225752908139 0 -0.024566722701229858 -0.026226019060491896 0 -0.023797889808464347 -0.025879529348631584 0 -0.021597468077890813 -0.025845356787021274 0 -0.021917782700168358 -0.025098542595365366 0 -0.019536123355951722 -0.026306141774510673 0 -0.019743450187858964 -0.025824155960188167 0 -0.018498144279310492 -0.025838561875735015 0 -0.021667765329553529 -0.025587253094591488 0 -0.022022314969919524 -0.026899249305987364 0 -0.022286373945806157 -0.028509848675944086 0 -0.021898065555256148 -0.029413509741433509 0 -0.020853204874457118 -0.028546458082180808 0 -0.022556695327350457 -0.029265840403028438 0 -0.022022314969919524 -0.026899249305987364 0 -0.022556695327350457 -0.029265840403028438 0 -0.019386334072831583 -0.029121285859545893 0 -0.021229150358125032 -0.030199156088351047 0 -0.020975420506062527 -0.029984298455985596 0 -0.020594515460618312 -0.030213240949362664 0 -0.020975420506062527 -0.029984298455985596 0 -0.021385390508000951 -0.029838280351456709 0 -0.020933021481324834 -0.029753076391224865 0 -0.022547383155362088 -0.031338929516149541 0 -0.020357336745513214 -0.031720344945455808 0 -0.020975420506062527 -0.029984298455985596 0 -0.020933021481324834 -0.029753076391224865 0 -0.02073462707231645 -0.029918076904953524 0 -0.022408764146551626 -0.028311203695339144 0 -0.022920576206459271 -0.029464231484337765 0 -0.022664435803968729 -0.029416551051178519 0 -0.022408764146551626 -0.028311203695339144 0 -0.023424154087501401 -0.028283058888881336 0 -0.022920576206459271 -0.029464231484337765 0 -0.022556695327350457 -0.029265840403028438 0 -0.022547383155362088 -0.031338929516149541 0 -0.021229150358125032 -0.030199156088351047 0 -0.020975420506062527 -0.029984298455985596 0 -0.021385390508000951 -0.029838280351456709 0 -0.024827143860109369 -0.029622760253128606 0 -0.02295598019984375 -0.031374611346126312 0 -0.02295598019984375 -0.031374611346126312 0 -0.022566792086485179 -0.03187543458050314 0 -0.022547383155362088 -0.031338929516149541 0 -0.022566792086485179 -0.03187543458050314 0 -0.022823323914702008 -0.03031893751315267 0 -0.02264113398179203 -0.030284998917475464 0 -0.022710199781542848 -0.030583790990089843 0 -0.022547383155362088 -0.031338929516149541 0 -0.02295598019984375 -0.031374611346126312 0 -0.024133115385950473 -0.036657373053216549 0 -0.023947993744788565 -0.036737788926397126 0 -0.024073650115703778 -0.036408332382954975 0 -0.022444267316739364 -0.031184454693436187 0 -0.02250671494726501 -0.031450140691166424 0 -0.022096445397129395 -0.031474557338141793 0 -0.02246638978527854 -0.031543524546060582 0 -0.02250671494726501 -0.031450140691166424 0 -0.022096445397129395 -0.031474557338141793 0 -0.022431512554323237 -0.032631154530642283 0 -0.022566792086485179 -0.03187543458050314 0 -0.023965975331868856 -0.036485603339419796 0 -0.02403826086401217 -0.036435020691745881 0 -0.024053931431740019 -0.036505835446091463 0 -0.021849721489186708 -0.033328089652785373 0 -0.022566792086485179 -0.03187543458050314 0 -0.021849721489186708 -0.033328089652785373 0 -0.020357336745513214 -0.031720344945455808 0 -0.019629650532912473 -0.03362288723181369 0 -0.019835922683569845 -0.031921980811472177 0 -0.022152030881896941 -0.038700092251890111 0 -0.023161581774612333 -0.038768019924021763 0 -0.02199559822879351 -0.039716719640066497 0 -0.022152030881896941 -0.038700092251890111 0 -0.02199559822879351 -0.039716719640066497 0 -0.021698408840243009 -0.039659593087684478 0 -0.020357336745513214 -0.031720344945455808 0 -0.019835922683569845 -0.031921980811472177 0 -0.019835922683569845 -0.031921980811472177 0 -0.018795113204707593 -0.032217253070383187 0 -0.02213043429241543 -0.038835865361140594 0 -0.021628598049869791 -0.039903888360453291 0 -0.021196730522327716 -0.039171848456959493 0 -0.019005432651024154 -0.031699323856985276 0 -0.018468215041709639 -0.031599828693332242 0 -0.018878756062347211 -0.03196920018852481 0 -0.021628598049869791 -0.039903888360453291 0 -0.021196730522327716 -0.039171848456959493 0 -0.020530343867773335 -0.039699019985602685 0 -0.020435954380116771 -0.038794663594853868 0 -0.021196730522327716 -0.039171848456959493 0 -0.020530343867773335 -0.039699019985602685 0 -0.018795113204707593 -0.032217253070383187 0 -0.016893992081406985 -0.032576548165944456 0 -0.016710617317338142 -0.029634227718144179 0 -0.016234164671525449 -0.030089500244103898 0 -0.015822624413208194 -0.029470787212109533 0 -0.018883452645066592 -0.032877868698994957 0 -0.018795113204707593 -0.032217253070383187 0 -0.020435954380116771 -0.038794663594853868 0 -0.020525380033035799 -0.039756317561515465 0 -0.019184021537966084 -0.039520910714450332 0 -0.016710617317338142 -0.029634227718144179 0 -0.016234164671525449 -0.030089500244103898 0 -0.016800989754179842 -0.030562624494909572 0 -0.018795113204707593 -0.032217253070383187 0 -0.019061362260637302 -0.030091882170224977 0 -0.016234164671525449 -0.030089500244103898 0 -0.016285691896666593 -0.030530871761025362 0 -0.016800989754179842 -0.030562624494909572 0 -0.020058066293329336 -0.029717724450560316 0 -0.019564927319656346 -0.030769523822276691 0 -0.019207430479244763 -0.030432997362847665 0 -0.018468215041709639 -0.031599828693332242 0 -0.018878756062347211 -0.03196920018852481 0 -0.018531588719724389 -0.032260519785548135 0 -0.019697377317858894 -0.030923437183849201 0 -0.019061362260637302 -0.030091882170224977 0 -0.020975420506062527 -0.029984298455985596 0 -0.02073462707231645 -0.029918076904953524 0 -0.020594515460618312 -0.030213240949362664 0 -0.019697377317858894 -0.030923437183849201 0 -0.019386334072831583 -0.029121285859545893 0 -0.020357336745513214 -0.031720344945455808 0 -0.019697377317858894 -0.030923437183849201 0 -0.019835922683569845 -0.031921980811472177 0 -0.019697377317858894 -0.030923437183849201 0 -0.018820705033634998 -0.031515413802334975 0 -0.019032927309130417 -0.031554603118419053 0 -0.019201112892485061 -0.031191093428097748 0 -0.021898065555256148 -0.029413509741433509 0 -0.020853204874457118 -0.028546458082180808 0 -0.020680727180082684 -0.028912499676416275 0 -0.019564927319656346 -0.030769523822276691 0 -0.019239999456530477 -0.030778148400838638 0 -0.019207430479244763 -0.030432997362847665 0 -0.019386334072831583 -0.029121285859545893 0 -0.018915096073666975 -0.029129520989460821 0 -0.018983859817542949 -0.029722594025118246 0 -0.0188054060061357 -0.030100541473107745 0 -0.018768824463781669 -0.029728224875362433 0 -0.019386334072831583 -0.029121285859545893 0 -0.01915253280065024 -0.02805812822069683 0 -0.01915253280065024 -0.02805812822069683 0 -0.018915096073666975 -0.029129520989460821 0 -0.021667765329553529 -0.025587253094591488 0 -0.017852313489807741 -0.024707439664818302 0 -0.022022314969919524 -0.026899249305987364 0 -0.01915253280065024 -0.02805812822069683 0 -0.019743450187858964 -0.025824155960188167 0 -0.018268013586426532 -0.025219247732742887 0 -0.018498144279310492 -0.025838561875735015 0 -0.019536123355951722 -0.026306141774510673 0 -0.018498144279310492 -0.025838561875735015 0 -0.018370857457800979 -0.026288187109479871 0 -0.018268013586426532 -0.025219247732742887 0 -0.018498144279310492 -0.025838561875735015 0 -0.018354039996993043 -0.026134148907277367 0 -0.01915253280065024 -0.02805812822069683 0 -0.017798205851532498 -0.02491205253835627 0 -0.017797587952610865 -0.024922013555141655 0 -0.017798205851532498 -0.02491205253835627 0 -0.018498144279310492 -0.025838561875735015 0 -0.018356022628316485 -0.026132694497922816 0 -0.018370857457800979 -0.026288187109479871 0 -0.017784962016922243 -0.024864273471065505 0 -0.017531027325953959 -0.022203826467222926 0 -0.019056786279606164 -0.022225893281327406 0 -0.017798205851532498 -0.02491205253835627 0 -0.017525265407824304 -0.024666710868736778 0 -0.017798205851532498 -0.02491205253835627 0 -0.017852313489807741 -0.024707439664818302 0 -0.017852313489807741 -0.024707439664818302 0 -0.017525265407824304 -0.024666710868736778 0 -0.016299738089264538 -0.027021368205785309 0 -0.015807119628781657 -0.026571498199881464 0 -0.015499580314987419 -0.026631066791590757 0 -0.017525265407824304 -0.024666710868736778 0 -0.012826815067054406 -0.023881553277400935 0 -0.016299738089264538 -0.027021368205785309 0 -0.015499580314987419 -0.026631066791590757 0 -0.015216683493488191 -0.027002696498599647 0 -0.01636051338029439 -0.026898062644789052 0 -0.016299738089264538 -0.027021368205785309 0 -0.016069910648564972 -0.026638680657354259 0 -0.016299738089264538 -0.027021368205785309 0 -0.016069910648564972 -0.026638680657354259 0 -0.015807119628781657 -0.026571498199881464 0 -0.016298130684778474 -0.026162330905170977 0 -0.01636051338029439 -0.026898062644789052 0 -0.016069910648564972 -0.026638680657354259 0 -0.01915253280065024 -0.02805812822069683 0 -0.019112257435629099 -0.028029578430378066 0 -0.016290017854584806 -0.026169046501381868 0 -0.016069910648564972 -0.026638680657354259 0 -0.015919053830352421 -0.026279288632819069 0 -0.016069910648564972 -0.026638680657354259 0 -0.015807119628781657 -0.026571498199881464 0 -0.015919053830352421 -0.026279288632819069 0 -0.015807119628781657 -0.026571498199881464 0 -0.015639862994514087 -0.026360161719666719 0 -0.015919053830352421 -0.026279288632819069 0 -0.015639862994514087 -0.026360161719666719 0 -0.015365364379073199 -0.026183212524714571 0 -0.015499580314987419 -0.026631066791590757 0 -0.015807119628781657 -0.026571498199881464 0 -0.015639862994514087 -0.026360161719666719 0 -0.015499580314987419 -0.026631066791590757 0 -0.015706260949587377 -0.026096506011909604 0 -0.01625728171375727 -0.025819761176402278 0 -0.015347981618914222 -0.025840202202695357 0 -0.015639862994514087 -0.026360161719666719 0 -0.015706260949587377 -0.026096506011909604 0 -0.015365364379073199 -0.026183212524714571 0 -0.018915096073666975 -0.029129520989460821 0 -0.015656400701379799 -0.028577429989976574 0 -0.016821993798568999 -0.030759392263483298 0 -0.016644912996239953 -0.030693653050652619 0 -0.015983225214428489 -0.030783242498799157 0 -0.015639862994514087 -0.026360161719666719 0 -0.015706260949587377 -0.026096506011909604 0 -0.015919053830352421 -0.026279288632819069 0 -0.015706260949587377 -0.026096506011909604 0 -0.015919053830352421 -0.026279288632819069 0 -0.01625728171375727 -0.025819761176402278 0 -0.016290017854584806 -0.026169046501381868 0 -0.015919053830352421 -0.026279288632819069 0 -0.01625728171375727 -0.025819761176402278 0 -0.016285691896666593 -0.030530871761025362 0 -0.016644912996239953 -0.030693653050652619 0 -0.016800989754179842 -0.030562624494909572 0 -0.016821993798568999 -0.030759392263483298 0 -0.016644912996239953 -0.030693653050652619 0 -0.016804584033249251 -0.030558552932876459 0 -0.018915096073666975 -0.029129520989460821 0 -0.019061362260637302 -0.030091882170224977 0 -0.019042479141503345 -0.030104117096934523 0 -0.019061362260637302 -0.030091882170224977 0 -0.016285691896666593 -0.030530871761025362 0 -0.016644912996239953 -0.030693653050652619 0 -0.015983225214428489 -0.030783242498799157 0 -0.015365364379073199 -0.026183212524714571 0 -0.014993196791110793 -0.027024807587452085 0 -0.014424054106354634 -0.025866419114634043 0 -0.015347981618914222 -0.025840202202695357 0 -0.015365364379073199 -0.026183212524714571 0 -0.014424054106354634 -0.025866419114634043 0 -0.015656400701379799 -0.028577429989976574 0 -0.012393212529548302 -0.028048527640892839 0 -0.015983225214428489 -0.030783242498799157 0 -0.015147080607294406 -0.030806147892178018 0 -0.015650671150893601 -0.030242155634512786 0 -0.015706260949587377 -0.026096506011909604 0 -0.015347981618914222 -0.025840202202695357 0 -0.015365364379073199 -0.026183212524714571 0 -0.015365364379073199 -0.026183212524714571 0 -0.014993196791110793 -0.027024807587452085 0 -0.015203167324953516 -0.027027307072189741 0 -0.012880305592818317 -0.024180408833024337 0 -0.012826815067054406 -0.023881553277400935 0 -0.015365364379073199 -0.026183212524714571 0 -0.015499580314987419 -0.026631066791590757 0 -0.015216683493488191 -0.027002696498599647 0 -0.01222704693278061 -0.023952340024346562 0 -0.012826815067054406 -0.023881553277400935 0 0.0035196305439391729 -0.021136067020425385 0 -1.5408839331028557e-05 -0.023426461719698432 0 0.00035460696083848087 -0.027638542252596224 0 -0.01222704693278061 -0.023952340024346562 0 -0.0095264648568973136 -0.023303004461995774 0 -0.01222704693278061 -0.023952340024346562 0 -0.012393212529548302 -0.028048527640892839 0 0.0035196305439391729 -0.021136067020425385 0 -1.5408839331028557e-05 -0.023426461719698432 0 -0.0036319474488116692 -0.021209385840892166 0 -1.5408839331028557e-05 -0.023426461719698432 0 -0.002160056126774194 -0.025746488747360127 0 -0.0036319474488116692 -0.021209385840892166 0 -1.5408839331028557e-05 -0.023426461719698432 0 -0.002160056126774194 -0.025746488747360127 0 0.00035460696083848087 -0.027638542252596224 0 0.00012752257199675273 -0.028101792290301922 0 -0.0019255137595127131 -0.02869051034795091 0 -0.0051362561359313648 -0.027956693043050377 0 -0.012393212529548302 -0.028048527640892839 0 -0.010264152184414611 -0.028047739614391283 0 -0.002160056126774194 -0.025746488747360127 0 0.00035460696083848087 -0.027638542252596224 0 -0.0047768258998662858 -0.027564549695738353 0 0.00012752257199675273 -0.028101792290301922 0 -0.0019255137595127131 -0.02869051034795091 0 -0.0016902830187951747 -0.031784710565919201 0 -0.012393212529548302 -0.028048527640892839 0 -0.012777648635661221 -0.030187226906777134 0 -0.015147080607294406 -0.030806147892178018 0 -0.014860692572289809 -0.030223534197059938 0 -0.015650671150893601 -0.030242155634512786 0 -0.014860692572289809 -0.030223534197059938 0 -0.015650671150893601 -0.030242155634512786 0 -0.015317301127503409 -0.029811334007075425 0 -0.0016104030076955814 -0.031829463052362519 0 -0.0020339601022898489 -0.032702870027860681 0 -0.0011000968844409179 -0.037959745894679618 0 -0.0019255137595127131 -0.02869051034795091 0 -0.0016281758516722062 -0.031846602968284309 0 -0.003173988516627512 -0.030348701548034041 0 -0.01261212935084915 -0.030201989066411025 0 -0.012777648635661221 -0.030187226906777134 0 -0.0016281758516722062 -0.031846602968284309 0 -0.0020339601022898489 -0.032702870027860681 0 -0.0035672975184882724 -0.03255529906693895 0 -0.012777648635661221 -0.030187226906777134 0 -0.01275857941475567 -0.030180464400135023 0 -0.016234164671525449 -0.030089500244103898 0 -0.015650671150893601 -0.030242155634512786 0 -0.015822624413208194 -0.029470787212109533 0 -0.016285691896666593 -0.030530871761025362 0 -0.015983225214428489 -0.030783242498799157 0 -0.015650671150893601 -0.030242155634512786 0 -0.016234164671525449 -0.030089500244103898 0 -0.016285691896666593 -0.030530871761025362 0 -0.015650671150893601 -0.030242155634512786 0 -0.015650671150893601 -0.030242155634512786 0 -0.015822624413208194 -0.029470787212109533 0 -0.015317301127503409 -0.029811334007075425 0 -0.015822624413208194 -0.029470787212109533 0 -0.015317301127503409 -0.029811334007075425 0 -0.014935407407740816 -0.02930886751500069 0 -0.012777648635661221 -0.030187226906777134 0 -0.014626779620267346 -0.032683764657327086 0 -0.016893992081406985 -0.032576548165944456 0 -0.014626779620267346 -0.032683764657327086 0 -0.014860692572289809 -0.030223534197059938 0 -0.015317301127503409 -0.029811334007075425 0 -0.014935407407740816 -0.02930886751500069 0 -0.0020339601022898489 -0.032702870027860681 0 -0.0011000968844409179 -0.037959745894679618 0 -0.0028435182536426301 -0.034651434516141291 0 -0.0067246235694067161 -0.015396474591604113 0 -0.0057837226761686504 -0.016445225472482571 0 -0.0070321177536541782 -0.014544790931942211 0 -0.0067246235694067161 -0.015396474591604113 0 -0.0071857790558782246 -0.015835153927202091 0 -0.0076350143951245545 -0.014950966660246359 0 -0.0067246235694067161 -0.015396474591604113 0 -0.0072169666105488728 -0.014794352359289119 0 -0.0076350143951245545 -0.014950966660246359 0 -0.0072169666105488728 -0.014794352359289119 0 -0.0074513541766347722 -0.014396394393533506 0 -0.0076350143951245545 -0.014950966660246359 0 -0.0067246235694067161 -0.015396474591604113 0 -0.0072169666105488728 -0.014794352359289119 0 -0.0070321177536541782 -0.014544790931942211 0 -0.0068537545427978181 -0.014850412476661653 0 -0.0066609209194227678 -0.014573886213361484 0 -0.0068454285007729099 -0.014395148966665062 0 -0.011350557056197553 -0.019668230167674616 0 -0.01101676802328677 -0.018470453156947002 0 -0.0063056720387324999 -0.015663745548572559 0 -0.0070321177536541782 -0.014544790931942211 0 -0.0070876412472889276 -0.014267843312856007 0 -0.0068537545427978181 -0.014850412476661653 0 -0.0068454285007729099 -0.014395148966665062 0 -0.0070876412472889276 -0.014267843312856007 0 -0.0064196020947514644 -0.015690975560983349 0 -0.0063056720387324999 -0.015663745548572559 0 -0.0070321177536541782 -0.014544790931942211 0 -0.014887372241609171 -0.020632053832694622 0 -0.014305927090027955 -0.019662626575119264 0 -0.0064196020947514644 -0.015690975560983349 0 -0.0067527371207574544 -0.016207681036568073 0 -0.0070321177536541782 -0.014544790931942211 0 -0.006303688381460228 -0.015667538836419203 0 -0.0067527371207574544 -0.016207681036568073 0 -0.0057864716306100681 -0.016720284826537531 0 -0.014887372241609171 -0.020632053832694622 0 -0.014972135246977476 -0.022274258379353592 0 -0.0064196020947514644 -0.015690975560983349 0 -0.006303688381460228 -0.015667538836419203 0 -0.0067527371207574544 -0.016207681036568073 0 -0.014869973713660545 -0.020627156348261982 0 -0.014887372241609171 -0.020632053832694622 0 -0.0057837226761686504 -0.016445225472482571 0 -0.0066012413381702157 -0.016084010226095971 0 -0.0067321060927309443 -0.016766567639072208 0 -0.0067246235694067161 -0.015396474591604113 0 -0.0057837226761686504 -0.016445225472482571 0 -0.0066012413381702157 -0.016084010226095971 0 -0.0067246235694067161 -0.015396474591604113 0 -0.0066012413381702157 -0.016084010226095971 0 -0.0071857790558782246 -0.015835153927202091 0 -0.0066012413381702157 -0.016084010226095971 0 -0.0071857790558782246 -0.015835153927202091 0 -0.0067321060927309443 -0.016766567639072208 0 -0.0071857790558782246 -0.015835153927202091 0 -0.0067321060927309443 -0.016766567639072208 0 -0.0078401150191080033 -0.016632634440919836 0 -0.0057837226761686504 -0.016445225472482571 0 -0.0067321060927309443 -0.016766567639072208 0 -0.0061401475862321369 -0.01802435359836033 0 -0.0067321060927309443 -0.016766567639072208 0 -0.0071908790953869534 -0.018153034001533654 0 -0.0078401150191080033 -0.016632634440919836 0 -0.0067321060927309443 -0.016766567639072208 0 -0.0061401475862321369 -0.01802435359836033 0 -0.0071908790953869534 -0.018153034001533654 0 -0.0052692674267081118 -0.019954224004661316 0 -0.0062367151746524638 -0.019140337284988977 0 -0.0076234982181626618 -0.020205322708780695 0 -0.0071908790953869534 -0.018153034001533654 0 -0.0062367151746524638 -0.019140337284988977 0 -0.0076234982181626618 -0.020205322708780695 0 -0.0061401475862321369 -0.01802435359836033 0 -0.0071908790953869534 -0.018153034001533654 0 -0.0062367151746524638 -0.019140337284988977 0 -0.012550143273718886 -0.023170552001272385 0 -0.014972135246977476 -0.022274258379353592 0 -0.012846310104435911 -0.025241260327491386 0 -0.012513479784414364 -0.025236312502919335 0 -0.012604168700339856 -0.024744558445580076 0 -0.012826815067054406 -0.023881553277400935 0 -0.012550143273718886 -0.023170552001272385 0 -0.0052692674267081118 -0.019954224004661316 0 -0.0062367151746524638 -0.019140337284988977 0 -0.0049661924791281429 -0.0193579259652981 0 -0.01222704693278061 -0.023952340024346562 0 -0.012550143273718886 -0.023170552001272385 0 -0.0061401475862321369 -0.01802435359836033 0 -0.0062367151746524638 -0.019140337284988977 0 -0.0049661924791281429 -0.0193579259652981 0 -0.0057837226761686504 -0.016445225472482571 0 -0.0061401475862321369 -0.01802435359836033 0 -0.0049661924791281429 -0.0193579259652981 0 -0.0067527371207574544 -0.016207681036568073 0 -0.0064408257642406411 -0.018057366570917679 0 -0.0057864716306100681 -0.016720284826537531 0 -0.011350557056197553 -0.019668230167674616 0 -0.012550143273718886 -0.023170552001272385 0 -0.017502585105469728 -0.021643107244927871 0 -0.016699244486785003 -0.022071135945564316 0 -0.017273914021052529 -0.02117785773732378 0 -0.014972135246977476 -0.022274258379353592 0 -0.015007502293864095 -0.022268643075462429 0 -0.014218389821380307 -0.025717374088701925 0 -0.016123166064632495 -0.025232747521453512 0 -0.015281081685048031 -0.023505502926961627 0 -0.017525265407824304 -0.024666710868736778 0 -0.014972135246977476 -0.022274258379353592 0 -0.014218389821380307 -0.025717374088701925 0 -0.016028963377371599 -0.025742672360626932 0 -0.016123166064632495 -0.025232747521453512 0 -0.016861459527083837 -0.022988680797358226 0 -0.017502585105469728 -0.021643107244927871 0 -0.016699244486785003 -0.022071135945564316 0 -0.016788205900443661 -0.02298770577001551 0 -0.016861459527083837 -0.022988680797358226 0 -0.016699244486785003 -0.022071135945564316 0 -0.018222820274256327 -0.026285016679374124 0 -0.020135232041327434 -0.02631185203215456 0 -0.019467138754143059 -0.025444738959438776 0 -0.018222820274256327 -0.026285016679374124 0 -0.019467138754143059 -0.025444738959438776 0 -0.019001998927319866 -0.024452070454463248 0 -0.020135232041327434 -0.02631185203215456 0 -0.019467138754143059 -0.025444738959438776 0 -0.019960134477748297 -0.024465556152289625 0 -0.017852313489807741 -0.024707439664818302 0 -0.018359854819295897 -0.022988695813657398 0 -0.019467138754143059 -0.025444738959438776 0 -0.019001998927319866 -0.024452070454463248 0 -0.019960134477748297 -0.024465556152289625 0 -0.020379965990662462 -0.023321074889764998 0 -0.018862790626204103 -0.021170087635743868 0 -0.025161117256132803 -0.022628541474759501 0 -0.025036283051475761 -0.02289124825877932 0 -0.025193040371184548 -0.022812965580509884 0 -0.016699244486785003 -0.022071135945564316 0 -0.016613271411904978 -0.021157123425120179 0 -0.017273914021052529 -0.02117785773732378 0 -0.019001998927319866 -0.024452070454463248 0 -0.019960134477748297 -0.024465556152289625 0 -0.019782644925580115 -0.022616913649949215 0 -0.018359854819295897 -0.022988695813657398 0 -0.018862790626204103 -0.021170087635743868 0 -0.025168652629736315 -0.022934568684607182 0 -0.025036283051475761 -0.02289124825877932 0 -0.025193040371184548 -0.022812965580509884 0 -0.025168652629736315 -0.022934568684607182 0 -0.025036283051475761 -0.02289124825877932 0 -0.025050428948785695 -0.023076285803179428 0 -0.025168652629736315 -0.022934568684607182 0 -0.025137720166026153 -0.023093121054880192 0 -0.025050428948785695 -0.023076285803179428 0 -0.018862790626204103 -0.021170087635743868 0 -0.019120460741816905 -0.01976572240106229 0 -0.020021981010327039 -0.018379071285166301 0 -0.019223442130661624 -0.020248528863834436 0 -0.019027622093145329 -0.01819241545698146 0 -0.017961499736987924 -0.019793922652687847 0 -0.018862790626204103 -0.021170087635743868 0 -0.014887372241609171 -0.020632053832694622 0 -0.017961499736987924 -0.019793922652687847 0 -0.017898885287966081 -0.020794473194245617 0 -0.01685453904380118 -0.020596190623725176 0 -0.017273914021052529 -0.02117785773732378 0 -0.017898885287966081 -0.020794473194245617 0 -0.017494049916596591 -0.021632906793676812 0 -0.017273914021052529 -0.02117785773732378 0 -0.01685453904380118 -0.020596190623725176 0 -0.016613271411904978 -0.021157123425120179 0 -0.017273914021052529 -0.02117785773732378 0 -0.0063727146399992999 -0.014768120408241381 0 -0.0066609209194227678 -0.014573886213361484 0 -0.0065013579798153132 -0.014432090812712238 0 -0.017961499736987924 -0.019793922652687847 0 -0.017049849714067603 -0.019119145939350157 0 -0.0068537545427978181 -0.014850412476661653 0 -0.0063727146399992999 -0.014768120408241381 0 -0.0066609209194227678 -0.014573886213361484 0 -0.0066609209194227678 -0.014573886213361484 0 -0.0065013579798153132 -0.014432090812712238 0 -0.0066754385426601205 -0.014337079593788231 0 -0.0066609209194227678 -0.014573886213361484 0 -0.0066754385426601205 -0.014337079593788231 0 -0.0068454285007729099 -0.014395148966665062 0 -0.026476608192835246 -0.020126823645661533 0 -0.026221888047165832 -0.020424505040770286 0 -0.025787979625267233 -0.019789059698306192 0 -0.019098433924604499 -0.019113335931729567 0 -0.020239592885908847 -0.019493701237491733 0 -0.020239592885908847 -0.019493701237491733 0 -0.019120460741816905 -0.01976572240106229 0 -0.018374059654420963 -0.019040004155301726 0 -0.01666196724474555 -0.021037283016526583 0 -0.018599596349926466 -0.02140102106350223 0 -0.017166688881244067 -0.019511833378809042 0 -0.017354380166776567 -0.019064644439514521 0 -0.016963211151663427 -0.019263237096623611 0 -0.017961499736987924 -0.019793922652687847 0 -0.019120460741816905 -0.01976572240106229 0 -0.017166688881244067 -0.019511833378809042 0 -0.016963211151663427 -0.019263237096623611 0 -0.016983925630336467 -0.019477679040055866 0 -0.019098433924604499 -0.019113335931729567 0 -0.019120460741816905 -0.01976572240106229 0 -0.026221888047165832 -0.020424505040770286 0 -0.025787979625267233 -0.019789059698306192 0 -0.025152777406159413 -0.02022314021507747 0 -0.020239592885908847 -0.019493701237491733 0 -0.026005402427606534 -0.020133992819949029 0 -0.026005402427606534 -0.020133992819949029 0 -0.032014075714356556 -0.020611058464877437 0 -0.025477624158023033 -0.023129304061639325 0 -0.025680450201940354 -0.022818184715256609 0 -0.025794818083387957 -0.023189534037067337 0 -0.025477624158023033 -0.023129304061639325 0 -0.025406853619439711 -0.022797810994603342 0 -0.025680450201940354 -0.022818184715256609 0 -0.025168652629736315 -0.022934568684607182 0 -0.025137720166026153 -0.023093121054880192 0 -0.025406853619439711 -0.022797810994603342 0 -0.020239592885908847 -0.019493701237491733 0 -0.020754569359586153 -0.019662158095153905 0 -0.025167778880461154 -0.0230661875863684 0 -0.025477624158023033 -0.023129304061639325 0 -0.025406853619439711 -0.022797810994603342 0 -0.025168652629736315 -0.022934568684607182 0 -0.025193040371184548 -0.022812965580509884 0 -0.025406853619439711 -0.022797810994603342 0 -0.025161117256132803 -0.022628541474759501 0 -0.025193040371184548 -0.022812965580509884 0 -0.025406853619439711 -0.022797810994603342 0 -0.025161117256132803 -0.022628541474759501 0 -0.025406853619439711 -0.022797810994603342 0 -0.025495437912347974 -0.022660642191873415 0 -0.021667765329553529 -0.025587253094591488 0 -0.020379965990662462 -0.023321074889764998 0 -0.025278012675462796 -0.02237385540716514 0 -0.025161117256132803 -0.022628541474759501 0 -0.025447906539325056 -0.022504036420263825 0 -0.025161117256132803 -0.022628541474759501 0 -0.025447906539325056 -0.022504036420263825 0 -0.025495437912347974 -0.022660642191873415 0 -0.025619428969649298 -0.022383778958513012 0 -0.025278012675462796 -0.02237385540716514 0 -0.025447906539325056 -0.022504036420263825 0 -0.025619428969649298 -0.022383778958513012 0 -0.025636248267246121 -0.022483716403783174 0 -0.025447906539325056 -0.022504036420263825 0 -0.025447906539325056 -0.022504036420263825 0 -0.025646410876738673 -0.02258994379945017 0 -0.025495437912347974 -0.022660642191873415 0 -0.025636248267246121 -0.022483716403783174 0 -0.025447906539325056 -0.022504036420263825 0 -0.025646410876738673 -0.02258994379945017 0 -0.025406853619439711 -0.022797810994603342 0 -0.025495437912347974 -0.022660642191873415 0 -0.025680450201940354 -0.022818184715256609 0 -0.025646410876738673 -0.02258994379945017 0 -0.025495437912347974 -0.022660642191873415 0 -0.025680450201940354 -0.022818184715256609 0 -0.025646410876738673 -0.02258994379945017 0 -0.025680450201940354 -0.022818184715256609 0 -0.025759873106603517 -0.022617757173195103 0 -0.025680450201940354 -0.022818184715256609 0 -0.025874218779699313 -0.022680307750353536 0 -0.025970016210135331 -0.022894875780823616 0 -0.025680450201940354 -0.022818184715256609 0 -0.025874218779699313 -0.022680307750353536 0 -0.025759873106603517 -0.022617757173195103 0 -0.027667332989259063 -0.026623853482767364 0 -0.027624396252839419 -0.026843183559504432 0 -0.025646410876738673 -0.02258994379945017 0 -0.025759873106603517 -0.022617757173195103 0 -0.025766552609692361 -0.022470209385789242 0 -0.031823144724438868 -0.026687098181036893 0 -0.031060381452964036 -0.026677002413002839 0 -0.031027585288056214 -0.026837798452736098 0 -0.025874218779699313 -0.022680307750353536 0 -0.025759873106603517 -0.022617757173195103 0 -0.025766552609692361 -0.022470209385789242 0 -0.025619428969649298 -0.022383778958513012 0 -0.025636248267246121 -0.022483716403783174 0 -0.025747680633543775 -0.022439535602030946 0 -0.025829665316247405 -0.026799323325390007 0 -0.027624396252839419 -0.026843183559504432 0 -0.028246181580927083 -0.026938367649758096 0 -0.027578912850232253 -0.026772647955605539 0 -0.027549949025793007 -0.026646749538259469 0 -0.031060381452964036 -0.026677002413002839 0 -0.031010563185762979 -0.026765594504233992 0 -0.031027585288056214 -0.026837798452736098 0 -0.025636248267246121 -0.022483716403783174 0 -0.025646410876738673 -0.02258994379945017 0 -0.025747680633543775 -0.022439535602030946 0 -0.027854052629511898 -0.02724684489492489 0 -0.027645198632201533 -0.027120571126992069 0 -0.025646410876738673 -0.02258994379945017 0 -0.025766552609692361 -0.022470209385789242 0 -0.025759347498237571 -0.022436969676073719 0 -0.027469461033883199 -0.027221932342777783 0 -0.027645198632201533 -0.027120571126992069 0 -0.027645198632201533 -0.027120571126992069 0 -0.027624396252839419 -0.026843183559504432 0 -0.027620619410618861 -0.026829659032788139 0 -0.027624396252839419 -0.026843183559504432 0 -0.031823144724438868 -0.026687098181036893 0 -0.031027585288056214 -0.026837798452736098 0 -0.032222860112186794 -0.027329245515271772 0 -0.025874218779699313 -0.022680307750353536 0 -0.025766552609692361 -0.022470209385789242 0 -0.026150433807989943 -0.022596551617272663 0 -0.025766552609692361 -0.022470209385789242 0 -0.025758559166299336 -0.022436710064589589 0 -0.026150433807989943 -0.022596551617272663 0 -0.027624396252839419 -0.026843183559504432 0 -0.033372838275343104 -0.025043885881321486 0 -0.032839031016897224 -0.022716690429001974 0 -0.033372838275343104 -0.025043885881321486 0 -0.025874218779699313 -0.022680307750353536 0 -0.025970016210135331 -0.022894875780823616 0 -0.026150433807989943 -0.022596551617272663 0 -0.032839031016897224 -0.022716690429001974 0 -0.032014075714356556 -0.020611058464877437 0 -0.041783977318307762 -0.022582311264064354 0 -0.042340427182981887 -0.021577110277119158 0 -0.041391806157380542 -0.022055092986863957 0 -0.025680450201940354 -0.022818184715256609 0 -0.025970016210135331 -0.022894875780823616 0 -0.025794818083387957 -0.023189534037067337 0 -0.032014075714356556 -0.020611058464877437 0 -0.036282511711906197 -0.021197912680021583 0 -0.042340427182981887 -0.021577110277119158 0 -0.041391754793261987 -0.021394890538529575 0 -0.041391806157380542 -0.022055092986863957 0 -0.042301652833172103 -0.021460540685278005 0 -0.043190087846476627 -0.020432874828136147 0 -0.04176072720501911 -0.019979886213331247 0 -0.043719649368907265 -0.021729590394879952 0 -0.042301652833172103 -0.021460540685278005 0 -0.043190087846476627 -0.020432874828136147 0 -0.043719649368907265 -0.021729590394879952 0 -0.043190087846476627 -0.020432874828136147 0 -0.044699321596854434 -0.020025835491977347 0 -0.032014075714356556 -0.020611058464877437 0 -0.031158936280694563 -0.018148218569952274 0 -0.043190087846476627 -0.020432874828136147 0 -0.042838106123811066 -0.018934846293996489 0 -0.044699321596854434 -0.020025835491977347 0 -0.043190087846476627 -0.020432874828136147 0 -0.042838106123811066 -0.018934846293996489 0 -0.04176072720501911 -0.019979886213331247 0 -0.042838106123811066 -0.018934846293996489 0 -0.043033865912762106 -0.017614569548312642 0 -0.044097511689411104 -0.018149926017779618 0 -0.042838106123811066 -0.018934846293996489 0 -0.043033865912762106 -0.017614569548312642 0 -0.042201017681897518 -0.01765827166754684 0 -0.043033865912762106 -0.017614569548312642 0 -0.042426116509186637 -0.016974427037458044 0 -0.043010361816454235 -0.016754278059879699 0 -0.043033865912762106 -0.017614569548312642 0 -0.042201017681897518 -0.01765827166754684 0 -0.042426116509186637 -0.016974427037458044 0 -0.043033865912762106 -0.017614569548312642 0 -0.044097511689411104 -0.018149926017779618 0 -0.043555991376501381 -0.016846043320996748 0 -0.044097511689411104 -0.018149926017779618 0 -0.043555991376501381 -0.016846043320996748 0 -0.044780619978345995 -0.017008196921470979 0 -0.042838106123811066 -0.018934846293996489 0 -0.044097511689411104 -0.018149926017779618 0 -0.044699321596854434 -0.020025835491977347 0 -0.025471215701980607 -0.017545656971075258 0 -0.025726714326466022 -0.017918625591296394 0 -0.024775410644297287 -0.018787789222169449 0 -0.044097511689411104 -0.018149926017779618 0 -0.04566854206606067 -0.018315088916369921 0 -0.044699321596854434 -0.020025835491977347 0 -0.029304927320923775 -0.015855196872930296 0 -0.031158936280694563 -0.018148218569952274 0 -0.029304927320923775 -0.015855196872930296 0 -0.032757850610677854 -0.014988121439225054 0 -0.044097511689411104 -0.018149926017779618 0 -0.04566854206606067 -0.018315088916369921 0 -0.044780619978345995 -0.017008196921470979 0 -0.028807841036992358 -0.013460276641003422 0 -0.028556960939632864 -0.013089792046928461 0 -0.028831628442267204 -0.012999416183851357 0 -0.029304927320923775 -0.015855196872930296 0 -0.024458717128149593 -0.015419486253486193 0 -0.025459240043827661 -0.017535800297180878 0 -0.026254111001174772 -0.017624352366067519 0 -0.026128858025998923 -0.016343068064678026 0 -0.028807841036992358 -0.013460276641003422 0 -0.028831628442267204 -0.012999416183851357 0 -0.029057622143049116 -0.0130067948306784 0 -0.025459240043827661 -0.017535800297180878 0 -0.025726714326466022 -0.017918625591296394 0 -0.026254111001174772 -0.017624352366067519 0 -0.029304927320923775 -0.015855196872930296 0 -0.029258743766045207 -0.015862765292875013 0 -0.025726714326466022 -0.017918625591296394 0 -0.025663535901898595 -0.018845474996910642 0 -0.026365163342560262 -0.018882868322413097 0 -0.025726714326466022 -0.017918625591296394 0 -0.025663535901898595 -0.018845474996910642 0 -0.024775410644297287 -0.018787789222169449 0 -0.025787979625267233 -0.019789059698306192 0 -0.025152777406159413 -0.02022314021507747 0 -0.024775410644297287 -0.018787789222169449 0 -0.025152777406159413 -0.02022314021507747 0 -0.024085958548444204 -0.020022007285568355 0 -0.024775410644297287 -0.018787789222169449 0 -0.025787979625267233 -0.019789059698306192 0 -0.025663535901898595 -0.018845474996910642 0 -0.024775410644297287 -0.018787789222169449 0 -0.025787979625267233 -0.019789059698306192 0 -0.025663535901898595 -0.018845474996910642 0 -0.026365163342560262 -0.018882868322413097 0 -0.019098433924604499 -0.019113335931729567 0 -0.020277169207402832 -0.016974940093133488 0 -0.026476608192835246 -0.020126823645661533 0 -0.025787979625267233 -0.019789059698306192 0 -0.026365163342560262 -0.018882868322413097 0 -0.008702873062503556 -0.012374143190075841 0 -0.0086324783144488132 -0.012475850037632397 0 -0.0087078015000876755 -0.012574514245654818 0 -0.0086324783144488132 -0.012475850037632397 0 -0.0086052621802352562 -0.012545199516057358 0 -0.0087078015000876755 -0.012574514245654818 0 -0.019098433924604499 -0.019113335931729567 0 -0.016456978578269194 -0.018635592424646269 0 -0.008702873062503556 -0.012374143190075841 0 -0.0086324783144488132 -0.012475850037632397 0 -0.008514543167794375 -0.012538936749463362 0 -0.017354380166776567 -0.019064644439514521 0 -0.016963211151663427 -0.019263237096623611 0 -0.017541632431842244 -0.018618150204765448 0 -0.0065013579798153132 -0.014432090812712238 0 -0.0066754385426601205 -0.014337079593788231 0 -0.0066029322834270611 -0.014064470725904617 0 -0.017049849714067603 -0.019119145939350157 0 -0.016456978578269194 -0.018635592424646269 0 -0.0066754385426601205 -0.014337079593788231 0 -0.0066029322834270611 -0.014064470725904617 0 -0.0067583778975664329 -0.014195216242145078 0 -0.0086324783144488132 -0.012475850037632397 0 -0.0085801448046721723 -0.012533119592837424 0 -0.0086052621802352562 -0.012545199516057358 0 -0.0086324783144488132 -0.012475850037632397 0 -0.008514543167794375 -0.012538936749463362 0 -0.0085801448046721723 -0.012533119592837424 0 -0.0085801448046721723 -0.012533119592837424 0 -0.0086052621802352562 -0.012545199516057358 0 -0.0085618145192827375 -0.012569655658335139 0 -0.008514543167794375 -0.012538936749463362 0 -0.0085801448046721723 -0.012533119592837424 0 -0.0085618145192827375 -0.012569655658335139 0 -0.0085618145192827375 -0.012569655658335139 0 -0.0085944202547741568 -0.012600162970390483 0 -0.0085078930338632151 -0.0126452128246343 0 -0.0086052621802352562 -0.012545199516057358 0 -0.0085618145192827375 -0.012569655658335139 0 -0.0085944202547741568 -0.012600162970390483 0 -0.008514543167794375 -0.012538936749463362 0 -0.0085618145192827375 -0.012569655658335139 0 -0.0085078930338632151 -0.0126452128246343 0 -0.0085944202547741568 -0.012600162970390483 0 -0.0085078930338632151 -0.0126452128246343 0 -0.0085922098133549979 -0.012700835675223338 0 -0.0085944202547741568 -0.012600162970390483 0 -0.0087078015000876755 -0.012574514245654818 0 -0.0085922098133549979 -0.012700835675223338 0 -0.0087078015000876755 -0.012574514245654818 0 -0.0087206078092437276 -0.012793531023844834 0 -0.0085922098133549979 -0.012700835675223338 0 -0.020277169207402832 -0.016974940093133488 0 -0.021976967737494 -0.015853982714055158 0 -0.0086052621802352562 -0.012545199516057358 0 -0.0085944202547741568 -0.012600162970390483 0 -0.0087078015000876755 -0.012574514245654818 0 -0.025726714326466022 -0.017918625591296394 0 -0.026365163342560262 -0.018882868322413097 0 -0.026254111001174772 -0.017624352366067519 0 -0.0087206078092437276 -0.012793531023844834 0 -0.008567613235746915 -0.012872604182045078 0 -0.0085922098133549979 -0.012700835675223338 0 -0.021976967737494 -0.015853982714055158 0 -0.024458717128149593 -0.015419486253486193 0 -0.0087206078092437276 -0.012793531023844834 0 -0.008567613235746915 -0.012872604182045078 0 -0.0087308579040635582 -0.01301040810914725 0 -0.008567613235746915 -0.012872604182045078 0 -0.0084749186241259121 -0.012775930754563059 0 -0.0083862292284643224 -0.012950422442039757 0 -0.008567613235746915 -0.012872604182045078 0 -0.0083862292284643224 -0.012950422442039757 0 -0.0085732355850444922 -0.01301733115372726 0 -0.008567613235746915 -0.012872604182045078 0 -0.0084749186241259121 -0.012775930754563059 0 -0.0085922098133549979 -0.012700835675223338 0 -0.0085078930338632151 -0.0126452128246343 0 -0.0084749186241259121 -0.012775930754563059 0 -0.0085922098133549979 -0.012700835675223338 0 -0.0084749186241259121 -0.012775930754563059 0 -0.0083097269998526745 -0.012719636172948499 0 -0.0083862292284643224 -0.012950422442039757 0 -0.0085078930338632151 -0.0126452128246343 0 -0.0084749186241259121 -0.012775930754563059 0 -0.0083097269998526745 -0.012719636172948499 0 -0.014150240215814174 -0.017683945124346616 0 -0.013454022302287812 -0.017353919787592501 0 -0.0083097269998526745 -0.012719636172948499 0 -0.0083862292284643224 -0.012950422442039757 0 -0.0080501766134960726 -0.012980138567565131 0 -0.007234604195807604 -0.013385438935397859 0 -0.0080508480924810846 -0.013298091090439232 0 -0.0080501766134960726 -0.012980138567565131 0 -0.007234604195807604 -0.013385438935397859 0 -0.0076675645662122741 -0.013811498364015167 0 -0.0080508480924810846 -0.013298091090439232 0 -0.007234604195807604 -0.013385438935397859 0 -0.0076675645662122741 -0.013811498364015167 0 -0.0072480624018653704 -0.013940771855787414 0 -0.008514543167794375 -0.012538936749463362 0 -0.0085078930338632151 -0.0126452128246343 0 -0.0083097269998526745 -0.012719636172948499 0 -0.016456978578269194 -0.018635592424646269 0 -0.014150240215814174 -0.017683945124346616 0 -0.007234604195807604 -0.013385438935397859 0 -0.0072480624018653704 -0.013940771855787414 0 -0.0069329675625526598 -0.014087771422832884 0 -0.0066029322834270611 -0.014064470725904617 0 -0.007234604195807604 -0.013385438935397859 0 -0.0069329675625526598 -0.014087771422832884 0 -0.0072480624018653704 -0.013940771855787414 0 -0.0069329675625526598 -0.014087771422832884 0 -0.0070592778067521062 -0.014143394445709587 0 -0.0070592778067521062 -0.014143394445709587 0 -0.0068861590421998497 -0.014209786582370366 0 -0.0069676932644731323 -0.014257803239979033 0 -0.0069329675625526598 -0.014087771422832884 0 -0.0070592778067521062 -0.014143394445709587 0 -0.0068861590421998497 -0.014209786582370366 0 -0.0070592778067521062 -0.014143394445709587 0 -0.0069676932644731323 -0.014257803239979033 0 -0.0070876412472889276 -0.014267843312856007 0 -0.0066029322834270611 -0.014064470725904617 0 -0.0069329675625526598 -0.014087771422832884 0 -0.0067583778975664329 -0.014195216242145078 0 -0.0069329675625526598 -0.014087771422832884 0 -0.0068861590421998497 -0.014209786582370366 0 -0.0067583778975664329 -0.014195216242145078 0 -0.0066754385426601205 -0.014337079593788231 0 -0.0067583778975664329 -0.014195216242145078 0 -0.0068454285007729099 -0.014395148966665062 0 -0.0068861590421998497 -0.014209786582370366 0 -0.0067583778975664329 -0.014195216242145078 0 -0.0068454285007729099 -0.014395148966665062 0 -0.0068861590421998497 -0.014209786582370366 0 -0.0068454285007729099 -0.014395148966665062 0 -0.0069676932644731323 -0.014257803239979033 0 -0.0068454285007729099 -0.014395148966665062 0 -0.0069676932644731323 -0.014257803239979033 0 -0.0070876412472889276 -0.014267843312856007 0 -0.0072169666105488728 -0.014794352359289119 0 -0.0070321177536541782 -0.014544790931942211 0 -0.0074513541766347722 -0.014396394393533506 0 -0.0076675645662122741 -0.013811498364015167 0 -0.0072480624018653704 -0.013940771855787414 0 -0.0074513541766347722 -0.014396394393533506 0 -0.0070321177536541782 -0.014544790931942211 0 -0.0070876412472889276 -0.014267843312856007 0 -0.0074513541766347722 -0.014396394393533506 0 -0.0072480624018653704 -0.013940771855787414 0 -0.0070592778067521062 -0.014143394445709587 0 -0.0070876412472889276 -0.014267843312856007 0 -0.0072480624018653704 -0.013940771855787414 0 -0.0070876412472889276 -0.014267843312856007 0 -0.0074513541766347722 -0.014396394393533506 0 -0.037152589991319707 -0.023404525433891054 0 -0.037799932026616821 -0.023113130931469817 0 -0.037926993604846956 -0.024140244593421352 0 -0.037152589991319707 -0.023404525433891054 0 -0.037799932026616821 -0.023113130931469817 0 -0.036650172082496511 -0.02252596017419296 0 -0.036672936968585458 -0.023512595304259223 0 -0.036881706555374566 -0.024428935878632266 0 -0.037799932026616821 -0.023113130931469817 0 -0.037926993604846956 -0.024140244593421352 0 -0.038891557033880947 -0.023596563783507413 0 -0.0377594745275837 -0.022274095287567658 0 -0.037866336958257835 -0.021777945169759252 0 -0.038664625884808672 -0.021735508052368478 0 -0.0377594745275837 -0.022274095287567658 0 -0.037866336958257835 -0.021777945169759252 0 -0.037432241308265793 -0.02155931647618916 0 -0.037866336958257835 -0.021777945169759252 0 -0.037432241308265793 -0.02155931647618916 0 -0.037844345913141002 -0.021035252424856293 0 -0.036672936968585458 -0.023512595304259223 0 -0.035935152156106744 -0.022604903947694668 0 -0.0377594745275837 -0.022274095287567658 0 -0.037432241308265793 -0.02155931647618916 0 -0.036461833161148836 -0.021938650962087455 0 -0.036650172082496511 -0.02252596017419296 0 -0.035826933804484241 -0.022931337078872644 0 -0.036510328069683573 -0.023034042290901349 0 -0.035935152156106744 -0.022604903947694668 0 -0.035001278138407144 -0.021726166457557969 0 -0.035826933804484241 -0.022931337078872644 0 -0.034999979281798883 -0.023371438464052381 0 -0.035000030990076522 -0.021724115944234335 0 -0.036650172082496511 -0.02252596017419296 0 -0.035826933804484241 -0.022931337078872644 0 -0.035000030990076522 -0.021724115944234335 0 -0.035826933804484241 -0.022931337078872644 0 -0.035913954803714496 -0.02403191151369094 0 -0.034999979281798883 -0.023371438464052381 0 -0.037152589991319707 -0.023404525433891054 0 -0.036510328069683573 -0.023034042290901349 0 -0.036832223193923819 -0.024090509825321842 0 -0.035913954803714496 -0.02403191151369094 0 -0.036510328069683573 -0.023034042290901349 0 -0.036966642073341591 -0.02462386707878661 0 -0.035826933804484241 -0.022931337078872644 0 -0.035913954803714496 -0.02403191151369094 0 -0.036510328069683573 -0.023034042290901349 0 -0.037152589991319707 -0.023404525433891054 0 -0.036650172082496511 -0.02252596017419296 0 -0.036510328069683573 -0.023034042290901349 0 -0.036353659583123261 -0.024978491618946438 0 -0.036415737434083301 -0.025382324967374428 0 -0.035913954803714496 -0.02403191151369094 0 -0.036966642073341591 -0.02462386707878661 0 -0.036024216933860896 -0.025184321330828784 0 -0.035913954803714496 -0.02403191151369094 0 -0.034999985657200874 -0.025018879585988023 0 -0.036024216933860896 -0.025184321330828784 0 -0.035913954803714496 -0.02403191151369094 0 -0.034999979281798883 -0.023371438464052381 0 -0.034999985657200874 -0.025018879585988023 0 -0.035000002500313834 -0.026666263468993343 0 -0.034999985657200874 -0.025018879585988023 0 -0.0357107341913512 -0.026066948058014801 0 -0.034999985657200874 -0.025018879585988023 0 -0.036024216933860896 -0.025184321330828784 0 -0.0357107341913512 -0.026066948058014801 0 -0.036966642073341591 -0.02462386707878661 0 -0.036024216933860896 -0.025184321330828784 0 -0.03656836212313725 -0.026185477670452564 0 -0.036966642073341591 -0.02462386707878661 0 -0.03656836212313725 -0.026185477670452564 0 -0.037390832372103729 -0.026197546898165502 0 -0.036024216933860896 -0.025184321330828784 0 -0.0357107341913512 -0.026066948058014801 0 -0.03656836212313725 -0.026185477670452564 0 -0.03653660242812546 -0.02630621658657702 0 -0.036515757883729599 -0.026307987012820843 0 -0.036832223193923819 -0.024090509825321842 0 -0.037116548697983275 -0.025110373005611919 0 -0.037926993604846956 -0.024140244593421352 0 -0.036415737434083301 -0.025382324967374428 0 -0.036515757883729599 -0.026307987012820843 0 -0.037152589991319707 -0.023404525433891054 0 -0.036832223193923819 -0.024090509825321842 0 -0.037926993604846956 -0.024140244593421352 0 -0.037116548697983275 -0.025110373005611919 0 -0.037926993604846956 -0.024140244593421352 0 -0.038482549712178099 -0.025119837936057123 0 -0.036515757883729599 -0.026307987012820843 0 -0.036851585709056604 -0.026117458495219265 0 -0.037926993604846956 -0.024140244593421352 0 -0.038482549712178099 -0.025119837936057123 0 -0.039166349996116331 -0.024490098180171227 0 -0.03982653677694771 -0.025134429009330574 0 -0.038482549712178099 -0.025119837936057123 0 -0.039166349996116331 -0.024490098180171227 0 -0.03982653677694771 -0.025134429009330574 0 -0.039166349996116331 -0.024490098180171227 0 -0.039981632806472295 -0.024060959292197596 0 -0.036052656316384879 -0.025958756670394333 0 -0.036851585709056604 -0.026117458495219265 0 -0.039166349996116331 -0.024490098180171227 0 -0.039981632806472295 -0.024060959292197596 0 -0.038891557033880947 -0.023596563783507413 0 -0.040147195049818264 -0.02301089390820962 0 -0.04012614500314534 -0.023154198106293541 0 -0.038945471729411048 -0.022705771624423103 0 -0.035964021751059699 -0.025258142364717465 0 -0.036881706555374566 -0.024428935878632266 0 -0.037926993604846956 -0.024140244593421352 0 -0.039166349996116331 -0.024490098180171227 0 -0.038891557033880947 -0.023596563783507413 0 -0.03571977993828674 -0.02584690484232793 0 -0.036100097538231145 -0.025176978301139213 0 -0.035005726541038402 -0.024720868827211123 0 -0.032584558681972131 -0.026697668643747983 0 -0.031823144724438868 -0.026687098181036893 0 -0.032222860112186794 -0.027329245515271772 0 -0.034281921722128114 -0.025869030354821198 0 -0.033372838275343104 -0.025043885881321486 0 -0.034844943384013567 -0.025834862922583142 0 -0.03571977993828674 -0.02584690484232793 0 -0.035005726541038402 -0.024720868827211123 0 -0.036052656316384879 -0.025958756670394333 0 -0.035964021751059699 -0.025258142364717465 0 -0.040125248024940649 -0.023148055856858529 0 -0.04089027259802832 -0.022919717649047208 0 -0.040500436848931988 -0.022770325047497063 0 -0.040147195049818264 -0.02301089390820962 0 -0.040125248024940649 -0.023148055856858529 0 -0.040500436848931988 -0.022770325047497063 0 -0.035970125576058963 -0.025246307051323604 0 -0.035964021751059699 -0.025258142364717465 0 -0.041783977318307762 -0.022582311264064354 0 -0.041213521531403986 -0.023592323935371941 0 -0.04089027259802832 -0.022919717649047208 0 -0.033372838275343104 -0.025043885881321486 0 -0.035964021751059699 -0.025258142364717465 0 -0.041213521531403986 -0.023592323935371941 0 -0.040125248024940649 -0.023148055856858529 0 -0.04089027259802832 -0.022919717649047208 0 -0.041783977318307762 -0.022582311264064354 0 -0.041391806157380542 -0.022055092986863957 0 -0.04089027259802832 -0.022919717649047208 0 -0.041391806157380542 -0.022055092986863957 0 -0.04089027259802832 -0.022919717649047208 0 -0.040744137781826791 -0.022115302937670441 0 -0.04089027259802832 -0.022919717649047208 0 -0.040744137781826791 -0.022115302937670441 0 -0.040500436848931988 -0.022770325047497063 0 -0.040147195049818264 -0.02301089390820962 0 -0.040272496701710993 -0.022382927926008 0 -0.039661372866270715 -0.022136987837037055 0 -0.040744137781826791 -0.022115302937670441 0 -0.040500436848931988 -0.022770325047497063 0 -0.040272496701710993 -0.022382927926008 0 -0.040744137781826791 -0.022115302937670441 0 -0.040272496701710993 -0.022382927926008 0 -0.04025546908741507 -0.021844939763580155 0 -0.040147195049818264 -0.02301089390820962 0 -0.040500436848931988 -0.022770325047497063 0 -0.040272496701710993 -0.022382927926008 0 -0.040272496701710993 -0.022382927926008 0 -0.04025546908741507 -0.021844939763580155 0 -0.039661372866270715 -0.022136987837037055 0 -0.040744137781826791 -0.022115302937670441 0 -0.04025546908741507 -0.021844939763580155 0 -0.040442158583719315 -0.021191433067574601 0 -0.04025546908741507 -0.021844939763580155 0 -0.039489394392285597 -0.020933837521654609 0 -0.040442158583719315 -0.021191433067574601 0 -0.041391754793261987 -0.021394890538529575 0 -0.040744137781826791 -0.022115302937670441 0 -0.040442158583719315 -0.021191433067574601 0 -0.041391754793261987 -0.021394890538529575 0 -0.041391806157380542 -0.022055092986863957 0 -0.040744137781826791 -0.022115302937670441 0 -0.038945471729411048 -0.022705771624423103 0 -0.039661372866270715 -0.022136987837037055 0 -0.038664625884808672 -0.021735508052368478 0 -0.0377594745275837 -0.022274095287567658 0 -0.038945471729411048 -0.022705771624423103 0 -0.038664625884808672 -0.021735508052368478 0 -0.040147195049818264 -0.02301089390820962 0 -0.038945471729411048 -0.022705771624423103 0 -0.039661372866270715 -0.022136987837037055 0 -0.039661372866270715 -0.022136987837037055 0 -0.038664625884808672 -0.021735508052368478 0 -0.039489394392285597 -0.020933837521654609 0 -0.04025546908741507 -0.021844939763580155 0 -0.039661372866270715 -0.022136987837037055 0 -0.039489394392285597 -0.020933837521654609 0 -0.038664625884808672 -0.021735508052368478 0 -0.039489394392285597 -0.020933837521654609 0 -0.038250141099453586 -0.020329899584166453 0 -0.039489394392285597 -0.020933837521654609 0 -0.039615483115791175 -0.019661131076292575 0 -0.040512118735101084 -0.020194289633712115 0 -0.039489394392285597 -0.020933837521654609 0 -0.039615483115791175 -0.019661131076292575 0 -0.038250141099453586 -0.020329899584166453 0 -0.039615483115791175 -0.019661131076292575 0 -0.038250141099453586 -0.020329899584166453 0 -0.038849009914839 -0.01861873636559341 0 -0.0386115897497031 -0.019791981829902178 0 -0.038907321148479238 -0.019082358586126509 0 -0.038667923089410076 -0.02035197621974337 0 -0.039288922934035977 -0.018623544250407235 0 -0.03809515468132206 -0.019228697828432839 0 -0.036282511711906197 -0.021197912680021583 0 -0.037913015747636745 -0.02138303830374938 0 -0.042301652833172103 -0.021460540685278005 0 -0.040891563393587758 -0.021193581702180768 0 -0.04176072720501911 -0.019979886213331247 0 -0.038270025167448339 -0.021410459461849992 0 -0.037913015747636745 -0.02138303830374938 0 -0.039489394392285597 -0.020933837521654609 0 -0.040891563393587758 -0.021193581702180768 0 -0.040512118735101084 -0.020194289633712115 0 -0.040891563393587758 -0.021193581702180768 0 -0.040512118735101084 -0.020194289633712115 0 -0.04176072720501911 -0.019979886213331247 0 -0.039615483115791175 -0.019661131076292575 0 -0.040512118735101084 -0.020194289633712115 0 -0.040823652523551586 -0.019215038584557666 0 -0.040512118735101084 -0.020194289633712115 0 -0.04176072720501911 -0.019979886213331247 0 -0.040823652523551586 -0.019215038584557666 0 -0.042838106123811066 -0.018934846293996489 0 -0.04176072720501911 -0.019979886213331247 0 -0.04170205370219715 -0.018424496282346943 0 -0.04176072720501911 -0.019979886213331247 0 -0.04170205370219715 -0.018424496282346943 0 -0.040823652523551586 -0.019215038584557666 0 -0.042838106123811066 -0.018934846293996489 0 -0.04170205370219715 -0.018424496282346943 0 -0.042201017681897518 -0.01765827166754684 0 -0.039615483115791175 -0.019661131076292575 0 -0.040823652523551586 -0.019215038584557666 0 -0.04038962115034328 -0.018007995352473639 0 -0.04170205370219715 -0.018424496282346943 0 -0.040823652523551586 -0.019215038584557666 0 -0.04038962115034328 -0.018007995352473639 0 -0.04038962115034328 -0.018007995352473639 0 -0.041531109964976574 -0.0171295536018541 0 -0.040563173214504485 -0.016672883206942286 0 -0.04038962115034328 -0.018007995352473639 0 -0.039641219626037255 -0.016896214462977985 0 -0.040563173214504485 -0.016672883206942286 0 -0.04170205370219715 -0.018424496282346943 0 -0.04038962115034328 -0.018007995352473639 0 -0.041531109964976574 -0.0171295536018541 0 -0.04170205370219715 -0.018424496282346943 0 -0.041531109964976574 -0.0171295536018541 0 -0.042201017681897518 -0.01765827166754684 0 -0.041531109964976574 -0.0171295536018541 0 -0.042201017681897518 -0.01765827166754684 0 -0.042426116509186637 -0.016974427037458044 0 -0.039615483115791175 -0.019661131076292575 0 -0.04038962115034328 -0.018007995352473639 0 -0.038849009914839 -0.01861873636559341 0 -0.038907321148479238 -0.019082358586126509 0 -0.039075918521029498 -0.018675362965335073 0 -0.04038962115034328 -0.018007995352473639 0 -0.038849009914839 -0.01861873636559341 0 -0.039641219626037255 -0.016896214462977985 0 -0.039288922934035977 -0.018623544250407235 0 -0.038115286172786741 -0.017713833213377262 0 -0.039641219626037255 -0.016896214462977985 0 -0.038115286172786741 -0.017713833213377262 0 -0.036965342012695947 -0.019130154272523847 0 -0.036627592191102024 -0.017672590339851846 0 -0.038115286172786741 -0.017713833213377262 0 -0.036965342012695947 -0.019130154272523847 0 -0.03809515468132206 -0.019228697828432839 0 -0.039288922934035977 -0.018623544250407235 0 -0.038115286172786741 -0.017713833213377262 0 -0.03809515468132206 -0.019228697828432839 0 -0.038667923089410076 -0.02035197621974337 0 -0.03809515468132206 -0.019228697828432839 0 -0.037198421384828519 -0.02064911646008509 0 -0.036965342012695947 -0.019130154272523847 0 -0.03809515468132206 -0.019228697828432839 0 -0.037198421384828519 -0.02064911646008509 0 -0.037432241308265793 -0.02155931647618916 0 -0.037198421384828519 -0.02064911646008509 0 -0.037844345913141002 -0.021035252424856293 0 -0.037432241308265793 -0.02155931647618916 0 -0.036461833161148836 -0.021938650962087455 0 -0.037198421384828519 -0.02064911646008509 0 -0.038449813304639105 -0.020174272255255213 0 -0.0386115897497031 -0.019791981829902178 0 -0.037866336958257835 -0.021777945169759252 0 -0.038664625884808672 -0.021735508052368478 0 -0.038250141099453586 -0.020329899584166453 0 -0.037866336958257835 -0.021777945169759252 0 -0.038667923089410076 -0.02035197621974337 0 -0.037844345913141002 -0.021035252424856293 0 -0.038667923089410076 -0.02035197621974337 0 -0.037198421384828519 -0.02064911646008509 0 -0.037844345913141002 -0.021035252424856293 0 -0.036461833161148836 -0.021938650962087455 0 -0.034999978664663936 -0.021723109174721311 0 -0.036084319946350592 -0.020442357232491635 0 -0.036461833161148836 -0.021938650962087455 0 -0.037198421384828519 -0.02064911646008509 0 -0.036084319946350592 -0.020442357232491635 0 -0.036965342012695947 -0.019130154272523847 0 -0.037198421384828519 -0.02064911646008509 0 -0.036084319946350592 -0.020442357232491635 0 -0.036084319946350592 -0.020442357232491635 0 -0.034999845799331929 -0.019773760883894875 0 -0.035921423917514919 -0.0188457072305581 0 -0.034999978664663936 -0.021723109174721311 0 -0.036084319946350592 -0.020442357232491635 0 -0.034999845799331929 -0.019773760883894875 0 -0.034999845799331929 -0.019773760883894875 0 -0.035921423917514919 -0.0188457072305581 0 -0.034999884984691525 -0.017823347525214587 0 -0.036965342012695947 -0.019130154272523847 0 -0.036084319946350592 -0.020442357232491635 0 -0.035921423917514919 -0.0188457072305581 0 -0.036965342012695947 -0.019130154272523847 0 -0.035921423917514919 -0.0188457072305581 0 -0.036627592191102024 -0.017672590339851846 0 -0.035921423917514919 -0.0188457072305581 0 -0.036627592191102024 -0.017672590339851846 0 -0.034999884984691525 -0.017823347525214587 0 -0.034999884984691525 -0.017823347525214587 0 -0.036256663275926394 -0.016174125105956179 0 -0.034999896770459657 -0.015873252432858996 0 -0.036627592191102024 -0.017672590339851846 0 -0.034999884984691525 -0.017823347525214587 0 -0.036256663275926394 -0.016174125105956179 0 -0.036627592191102024 -0.017672590339851846 0 -0.036256663275926394 -0.016174125105956179 0 -0.037408529658165317 -0.016354894438297272 0 -0.036256663275926394 -0.016174125105956179 0 -0.037408529658165317 -0.016354894438297272 0 -0.036603899656422724 -0.014623811540980211 0 -0.036256663275926394 -0.016174125105956179 0 -0.034999896770459657 -0.015873252432858996 0 -0.036603899656422724 -0.014623811540980211 0 -0.038115286172786741 -0.017713833213377262 0 -0.037408529658165317 -0.016354894438297272 0 -0.038721248116057219 -0.016037614148218061 0 -0.038115286172786741 -0.017713833213377262 0 -0.036627592191102024 -0.017672590339851846 0 -0.037408529658165317 -0.016354894438297272 0 -0.037408529658165317 -0.016354894438297272 0 -0.038011322310572207 -0.015150300711924468 0 -0.036603899656422724 -0.014623811540980211 0 -0.037408529658165317 -0.016354894438297272 0 -0.038011322310572207 -0.015150300711924468 0 -0.038721248116057219 -0.016037614148218061 0 -0.038011322310572207 -0.015150300711924468 0 -0.038140070467084244 -0.013862333506686919 0 -0.039170353256817683 -0.014802571186323487 0 -0.038011322310572207 -0.015150300711924468 0 -0.038140070467084244 -0.013862333506686919 0 -0.036603899656422724 -0.014623811540980211 0 -0.038140070467084244 -0.013862333506686919 0 -0.036603899656422724 -0.014623811540980211 0 -0.036915256478333582 -0.012765022359726309 0 -0.034999896770459657 -0.015873252432858996 0 -0.036603899656422724 -0.014623811540980211 0 -0.034999914001083772 -0.013923057817166214 0 -0.036603899656422724 -0.014623811540980211 0 -0.035853507853042497 -0.012835493643134703 0 -0.036915256478333582 -0.012765022359726309 0 -0.036603899656422724 -0.014623811540980211 0 -0.034999914001083772 -0.013923057817166214 0 -0.035853507853042497 -0.012835493643134703 0 -0.034999914001083772 -0.013923057817166214 0 -0.035853507853042497 -0.012835493643134703 0 -0.034999917027895552 -0.011973118195778541 0 -0.035853507853042497 -0.012835493643134703 0 -0.034999917027895552 -0.011973118195778541 0 -0.035563890722527414 -0.011636770174533049 0 -0.035000796993836458 -0.011968991480342273 0 -0.035368111917972747 -0.011334261209058425 0 -0.03499999911601933 -0.011972725270025844 0 -0.035614092898998279 -0.011546375359518898 0 -0.034999999471400915 -0.011133607510563097 0 -0.035602976934186091 -0.011531322787531526 0 -0.034999967662645223 -0.0111335176288346 0 -0.035643228744660527 -0.010811298679770157 0 -0.035368111917972747 -0.011334261209058425 0 -0.035001666581691626 -0.011134333627573286 0 -0.032540509733597817 -0.0096866043668254014 0 -0.034069834338260836 -0.009712705621322518 0 -0.034236129245012709 -0.010841461722736713 0 -0.032540509733597817 -0.0096866043668254014 0 -0.034069834338260836 -0.009712705621322518 0 -0.034135135260252254 -0.0085831832464102926 0 -0.035602976934186091 -0.011531322787531526 0 -0.035643228744660527 -0.010811298679770157 0 -0.037008727594643125 -0.010536784308407808 0 -0.035368111917972747 -0.011334261209058425 0 -0.036238555056695196 -0.010126275321633618 0 -0.035368111917972747 -0.011334261209058425 0 -0.0360145390191626 -0.011934101539209088 0 -0.035853507853042497 -0.012835493643134703 0 -0.035563890722527414 -0.011636770174533049 0 -0.036915256478333582 -0.012765022359726309 0 -0.037009670640497608 -0.012737048749789179 0 -0.0360145390191626 -0.011934101539209088 0 -0.035875321134097742 -0.012036715935254927 0 -0.034236129245012709 -0.010841461722736713 0 -0.035371191774905053 -0.0097411703455201077 0 -0.035875321134097742 -0.012036715935254927 0 -0.035371191774905053 -0.0097411703455201077 0 -0.036935683484751174 -0.010490481028627784 0 -0.035371191774905053 -0.0097411703455201077 0 -0.036892422018402829 -0.0090844393213356887 0 -0.036935683484751174 -0.010490481028627784 0 -0.034069834338260836 -0.009712705621322518 0 -0.035371191774905053 -0.0097411703455201077 0 -0.034135135260252254 -0.0085831832464102926 0 -0.034069834338260836 -0.009712705621322518 0 -0.034236129245012709 -0.010841461722736713 0 -0.035371191774905053 -0.0097411703455201077 0 -0.037317059792206245 -0.0089338098425281072 0 -0.036238555056695196 -0.010126275321633618 0 -0.038405292857356318 -0.0095430568268274202 0 -0.036942711040514539 -0.0093949134284701339 0 -0.037008727594643125 -0.010536784308407808 0 -0.035371191774905053 -0.0097411703455201077 0 -0.035784254932212795 -0.007485428033390553 0 -0.034135135260252254 -0.0085831832464102926 0 -0.035784254932212795 -0.007485428033390553 0 -0.03719434104332358 -0.0076190678385810538 0 -0.036892422018402829 -0.0090844393213356887 0 -0.035371191774905053 -0.0097411703455201077 0 -0.035784254932212795 -0.007485428033390553 0 -0.036892422018402829 -0.0090844393213356887 0 -0.035784254932212795 -0.007485428033390553 0 -0.03719434104332358 -0.0076190678385810538 0 -0.037425952733972853 -0.0065051696993977722 0 -0.037317059792206245 -0.0089338098425281072 0 -0.038436063286309267 -0.0078010537846195426 0 -0.038405292857356318 -0.0095430568268274202 0 -0.036942711040514539 -0.0093949134284701339 0 -0.037667301395563714 -0.0084156958474299621 0 -0.036942711040514539 -0.0093949134284701339 0 -0.035869923527835856 -0.0088011369183355458 0 -0.035746289621725352 -0.010091662758945307 0 -0.036942711040514539 -0.0093949134284701339 0 -0.035869923527835856 -0.0088011369183355458 0 -0.037667301395563714 -0.0084156958474299621 0 -0.035000001599752306 -0.0090677852691307455 0 -0.035869923527835856 -0.0088011369183355458 0 -0.035746289621725352 -0.010091662758945307 0 -0.034999967662645223 -0.0111335176288346 0 -0.035000001599752306 -0.0090677852691307455 0 -0.035746289621725352 -0.010091662758945307 0 -0.034999967662645223 -0.0111335176288346 0 -0.035746289621725352 -0.010091662758945307 0 -0.035643228744660527 -0.010811298679770157 0 -0.035746289621725352 -0.010091662758945307 0 -0.035643228744660527 -0.010811298679770157 0 -0.037008727594643125 -0.010536784308407808 0 -0.036942711040514539 -0.0093949134284701339 0 -0.035746289621725352 -0.010091662758945307 0 -0.037008727594643125 -0.010536784308407808 0 -0.039251324623899679 -0.0086647464487605592 0 -0.040340787689854968 -0.008429156712462367 0 -0.039656375641439055 -0.0077285939794593953 0 -0.040340787689854968 -0.008429156712462367 0 -0.040380072648068567 -0.0075504496807545568 0 -0.039656375641439055 -0.0077285939794593953 0 -0.039251324623899679 -0.0086647464487605592 0 -0.039656375641439055 -0.0077285939794593953 0 -0.038847491138519007 -0.0077367287491453664 0 -0.040340787689854968 -0.008429156712462367 0 -0.040380072648068567 -0.0075504496807545568 0 -0.041228082331724397 -0.0076909330666441161 0 -0.040340787689854968 -0.008429156712462367 0 -0.041124015431420961 -0.0088437244237111069 0 -0.041228082331724397 -0.0076909330666441161 0 -0.040380072648068567 -0.0075504496807545568 0 -0.040714125982650451 -0.0069472837632586805 0 -0.041228082331724397 -0.0076909330666441161 0 -0.040380072648068567 -0.0075504496807545568 0 -0.040714125982650451 -0.0069472837632586805 0 -0.039853820632830744 -0.0069515348321428075 0 -0.040380072648068567 -0.0075504496807545568 0 -0.039853820632830744 -0.0069515348321428075 0 -0.039656375641439055 -0.0077285939794593953 0 -0.039656375641439055 -0.0077285939794593953 0 -0.039269273138332672 -0.0070671131746219635 0 -0.038847491138519007 -0.0077367287491453664 0 -0.039853820632830744 -0.0069515348321428075 0 -0.039656375641439055 -0.0077285939794593953 0 -0.039269273138332672 -0.0070671131746219635 0 -0.039853820632830744 -0.0069515348321428075 0 -0.039269273138332672 -0.0070671131746219635 0 -0.039300669300634652 -0.0065790672046507417 0 -0.039269273138332672 -0.0070671131746219635 0 -0.038587235838774402 -0.0070468123462945472 0 -0.038890110362163929 -0.0065940135467765287 0 -0.038587235838774402 -0.0070468123462945472 0 -0.038347512610635612 -0.0066035332104666215 0 -0.038890110362163929 -0.0065940135467765287 0 -0.038587235838774402 -0.0070468123462945472 0 -0.038125947059182867 -0.0075527388577442045 0 -0.037981686805085617 -0.0069880362265644378 0 -0.038587235838774402 -0.0070468123462945472 0 -0.037981686805085617 -0.0069880362265644378 0 -0.038347512610635612 -0.0066035332104666215 0 -0.038587235838774402 -0.0070468123462945472 0 -0.038125947059182867 -0.0075527388577442045 0 -0.038847491138519007 -0.0077367287491453664 0 -0.039269273138332672 -0.0070671131746219635 0 -0.038587235838774402 -0.0070468123462945472 0 -0.038847491138519007 -0.0077367287491453664 0 -0.037981686805085617 -0.0069880362265644378 0 -0.03719434104332358 -0.0076190678385810538 0 -0.037425952733972853 -0.0065051696993977722 0 -0.038125947059182867 -0.0075527388577442045 0 -0.037981686805085617 -0.0069880362265644378 0 -0.03719434104332358 -0.0076190678385810538 0 -0.03719434104332358 -0.0076190678385810538 0 -0.038141143434826608 -0.0084132667255384704 0 -0.036892422018402829 -0.0090844393213356887 0 -0.038125947059182867 -0.0075527388577442045 0 -0.03719434104332358 -0.0076190678385810538 0 -0.038141143434826608 -0.0084132667255384704 0 -0.039251324623899679 -0.0086647464487605592 0 -0.038847491138519007 -0.0077367287491453664 0 -0.038141143434826608 -0.0084132667255384704 0 -0.038125947059182867 -0.0075527388577442045 0 -0.038847491138519007 -0.0077367287491453664 0 -0.038141143434826608 -0.0084132667255384704 0 -0.039251324623899679 -0.0086647464487605592 0 -0.038141143434826608 -0.0084132667255384704 0 -0.038431083723837023 -0.0099826581011192364 0 -0.038141143434826608 -0.0084132667255384704 0 -0.038431083723837023 -0.0099826581011192364 0 -0.036892422018402829 -0.0090844393213356887 0 -0.038431083723837023 -0.0099826581011192364 0 -0.036892422018402829 -0.0090844393213356887 0 -0.036935683484751174 -0.010490481028627784 0 -0.035875321134097742 -0.012036715935254927 0 -0.036935683484751174 -0.010490481028627784 0 -0.037928840954804366 -0.011647562375590562 0 -0.038431083723837023 -0.0099826581011192364 0 -0.036935683484751174 -0.010490481028627784 0 -0.037928840954804366 -0.011647562375590562 0 -0.038431083723837023 -0.0099826581011192364 0 -0.039653356812337025 -0.011242630496521392 0 -0.037928840954804366 -0.011647562375590562 0 -0.039653356812337025 -0.011242630496521392 0 -0.040162273171894726 -0.0097227265829040992 0 -0.040585962045692786 -0.010885877932586968 0 -0.038431083723837023 -0.0099826581011192364 0 -0.039653356812337025 -0.011242630496521392 0 -0.040162273171894726 -0.0097227265829040992 0 -0.039653356812337025 -0.011242630496521392 0 -0.040585962045692786 -0.010885877932586968 0 -0.040593579079433235 -0.011993739864402797 0 -0.039251324623899679 -0.0086647464487605592 0 -0.038431083723837023 -0.0099826581011192364 0 -0.040162273171894726 -0.0097227265829040992 0 -0.039251324623899679 -0.0086647464487605592 0 -0.040340787689854968 -0.008429156712462367 0 -0.040162273171894726 -0.0097227265829040992 0 -0.041124015431420961 -0.0088437244237111069 0 -0.041086712132609171 -0.010245333082567167 0 -0.04168556744204787 -0.0091327190601574945 0 -0.040162273171894726 -0.0097227265829040992 0 -0.041124015431420961 -0.0088437244237111069 0 -0.041086712132609171 -0.010245333082567167 0 -0.040340787689854968 -0.008429156712462367 0 -0.040162273171894726 -0.0097227265829040992 0 -0.041124015431420961 -0.0088437244237111069 0 -0.041086712132609171 -0.010245333082567167 0 -0.04168556744204787 -0.0091327190601574945 0 -0.041843267920587623 -0.011162901624271877 0 -0.040162273171894726 -0.0097227265829040992 0 -0.041086712132609171 -0.010245333082567167 0 -0.040585962045692786 -0.010885877932586968 0 -0.041086712132609171 -0.010245333082567167 0 -0.040585962045692786 -0.010885877932586968 0 -0.041487087739049251 -0.011402154061397433 0 -0.041086712132609171 -0.010245333082567167 0 -0.041487087739049251 -0.011402154061397433 0 -0.041843267920587623 -0.011162901624271877 0 -0.037316745774724373 -0.013243024662411706 0 -0.037104353585600575 -0.013176038477269744 0 -0.041487087739049251 -0.011402154061397433 0 -0.041998694243004953 -0.012138155593133802 0 -0.041843267920587623 -0.011162901624271877 0 -0.041487087739049251 -0.011402154061397433 0 -0.041475722255021094 -0.012560206987577994 0 -0.042645597013262392 -0.012864080384097355 0 -0.041475722255021094 -0.012560206987577994 0 -0.041660055866738009 -0.01341963735510804 0 -0.042645597013262392 -0.012864080384097355 0 -0.041475722255021094 -0.012560206987577994 0 -0.040593579079433235 -0.011993739864402797 0 -0.040725071454416652 -0.013320152390455703 0 -0.041487087739049251 -0.011402154061397433 0 -0.041475722255021094 -0.012560206987577994 0 -0.040593579079433235 -0.011993739864402797 0 -0.040585962045692786 -0.010885877932586968 0 -0.041487087739049251 -0.011402154061397433 0 -0.040593579079433235 -0.011993739864402797 0 -0.039653356812337025 -0.011242630496521392 0 -0.040593579079433235 -0.011993739864402797 0 -0.039318714220071126 -0.012837971353575577 0 -0.040593579079433235 -0.011993739864402797 0 -0.040725071454416652 -0.013320152390455703 0 -0.039318714220071126 -0.012837971353575577 0 -0.040725071454416652 -0.013320152390455703 0 -0.041282992035188822 -0.014219170198097982 0 -0.039992790101311251 -0.01525477916823966 0 -0.040725071454416652 -0.013320152390455703 0 -0.039318714220071126 -0.012837971353575577 0 -0.039992790101311251 -0.01525477916823966 0 -0.041282992035188822 -0.014219170198097982 0 -0.041660055866738009 -0.01341963735510804 0 -0.042287154438736131 -0.014074423591869376 0 -0.041282992035188822 -0.014219170198097982 0 -0.041664245025933966 -0.015078633933362057 0 -0.042287154438736131 -0.014074423591869376 0 -0.041660055866738009 -0.01341963735510804 0 -0.042645597013262392 -0.012864080384097355 0 -0.042287154438736131 -0.014074423591869376 0 -0.040725071454416652 -0.013320152390455703 0 -0.041282992035188822 -0.014219170198097982 0 -0.041660055866738009 -0.01341963735510804 0 -0.041475722255021094 -0.012560206987577994 0 -0.040725071454416652 -0.013320152390455703 0 -0.041660055866738009 -0.01341963735510804 0 -0.037009670640497608 -0.012737048749789179 0 -0.037967967577831288 -0.013474994743124495 0 -0.035875321134097742 -0.012036715935254927 0 -0.037928840954804366 -0.011647562375590562 0 -0.037585996844600553 -0.013466798172206978 0 -0.037928840954804366 -0.011647562375590562 0 -0.039318714220071126 -0.012837971353575577 0 -0.037585996844600553 -0.013466798172206978 0 -0.039653356812337025 -0.011242630496521392 0 -0.037928840954804366 -0.011647562375590562 0 -0.039318714220071126 -0.012837971353575577 0 -0.039318714220071126 -0.012837971353575577 0 -0.037585996844600553 -0.013466798172206978 0 -0.039992790101311251 -0.01525477916823966 0 -0.037967967577831288 -0.013474994743124495 0 -0.038444288923855756 -0.013828014028754563 0 -0.038011322310572207 -0.015150300711924468 0 -0.039170353256817683 -0.014802571186323487 0 -0.038721248116057219 -0.016037614148218061 0 -0.039170353256817683 -0.014802571186323487 0 -0.038721248116057219 -0.016037614148218061 0 -0.039992790101311251 -0.01525477916823966 0 -0.038721248116057219 -0.016037614148218061 0 -0.039641219626037255 -0.016896214462977985 0 -0.039992790101311251 -0.01525477916823966 0 -0.038115286172786741 -0.017713833213377262 0 -0.038721248116057219 -0.016037614148218061 0 -0.039641219626037255 -0.016896214462977985 0 -0.041664245025933966 -0.015078633933362057 0 -0.041340159551171499 -0.016010837004543397 0 -0.042422782422216969 -0.015515800493173545 0 -0.041664245025933966 -0.015078633933362057 0 -0.042639374772504401 -0.014851163915985647 0 -0.042287154438736131 -0.014074423591869376 0 -0.041664245025933966 -0.015078633933362057 0 -0.042422782422216969 -0.015515800493173545 0 -0.042639374772504401 -0.014851163915985647 0 -0.039992790101311251 -0.01525477916823966 0 -0.040563173214504485 -0.016672883206942286 0 -0.041340159551171499 -0.016010837004543397 0 -0.041282992035188822 -0.014219170198097982 0 -0.041664245025933966 -0.015078633933362057 0 -0.039992790101311251 -0.01525477916823966 0 -0.041664245025933966 -0.015078633933362057 0 -0.039992790101311251 -0.01525477916823966 0 -0.041340159551171499 -0.016010837004543397 0 -0.039641219626037255 -0.016896214462977985 0 -0.039992790101311251 -0.01525477916823966 0 -0.040563173214504485 -0.016672883206942286 0 -0.041531109964976574 -0.0171295536018541 0 -0.040563173214504485 -0.016672883206942286 0 -0.041340159551171499 -0.016010837004543397 0 -0.041531109964976574 -0.0171295536018541 0 -0.041340159551171499 -0.016010837004543397 0 -0.042063930123215756 -0.016386421840656026 0 -0.041340159551171499 -0.016010837004543397 0 -0.042063930123215756 -0.016386421840656026 0 -0.042422782422216969 -0.015515800493173545 0 -0.041531109964976574 -0.0171295536018541 0 -0.042063930123215756 -0.016386421840656026 0 -0.042426116509186637 -0.016974427037458044 0 -0.042426116509186637 -0.016974427037458044 0 -0.043010361816454235 -0.016754278059879699 0 -0.042688084783536646 -0.016248516658770588 0 -0.042063930123215756 -0.016386421840656026 0 -0.042426116509186637 -0.016974427037458044 0 -0.042688084783536646 -0.016248516658770588 0 -0.043033865912762106 -0.017614569548312642 0 -0.043010361816454235 -0.016754278059879699 0 -0.043555991376501381 -0.016846043320996748 0 -0.043010361816454235 -0.016754278059879699 0 -0.043273187236561782 -0.016537799270780459 0 -0.043555991376501381 -0.016846043320996748 0 -0.043010361816454235 -0.016754278059879699 0 -0.043273187236561782 -0.016537799270780459 0 -0.04306653716809393 -0.016302586739038803 0 -0.043273187236561782 -0.016537799270780459 0 -0.04306653716809393 -0.016302586739038803 0 -0.043549001011857116 -0.016133635098825864 0 -0.043010361816454235 -0.016754278059879699 0 -0.04306653716809393 -0.016302586739038803 0 -0.042688084783536646 -0.016248516658770588 0 -0.04306653716809393 -0.016302586739038803 0 -0.042688084783536646 -0.016248516658770588 0 -0.043127904126123176 -0.015835942735371804 0 -0.04306653716809393 -0.016302586739038803 0 -0.043127904126123176 -0.015835942735371804 0 -0.043549001011857116 -0.016133635098825864 0 -0.042063930123215756 -0.016386421840656026 0 -0.042688084783536646 -0.016248516658770588 0 -0.042422782422216969 -0.015515800493173545 0 -0.043127904126123176 -0.015835942735371804 0 -0.042639374772504401 -0.014851163915985647 0 -0.043405464626735113 -0.014172212679497561 0 -0.042422782422216969 -0.015515800493173545 0 -0.043127904126123176 -0.015835942735371804 0 -0.042639374772504401 -0.014851163915985647 0 -0.035668357988460513 -0.013240935575863073 0 -0.036421619978174745 -0.013112030805098153 0 -0.042688084783536646 -0.016248516658770588 0 -0.042422782422216969 -0.015515800493173545 0 -0.043127904126123176 -0.015835942735371804 0 -0.043127904126123176 -0.015835942735371804 0 -0.043549001011857116 -0.016133635098825864 0 -0.043405464626735113 -0.014172212679497561 0 -0.035154335636871009 -0.013209668846329247 0 -0.035087943387016887 -0.012362617695221456 0 -0.036622915864306618 -0.013217202505280719 0 -0.036378859595354959 -0.013509348863283184 0 -0.03623942964468526 -0.012662070906067108 0 -0.035154335636871009 -0.013209668846329247 0 -0.033675201327351752 -0.012699095112514045 0 -0.035154335636871009 -0.013209668846329247 0 -0.036421619978174745 -0.013112030805098153 0 -0.035154335636871009 -0.013209668846329247 0 -0.035668357988460513 -0.013240935575863073 0 -0.035154335636871009 -0.013209668846329247 0 -0.032757850610677854 -0.014988121439225054 0 -0.043874499617255057 -0.015691633380145033 0 -0.043444287990509693 -0.016211839124074381 0 -0.043555991376501381 -0.016846043320996748 0 -0.043874499617255057 -0.015691633380145033 0 -0.043555991376501381 -0.016846043320996748 0 -0.044780619978345995 -0.017008196921470979 0 -0.035668357988460513 -0.013240935575863073 0 -0.035782522677290193 -0.013425431745699937 0 -0.043273187236561782 -0.016537799270780459 0 -0.043549001011857116 -0.016133635098825864 0 -0.043555991376501381 -0.016846043320996748 0 -0.028306653655385507 -0.012713807438544937 0 -0.028556960939632864 -0.013089792046928461 0 -0.028630802050566149 -0.012778516934418477 0 -0.028556960939632864 -0.013089792046928461 0 -0.028831628442267204 -0.012999416183851357 0 -0.028630802050566149 -0.012778516934418477 0 -0.028922921525253633 -0.012846155652757553 0 -0.029022144149527213 -0.012688288812415934 0 -0.029057622143049116 -0.0130067948306784 0 -0.028831628442267204 -0.012999416183851357 0 -0.028802065487943503 -0.012824589671745566 0 -0.028922921525253633 -0.012846155652757553 0 -0.028831628442267204 -0.012999416183851357 0 -0.028802065487943503 -0.012824589671745566 0 -0.028630802050566149 -0.012778516934418477 0 -0.028831628442267204 -0.012999416183851357 0 -0.028922921525253633 -0.012846155652757553 0 -0.029057622143049116 -0.0130067948306784 0 -0.029022144149527213 -0.012688288812415934 0 -0.028905891866128495 -0.012526027808662495 0 -0.029075025587365001 -0.012373749006842771 0 -0.028922921525253633 -0.012846155652757553 0 -0.029022144149527213 -0.012688288812415934 0 -0.02884723573749599 -0.012696568881681906 0 -0.028802065487943503 -0.012824589671745566 0 -0.02884723573749599 -0.012696568881681906 0 -0.028630802050566149 -0.012778516934418477 0 -0.028802065487943503 -0.012824589671745566 0 -0.028922921525253633 -0.012846155652757553 0 -0.02884723573749599 -0.012696568881681906 0 -0.02884723573749599 -0.012696568881681906 0 -0.028905891866128495 -0.012526027808662495 0 -0.028736775770850057 -0.01257902856516831 0 -0.029022144149527213 -0.012688288812415934 0 -0.02884723573749599 -0.012696568881681906 0 -0.028905891866128495 -0.012526027808662495 0 -0.028306653655385507 -0.012713807438544937 0 -0.028630802050566149 -0.012778516934418477 0 -0.028537505035279898 -0.012540168618238836 0 -0.033847739948699065 -0.013019222057204979 0 -0.034797900809684465 -0.01231122580772363 0 -0.035084952256778677 -0.011520870152663936 0 -0.02884723573749599 -0.012696568881681906 0 -0.028630802050566149 -0.012778516934418477 0 -0.028736775770850057 -0.01257902856516831 0 -0.028630802050566149 -0.012778516934418477 0 -0.028736775770850057 -0.01257902856516831 0 -0.028537505035279898 -0.012540168618238836 0 -0.033675201327351752 -0.012699095112514045 0 -0.032554870277620301 -0.012054708816816294 0 -0.028736775770850057 -0.01257902856516831 0 -0.028537505035279898 -0.012540168618238836 0 -0.028762043663933944 -0.012354143145550698 0 -0.034797900809684465 -0.01231122580772363 0 -0.035084952256778677 -0.011520870152663936 0 -0.035717811380420302 -0.011559297875615949 0 -0.035087943387016887 -0.012362617695221456 0 -0.032554870277620301 -0.012054708816816294 0 -0.024953649256705304 -0.010674730191879166 0 -0.024949140736447863 -0.01066885122415279 0 -0.024945579304365927 -0.010648900588237109 0 -0.032554870277620301 -0.012054708816816294 0 -0.027065301256713161 -0.012450446844021022 0 -0.039291519824702435 -0.012865127532987845 0 -0.040110768040059482 -0.012915212260684742 0 -0.040866704199012588 -0.011162030862309196 0 -0.028905891866128495 -0.012526027808662495 0 -0.028762043663933944 -0.012354143145550698 0 -0.029075025587365001 -0.012373749006842771 0 -0.028905891866128495 -0.012526027808662495 0 -0.028736775770850057 -0.01257902856516831 0 -0.028762043663933944 -0.012354143145550698 0 -0.03689965495498794 -0.011959903009834549 0 -0.037013171452996187 -0.011873923482702558 0 -0.037037223992055716 -0.011864596896167876 0 -0.032554870277620301 -0.012054708816816294 0 -0.030814677570625167 -0.0096798463643080219 0 -0.040110768040059482 -0.012915212260684742 0 -0.040866704199012588 -0.011162030862309196 0 -0.042244284016370953 -0.011167854730255522 0 -0.035087943387016887 -0.012362617695221456 0 -0.03774716914751234 -0.01112549376065974 0 -0.037038932851936983 -0.011881045722041022 0 -0.036997164707204051 -0.011841782902557725 0 -0.037043625130834611 -0.011825383646004883 0 -0.037013171452996187 -0.011873923482702558 0 -0.037037223992055716 -0.011864596896167876 0 -0.037114558745980748 -0.011787992749764994 0 -0.036969192057080026 -0.011963173833163794 0 -0.036957505811075334 -0.011882691885039848 0 -0.036890487846989201 -0.011888874996125714 0 -0.036969192057080026 -0.011963173833163794 0 -0.037038932851936983 -0.011881045722041022 0 -0.036957505811075334 -0.011882691885039848 0 -0.035087943387016887 -0.012362617695221456 0 -0.035595588543286455 -0.011992865213460123 0 -0.037038932851936983 -0.011881045722041022 0 -0.036957505811075334 -0.011882691885039848 0 -0.036997164707204051 -0.011841782902557725 0 -0.036957505811075334 -0.011882691885039848 0 -0.036917024693279898 -0.011815175612172331 0 -0.036997164707204051 -0.011841782902557725 0 -0.036957505811075334 -0.011882691885039848 0 -0.036890487846989201 -0.011888874996125714 0 -0.036917024693279898 -0.011815175612172331 0 -0.036700061698950709 -0.012870423119502063 0 -0.037988708834347747 -0.011951630990405398 0 -0.036890487846989201 -0.011888874996125714 0 -0.036828007262334053 -0.011953970343455982 0 -0.036809916948820236 -0.01183361276207205 0 -0.041998694243004953 -0.012138155593133802 0 -0.042250543611048796 -0.011102518138325308 0 -0.041843267920587623 -0.011162901624271877 0 -0.041998694243004953 -0.012138155593133802 0 -0.042481696804083029 -0.012547902923764809 0 -0.042250543611048796 -0.011102518138325308 0 -0.041998694243004953 -0.012138155593133802 0 -0.042481696804083029 -0.012547902923764809 0 -0.042279712034542366 -0.012549657833886098 0 -0.036021692634723261 -0.01310846915800371 0 -0.035961209924503121 -0.013109102528157092 0 -0.036040622449595536 -0.013224551669516598 0 -0.036700061698950709 -0.012870423119502063 0 -0.036786636146181384 -0.013032710528599584 0 -0.042645597013262392 -0.012864080384097355 0 -0.043055171496688957 -0.013555452250656618 0 -0.042287154438736131 -0.014074423591869376 0 -0.037104353585600575 -0.013176038477269744 0 -0.036786636146181384 -0.013032710528599584 0 -0.043055171496688957 -0.013555452250656618 0 -0.042287154438736131 -0.014074423591869376 0 -0.043405464626735113 -0.014172212679497561 0 -0.042639374772504401 -0.014851163915985647 0 -0.042287154438736131 -0.014074423591869376 0 -0.043405464626735113 -0.014172212679497561 0 -0.036700061698950709 -0.012870423119502063 0 -0.036421619978174745 -0.013112030805098153 0 -0.036786636146181384 -0.013032710528599584 0 -0.036421619978174745 -0.013112030805098153 0 -0.036969192057080026 -0.011963173833163794 0 -0.036890487846989201 -0.011888874996125714 0 -0.036828007262334053 -0.011953970343455982 0 -0.035087943387016887 -0.012362617695221456 0 -0.036700061698950709 -0.012870423119502063 0 -0.035597967736012058 -0.012201322587226842 0 -0.035300390905775129 -0.012183368506678531 0 -0.035311290591737293 -0.012251445238492545 0 -0.035422213707132076 -0.012413588402393549 0 -0.035597967736012058 -0.012201322587226842 0 -0.035311290591737293 -0.012251445238492545 0 -0.0082556933886503252 -0.013089703081185244 0 -0.0082899956765598165 -0.01317318032717109 0 -0.0081444757324273913 -0.013065555069900854 0 -0.0082556933886503252 -0.013089703081185244 0 -0.0084001324807312407 -0.013227737480517804 0 -0.0082899956765598165 -0.01317318032717109 0 -0.0083862292284643224 -0.012950422442039757 0 -0.0082556933886503252 -0.013089703081185244 0 -0.0080501766134960726 -0.012980138567565131 0 -0.0083862292284643224 -0.012950422442039757 0 -0.0082556933886503252 -0.013089703081185244 0 -0.0084654935022593584 -0.013111712433728334 0 -0.0082556933886503252 -0.013089703081185244 0 -0.0084654935022593584 -0.013111712433728334 0 -0.0084001324807312407 -0.013227737480517804 0 -0.0084654935022593584 -0.013111712433728334 0 -0.0085596281963203451 -0.013253234500936864 0 -0.0084001324807312407 -0.013227737480517804 0 -0.0084654935022593584 -0.013111712433728334 0 -0.0085732355850444922 -0.01301733115372726 0 -0.0086406838476621589 -0.013135989794992625 0 -0.0084654935022593584 -0.013111712433728334 0 -0.0086406838476621589 -0.013135989794992625 0 -0.0085596281963203451 -0.013253234500936864 0 -0.0083862292284643224 -0.012950422442039757 0 -0.0084654935022593584 -0.013111712433728334 0 -0.0085732355850444922 -0.01301733115372726 0 -0.024458717128149593 -0.015419486253486193 0 -0.022813053614571376 -0.014206288356019075 0 -0.0085732355850444922 -0.01301733115372726 0 -0.0087308579040635582 -0.01301040810914725 0 -0.0086406838476621589 -0.013135989794992625 0 -0.008567613235746915 -0.012872604182045078 0 -0.0085732355850444922 -0.01301733115372726 0 -0.0087308579040635582 -0.01301040810914725 0 -0.029022144149527213 -0.012688288812415934 0 -0.029057622143049116 -0.0130067948306784 0 -0.029221508294784898 -0.012697893833916396 0 -0.022813053614571376 -0.014206288356019075 0 -0.021605553631749794 -0.012915248165802445 0 -0.029022144149527213 -0.012688288812415934 0 -0.029221508294784898 -0.012697893833916396 0 -0.029075025587365001 -0.012373749006842771 0 -0.029221508294784898 -0.012697893833916396 0 -0.029075025587365001 -0.012373749006842771 0 -0.02938417999037193 -0.012393540625788176 0 -0.024949140736447863 -0.01066885122415279 0 -0.024945579304365927 -0.010648900588237109 0 -0.024954141392516158 -0.010668900802062524 0 -0.027065301256713161 -0.012450446844021022 0 -0.021605553631749794 -0.012915248165802445 0 -0.024945579304365927 -0.010648900588237109 0 -0.024959699524586109 -0.010642455017573275 0 -0.024954141392516158 -0.010668900802062524 0 -0.0085995149657552786 -0.013355817451536417 0 -0.0087264236439607862 -0.013167512955053246 0 -0.0085147509917997827 -0.013159806229230747 0 -0.020664599278330496 -0.011770321213933793 0 -0.021605553631749794 -0.012915248165802445 0 -0.021605553631749794 -0.012915248165802445 0 -0.017283751329105139 -0.012762535304519602 0 -0.017283751329105139 -0.012762535304519602 0 -0.015981491439393369 -0.012719152248360073 0 -0.0085995149657552786 -0.013355817451536417 0 -0.0085147509917997827 -0.013159806229230747 0 -0.008368954134075143 -0.013330203307795749 0 -0.0085995149657552786 -0.013355817451536417 0 -0.008368954134075143 -0.013330203307795749 0 -0.0084901934014388249 -0.013523690391864922 0 -0.008368954134075143 -0.013330203307795749 0 -0.0081928688928496179 -0.013237794186877198 0 -0.0082372597051143786 -0.013395369124463215 0 -0.008368954134075143 -0.013330203307795749 0 -0.0083270310343571633 -0.013447465135173052 0 -0.0082372597051143786 -0.013395369124463215 0 -0.008368954134075143 -0.013330203307795749 0 -0.0082899956765598165 -0.01317318032717109 0 -0.0081928688928496179 -0.013237794186877198 0 -0.0085147509917997827 -0.013159806229230747 0 -0.008368954134075143 -0.013330203307795749 0 -0.0082899956765598165 -0.01317318032717109 0 -0.0084007181838716798 -0.013669354923201198 0 -0.0083734989309194058 -0.013627297939101309 0 -0.0084901934014388249 -0.013523690391864922 0 -0.0083022941173200634 -0.013674647489832195 0 -0.0083734989309194058 -0.013627297939101309 0 -0.0083523620827175137 -0.013734971151498861 0 -0.0083022941173200634 -0.013674647489832195 0 -0.0083734989309194058 -0.013627297939101309 0 -0.0082912864083005636 -0.013598691112303477 0 -0.0083022941173200634 -0.013674647489832195 0 -0.0082912864083005636 -0.013598691112303477 0 -0.0082242287155150536 -0.013670419706656571 0 -0.0084007181838716798 -0.013669354923201198 0 -0.0083734989309194058 -0.013627297939101309 0 -0.0083765755469413731 -0.013689462999621538 0 -0.020100174857107588 -0.0067030450382601975 0 -0.020328199121187173 -0.006255887695706128 0 -0.0083734989309194058 -0.013627297939101309 0 -0.0083691086544128834 -0.013536929420188472 0 -0.0084901934014388249 -0.013523690391864922 0 -0.0083734989309194058 -0.013627297939101309 0 -0.0082912864083005636 -0.013598691112303477 0 -0.0083691086544128834 -0.013536929420188472 0 -0.0082912864083005636 -0.013598691112303477 0 -0.0082723063095857356 -0.013508154920513781 0 -0.0083691086544128834 -0.013536929420188472 0 -0.008368954134075143 -0.013330203307795749 0 -0.0083270310343571633 -0.013447465135173052 0 -0.0084901934014388249 -0.013523690391864922 0 -0.0082723063095857356 -0.013508154920513781 0 -0.0083270310343571633 -0.013447465135173052 0 -0.0083691086544128834 -0.013536929420188472 0 -0.0083270310343571633 -0.013447465135173052 0 -0.0083691086544128834 -0.013536929420188472 0 -0.0084901934014388249 -0.013523690391864922 0 -0.0082723063095857356 -0.013508154920513781 0 -0.0083270310343571633 -0.013447465135173052 0 -0.0082372597051143786 -0.013395369124463215 0 -0.024959699524586109 -0.010642455017573275 0 -0.024965587582577015 -0.010600549133079416 0 -0.024952248560845741 -0.010604652584466124 0 -0.020664599278330496 -0.011770321213933793 0 -0.020536802452317773 -0.0099347615905416055 0 -0.021504252471484846 -0.0066864217329734438 0 -0.027796165103717154 -0.0076450913267820525 0 -0.021504252471484846 -0.0066864217329734438 0 -0.020536802452317773 -0.0099347615905416055 0 -0.024966270082422335 -0.010545732728797441 0 -0.024965587582577015 -0.010600549133079416 0 -0.024952248560845741 -0.010604652584466124 0 -0.045337264452941631 -0.0082489239385023141 0 -0.044483503050324676 -0.0084350040223505948 0 -0.044150078063520684 -0.0094832531531328958 0 -0.044483503050324676 -0.0084350040223505948 0 -0.043493605873898035 -0.0085823804466023529 0 -0.044421667984807955 -0.0078301183406555494 0 -0.044040326061319877 -0.008368329311708252 0 -0.043562740430320511 -0.008288586257728844 0 -0.044036235520180045 -0.0079119932335460427 0 -0.043493605873898035 -0.0085823804466023529 0 -0.044150078063520684 -0.0094832531531328958 0 -0.043244413456750216 -0.0094275191988083592 0 -0.044483503050324676 -0.0084350040223505948 0 -0.043493605873898035 -0.0085823804466023529 0 -0.044150078063520684 -0.0094832531531328958 0 -0.024945579304365927 -0.010648900588237109 0 -0.024959699524586109 -0.010642455017573275 0 -0.024952248560845741 -0.010604652584466124 0 -0.042244284016370953 -0.011167854730255522 0 -0.044150078063520684 -0.0094832531531328958 0 -0.043244413456750216 -0.0094275191988083592 0 -0.030814677570625167 -0.0096798463643080219 0 -0.027796165103717154 -0.0076450913267820525 0 -0.040186413262091179 -0.0099906824903232654 0 -0.040060282710245691 -0.010010845185957715 0 -0.040866704199012588 -0.011162030862309196 0 -0.042244284016370953 -0.011167854730255522 0 -0.042380604529956845 -0.0095497774419831833 0 -0.042244284016370953 -0.011167854730255522 0 -0.043244413456750216 -0.0094275191988083592 0 -0.042380604529956845 -0.0095497774419831833 0 -0.037037223992055716 -0.011864596896167876 0 -0.037153284081921825 -0.011766128017090528 0 -0.037114558745980748 -0.011787992749764994 0 -0.03774716914751234 -0.01112549376065974 0 -0.040060282710245691 -0.010010845185957715 0 -0.043587715796481026 -0.0089013760527378305 0 -0.043562740430320511 -0.008288586257728844 0 -0.043137774132149365 -0.0085591783857993965 0 -0.044040326061319877 -0.008368329311708252 0 -0.043587715796481026 -0.0089013760527378305 0 -0.043562740430320511 -0.008288586257728844 0 -0.040963386559968638 -0.0092797570644582196 0 -0.040060282710245691 -0.010010845185957715 0 -0.043493605873898035 -0.0085823804466023529 0 -0.043244413456750216 -0.0094275191988083592 0 -0.042523148948145968 -0.0095298261602601124 0 -0.043650046205023531 -0.0076510152285386946 0 -0.043107581227406676 -0.0080347971441450169 0 -0.043147803521492473 -0.0071511614471419143 0 -0.043562740430320511 -0.008288586257728844 0 -0.043650046205023531 -0.0076510152285386946 0 -0.043107581227406676 -0.0080347971441450169 0 -0.043562740430320511 -0.008288586257728844 0 -0.043650046205023531 -0.0076510152285386946 0 -0.044036235520180045 -0.0079119932335460427 0 -0.043650046205023531 -0.0076510152285386946 0 -0.04372935206973317 -0.0069811345131958894 0 -0.043147803521492473 -0.0071511614471419143 0 -0.04372935206973317 -0.0069811345131958894 0 -0.043147803521492473 -0.0071511614471419143 0 -0.043376627357349679 -0.0062338443995193921 0 -0.04372935206973317 -0.0069811345131958894 0 -0.044314346405720753 -0.0073004920110816794 0 -0.044110050008402846 -0.0062563217716276867 0 -0.043650046205023531 -0.0076510152285386946 0 -0.04372935206973317 -0.0069811345131958894 0 -0.044314346405720753 -0.0073004920110816794 0 -0.044314346405720753 -0.0073004920110816794 0 -0.044036235520180045 -0.0079119932335460427 0 -0.044421667984807955 -0.0078301183406555494 0 -0.043650046205023531 -0.0076510152285386946 0 -0.044314346405720753 -0.0073004920110816794 0 -0.044036235520180045 -0.0079119932335460427 0 -0.044040326061319877 -0.008368329311708252 0 -0.044036235520180045 -0.0079119932335460427 0 -0.044421667984807955 -0.0078301183406555494 0 -0.040963386559968638 -0.0092797570644582196 0 -0.041276597172844293 -0.0090216278317354192 0 -0.045337264452941631 -0.0082489239385023141 0 -0.044483503050324676 -0.0084350040223505948 0 -0.04483945353052686 -0.0078933710822653973 0 -0.044483503050324676 -0.0084350040223505948 0 -0.044421667984807955 -0.0078301183406555494 0 -0.04483945353052686 -0.0078933710822653973 0 -0.045337264452941631 -0.0082489239385023141 0 -0.04483945353052686 -0.0078933710822653973 0 -0.045205213884240016 -0.0077406135476127385 0 -0.04483945353052686 -0.0078933710822653973 0 -0.044972969003520387 -0.0074196336629236709 0 -0.045205213884240016 -0.0077406135476127385 0 -0.04483945353052686 -0.0078933710822653973 0 -0.044649022187725811 -0.0074897070034749911 0 -0.044972969003520387 -0.0074196336629236709 0 -0.044421667984807955 -0.0078301183406555494 0 -0.04483945353052686 -0.0078933710822653973 0 -0.044649022187725811 -0.0074897070034749911 0 -0.044314346405720753 -0.0073004920110816794 0 -0.044421667984807955 -0.0078301183406555494 0 -0.044649022187725811 -0.0074897070034749911 0 -0.044314346405720753 -0.0073004920110816794 0 -0.044649022187725811 -0.0074897070034749911 0 -0.044858818071223633 -0.0071224843627232534 0 -0.03836416383550021 -0.0026165965883966427 0 -0.037927156993292306 -0.0022796834433725134 0 -0.044314346405720753 -0.0073004920110816794 0 -0.044858818071223633 -0.0071224843627232534 0 -0.044817577290700635 -0.0065667991123898014 0 -0.044858818071223633 -0.0071224843627232534 0 -0.045145743828571207 -0.0071661157021711292 0 -0.045159956606463082 -0.0068859179364790229 0 -0.044858818071223633 -0.0071224843627232534 0 -0.045159956606463082 -0.0068859179364790229 0 -0.044817577290700635 -0.0065667991123898014 0 -0.044858818071223633 -0.0071224843627232534 0 -0.044972969003520387 -0.0074196336629236709 0 -0.045145743828571207 -0.0071661157021711292 0 -0.044649022187725811 -0.0074897070034749911 0 -0.044858818071223633 -0.0071224843627232534 0 -0.044972969003520387 -0.0074196336629236709 0 -0.044972969003520387 -0.0074196336629236709 0 -0.045318328791546229 -0.0073597815554577927 0 -0.045145743828571207 -0.0071661157021711292 0 -0.045318328791546229 -0.0073597815554577927 0 -0.045145743828571207 -0.0071661157021711292 0 -0.045410525034452975 -0.007057106340838234 0 -0.045159956606463082 -0.0068859179364790229 0 -0.045410525034452975 -0.007057106340838234 0 -0.045321953219919844 -0.0066205238623466556 0 -0.045145743828571207 -0.0071661157021711292 0 -0.045159956606463082 -0.0068859179364790229 0 -0.045410525034452975 -0.007057106340838234 0 -0.045410525034452975 -0.007057106340838234 0 -0.045536320464190844 -0.0071088410538965611 0 -0.045321953219919844 -0.0066205238623466556 0 -0.022361008747123295 -0.0042816434709546849 0 -0.022187149994582669 -0.004226380474203463 0 -0.022150226226076954 6.1912118699459007e-05 0 -0.020805238219532663 -0.0062626187229689306 0 -0.023997574439398994 -0.00065823112759287659 0 -0.022187149994582669 -0.004226380474203463 0 -0.021022835668078669 -0.0052058385709254796 0 -0.022187149994582669 -0.004226380474203463 0 -0.020241865133643226 -0.0036840445016872413 0 -0.021022835668078669 -0.0052058385709254796 0 -0.020241865133643226 -0.0036840445016872413 0 -0.045318328791546229 -0.0073597815554577927 0 -0.045570146458556698 -0.0071166308522144089 0 -0.045518489254546858 -0.0076880723906575391 0 -0.045318328791546229 -0.0073597815554577927 0 -0.045410525034452975 -0.007057106340838234 0 -0.045570146458556698 -0.0071166308522144089 0 -0.020152451590554867 -0.0050828741283318593 0 -0.019902311978489289 -0.0062676805108027953 0 -0.022898738112639285 -0.0038219153468471651 0 -0.044972969003520387 -0.0074196336629236709 0 -0.045318328791546229 -0.0073597815554577927 0 -0.045205213884240016 -0.0077406135476127385 0 -0.045318328791546229 -0.0073597815554577927 0 -0.045518489254546858 -0.0076880723906575391 0 -0.045205213884240016 -0.0077406135476127385 0 -0.021380455266166894 -0.0069411670189011869 0 -0.021537366288389467 -0.0066546797711425614 0 -0.021500373535994419 -0.0068409656174688929 0 -0.045337264452941631 -0.0082489239385023141 0 -0.045518489254546858 -0.0076880723906575391 0 -0.045205213884240016 -0.0077406135476127385 0 -0.021504252471484846 -0.0066864217329734438 0 -0.021022835668078669 -0.0052058385709254796 0 -0.021504252471484846 -0.0066864217329734438 0 -0.020328199121187173 -0.006255887695706128 0 -0.0083022941173200634 -0.013674647489832195 0 -0.0083523620827175137 -0.013734971151498861 0 -0.0082395914934436602 -0.01374340672662896 0 -0.021022835668078669 -0.0052058385709254796 0 -0.020328199121187173 -0.006255887695706128 0 -0.041863872502336023 -0.0090251600028850559 0 -0.042153245167057561 -0.0084321811785424798 0 -0.041744111972204061 -0.0084608524573967208 0 -0.041863872502336023 -0.0090251600028850559 0 -0.042153245167057561 -0.0084321811785424798 0 -0.042153238369874967 -0.0092215751146438839 0 -0.041863872502336023 -0.0090251600028850559 0 -0.04168556744204787 -0.0091327190601574945 0 -0.041744111972204061 -0.0084608524573967208 0 -0.041124015431420961 -0.0088437244237111069 0 -0.04168556744204787 -0.0091327190601574945 0 -0.041744111972204061 -0.0084608524573967208 0 -0.041863872502336023 -0.0090251600028850559 0 -0.04168556744204787 -0.0091327190601574945 0 -0.041716970172509152 -0.0092619109945853151 0 -0.038122171615683612 -0.011684320062454175 0 -0.037988708834347747 -0.011951630990405398 0 -0.04168556744204787 -0.0091327190601574945 0 -0.042443334077213971 -0.011053855217980716 0 -0.041843267920587623 -0.011162901624271877 0 -0.037988708834347747 -0.011951630990405398 0 -0.038075768955783143 -0.011937362008752301 0 -0.037988708834347747 -0.011951630990405398 0 -0.038947096374099106 -0.011213366697253766 0 -0.036890487846989201 -0.011888874996125714 0 -0.036809916948820236 -0.01183361276207205 0 -0.036917024693279898 -0.011815175612172331 0 -0.041863872502336023 -0.0090251600028850559 0 -0.041716970172509152 -0.0092619109945853151 0 -0.042153238369874967 -0.0092215751146438839 0 -0.042153238369874967 -0.0092215751146438839 0 -0.042828450947201543 -0.0090429436143941878 0 -0.042639050955203428 -0.0085075359513068667 0 -0.038947096374099106 -0.011213366697253766 0 -0.039585413086824832 -0.010592979897906743 0 -0.036917024693279898 -0.011815175612172331 0 -0.036997164707204051 -0.011841782902557725 0 -0.037026422183955437 -0.011790191960628292 0 -0.040060282710245691 -0.010010845185957715 0 -0.039585413086824832 -0.010592979897906743 0 -0.037153284081921825 -0.011766128017090528 0 -0.037114558745980748 -0.011787992749764994 0 -0.037026422183955437 -0.011790191960628292 0 -0.043587715796481026 -0.0089013760527378305 0 -0.042828450947201543 -0.0090429436143941878 0 -0.043137774132149365 -0.0085591783857993965 0 -0.037038932851936983 -0.011881045722041022 0 -0.037114558745980748 -0.011787992749764994 0 -0.037043625130834611 -0.011825383646004883 0 -0.037114558745980748 -0.011787992749764994 0 -0.037043625130834611 -0.011825383646004883 0 -0.037026422183955437 -0.011790191960628292 0 -0.035595588543286455 -0.011992865213460123 0 -0.035754358077351722 -0.011879950151052889 0 -0.036997164707204051 -0.011841782902557725 0 -0.037043625130834611 -0.011825383646004883 0 -0.037026422183955437 -0.011790191960628292 0 -0.042828450947201543 -0.0090429436143941878 0 -0.043137774132149365 -0.0085591783857993965 0 -0.042639050955203428 -0.0085075359513068667 0 -0.043137774132149365 -0.0085591783857993965 0 -0.042639050955203428 -0.0085075359513068667 0 -0.043107581227406676 -0.0080347971441450169 0 -0.043562740430320511 -0.008288586257728844 0 -0.043137774132149365 -0.0085591783857993965 0 -0.043107581227406676 -0.0080347971441450169 0 -0.042153245167057561 -0.0084321811785424798 0 -0.042153238369874967 -0.0092215751146438839 0 -0.042639050955203428 -0.0085075359513068667 0 -0.042153245167057561 -0.0084321811785424798 0 -0.042639050955203428 -0.0085075359513068667 0 -0.042525119286047408 -0.0078087494758821317 0 -0.042525119286047408 -0.0078087494758821317 0 -0.043107581227406676 -0.0080347971441450169 0 -0.043147803521492473 -0.0071511614471419143 0 -0.042639050955203428 -0.0085075359513068667 0 -0.042525119286047408 -0.0078087494758821317 0 -0.043107581227406676 -0.0080347971441450169 0 -0.042525119286047408 -0.0078087494758821317 0 -0.043147803521492473 -0.0071511614471419143 0 -0.042274986165172411 -0.0069918588089985202 0 -0.042525119286047408 -0.0078087494758821317 0 -0.042274986165172411 -0.0069918588089985202 0 -0.041975009835677368 -0.0076665686281850096 0 -0.042274986165172411 -0.0069918588089985202 0 -0.041975009835677368 -0.0076665686281850096 0 -0.041747567721270036 -0.0068062139716796423 0 -0.042153245167057561 -0.0084321811785424798 0 -0.041975009835677368 -0.0076665686281850096 0 -0.041744111972204061 -0.0084608524573967208 0 -0.042153245167057561 -0.0084321811785424798 0 -0.042525119286047408 -0.0078087494758821317 0 -0.041975009835677368 -0.0076665686281850096 0 -0.041975009835677368 -0.0076665686281850096 0 -0.041744111972204061 -0.0084608524573967208 0 -0.041228082331724397 -0.0076909330666441161 0 -0.041124015431420961 -0.0088437244237111069 0 -0.041744111972204061 -0.0084608524573967208 0 -0.041228082331724397 -0.0076909330666441161 0 -0.040714125982650451 -0.0069472837632586805 0 -0.041228082331724397 -0.0076909330666441161 0 -0.041747567721270036 -0.0068062139716796423 0 -0.041975009835677368 -0.0076665686281850096 0 -0.041228082331724397 -0.0076909330666441161 0 -0.041747567721270036 -0.0068062139716796423 0 -0.040673586053182081 -0.0067889286258592902 0 -0.040085457582086009 -0.0066792193501837042 0 -0.040918230462205205 -0.0066007236191203333 0 -0.040666458770942909 -0.0059598721703747444 0 -0.039719876035827724 -0.0062435395981941906 0 -0.040714125982650451 -0.0069472837632586805 0 -0.041747567721270036 -0.0068062139716796423 0 -0.040693920507956866 -0.0062344999995793135 0 -0.040666458770942909 -0.0059598721703747444 0 -0.041155438585352852 -0.0053015159728436257 0 -0.039827668137664848 -0.005603988255218525 0 -0.041196953783448766 -0.0056848415250836748 0 -0.040337657886190738 -0.0061095730317285244 0 -0.041304461653470105 -0.0047869828534840468 0 -0.040319914933747723 -0.0050213995359934061 0 -0.04047757358058119 -0.0043660480977734638 0 -0.041155438585352852 -0.0053015159728436257 0 -0.041709295069835825 -0.0059995626835595093 0 -0.042348067323572401 -0.0049979767784239003 0 -0.040666458770942909 -0.0059598721703747444 0 -0.041155438585352852 -0.0053015159728436257 0 -0.041709295069835825 -0.0059995626835595093 0 -0.040918230462205205 -0.0066007236191203333 0 -0.040666458770942909 -0.0059598721703747444 0 -0.041709295069835825 -0.0059995626835595093 0 -0.042274986165172411 -0.0069918588089985202 0 -0.040918230462205205 -0.0066007236191203333 0 -0.041709295069835825 -0.0059995626835595093 0 -0.040957034682309622 -0.0068528326673424822 0 -0.040673586053182081 -0.0067889286258592902 0 -0.042274986165172411 -0.0069918588089985202 0 -0.041709295069835825 -0.0059995626835595093 0 -0.042641713155314766 -0.0060695071264405586 0 -0.043147803521492473 -0.0071511614471419143 0 -0.042274986165172411 -0.0069918588089985202 0 -0.042641713155314766 -0.0060695071264405586 0 -0.043147803521492473 -0.0071511614471419143 0 -0.042641713155314766 -0.0060695071264405586 0 -0.043376627357349679 -0.0062338443995193921 0 -0.042641713155314766 -0.0060695071264405586 0 -0.043092352932160904 -0.0054696603596199019 0 -0.043376627357349679 -0.0062338443995193921 0 -0.042641713155314766 -0.0060695071264405586 0 -0.043092352932160904 -0.0054696603596199019 0 -0.042348067323572401 -0.0049979767784239003 0 -0.041709295069835825 -0.0059995626835595093 0 -0.042641713155314766 -0.0060695071264405586 0 -0.042348067323572401 -0.0049979767784239003 0 -0.041196953783448766 -0.0056848415250836748 0 -0.041955883994010151 -0.0053857568189984344 0 -0.041304461653470105 -0.0047869828534840468 0 -0.042351902633274895 -0.0045716482775335927 0 -0.042120663760730273 -0.0037822816345077981 0 -0.041955883994010151 -0.0053857568189984344 0 -0.042311043432056827 -0.0052632149230044398 0 -0.042351902633274895 -0.0045716482775335927 0 -0.042120663760730273 -0.0037822816345077981 0 -0.043399409009733679 -0.0044778702825547228 0 -0.043092352932160904 -0.0054696603596199019 0 -0.042348067323572401 -0.0049979767784239003 0 -0.043399409009733679 -0.0044778702825547228 0 -0.042120663760730273 -0.0037822816345077981 0 -0.043399409009733679 -0.0044778702825547228 0 -0.042695353075801287 -0.0031809139600600359 0 -0.042120663760730273 -0.0037822816345077981 0 -0.041169882695997327 -0.0039479245839653372 0 -0.041404037056501281 -0.0033039648425034671 0 -0.041169882695997327 -0.0039479245839653372 0 -0.041404037056501281 -0.0033039648425034671 0 -0.040569344485645017 -0.0034813824843838801 0 -0.041169882695997327 -0.0039479245839653372 0 -0.040569344485645017 -0.0034813824843838801 0 -0.04047757358058119 -0.0043660480977734638 0 -0.041304461653470105 -0.0047869828534840468 0 -0.041169882695997327 -0.0039479245839653372 0 -0.04047757358058119 -0.0043660480977734638 0 -0.041304461653470105 -0.0047869828534840468 0 -0.042120663760730273 -0.0037822816345077981 0 -0.041169882695997327 -0.0039479245839653372 0 -0.036311671405309977 -0.0015717195237802645 0 -0.037927156993292306 -0.0022796834433725134 0 -0.045287345180045353 -0.0058610470230569534 0 -0.045321953219919844 -0.0066205238623466556 0 -0.045659578389054087 -0.0062979883956334271 0 -0.045536320464190844 -0.0071088410538965611 0 -0.045321953219919844 -0.0066205238623466556 0 -0.045659578389054087 -0.0062979883956334271 0 -0.045287345180045353 -0.0058610470230569534 0 -0.045321953219919844 -0.0066205238623466556 0 -0.044817577290700635 -0.0065667991123898014 0 -0.022187149994582669 -0.004226380474203463 0 -0.027142978363138663 -0.0026861266124375833 0 -0.045159956606463082 -0.0068859179364790229 0 -0.045321953219919844 -0.0066205238623466556 0 -0.044817577290700635 -0.0065667991123898014 0 -0.045554961328578954 -0.0051118033598655903 0 -0.045007292882069151 -0.0061977747001810465 0 -0.044952399548014201 -0.0047729738368724661 0 -0.045007292882069151 -0.0061977747001810465 0 -0.044380683633376987 -0.0051125201738779751 0 -0.044952399548014201 -0.0047729738368724661 0 -0.044380683633376987 -0.0051125201738779751 0 -0.043737569356525272 -0.0055235062133519421 0 -0.043399409009733679 -0.0044778702825547228 0 -0.044380683633376987 -0.0051125201738779751 0 -0.044110050008402846 -0.0062563217716276867 0 -0.043737569356525272 -0.0055235062133519421 0 -0.044314346405720753 -0.0073004920110816794 0 -0.045007292882069151 -0.0061977747001810465 0 -0.044110050008402846 -0.0062563217716276867 0 -0.045007292882069151 -0.0061977747001810465 0 -0.044380683633376987 -0.0051125201738779751 0 -0.044110050008402846 -0.0062563217716276867 0 -0.044110050008402846 -0.0062563217716276867 0 -0.043376627357349679 -0.0062338443995193921 0 -0.043737569356525272 -0.0055235062133519421 0 -0.04372935206973317 -0.0069811345131958894 0 -0.044110050008402846 -0.0062563217716276867 0 -0.043376627357349679 -0.0062338443995193921 0 -0.043092352932160904 -0.0054696603596199019 0 -0.043737569356525272 -0.0055235062133519421 0 -0.043399409009733679 -0.0044778702825547228 0 -0.043092352932160904 -0.0054696603596199019 0 -0.043376627357349679 -0.0062338443995193921 0 -0.043737569356525272 -0.0055235062133519421 0 -0.043399409009733679 -0.0044778702825547228 0 -0.043577552829241334 -0.0034848789631214305 0 -0.044155687521990047 -0.0041174549730642945 0 -0.043399409009733679 -0.0044778702825547228 0 -0.043577552829241334 -0.0034848789631214305 0 -0.042695353075801287 -0.0031809139600600359 0 -0.043577552829241334 -0.0034848789631214305 0 -0.044155687521990047 -0.0041174549730642945 0 -0.044118377973268341 -0.0030126644999724592 0 -0.044155687521990047 -0.0041174549730642945 0 -0.044765655405119682 -0.0038264446284229838 0 -0.044118377973268341 -0.0030126644999724592 0 -0.044380683633376987 -0.0051125201738779751 0 -0.043399409009733679 -0.0044778702825547228 0 -0.044155687521990047 -0.0041174549730642945 0 -0.044380683633376987 -0.0051125201738779751 0 -0.044155687521990047 -0.0041174549730642945 0 -0.044952399548014201 -0.0047729738368724661 0 -0.044155687521990047 -0.0041174549730642945 0 -0.044952399548014201 -0.0047729738368724661 0 -0.044765655405119682 -0.0038264446284229838 0 -0.044952399548014201 -0.0047729738368724661 0 -0.044765655405119682 -0.0038264446284229838 0 -0.045351952535029251 -0.0042777054301756309 0 -0.044765655405119682 -0.0038264446284229838 0 -0.045345167911981531 -0.0035640249561641173 0 -0.04480311939283349 -0.0029504172440035824 0 -0.044765655405119682 -0.0038264446284229838 0 -0.045345167911981531 -0.0035640249561641173 0 -0.045351952535029251 -0.0042777054301756309 0 -0.045345167911981531 -0.0035640249561641173 0 -0.045351952535029251 -0.0042777054301756309 0 -0.046108433606808538 -0.0041065208272937775 0 -0.045345167911981531 -0.0035640249561641173 0 -0.045814486575261187 -0.0030576279224137724 0 -0.046108433606808538 -0.0041065208272937775 0 -0.045554961328578954 -0.0051118033598655903 0 -0.045351952535029251 -0.0042777054301756309 0 -0.046108433606808538 -0.0041065208272937775 0 -0.045554961328578954 -0.0051118033598655903 0 -0.044952399548014201 -0.0047729738368724661 0 -0.045351952535029251 -0.0042777054301756309 0 -0.036311671405309977 -0.0015717195237802645 0 -0.032825358106432133 -0.0010613555190599831 0 -0.031902280976470444 0.0012915985473595591 0 -0.03203520578070429 0.00064823659841897253 0 -0.035780518450325184 0.00027011359789615641 0 -0.033534996122938213 -4.2357774484076096e-05 0 -0.039555278220937809 0.0071085975259057533 0 -0.039036471188209326 0.007755547793234229 0 -0.038712011681676518 0.0091437906653261281 0 -0.032326094657221985 0.00076297220736427668 0 -0.032205672693150278 0.0013747217053251422 0 -0.032455476006802646 0.00041677846476259709 0 -0.045044579200475589 -0.0017047942654722849 0 -0.045164781597407319 -0.0025673421688998123 0 -0.045814486575261187 -0.0030576279224137724 0 -0.039555278220937809 0.0071085975259057533 0 -0.039036471188209326 0.007755547793234229 0 -0.039353265863126832 0.0063145374150252844 0 -0.032758633805520403 0.00098289015170919766 0 -0.031902280976470444 0.0012915985473595591 0 -0.045044579200475589 -0.0017047942654722849 0 -0.044680178465295338 -0.0019769993508728803 0 -0.043893635357338714 -0.00081178501480185449 0 -0.044680178465295338 -0.0019769993508728803 0 -0.045164781597407319 -0.0025673421688998123 0 -0.044761792779015652 -0.0024749564244763403 0 -0.045044579200475589 -0.0017047942654722849 0 -0.044680178465295338 -0.0019769993508728803 0 -0.045164781597407319 -0.0025673421688998123 0 -0.045269098845373827 -0.0030351090431156181 0 -0.045164781597407319 -0.0025673421688998123 0 -0.045814486575261187 -0.0030576279224137724 0 -0.032758633805520403 0.00098289015170919766 0 -0.033534996122938213 -4.2357774484076096e-05 0 -0.045345167911981531 -0.0035640249561641173 0 -0.045269098845373827 -0.0030351090431156181 0 -0.045814486575261187 -0.0030576279224137724 0 -0.045345167911981531 -0.0035640249561641173 0 -0.045269098845373827 -0.0030351090431156181 0 -0.04480311939283349 -0.0029504172440035824 0 -0.045269098845373827 -0.0030351090431156181 0 -0.045164781597407319 -0.0025673421688998123 0 -0.04480311939283349 -0.0029504172440035824 0 -0.045164781597407319 -0.0025673421688998123 0 -0.04480311939283349 -0.0029504172440035824 0 -0.044761792779015652 -0.0024749564244763403 0 -0.04480311939283349 -0.0029504172440035824 0 -0.044448624848054452 -0.002427768650226089 0 -0.044761792779015652 -0.0024749564244763403 0 -0.04480311939283349 -0.0029504172440035824 0 -0.044448624848054452 -0.002427768650226089 0 -0.044118377973268341 -0.0030126644999724592 0 -0.044765655405119682 -0.0038264446284229838 0 -0.04480311939283349 -0.0029504172440035824 0 -0.044118377973268341 -0.0030126644999724592 0 -0.043579981327777073 -0.0015845630807163973 0 -0.043183232354444552 -0.0015238947563320612 0 -0.044680178465295338 -0.0019769993508728803 0 -0.042128208961497694 -0.0010743880457543585 0 -0.043893635357338714 -0.00081178501480185449 0 -0.044680178465295338 -0.0019769993508728803 0 -0.044448624848054452 -0.002427768650226089 0 -0.044049529425302596 -0.0020994553850737113 0 -0.044680178465295338 -0.0019769993508728803 0 -0.044448624848054452 -0.002427768650226089 0 -0.044761792779015652 -0.0024749564244763403 0 -0.044448624848054452 -0.002427768650226089 0 -0.044049529425302596 -0.0020994553850737113 0 -0.044118377973268341 -0.0030126644999724592 0 -0.044049529425302596 -0.0020994553850737113 0 -0.044118377973268341 -0.0030126644999724592 0 -0.043483620894343496 -0.002707358310729149 0 -0.043577552829241334 -0.0034848789631214305 0 -0.043483620894343496 -0.002707358310729149 0 -0.042695353075801287 -0.0031809139600600359 0 -0.043577552829241334 -0.0034848789631214305 0 -0.044118377973268341 -0.0030126644999724592 0 -0.043483620894343496 -0.002707358310729149 0 -0.044049529425302596 -0.0020994553850737113 0 -0.043483620894343496 -0.002707358310729149 0 -0.043008529563190054 -0.0017960898998139474 0 -0.043183232354444552 -0.0015238947563320612 0 -0.042558875947054764 -0.0014277464765000798 0 -0.042128208961497694 -0.0010743880457543585 0 -0.041940276766379986 -0.00033091391786988709 0 -0.041765724753644637 -0.00065091276914775462 0 -0.041940276766379986 -0.00033091391786988709 0 -0.04180657563858315 -2.6418479704880456e-05 0 -0.041765724753644637 -0.00065091276914775462 0 -0.041940276766379986 -0.00033091391786988709 0 -0.04180657563858315 -2.6418479704880456e-05 0 -0.042002237910741036 0.00031150955262832137 0 -0.04180657563858315 -2.6418479704880456e-05 0 -0.042002237910741036 0.00031150955262832137 0 -0.041834004041393702 0.00052608023522721927 0 -0.041940276766379986 -0.00033091391786988709 0 -0.042002237910741036 0.00031150955262832137 0 -0.042647853646282756 -0.0001158090812094144 0 -0.042002237910741036 0.00031150955262832137 0 -0.042306767019454947 0.00076836518909526854 0 -0.041791123044787867 0.0010217110710653711 0 -0.042002237910741036 0.00031150955262832137 0 -0.042647853646282756 -0.0001158090812094144 0 -0.042306767019454947 0.00076836518909526854 0 -0.042128208961497694 -0.0010743880457543585 0 -0.041940276766379986 -0.00033091391786988709 0 -0.042647853646282756 -0.0001158090812094144 0 -0.042128208961497694 -0.0010743880457543585 0 -0.043893635357338714 -0.00081178501480185449 0 -0.042647853646282756 -0.0001158090812094144 0 -0.043893635357338714 -0.00081178501480185449 0 -0.043257611845465463 -6.9303776057154137e-05 0 -0.043676203745887432 0.00031289136599443488 0 -0.043893635357338714 -0.00081178501480185449 0 -0.043257611845465463 -6.9303776057154137e-05 0 -0.042647853646282756 -0.0001158090812094144 0 -0.042647853646282756 -0.0001158090812094144 0 -0.042954471542093177 0.00021906992514753786 0 -0.042306767019454947 0.00076836518909526854 0 -0.037004101506345415 0.00034885767153744913 0 -0.037397929744565538 0.00030172239045799215 0 -0.042306767019454947 0.00076836518909526854 0 -0.043676203745887432 0.00031289136599443488 0 -0.041613084177274426 0.0016862490130546968 0 -0.043257611845465463 -6.9303776057154137e-05 0 -0.042647853646282756 -0.0001158090812094144 0 -0.042954471542093177 0.00021906992514753786 0 -0.042954471542093177 0.00021906992514753786 0 -0.042306767019454947 0.00076836518909526854 0 -0.043676203745887432 0.00031289136599443488 0 -0.043257611845465463 -6.9303776057154137e-05 0 -0.042954471542093177 0.00021906992514753786 0 -0.043676203745887432 0.00031289136599443488 0 -0.039808896292163193 0.0051729329935036343 0 -0.039598938702290483 0.0042180282947212183 0 -0.040236882001821239 0.0027357493140856021 0 -0.04055442689222178 0.0049076255693137798 0 -0.039712452175050136 0.0050243431146435053 0 -0.040236882001821239 0.0027357493140856021 0 -0.031252436279092417 0.0012481201867009907 0 -0.031634837577814573 0.0013525276294925133 0 -0.039365222199750992 0.003742107415924139 0 -0.039598938702290483 0.0042180282947212183 0 -0.040236882001821239 0.0027357493140856021 0 -0.039160498870832679 0.0045085362823468981 0 -0.038740051322567477 0.0049460845269911615 0 -0.03870827392525434 0.0040663765584806593 0 -0.039365222199750992 0.003742107415924139 0 -0.039160498870832679 0.0045085362823468981 0 -0.03870827392525434 0.0040663765584806593 0 -0.039365222199750992 0.003742107415924139 0 -0.039598938702290483 0.0042180282947212183 0 -0.039160498870832679 0.0045085362823468981 0 -0.039598938702290483 0.0042180282947212183 0 -0.039160498870832679 0.0045085362823468981 0 -0.039361370469519437 0.0047695696843138022 0 -0.039160498870832679 0.0045085362823468981 0 -0.039361370469519437 0.0047695696843138022 0 -0.038740051322567477 0.0049460845269911615 0 -0.039808896292163193 0.0051729329935036343 0 -0.039361370469519437 0.0047695696843138022 0 -0.038740051322567477 0.0049460845269911615 0 -0.039808896292163193 0.0051729329935036343 0 -0.039598938702290483 0.0042180282947212183 0 -0.039361370469519437 0.0047695696843138022 0 -0.031252436279092417 0.0012481201867009907 0 -0.031902280976470444 0.0012915985473595591 0 -0.039555278220937809 0.0071085975259057533 0 -0.04055442689222178 0.0049076255693137798 0 -0.039353265863126832 0.0063145374150252844 0 -0.025507060671812312 0.0031501113740880315 0 -0.0256397851325165 0.0026189148248249054 0 -0.026309637754099672 0.0027101163109849572 0 -0.045044579200475589 -0.0017047942654722849 0 -0.043893635357338714 -0.00081178501480185449 0 -0.043676203745887432 0.00031289136599443488 0 -0.035780518450325184 0.00027011359789615641 0 -0.037004101506345415 0.00034885767153744913 0 -0.04055442689222178 0.0049076255693137798 0 -0.039712452175050136 0.0050243431146435053 0 -0.039353265863126832 0.0063145374150252844 0 -0.041101050135408247 -0.0024662561150679738 0 -0.041992506708250735 -0.0026380943682272028 0 -0.041669003611001496 -0.0012755195077831646 0 -0.041101050135408247 -0.0024662561150679738 0 -0.041669003611001496 -0.0012755195077831646 0 -0.040785616280738735 -0.0014655153808848175 0 -0.041101050135408247 -0.0024662561150679738 0 -0.040785616280738735 -0.0014655153808848175 0 -0.040375660413639596 -0.0025726325011181778 0 -0.040569344485645017 -0.0034813824843838801 0 -0.041101050135408247 -0.0024662561150679738 0 -0.040375660413639596 -0.0025726325011181778 0 -0.041404037056501281 -0.0033039648425034671 0 -0.040569344485645017 -0.0034813824843838801 0 -0.041101050135408247 -0.0024662561150679738 0 -0.041404037056501281 -0.0033039648425034671 0 -0.041101050135408247 -0.0024662561150679738 0 -0.041992506708250735 -0.0026380943682272028 0 -0.042120663760730273 -0.0037822816345077981 0 -0.041404037056501281 -0.0033039648425034671 0 -0.041992506708250735 -0.0026380943682272028 0 -0.042120663760730273 -0.0037822816345077981 0 -0.041992506708250735 -0.0026380943682272028 0 -0.042695353075801287 -0.0031809139600600359 0 -0.041992506708250735 -0.0026380943682272028 0 -0.042695353075801287 -0.0031809139600600359 0 -0.043008529563190054 -0.0017960898998139474 0 -0.043483620894343496 -0.002707358310729149 0 -0.042695353075801287 -0.0031809139600600359 0 -0.043008529563190054 -0.0017960898998139474 0 -0.041992506708250735 -0.0026380943682272028 0 -0.043008529563190054 -0.0017960898998139474 0 -0.041669003611001496 -0.0012755195077831646 0 -0.042558875947054764 -0.0014277464765000798 0 -0.04223697684915613 -0.0013855194120651307 0 -0.041765724753644637 -0.00065091276914775462 0 -0.041860431352037639 -0.00013416436322101887 0 -0.041669003611001496 -0.0012755195077831646 0 -0.04180657563858315 -2.6418479704880456e-05 0 -0.041765724753644637 -0.00065091276914775462 0 -0.041860431352037639 -0.00013416436322101887 0 -0.04180657563858315 -2.6418479704880456e-05 0 -0.041860431352037639 -0.00013416436322101887 0 -0.041842528543378568 0.00046095767428215752 0 -0.041860431352037639 -0.00013416436322101887 0 -0.041342370609641917 -0.0003812330665857917 0 -0.041669003611001496 -0.0012755195077831646 0 -0.041342370609641917 -0.0003812330665857917 0 -0.041669003611001496 -0.0012755195077831646 0 -0.040785616280738735 -0.0014655153808848175 0 -0.041342370609641917 -0.0003812330665857917 0 -0.040785616280738735 -0.0014655153808848175 0 -0.040331588908593959 -0.0006350799654571683 0 -0.040331588908593959 -0.0006350799654571683 0 -0.039252078776382121 -0.0008331578719278426 0 -0.039836195748860326 -0.0016498853031556516 0 -0.040331588908593959 -0.0006350799654571683 0 -0.039252078776382121 -0.0008331578719278426 0 -0.03974449484663773 9.9338210350777842e-05 0 -0.039252078776382121 -0.0008331578719278426 0 -0.039836195748860326 -0.0016498853031556516 0 -0.039026586254721753 -0.0019295917092072314 0 -0.040785616280738735 -0.0014655153808848175 0 -0.040331588908593959 -0.0006350799654571683 0 -0.039836195748860326 -0.0016498853031556516 0 -0.039836195748860326 -0.0016498853031556516 0 -0.039616572825899199 -0.0027513715065307946 0 -0.040375660413639596 -0.0025726325011181778 0 -0.040785616280738735 -0.0014655153808848175 0 -0.039836195748860326 -0.0016498853031556516 0 -0.040375660413639596 -0.0025726325011181778 0 -0.039836195748860326 -0.0016498853031556516 0 -0.039616572825899199 -0.0027513715065307946 0 -0.039026586254721753 -0.0019295917092072314 0 -0.039616572825899199 -0.0027513715065307946 0 -0.039898405439738084 -0.0035360769443415429 0 -0.039306039139489504 -0.0036236077476700839 0 -0.039616572825899199 -0.0027513715065307946 0 -0.040375660413639596 -0.0025726325011181778 0 -0.039898405439738084 -0.0035360769443415429 0 -0.040569344485645017 -0.0034813824843838801 0 -0.040375660413639596 -0.0025726325011181778 0 -0.039898405439738084 -0.0035360769443415429 0 -0.038386148937863004 -0.0031822363262021492 0 -0.038163733406413582 -0.0024025617191965947 0 -0.037799546854168246 -0.0034702313832832188 0 -0.038386148937863004 -0.0031822363262021492 0 -0.038857327064098564 -0.0028791927615186824 0 -0.038718291650664587 -0.0037533109358743955 0 -0.038386148937863004 -0.0031822363262021492 0 -0.037799546854168246 -0.0034702313832832188 0 -0.038144590987564175 -0.0044568091138690105 0 -0.038857327064098564 -0.0028791927615186824 0 -0.039306039139489504 -0.0036236077476700839 0 -0.038718291650664587 -0.0037533109358743955 0 -0.039616572825899199 -0.0027513715065307946 0 -0.038857327064098564 -0.0028791927615186824 0 -0.039306039139489504 -0.0036236077476700839 0 -0.039616572825899199 -0.0027513715065307946 0 -0.038857327064098564 -0.0028791927615186824 0 -0.039026586254721753 -0.0019295917092072314 0 -0.038857327064098564 -0.0028791927615186824 0 -0.038163733406413582 -0.0024025617191965947 0 -0.039026586254721753 -0.0019295917092072314 0 -0.038386148937863004 -0.0031822363262021492 0 -0.038857327064098564 -0.0028791927615186824 0 -0.038163733406413582 -0.0024025617191965947 0 -0.038163733406413582 -0.0024025617191965947 0 -0.038440573773032484 -0.0013493680793808234 0 -0.037869110149411765 -0.0016897137570986336 0 -0.038163733406413582 -0.0024025617191965947 0 -0.038440573773032484 -0.0013493680793808234 0 -0.039026586254721753 -0.0019295917092072314 0 -0.039252078776382121 -0.0008331578719278426 0 -0.038440573773032484 -0.0013493680793808234 0 -0.039026586254721753 -0.0019295917092072314 0 -0.039252078776382121 -0.0008331578719278426 0 -0.038440573773032484 -0.0013493680793808234 0 -0.038635600628027976 1.1015566049943497e-05 0 -0.038440573773032484 -0.0013493680793808234 0 -0.03759105328935311 -0.00097748271925569602 0 -0.038635600628027976 1.1015566049943497e-05 0 -0.03759105328935311 -0.00097748271925569602 0 -0.036662639587337148 -0.00067473776311204959 0 -0.03683796449640029 -0.0014194913666621147 0 -0.036662639587337148 -0.00067473776311204959 0 -0.03683796449640029 -0.0014194913666621147 0 -0.036159917216141417 -0.0012613028839727318 0 -0.03759105328935311 -0.00097748271925569602 0 -0.03683796449640029 -0.0014194913666621147 0 -0.037293477101834491 -0.0020691084297009246 0 -0.03683796449640029 -0.0014194913666621147 0 -0.036761836433820305 -0.0022091748649615771 0 -0.036226897719528119 -0.0019542981154873954 0 -0.03683796449640029 -0.0014194913666621147 0 -0.036761836433820305 -0.0022091748649615771 0 -0.037293477101834491 -0.0020691084297009246 0 -0.038163733406413582 -0.0024025617191965947 0 -0.037293477101834491 -0.0020691084297009246 0 -0.037869110149411765 -0.0016897137570986336 0 -0.038440573773032484 -0.0013493680793808234 0 -0.03759105328935311 -0.00097748271925569602 0 -0.037869110149411765 -0.0016897137570986336 0 -0.03759105328935311 -0.00097748271925569602 0 -0.037293477101834491 -0.0020691084297009246 0 -0.037869110149411765 -0.0016897137570986336 0 -0.034999992346957567 -0.00080433302294354752 0 -0.035739481911552462 -0.00070987714846789307 0 -0.036041906314253358 0.00089210479716189629 0 -0.035433352092175956 -0.0011230652069383607 0 -0.035972200066066606 -0.00057459612989337972 0 -0.036159917216141417 -0.0012613028839727318 0 -0.035433352092175956 -0.0011230652069383607 0 -0.036159917216141417 -0.0012613028839727318 0 -0.035794571882427635 -0.0017917236820211636 0 -0.036662639587337148 -0.00067473776311204959 0 -0.035972200066066606 -0.00057459612989337972 0 -0.036159917216141417 -0.0012613028839727318 0 -0.03683796449640029 -0.0014194913666621147 0 -0.036159917216141417 -0.0012613028839727318 0 -0.036226897719528119 -0.0019542981154873954 0 -0.036226897719528119 -0.0019542981154873954 0 -0.035794571882427635 -0.0017917236820211636 0 -0.035847390735012433 -0.002342790949444997 0 -0.036159917216141417 -0.0012613028839727318 0 -0.036226897719528119 -0.0019542981154873954 0 -0.035794571882427635 -0.0017917236820211636 0 -0.034999992346957567 -0.00080433302294354752 0 -0.035739481911552462 -0.00070987714846789307 0 -0.035373975468089867 -0.0023367659502502107 0 -0.035433352092175956 -0.0011230652069383607 0 -0.035794571882427635 -0.0017917236820211636 0 -0.035373975468089867 -0.0023367659502502107 0 -0.034999992346957567 -0.00080433302294354752 0 -0.034999812428867044 -0.0028702054221761862 0 -0.035373975468089867 -0.0023367659502502107 0 -0.03551278622779544 6.9778444596020476e-05 0 -0.03545498668052597 -0.00033641302230995079 0 -0.035794571882427635 -0.0017917236820211636 0 -0.035373975468089867 -0.0023367659502502107 0 -0.035847390735012433 -0.002342790949444997 0 -0.034999812428867044 -0.0028702054221761862 0 -0.035626512550002473 -0.0028227191383868393 0 -0.035622652605767045 -0.0038089902553301732 0 -0.034999812428867044 -0.0028702054221761862 0 -0.035373975468089867 -0.0023367659502502107 0 -0.035626512550002473 -0.0028227191383868393 0 -0.035373975468089867 -0.0023367659502502107 0 -0.035626512550002473 -0.0028227191383868393 0 -0.035847390735012433 -0.002342790949444997 0 -0.035626512550002473 -0.0028227191383868393 0 -0.036241761578080227 -0.0027967401802073779 0 -0.035622652605767045 -0.0038089902553301732 0 -0.035626512550002473 -0.0028227191383868393 0 -0.036241761578080227 -0.0027967401802073779 0 -0.035847390735012433 -0.002342790949444997 0 -0.036226897719528119 -0.0019542981154873954 0 -0.036241761578080227 -0.0027967401802073779 0 -0.035847390735012433 -0.002342790949444997 0 -0.036761836433820305 -0.0022091748649615771 0 -0.036226897719528119 -0.0019542981154873954 0 -0.036241761578080227 -0.0027967401802073779 0 -0.036241761578080227 -0.0027967401802073779 0 -0.03659373587650501 -0.0036949423472367039 0 -0.03695366789029729 -0.0028311178478357978 0 -0.036241761578080227 -0.0027967401802073779 0 -0.03659373587650501 -0.0036949423472367039 0 -0.035622652605767045 -0.0038089902553301732 0 -0.03659373587650501 -0.0036949423472367039 0 -0.035622652605767045 -0.0038089902553301732 0 -0.036279495289311688 -0.0045105774005787446 0 -0.034999812428867044 -0.0028702054221761862 0 -0.035622652605767045 -0.0038089902553301732 0 -0.034999919165669607 -0.0049355001260015414 0 -0.038163733406413582 -0.0024025617191965947 0 -0.037293477101834491 -0.0020691084297009246 0 -0.037519884825838172 -0.0027937495601078632 0 -0.038163733406413582 -0.0024025617191965947 0 -0.037519884825838172 -0.0027937495601078632 0 -0.037799546854168246 -0.0034702313832832188 0 -0.037293477101834491 -0.0020691084297009246 0 -0.037519884825838172 -0.0027937495601078632 0 -0.03695366789029729 -0.0028311178478357978 0 -0.036761836433820305 -0.0022091748649615771 0 -0.037293477101834491 -0.0020691084297009246 0 -0.03695366789029729 -0.0028311178478357978 0 -0.036761836433820305 -0.0022091748649615771 0 -0.036241761578080227 -0.0027967401802073779 0 -0.03695366789029729 -0.0028311178478357978 0 -0.037519884825838172 -0.0027937495601078632 0 -0.03695366789029729 -0.0028311178478357978 0 -0.037220890850214898 -0.0035043560533235805 0 -0.03659373587650501 -0.0036949423472367039 0 -0.037220890850214898 -0.0035043560533235805 0 -0.037293427976867799 -0.0044606237746607144 0 -0.03659373587650501 -0.0036949423472367039 0 -0.03695366789029729 -0.0028311178478357978 0 -0.037220890850214898 -0.0035043560533235805 0 -0.037220890850214898 -0.0035043560533235805 0 -0.037799546854168246 -0.0034702313832832188 0 -0.037293427976867799 -0.0044606237746607144 0 -0.037519884825838172 -0.0027937495601078632 0 -0.037220890850214898 -0.0035043560533235805 0 -0.037799546854168246 -0.0034702313832832188 0 -0.037799546854168246 -0.0034702313832832188 0 -0.037293427976867799 -0.0044606237746607144 0 -0.038144590987564175 -0.0044568091138690105 0 -0.037293427976867799 -0.0044606237746607144 0 -0.036635643672122541 -0.0056738098839536578 0 -0.037510589146443729 -0.0053216482123005504 0 -0.037955647475173174 -0.0060568821300396878 0 -0.038296368724456742 -0.0061609757935554973 0 -0.037293427976867799 -0.0044606237746607144 0 -0.037510589146443729 -0.0053216482123005504 0 -0.038144590987564175 -0.0044568091138690105 0 -0.037510589146443729 -0.0053216482123005504 0 -0.038355605561657583 -0.0052966190245460525 0 -0.038144590987564175 -0.0044568091138690105 0 -0.035622652605767045 -0.0038089902553301732 0 -0.034999919165669607 -0.0049355001260015414 0 -0.036279495289311688 -0.0045105774005787446 0 -0.03659373587650501 -0.0036949423472367039 0 -0.037293427976867799 -0.0044606237746607144 0 -0.036279495289311688 -0.0045105774005787446 0 -0.037293427976867799 -0.0044606237746607144 0 -0.036279495289311688 -0.0045105774005787446 0 -0.036635643672122541 -0.0056738098839536578 0 -0.034999919165669607 -0.0049355001260015414 0 -0.036279495289311688 -0.0045105774005787446 0 -0.036635643672122541 -0.0056738098839536578 0 -0.034999919165669607 -0.0049355001260015414 0 -0.036635643672122541 -0.0056738098839536578 0 -0.034999805710959696 -0.0070015152341878599 0 -0.036635643672122541 -0.0056738098839536578 0 -0.034999805710959696 -0.0070015152341878599 0 -0.036500978672420109 -0.0074269338958580615 0 -0.036635643672122541 -0.0056738098839536578 0 -0.036500978672420109 -0.0074269338958580615 0 -0.037578432917520242 -0.0070103519384280286 0 -0.035869923527835856 -0.0088011369183355458 0 -0.036500978672420109 -0.0074269338958580615 0 -0.037759956878127221 -0.0083608601020609338 0 -0.037607400509184222 -0.0077614019326529759 0 -0.038093672205929241 -0.0075933564645689622 0 -0.035869923527835856 -0.0088011369183355458 0 -0.034999805710959696 -0.0070015152341878599 0 -0.036500978672420109 -0.0074269338958580615 0 -0.035000001599752306 -0.0090677852691307455 0 -0.035869923527835856 -0.0088011369183355458 0 -0.034999805710959696 -0.0070015152341878599 0 -0.038296368724456742 -0.0061609757935554973 0 -0.038958038582341342 -0.0063928797076519186 0 -0.038805134447780616 -0.0072620754293066664 0 -0.039822774222744016 -0.0078901378984118867 0 -0.040293716319591576 -0.006789135382405948 0 -0.038805134447780616 -0.0072620754293066664 0 -0.038542718572501841 -0.0062631601583346564 0 -0.040293716319591576 -0.006789135382405948 0 -0.036635643672122541 -0.0056738098839536578 0 -0.038542718572501841 -0.0062631601583346564 0 -0.037578432917520242 -0.0070103519384280286 0 -0.038805134447780616 -0.0072620754293066664 0 -0.038542718572501841 -0.0062631601583346564 0 -0.037578432917520242 -0.0070103519384280286 0 -0.036500978672420109 -0.0074269338958580615 0 -0.037578432917520242 -0.0070103519384280286 0 -0.037759956878127221 -0.0083608601020609338 0 -0.038805134447780616 -0.0072620754293066664 0 -0.037578432917520242 -0.0070103519384280286 0 -0.037759956878127221 -0.0083608601020609338 0 -0.038405292857356318 -0.0095430568268274202 0 -0.037667301395563714 -0.0084156958474299621 0 -0.039411265219841812 -0.0080243460733216906 0 -0.038805134447780616 -0.0072620754293066664 0 -0.037759956878127221 -0.0083608601020609338 0 -0.039822774222744016 -0.0078901378984118867 0 -0.038405292857356318 -0.0095430568268274202 0 -0.039773135030940196 -0.0085782696314896916 0 -0.039411265219841812 -0.0080243460733216906 0 -0.038093672205929241 -0.0075933564645689622 0 -0.038967871567831706 -0.0072112072129007195 0 -0.039773135030940196 -0.0085782696314896916 0 -0.039411265219841812 -0.0080243460733216906 0 -0.041126229210630222 -0.0076321709418875677 0 -0.038967871567831706 -0.0072112072129007195 0 -0.039458358274066199 -0.0067574082431200245 0 -0.037981686805085617 -0.0069880362265644378 0 -0.037425952733972853 -0.0065051696993977722 0 -0.038347512610635612 -0.0066035332104666215 0 -0.039822774222744016 -0.0078901378984118867 0 -0.040293716319591576 -0.006789135382405948 0 -0.041835169969139933 -0.0074242042444646467 0 -0.038355605561657583 -0.0052966190245460525 0 -0.038895116829236569 -0.0049726218496316645 0 -0.039232222694105243 -0.0054484951082306547 0 -0.040293716319591576 -0.006789135382405948 0 -0.04203218400880393 -0.0072876429865883921 0 -0.041835169969139933 -0.0074242042444646467 0 -0.038958038582341342 -0.0063928797076519186 0 -0.039508312339700563 -0.006653240613023209 0 -0.038895116829236569 -0.0049726218496316645 0 -0.039232222694105243 -0.0054484951082306547 0 -0.039328244510299766 -0.0048940847631033929 0 -0.038924313252221253 -0.0056647351683150127 0 -0.039119309971863886 -0.0058170344512440486 0 -0.039259173031373287 -0.0056051973104303257 0 -0.039458358274066199 -0.0067574082431200245 0 -0.039563570279685011 -0.0066542084429179063 0 -0.039526620516065737 -0.0069058798330404632 0 -0.039887194410436408 -0.0066560896797085989 0 -0.039199335265395124 -0.0068122767850701789 0 -0.039508312339700563 -0.006653240613023209 0 -0.039458358274066199 -0.0067574082431200245 0 -0.037425952733972853 -0.0065051696993977722 0 -0.038637828762822062 -0.0061674397153145301 0 -0.038347512610635612 -0.0066035332104666215 0 -0.038924313252221253 -0.0056647351683150127 0 -0.038966092831662087 -0.0059373142898184158 0 -0.038637828762822062 -0.0061674397153145301 0 -0.038966092831662087 -0.0059373142898184158 0 -0.039119309971863886 -0.0058170344512440486 0 -0.039182546142324241 -0.0061021810955045313 0 -0.037425952733972853 -0.0065051696993977722 0 -0.038924313252221253 -0.0056647351683150127 0 -0.038637828762822062 -0.0061674397153145301 0 -0.038924313252221253 -0.0056647351683150127 0 -0.038966092831662087 -0.0059373142898184158 0 -0.039119309971863886 -0.0058170344512440486 0 -0.038436063286309267 -0.0078010537846195426 0 -0.039458358274066199 -0.0067574082431200245 0 -0.038966092831662087 -0.0059373142898184158 0 -0.038637828762822062 -0.0061674397153145301 0 -0.039182546142324241 -0.0061021810955045313 0 -0.038890110362163929 -0.0065940135467765287 0 -0.039300669300634652 -0.0065790672046507417 0 -0.039182546142324241 -0.0061021810955045313 0 -0.038637828762822062 -0.0061674397153145301 0 -0.038890110362163929 -0.0065940135467765287 0 -0.039182546142324241 -0.0061021810955045313 0 -0.038637828762822062 -0.0061674397153145301 0 -0.038347512610635612 -0.0066035332104666215 0 -0.038890110362163929 -0.0065940135467765287 0 -0.039853820632830744 -0.0069515348321428075 0 -0.039300669300634652 -0.0065790672046507417 0 -0.039609431367877486 -0.006418454587369728 0 -0.039637838150237338 -0.0060303291450449544 0 -0.040693920507956866 -0.0062344999995793135 0 -0.039259173031373287 -0.0056051973104303257 0 -0.039269273138332672 -0.0070671131746219635 0 -0.038890110362163929 -0.0065940135467765287 0 -0.039300669300634652 -0.0065790672046507417 0 -0.040060621790113667 -0.0064143009925307637 0 -0.039637838150237338 -0.0060303291450449544 0 -0.040693920507956866 -0.0062344999995793135 0 -0.040085457582086009 -0.0066792193501837042 0 -0.039563570279685011 -0.0066542084429179063 0 -0.039300669300634652 -0.0065790672046507417 0 -0.039609431367877486 -0.006418454587369728 0 -0.039182546142324241 -0.0061021810955045313 0 -0.039853820632830744 -0.0069515348321428075 0 -0.039609431367877486 -0.006418454587369728 0 -0.040060621790113667 -0.0064143009925307637 0 -0.039609431367877486 -0.006418454587369728 0 -0.040060621790113667 -0.0064143009925307637 0 -0.039637838150237338 -0.0060303291450449544 0 -0.039119309971863886 -0.0058170344512440486 0 -0.039299995167072443 -0.0058898822156107462 0 -0.039259173031373287 -0.0056051973104303257 0 -0.039119309971863886 -0.0058170344512440486 0 -0.039299995167072443 -0.0058898822156107462 0 -0.039182546142324241 -0.0061021810955045313 0 -0.039637838150237338 -0.0060303291450449544 0 -0.039299995167072443 -0.0058898822156107462 0 -0.039182546142324241 -0.0061021810955045313 0 -0.039637838150237338 -0.0060303291450449544 0 -0.039299995167072443 -0.0058898822156107462 0 -0.039259173031373287 -0.0056051973104303257 0 -0.039609431367877486 -0.006418454587369728 0 -0.039637838150237338 -0.0060303291450449544 0 -0.039182546142324241 -0.0061021810955045313 0 -0.040714125982650451 -0.0069472837632586805 0 -0.040060621790113667 -0.0064143009925307637 0 -0.040693920507956866 -0.0062344999995793135 0 -0.040714125982650451 -0.0069472837632586805 0 -0.039853820632830744 -0.0069515348321428075 0 -0.040060621790113667 -0.0064143009925307637 0 -0.039719876035827724 -0.0062435395981941906 0 -0.039827668137664848 -0.005603988255218525 0 -0.038529178889512343 -0.0059038056439424131 0 -0.040319914933747723 -0.0050213995359934061 0 -0.039862173169336351 -0.0047934723061318837 0 -0.04047757358058119 -0.0043660480977734638 0 -0.040666458770942909 -0.0059598721703747444 0 -0.039719876035827724 -0.0062435395981941906 0 -0.039827668137664848 -0.005603988255218525 0 -0.040319914933747723 -0.0050213995359934061 0 -0.039338091183327741 -0.0052482221853714078 0 -0.039862173169336351 -0.0047934723061318837 0 -0.040337657886190738 -0.0061095730317285244 0 -0.039563570279685011 -0.0066542084429179063 0 -0.03924658538012301 -0.0052223436238450424 0 -0.039338091183327741 -0.0052482221853714078 0 -0.039862173169336351 -0.0047934723061318837 0 -0.039508312339700563 -0.006653240613023209 0 -0.039563570279685011 -0.0066542084429179063 0 -0.039508312339700563 -0.006653240613023209 0 -0.039823159663574768 -0.0062542008766175118 0 -0.039232222694105243 -0.0054484951082306547 0 -0.039866510373725426 -0.0049464755042043082 0 -0.039328244510299766 -0.0048940847631033929 0 -0.039328244510299766 -0.0048940847631033929 0 -0.039689513861358452 -0.0043133824565163154 0 -0.039056590836100337 -0.0044484966133130372 0 -0.039866510373725426 -0.0049464755042043082 0 -0.039328244510299766 -0.0048940847631033929 0 -0.039689513861358452 -0.0043133824565163154 0 -0.039866510373725426 -0.0049464755042043082 0 -0.039689513861358452 -0.0043133824565163154 0 -0.04047757358058119 -0.0043660480977734638 0 -0.039689513861358452 -0.0043133824565163154 0 -0.04047757358058119 -0.0043660480977734638 0 -0.040160856272972924 -0.003923341740342136 0 -0.039823159663574768 -0.0062542008766175118 0 -0.039959104397793668 -0.0061001571708916794 0 -0.039689513861358452 -0.0043133824565163154 0 -0.039898405439738084 -0.0035360769443415429 0 -0.040160856272972924 -0.003923341740342136 0 -0.040569344485645017 -0.0034813824843838801 0 -0.04047757358058119 -0.0043660480977734638 0 -0.040160856272972924 -0.003923341740342136 0 -0.040569344485645017 -0.0034813824843838801 0 -0.039898405439738084 -0.0035360769443415429 0 -0.040160856272972924 -0.003923341740342136 0 -0.039689513861358452 -0.0043133824565163154 0 -0.039306039139489504 -0.0036236077476700839 0 -0.039056590836100337 -0.0044484966133130372 0 -0.039689513861358452 -0.0043133824565163154 0 -0.039898405439738084 -0.0035360769443415429 0 -0.039306039139489504 -0.0036236077476700839 0 -0.038718291650664587 -0.0037533109358743955 0 -0.038596577154313909 -0.0046502341020702199 0 -0.039056590836100337 -0.0044484966133130372 0 -0.039306039139489504 -0.0036236077476700839 0 -0.038718291650664587 -0.0037533109358743955 0 -0.039056590836100337 -0.0044484966133130372 0 -0.038718291650664587 -0.0037533109358743955 0 -0.038144590987564175 -0.0044568091138690105 0 -0.038596577154313909 -0.0046502341020702199 0 -0.038386148937863004 -0.0031822363262021492 0 -0.038718291650664587 -0.0037533109358743955 0 -0.038144590987564175 -0.0044568091138690105 0 -0.038355605561657583 -0.0052966190245460525 0 -0.038144590987564175 -0.0044568091138690105 0 -0.038596577154313909 -0.0046502341020702199 0 -0.038355605561657583 -0.0052966190245460525 0 -0.038895116829236569 -0.0049726218496316645 0 -0.038596577154313909 -0.0046502341020702199 0 -0.038895116829236569 -0.0049726218496316645 0 -0.038596577154313909 -0.0046502341020702199 0 -0.039056590836100337 -0.0044484966133130372 0 -0.038895116829236569 -0.0049726218496316645 0 -0.039328244510299766 -0.0048940847631033929 0 -0.039056590836100337 -0.0044484966133130372 0 -0.0042107989334517733 0.0060790540120130325 0 -0.003847574780238892 0.0049975582453087924 0 -0.0051893318418466637 0.0047701827147093988 0 -0.0042107989334517733 0.0060790540120130325 0 -0.0027573662373457223 0.0052858320222756178 0 -0.003847574780238892 0.0049975582453087924 0 -0.006067917147837408 0.003276075302856658 0 -0.0068994226314597158 0.0039676165806268532 0 -0.0042107989334517733 0.0060790540120130325 0 -0.0058093731952694773 0.0062029369231805988 0 -0.0051893318418466637 0.0047701827147093988 0 -0.0058093731952694773 0.0062029369231805988 0 -0.0051893318418466637 0.0047701827147093988 0 -0.0069627921148739079 0.0058898345397379835 0 -0.0042107989334517733 0.0060790540120130325 0 -0.0050853034464936626 0.0067955957495844238 0 -0.0058093731952694773 0.0062029369231805988 0 -0.0050853034464936626 0.0067955957495844238 0 -0.0058093731952694773 0.0062029369231805988 0 -0.0057423097133870475 0.0073388198579678113 0 -0.0058093731952694773 0.0062029369231805988 0 -0.0057423097133870475 0.0073388198579678113 0 -0.0070047693265964123 0.0068471840893603803 0 -0.0058093731952694773 0.0062029369231805988 0 -0.0069627921148739079 0.0058898345397379835 0 -0.0070047693265964123 0.0068471840893603803 0 -0.0057423097133870475 0.0073388198579678113 0 -0.0070047693265964123 0.0068471840893603803 0 -0.0065340872222708216 0.0080541769495668641 0 -0.0050853034464936626 0.0067955957495844238 0 -0.0057423097133870475 0.0073388198579678113 0 -0.00461841879757891 0.0077655772486276385 0 -0.0057423097133870475 0.0073388198579678113 0 -0.00461841879757891 0.0077655772486276385 0 -0.0054834319590729673 0.008427209256090756 0 -0.0042107989334517733 0.0060790540120130325 0 -0.00461841879757891 0.0077655772486276385 0 -0.0027025605411976589 0.0074730356677003614 0 -0.0042107989334517733 0.0060790540120130325 0 -0.0050853034464936626 0.0067955957495844238 0 -0.00461841879757891 0.0077655772486276385 0 -0.0034628412339194584 0.0083316307267326615 0 -0.0020520644493133931 0.0079408155994233273 0 -0.0027573662373457223 0.0052858320222756178 0 -0.0034628412339194584 0.0083316307267326615 0 -0.0020520644493133931 0.0079408155994233273 0 -0.0022636757249500177 0.0095888018183853032 0 -0.0011298382377133453 0.0071211879486473579 0 -0.0020520644493133931 0.0079408155994233273 0 -0.00063164152766669826 0.0088505815774659186 0 -0.0011298382377133453 0.0071211879486473579 0 -0.0012603842654191572 0.0056190557679963622 0 -0.0027573662373457223 0.0052858320222756178 0 -0.0011298382377133453 0.0071211879486473579 0 -0.0020520644493133931 0.0079408155994233273 0 -0.0027573662373457223 0.0052858320222756178 0 -0.0029470620129067675 0.008856074204769868 0 -0.0028380803813124432 0.0080736375076861412 0 -0.0042107989334517733 0.0060790540120130325 0 -0.0027025605411976589 0.0074730356677003614 0 -0.0027573662373457223 0.0052858320222756178 0 -0.0027573662373457223 0.0052858320222756178 0 -0.0011735187225603212 0.0044685794950321015 0 -0.0032816354217079786 0.0038977236690417023 0 -0.0027573662373457223 0.0052858320222756178 0 -0.0032816354217079786 0.0038977236690417023 0 -0.003847574780238892 0.0049975582453087924 0 -0.0012603842654191572 0.0056190557679963622 0 -0.0027573662373457223 0.0052858320222756178 0 -0.0011735187225603212 0.0044685794950321015 0 -0.0011735187225603212 0.0044685794950321015 0 -0.0032816354217079786 0.0038977236690417023 0 -0.0014290264655949484 0.0026183941898568668 0 -0.0045016092944500322 0.0018753200258657923 0 -0.0029148505722609505 0.00023643548920618363 0 -0.006177198687379701 -0.0023235183555139409 0 -0.0055776642070498889 -0.0032737345781956358 0 -0.0047292060105503901 0.0011434024773861373 0 -0.0067905682861835442 0.0011630266061201113 0 -0.0048838329190960617 -0.00084868551084950371 0 -0.0047292060105503901 0.0011434024773861373 0 -0.0068306546813609609 0.0030364215118753929 0 -0.0067905682861835442 0.0011630266061201113 0 -0.0045016092944500322 0.0018753200258657923 0 -0.006067917147837408 0.003276075302856658 0 -0.0032816354217079786 0.0038977236690417023 0 -0.003847574780238892 0.0049975582453087924 0 -0.0051893318418466637 0.0047701827147093988 0 -0.0068306546813609609 0.0030364215118753929 0 -0.0077379735545044211 0.0023353722091321149 0 -0.0067905682861835442 0.0011630266061201113 0 -0.0068306546813609609 0.0030364215118753929 0 -0.0077379735545044211 0.0023353722091321149 0 -0.0080367923704720307 0.0037997035704301599 0 -0.0077379735545044211 0.0023353722091321149 0 -0.0067905682861835442 0.0011630266061201113 0 -0.0083833444254612626 0.00089599450359871622 0 -0.0067905682861835442 0.0011630266061201113 0 -0.0083833444254612626 0.00089599450359871622 0 -0.0070968431391166152 -0.0018637849746076711 0 -0.0083359343442135671 -0.00021340544308173204 0 -0.0093772981880512647 -2.4599146013000864e-05 0 -0.0095658484324992361 0.00073167321679769369 0 -0.0083359343442135671 -0.00021340544308173204 0 -0.0093772981880512647 -2.4599146013000864e-05 0 -0.0093664393453522996 -0.001191023110499899 0 -0.010025382674359533 -6.9579680758401221e-05 0 -0.0097672382118411359 -0.00054822427258638775 0 -0.0089652941676115865 -0.00078816466758242993 0 -0.010300953360152887 0.00048973044351876161 0 -0.0093772981880512647 -2.4599146013000864e-05 0 -0.0093664393453522996 -0.001191023110499899 0 -0.010300953360152887 0.00048973044351876161 0 -0.010025382674359533 -6.9579680758401221e-05 0 -0.0089652941676115865 -0.00078816466758242993 0 -0.0093488837475800678 -0.0020242173714622321 0 -0.0090919761745847875 -0.0024275012660099965 0 -0.010025382674359533 -6.9579680758401221e-05 0 -0.010102833883584718 -0.00038595347100412971 0 -0.0097672382118411359 -0.00054822427258638775 0 -0.010300953360152887 0.00048973044351876161 0 -0.0093772981880512647 -2.4599146013000864e-05 0 -0.0095658484324992361 0.00073167321679769369 0 -0.010300953360152887 0.00048973044351876161 0 -0.010025382674359533 -6.9579680758401221e-05 0 -0.011285825404110005 0.0017891927690196967 0 -0.010300953360152887 0.00048973044351876161 0 -0.0095658484324992361 0.00073167321679769369 0 -0.011285825404110005 0.0017891927690196967 0 -0.0095658484324992361 0.00073167321679769369 0 -0.0093913482232259697 0.0018102000733336357 0 -0.011285825404110005 0.0017891927690196967 0 -0.0083359343442135671 -0.00021340544308173204 0 -0.0095658484324992361 0.00073167321679769369 0 -0.0093913482232259697 0.0018102000733336357 0 -0.0077379735545044211 0.0023353722091321149 0 -0.0083833444254612626 0.00089599450359871622 0 -0.0086144534562679481 0.0027792591232532948 0 -0.0083833444254612626 0.00089599450359871622 0 -0.0098038511726219416 0.0031284582384725509 0 -0.0086144534562679481 0.0027792591232532948 0 -0.0098038511726219416 0.0031284582384725509 0 -0.0086144534562679481 0.0027792591232532948 0 -0.0091040962773231565 0.0037949477476213324 0 -0.0086998585485010792 0.00096854179288614482 0 -0.0095882384770786134 0.0020242484363510163 0 -0.0077379735545044211 0.0023353722091321149 0 -0.0086144534562679481 0.0027792591232532948 0 -0.0080367923704720307 0.0037997035704301599 0 0.0038108379022186219 0.0064810310236923345 0 0.0041047520183659361 0.0052007762068733933 0 -0.010450625553435938 -0.00048829136171067863 0 -0.010262539881093222 -3.071184098428068e-05 0 -0.010615995480401819 0.00020584384918637575 0 -0.010450625553435938 -0.00048829136171067863 0 -0.010615995480401819 0.00020584384918637575 0 -0.011048500161203189 -0.00063832997810343687 0 -0.010450625553435938 -0.00048829136171067863 0 -0.010262539881093222 -3.071184098428068e-05 0 -0.010102833883584718 -0.00038595347100412971 0 -0.010025382674359533 -6.9579680758401221e-05 0 -0.010102833883584718 -0.00038595347100412971 0 -0.010114361561325636 -1.55692406328065e-05 0 -0.010262539881093222 -3.071184098428068e-05 0 -0.010102833883584718 -0.00038595347100412971 0 -0.010114361561325636 -1.55692406328065e-05 0 0.0013385089707997338 0.0062728720754224327 0 0.0018531333586289235 0.0067706553257221554 0 -0.010262539881093222 -3.071184098428068e-05 0 -0.010060575223929976 0.00033060718645336903 0 -0.010615995480401819 0.00020584384918637575 0 -0.010025382674359533 -6.9579680758401221e-05 0 -0.010114361561325636 -1.55692406328065e-05 0 -0.010060575223929976 0.00033060718645336903 0 -0.010262539881093222 -3.071184098428068e-05 0 -0.010114361561325636 -1.55692406328065e-05 0 -0.010060575223929976 0.00033060718645336903 0 0.019231499930391874 0.011571785948590273 0 0.019235500041838743 0.011361248564083602 0 0.018995490412983474 0.011257844392916893 0 0.0038108379022186219 0.0064810310236923345 0 0.003535769443131716 0.0080999255734828437 0 0.019231499930391874 0.011571785948590273 0 0.019235500041838743 0.011361248564083602 0 0.01941698426854983 0.011442891275514318 0 0.019235500041838743 0.011361248564083602 0 0.019187641073163779 0.01119044838769164 0 0.019318715032216081 0.011269680925350828 0 0.019235500041838743 0.011361248564083602 0 0.018995490412983474 0.011257844392916893 0 0.019187641073163779 0.01119044838769164 0 0.0018531333586289235 0.0067706553257221554 0 0.003535769443131716 0.0080999255734828437 0 -0.011285825404110005 0.0017891927690196967 0 -0.01235864253229752 0.005168801120941824 0 -0.011932361249371935 0.0052904931860296269 0 -0.010060575223929976 0.00033060718645336903 0 -0.010615995480401819 0.00020584384918637575 0 -0.010234318143052309 0.00089171868362540596 0 0.018798687833515782 0.011585135021854575 0 0.018548429570271592 0.01106777079736886 0 0.018983737350535386 0.011134596027071153 0 0.003535769443131716 0.0080999255734828437 0 0.0026015369774975974 0.011251382111178185 0 -0.011932361249371935 0.0052904931860296269 0 -0.010872296446457812 0.0056697726129674667 0 -0.010798436066197634 0.0083305486238415168 0 -0.01235864253229752 0.005168801120941824 0 -0.011932361249371935 0.0052904931860296269 0 -0.010798436066197634 0.0083305486238415168 0 0.003535769443131716 0.0080999255734828437 0 0.006024599341761438 0.0079101757403589323 0 0.018995490412983474 0.011257844392916893 0 0.019187641073163779 0.01119044838769164 0 0.019079964787510187 0.010958247854057877 0 0.019187641073163779 0.01119044838769164 0 0.019079964787510187 0.010958247854057877 0 0.019327643322516685 0.011115593323405948 0 0.019187641073163779 0.01119044838769164 0 0.019318715032216081 0.011269680925350828 0 0.019327643322516685 0.011115593323405948 0 -0.0068306546813609609 0.0030364215118753929 0 -0.0080367923704720307 0.0037997035704301599 0 -0.0084661659194748135 0.0056378985008373158 0 -0.0051893318418466637 0.0047701827147093988 0 -0.0069627921148739079 0.0058898345397379835 0 -0.0084661659194748135 0.0056378985008373158 0 -0.0084858235607314161 0.0045467798185441352 0 -0.0080367923704720307 0.0037997035704301599 0 -0.0084661659194748135 0.0056378985008373158 0 -0.0084858235607314161 0.0045467798185441352 0 -0.0088042807216666564 0.0050790212875590724 0 -0.0093262443315604241 0.0047950647321886482 0 -0.0088042807216666564 0.0050790212875590724 0 -0.0089087040258680888 0.0053757130863096494 0 -0.0093262443315604241 0.0047950647321886482 0 -0.0088042807216666564 0.0050790212875590724 0 -0.0089087040258680888 0.0053757130863096494 0 -0.0084661659194748135 0.0056378985008373158 0 -0.0084858235607314161 0.0045467798185441352 0 -0.0088042807216666564 0.0050790212875590724 0 -0.0084661659194748135 0.0056378985008373158 0 -0.0084858235607314161 0.0045467798185441352 0 -0.0091040962773231565 0.0037949477476213324 0 -0.0093262443315604241 0.0047950647321886482 0 -0.0084858235607314161 0.0045467798185441352 0 -0.0080367923704720307 0.0037997035704301599 0 -0.0091040962773231565 0.0037949477476213324 0 -0.0086144534562679481 0.0027792591232532948 0 -0.0080367923704720307 0.0037997035704301599 0 -0.0091040962773231565 0.0037949477476213324 0 -0.0098038511726219416 0.0031284582384725509 0 -0.0096562051700847303 0.0040820032090786353 0 -0.010392766560008556 0.0046651195941605338 0 -0.0093913482232259697 0.0018102000733336357 0 -0.011285825404110005 0.0017891927690196967 0 -0.011932361249371935 0.0052904931860296269 0 -0.0098038511726219416 0.0031284582384725509 0 -0.011932361249371935 0.0052904931860296269 0 -0.010392766560008556 0.0046651195941605338 0 -0.0095882384770786134 0.0020242484363510163 0 -0.010139700127880019 0.0026611331817598979 0 -0.0091040962773231565 0.0037949477476213324 0 -0.0096562051700847303 0.0040820032090786353 0 -0.0093262443315604241 0.0047950647321886482 0 -0.0098038511726219416 0.0031284582384725509 0 -0.0091040962773231565 0.0037949477476213324 0 -0.0096562051700847303 0.0040820032090786353 0 -0.011932361249371935 0.0052904931860296269 0 -0.010392766560008556 0.0046651195941605338 0 -0.010872296446457812 0.0056697726129674667 0 -0.010392766560008556 0.0046651195941605338 0 -0.0093262443315604241 0.0047950647321886482 0 -0.0099255523564152348 0.0058032700013138381 0 -0.0096562051700847303 0.0040820032090786353 0 -0.010392766560008556 0.0046651195941605338 0 -0.0093262443315604241 0.0047950647321886482 0 -0.0093262443315604241 0.0047950647321886482 0 -0.0092425827881136048 0.0054498384894760103 0 -0.0099255523564152348 0.0058032700013138381 0 -0.0089087040258680888 0.0053757130863096494 0 -0.0093262443315604241 0.0047950647321886482 0 -0.0092425827881136048 0.0054498384894760103 0 0.0012713074881426395 0.011426063358893998 0 0.0026015369774975974 0.011251382111178185 0 -0.0092425827881136048 0.0054498384894760103 0 -0.0099255523564152348 0.0058032700013138381 0 -0.0087975247962581212 0.0058467615379811915 0 -0.0099255523564152348 0.0058032700013138381 0 -0.010872296446457812 0.0056697726129674667 0 -0.010798436066197634 0.0083305486238415168 0 -0.0087975247962581212 0.0058467615379811915 0 -0.0089323389014447779 0.007905596418175358 0 -0.010646398097929661 0.0087712221912176376 0 -0.0099255523564152348 0.0058032700013138381 0 -0.0087975247962581212 0.0058467615379811915 0 -0.010798436066197634 0.0083305486238415168 0 -0.010392766560008556 0.0046651195941605338 0 -0.0099255523564152348 0.0058032700013138381 0 -0.010872296446457812 0.0056697726129674667 0 -0.0081772843563906929 0.0073504416654466848 0 -0.0087975247962581212 0.0058467615379811915 0 -0.0089323389014447779 0.007905596418175358 0 -0.0081772843563906929 0.0073504416654466848 0 -0.0082220057503969175 0.0063529174364041424 0 -0.0077764607279014152 0.0068166752614219721 0 -0.0081772843563906929 0.0073504416654466848 0 -0.0082220057503969175 0.0063529174364041424 0 -0.0087975247962581212 0.0058467615379811915 0 -0.0082220057503969175 0.0063529174364041424 0 -0.0076887524989607582 0.0063088129400226869 0 -0.0077764607279014152 0.0068166752614219721 0 -0.0082220057503969175 0.0063529174364041424 0 -0.0084661659194748135 0.0056378985008373158 0 -0.0076887524989607582 0.0063088129400226869 0 -0.0089087040258680888 0.0053757130863096494 0 -0.0084661659194748135 0.0056378985008373158 0 -0.0087975247962581212 0.0058467615379811915 0 -0.0082220057503969175 0.0063529174364041424 0 -0.0084661659194748135 0.0056378985008373158 0 -0.0087975247962581212 0.0058467615379811915 0 -0.0089087040258680888 0.0053757130863096494 0 -0.0092425827881136048 0.0054498384894760103 0 -0.0087975247962581212 0.0058467615379811915 0 -0.0069627921148739079 0.0058898345397379835 0 -0.0076887524989607582 0.0063088129400226869 0 -0.0070047693265964123 0.0068471840893603803 0 -0.0069627921148739079 0.0058898345397379835 0 -0.0084661659194748135 0.0056378985008373158 0 -0.0076887524989607582 0.0063088129400226869 0 -0.0076887524989607582 0.0063088129400226869 0 -0.0070047693265964123 0.0068471840893603803 0 -0.0077764607279014152 0.0068166752614219721 0 -0.0070047693265964123 0.0068471840893603803 0 -0.0074383966750321776 0.0075616405097233405 0 -0.0065340872222708216 0.0080541769495668641 0 -0.0070047693265964123 0.0068471840893603803 0 -0.0077764607279014152 0.0068166752614219721 0 -0.0074383966750321776 0.0075616405097233405 0 -0.0081772843563906929 0.0073504416654466848 0 -0.0077764607279014152 0.0068166752614219721 0 -0.0074383966750321776 0.0075616405097233405 0 -0.0074383966750321776 0.0075616405097233405 0 -0.0075859412956389384 0.008640992951233625 0 -0.0065340872222708216 0.0080541769495668641 0 -0.0081772843563906929 0.0073504416654466848 0 -0.0074383966750321776 0.0075616405097233405 0 -0.0075859412956389384 0.008640992951233625 0 -0.0075859412956389384 0.008640992951233625 0 -0.0073244710604316683 0.010497238661494164 0 -0.0061155552690917202 0.0094633859817157499 0 -0.0075859412956389384 0.008640992951233625 0 -0.0085928078901310948 0.0094332350115013536 0 -0.0073244710604316683 0.010497238661494164 0 -0.0075859412956389384 0.008640992951233625 0 -0.0085928078901310948 0.0094332350115013536 0 -0.0089323389014447779 0.007905596418175358 0 -0.0081772843563906929 0.0073504416654466848 0 -0.0075859412956389384 0.008640992951233625 0 -0.0089323389014447779 0.007905596418175358 0 -0.0085928078901310948 0.0094332350115013536 0 -0.0089323389014447779 0.007905596418175358 0 -0.010646398097929661 0.0087712221912176376 0 -0.0085928078901310948 0.0094332350115013536 0 -0.010646398097929661 0.0087712221912176376 0 -0.0090325642985794406 0.011648766533258581 0 0.0026015369774975974 0.011251382111178185 0 0.0011323810562269962 0.013539566507665704 0 0.0044242134596870096 0.02423281139873824 0 0.0032766542399003807 0.022039740790587542 0 0.0046243761055776503 0.021934363378335237 0 -0.0085928078901310948 0.0094332350115013536 0 -0.0090325642985794406 0.011648766533258581 0 -0.0073244710604316683 0.010497238661494164 0 -0.0090325642985794406 0.011648766533258581 0 -0.0073244710604316683 0.010497238661494164 0 -0.0069824937710247573 0.012340883408514275 0 0.019079964787510187 0.010958247854057877 0 0.019366457034186206 0.010949845686800448 0 0.019337502512315266 0.010745771621648909 0 0.006024599341761438 0.0079101757403589323 0 0.006823665644872556 0.0078484366559163962 0 0.019079964787510187 0.010958247854057877 0 0.019327643322516685 0.011115593323405948 0 0.019366457034186206 0.010949845686800448 0 0.018548429570271592 0.01106777079736886 0 0.018983737350535386 0.011134596027071153 0 0.01891528871451156 0.010656932284307277 0 0.0044242134596870096 0.02423281139873824 0 0.0058229381354866945 0.022422562320967038 0 0.0046243761055776503 0.021934363378335237 0 0.0026015369774975974 0.011251382111178185 0 0.0066712922151672804 0.012133058741699586 0 0.018983737350535386 0.011134596027071153 0 0.01891528871451156 0.010656932284307277 0 0.01916593669096139 0.010690146966962379 0 0.019079964787510187 0.010958247854057877 0 0.01916593669096139 0.010690146966962379 0 0.019337502512315266 0.010745771621648909 0 0.01891528871451156 0.010656932284307277 0 0.01916593669096139 0.010690146966962379 0 0.019164869549802441 0.010576919372667486 0 0.01916593669096139 0.010690146966962379 0 0.019263575159628829 0.010581983716018544 0 0.019164869549802441 0.010576919372667486 0 0.01916593669096139 0.010690146966962379 0 0.019263575159628829 0.010581983716018544 0 0.01928894168055131 0.010656928359733397 0 0.01916593669096139 0.010690146966962379 0 0.01928894168055131 0.010656928359733397 0 0.019337502512315266 0.010745771621648909 0 0.0058229381354866945 0.022422562320967038 0 0.0072755469227291708 0.020619157828890452 0 0.0071201114277149617 0.020699051583174789 0 0.01891528871451156 0.010656932284307277 0 0.019226547347870236 0.010437802495529681 0 0.019164869549802441 0.010576919372667486 0 0.0058229381354866945 0.022422562320967038 0 0.0071201114277149617 0.020699051583174789 0 0.0055829384005344979 0.020815847308471556 0 0.0066712922151672804 0.012133058741699586 0 0.0099631250547571586 0.012346778854473895 0 0.0072841785938262908 0.020623760828003247 0 0.0071201114277149617 0.020699051583174789 0 0.0071691135996991007 0.020243755070277245 0 0.0099631250547571586 0.012346778854473895 0 0.0099555976639432373 0.012353485155006234 0 0.019226547347870236 0.010437802495529681 0 0.0192373845511652 0.010524774362503949 0 0.01931328077456999 0.010496195334259059 0 0.0192373845511652 0.010524774362503949 0 0.019263575159628829 0.010581983716018544 0 0.01931328077456999 0.010496195334259059 0 0.019226547347870236 0.010437802495529681 0 0.0192373845511652 0.010524774362503949 0 0.019164869549802441 0.010576919372667486 0 0.0192373845511652 0.010524774362503949 0 0.019263575159628829 0.010581983716018544 0 0.019164869549802441 0.010576919372667486 0 0.0071201114277149617 0.020699051583174789 0 0.0055829384005344979 0.020815847308471556 0 0.0066804631028533033 0.019984270254768382 0 0.0058229381354866945 0.022422562320967038 0 0.0055829384005344979 0.020815847308471556 0 0.0046243761055776503 0.021934363378335237 0 0.0055829384005344979 0.020815847308471556 0 0.0046243761055776503 0.021934363378335237 0 0.0041029643589914353 0.020451127075551186 0 0.0054410256113064746 0.019635534804438946 0 0.0063979722642317121 0.018979520194507628 0 0.0043882876601128457 0.018716291947474172 0 0.0054410256113064746 0.019635534804438946 0 0.0041029643589914353 0.020451127075551186 0 0.0043882876601128457 0.018716291947474172 0 0.0055829384005344979 0.020815847308471556 0 0.0054410256113064746 0.019635534804438946 0 0.0041029643589914353 0.020451127075551186 0 0.0055829384005344979 0.020815847308471556 0 0.0054410256113064746 0.019635534804438946 0 0.0066804631028533033 0.019984270254768382 0 0.0066804631028533033 0.019984270254768382 0 0.0063979722642317121 0.018979520194507628 0 0.0074083207138194085 0.019618921304535363 0 0.0054410256113064746 0.019635534804438946 0 0.0066804631028533033 0.019984270254768382 0 0.0063979722642317121 0.018979520194507628 0 0.0063979722642317121 0.018979520194507628 0 0.0074083207138194085 0.019618921304535363 0 0.0077320144382578334 0.018749957478561879 0 0.0074083207138194085 0.019618921304535363 0 0.0071691135996991007 0.020243755070277245 0 0.007600762376024711 0.020273922485155013 0 0.0066804631028533033 0.019984270254768382 0 0.0074083207138194085 0.019618921304535363 0 0.0071691135996991007 0.020243755070277245 0 0.0071201114277149617 0.020699051583174789 0 0.0066804631028533033 0.019984270254768382 0 0.0071691135996991007 0.020243755070277245 0 0.0072841785938262908 0.020623760828003247 0 0.0071691135996991007 0.020243755070277245 0 0.007600762376024711 0.020273922485155013 0 0.0099631250547571586 0.012346778854473895 0 0.0099181014987110711 0.012419275327344303 0 0.0011323810562269962 0.013539566507665704 0 6.1306611795069357e-05 0.014752458607640453 0 -0.0090325642985794406 0.011648766533258581 0 -0.0069824937710247573 0.012340883408514275 0 -0.0074546454681266748 0.014640065533658089 0 0.0032766542399003807 0.022039740790587542 0 0.0046243761055776503 0.021934363378335237 0 0.0041029643589914353 0.020451127075551186 0 0.0032766542399003807 0.022039740790587542 0 0.0041029643589914353 0.020451127075551186 0 0.0021129736908309035 0.0198116628135405 0 6.1306611795069357e-05 0.014752458607640453 0 0.001605459270869808 0.015190690511878737 0 0.0041029643589914353 0.020451127075551186 0 0.0021129736908309035 0.0198116628135405 0 0.0043882876601128457 0.018716291947474172 0 0.00038769482031954878 0.020406918846468648 0 0.0036647742823817408 0.018857305936354866 0 0.0011544193901568787 0.017978352879407807 0 6.1306611795069357e-05 0.014752458607640453 0 -0.00014063493071101566 0.014848703062494374 0 -0.003780068672024431 0.013559520562515861 0 -0.0031451106188272646 0.013771897215649651 0 -0.0032972904721198589 0.014245695337541924 0 -0.0031451106188272646 0.013771897215649651 0 -0.0028853646756889549 0.013594795592218652 0 -0.0033720720753598974 0.013248305633368375 0 6.1306611795069357e-05 0.014752458607640453 0 -0.00078794626454322747 0.01485424474067228 0 -0.003780068672024431 0.013559520562515861 0 -0.0031451106188272646 0.013771897215649651 0 -0.0033720720753598974 0.013248305633368375 0 -0.0028853646756889549 0.013594795592218652 0 -0.0023977326518889353 0.013798903653504708 0 -0.0025864381768707497 0.014187195834414671 0 -0.0031451106188272646 0.013771897215649651 0 -0.0028853646756889549 0.013594795592218652 0 -0.0025864381768707497 0.014187195834414671 0 -0.0032013318460115607 0.010988826996694515 0 -0.0031228102095691231 0.010267357469197835 0 -0.0028853646756889549 0.013594795592218652 0 -0.0033397723115714678 0.012559796582258751 0 -0.0033720720753598974 0.013248305633368375 0 -0.0028853646756889549 0.013594795592218652 0 -0.0033397723115714678 0.012559796582258751 0 -0.0027998411220949418 0.011070837475933388 0 -0.00097614201065745066 0.014840651216179166 0 -0.00078794626454322747 0.01485424474067228 0 -0.0033397723115714678 0.012559796582258751 0 -0.0055087524964165533 0.013712404637287645 0 -0.0055561094435527458 0.011256287902023151 0 -0.0069824937710247573 0.012340883408514275 0 -0.0055087524964165533 0.013712404637287645 0 -0.0055561094435527458 0.011256287902023151 0 -0.0069824937710247573 0.012340883408514275 0 -0.0074546454681266748 0.014640065533658089 0 -0.0055087524964165533 0.013712404637287645 0 -0.0073244710604316683 0.010497238661494164 0 -0.0069824937710247573 0.012340883408514275 0 -0.0055561094435527458 0.011256287902023151 0 -0.0073244710604316683 0.010497238661494164 0 -0.0055561094435527458 0.011256287902023151 0 -0.0061155552690917202 0.0094633859817157499 0 -0.0055561094435527458 0.011256287902023151 0 -0.00442593649224039 0.0095716081803405417 0 -0.0061155552690917202 0.0094633859817157499 0 -0.0033397723115714678 0.012559796582258751 0 -0.0055561094435527458 0.011256287902023151 0 -0.0040028440690949643 0.011130490735864074 0 -0.0033397723115714678 0.012559796582258751 0 -0.0040028440690949643 0.011130490735864074 0 -0.0027998411220949418 0.011070837475933388 0 -0.0040028440690949643 0.011130490735864074 0 -0.00442593649224039 0.0095716081803405417 0 -0.0027998411220949418 0.011070837475933388 0 -0.0055561094435527458 0.011256287902023151 0 -0.0040028440690949643 0.011130490735864074 0 -0.00442593649224039 0.0095716081803405417 0 -0.00461841879757891 0.0077655772486276385 0 -0.0027025605411976589 0.0074730356677003614 0 -0.00442593649224039 0.0095716081803405417 0 -0.0027025605411976589 0.0074730356677003614 0 -0.00442593649224039 0.0095716081803405417 0 -0.0027998411220949418 0.011070837475933388 0 -0.00461841879757891 0.0077655772486276385 0 -0.00442593649224039 0.0095716081803405417 0 -0.0054834319590729673 0.008427209256090756 0 -0.0075859412956389384 0.008640992951233625 0 -0.0065340872222708216 0.0080541769495668641 0 -0.0061155552690917202 0.0094633859817157499 0 -0.0054834319590729673 0.008427209256090756 0 -0.0065340872222708216 0.0080541769495668641 0 -0.0061155552690917202 0.0094633859817157499 0 -0.0057423097133870475 0.0073388198579678113 0 -0.0054834319590729673 0.008427209256090756 0 -0.0065340872222708216 0.0080541769495668641 0 -0.00442593649224039 0.0095716081803405417 0 -0.0054834319590729673 0.008427209256090756 0 -0.0061155552690917202 0.0094633859817157499 0 -0.0020520644493133931 0.0079408155994233273 0 -0.0022636757249500177 0.0095888018183853032 0 -0.00063164152766669826 0.0088505815774659186 0 -0.0022636757249500177 0.0095888018183853032 0 -0.00063164152766669826 0.0088505815774659186 0 -0.00072735252236509553 0.010904037013220928 0 -0.0034628412339194584 0.0083316307267326615 0 -0.0022636757249500177 0.0095888018183853032 0 -0.0035711828620290193 0.011553196367455396 0 -0.0029470620129067675 0.008856074204769868 0 -0.0031228102095691231 0.010267357469197835 0 -0.0022636757249500177 0.0095888018183853032 0 -0.0035711828620290193 0.011553196367455396 0 -0.0022905149899969781 0.011664925732378414 0 -0.0044832306322547004 0.011975855754856723 0 -0.004716870105655164 0.012202862294135603 0 -0.0022636757249500177 0.0095888018183853032 0 -0.0022905149899969781 0.011664925732378414 0 -0.0012183525630531467 0.012154908733955869 0 -0.0021922893238719662 0.013007969059762333 0 -0.001617738917776729 0.013167508193843127 0 -0.0012183525630531467 0.012154908733955869 0 -0.0022905149899969781 0.011664925732378414 0 -0.0021922893238719662 0.013007969059762333 0 -0.0012183525630531467 0.012154908733955869 0 -0.0028853646756889549 0.013594795592218652 0 -0.0035711828620290193 0.011553196367455396 0 -0.0021922893238719662 0.013007969059762333 0 -0.0035711828620290193 0.011553196367455396 0 -0.0022905149899969781 0.011664925732378414 0 -0.0021922893238719662 0.013007969059762333 0 -0.0021922893238719662 0.013007969059762333 0 -0.0023977326518889353 0.013798903653504708 0 -0.0020542872172378398 0.013820987428003024 0 -0.0028853646756889549 0.013594795592218652 0 -0.0021922893238719662 0.013007969059762333 0 -0.0023977326518889353 0.013798903653504708 0 -0.0021922893238719662 0.013007969059762333 0 -0.001617738917776729 0.013167508193843127 0 -0.0020542872172378398 0.013820987428003024 0 -0.001617738917776729 0.013167508193843127 0 -0.0016852790674854812 0.013624752294949896 0 -0.0020542872172378398 0.013820987428003024 0 0.00073385026425672737 0.012536633839729571 0 0.0020031000345134397 0.010765666800551434 0 -0.00072735252236509553 0.010904037013220928 0 -0.001617738917776729 0.013167508193843127 0 -0.0013294523464395711 0.013320375487356293 0 -0.0016852790674854812 0.013624752294949896 0 -0.006316627666322466 0.011888576497768207 0 -0.004716870105655164 0.012202862294135603 0 -0.001617738917776729 0.013167508193843127 0 -0.0013294523464395711 0.013320375487356293 0 -0.0012183525630531467 0.012154908733955869 0 -0.006316627666322466 0.011888576497768207 0 -0.011233618680019588 0.0090033344556301135 0 0.00073385026425672737 0.012536633839729571 0 0.0030528615306351292 0.012762835599576826 0 0.0022026100225290696 0.014225592511556678 0 -0.031939026843384809 0.005102790531443936 0 -0.033248083872683784 0.0046468228040407403 0 -0.032899950141848544 0.0067139775131428731 0 -0.031939026843384809 0.005102790531443936 0 -0.033248083872683784 0.0046468228040407403 0 -0.031872025720468107 0.0040813492678437192 0 -0.013032834748187819 0.0085269961995829372 0 -0.014488833442127589 0.0076838898533977042 0 0.0030528615306351292 0.012762835599576826 0 0.0020031000345134397 0.010765666800551434 0 0.0039177662338486198 0.011275998844553185 0 0.00073385026425672737 0.012536633839729571 0 0.0030528615306351292 0.012762835599576826 0 0.0020031000345134397 0.010765666800551434 0 0.0020031000345134397 0.010765666800551434 0 0.0033444921372670941 0.010093385683441277 0 0.0039177662338486198 0.011275998844553185 0 0.0020031000345134397 0.010765666800551434 0 0.0033444921372670941 0.010093385683441277 0 0.0026691068546951056 0.0085506033733501376 0 0.0033444921372670941 0.010093385683441277 0 0.0026691068546951056 0.0085506033733501376 0 0.004775257886711461 0.0097695582437418854 0 -0.0099477245929106284 0.0086826017749706257 0 -0.015736806392847 0.0063255018029188424 0 0.0020031000345134397 0.010765666800551434 0 0.0026691068546951056 0.0085506033733501376 0 0.00082834001745452394 0.0093447535495841082 0 0.0026691068546951056 0.0085506033733501376 0 0.00082834001745452394 0.0093447535495841082 0 0.00088033379147336543 0.0075707376396559264 0 0.00082834001745452394 0.0093447535495841082 0 -0.00063164152766669826 0.0088505815774659186 0 0.00088033379147336543 0.0075707376396559264 0 0.0020031000345134397 0.010765666800551434 0 0.00082834001745452394 0.0093447535495841082 0 -0.00072735252236509553 0.010904037013220928 0 0.00082834001745452394 0.0093447535495841082 0 -0.00063164152766669826 0.0088505815774659186 0 -0.00072735252236509553 0.010904037013220928 0 -0.0256397851325165 0.0026189148248249054 0 -0.026309637754099672 0.0027101163109849572 0 -0.02610886993934582 0.0021942500425929422 0 -0.031252436279092417 0.0012481201867009907 0 -0.028153340566844653 0.0024045283740340949 0 -0.039808896292163193 0.0051729329935036343 0 -0.037670830189252991 0.0063192710804182107 0 -0.038740051322567477 0.0049460845269911615 0 -0.037670830189252991 0.0063192710804182107 0 -0.037844738476837426 0.0045679015281402625 0 -0.036872875949148648 0.004877901418361601 0 -0.037670830189252991 0.0063192710804182107 0 -0.038740051322567477 0.0049460845269911615 0 -0.037844738476837426 0.0045679015281402625 0 -0.038740051322567477 0.0049460845269911615 0 -0.03870827392525434 0.0040663765584806593 0 -0.037844738476837426 0.0045679015281402625 0 -0.03870827392525434 0.0040663765584806593 0 -0.037844738476837426 0.0045679015281402625 0 -0.038168164982392547 0.0035610512968003581 0 -0.037844738476837426 0.0045679015281402625 0 -0.038168164982392547 0.0035610512968003581 0 -0.0372638954097732 0.0037823380351680478 0 -0.037844738476837426 0.0045679015281402625 0 -0.036872875949148648 0.004877901418361601 0 -0.0372638954097732 0.0037823380351680478 0 -0.036872875949148648 0.004877901418361601 0 -0.035931074224263115 0.0041832895336711444 0 -0.035855049253362574 0.0058427239870320587 0 -0.036872875949148648 0.004877901418361601 0 -0.035931074224263115 0.0041832895336711444 0 -0.0372638954097732 0.0037823380351680478 0 -0.037670830189252991 0.0063192710804182107 0 -0.036872875949148648 0.004877901418361601 0 -0.035855049253362574 0.0058427239870320587 0 -0.037670830189252991 0.0063192710804182107 0 -0.035855049253362574 0.0058427239870320587 0 -0.035740498783231468 0.0073942923386502643 0 -0.028153340566844653 0.0024045283740340949 0 -0.023651569362444676 0.003777194057048489 0 -0.035855049253362574 0.0058427239870320587 0 -0.03446651991643241 0.0066961311397082772 0 -0.035740498783231468 0.0073942923386502643 0 -0.035855049253362574 0.0058427239870320587 0 -0.03446651991643241 0.0066961311397082772 0 -0.034570036332600931 0.0052077577672000417 0 -0.035931074224263115 0.0041832895336711444 0 -0.035855049253362574 0.0058427239870320587 0 -0.034570036332600931 0.0052077577672000417 0 -0.035931074224263115 0.0041832895336711444 0 -0.034570036332600931 0.0052077577672000417 0 -0.0349571162622941 0.0033095050362826153 0 -0.034570036332600931 0.0052077577672000417 0 -0.033248083872683784 0.0046468228040407403 0 -0.0349571162622941 0.0033095050362826153 0 -0.034570036332600931 0.0052077577672000417 0 -0.033248083872683784 0.0046468228040407403 0 -0.032899950141848544 0.0067139775131428731 0 -0.03446651991643241 0.0066961311397082772 0 -0.034570036332600931 0.0052077577672000417 0 -0.032899950141848544 0.0067139775131428731 0 0.0033444921372670941 0.010093385683441277 0 0.0039177662338486198 0.011275998844553185 0 0.004775257886711461 0.0097695582437418854 0 -0.014488833442127589 0.0076838898533977042 0 -0.015736806392847 0.0063255018029188424 0 -0.03446651991643241 0.0066961311397082772 0 -0.032899950141848544 0.0067139775131428731 0 -0.033858663346799892 0.0084134234041947434 0 0.0047193705911732307 0.0096275691062139811 0 0.0057361134237608625 0.0078761327283667412 0 0.0044145692062716076 0.0082883757684164838 0 0.0026691068546951056 0.0085506033733501376 0 0.0047193705911732307 0.0096275691062139811 0 0.0044145692062716076 0.0082883757684164838 0 -0.015736806392847 0.0063255018029188424 0 -0.015103569132983543 0.0033842331556769327 0 -0.027974651837226926 0.0018160745981234908 0 -0.027067437717240846 0.0014319016292007232 0 -0.027461388465898871 0.0008606532346951836 0 -0.027974651837226926 0.0018160745981234908 0 -0.027133985703689606 0.0022688491383492148 0 -0.027067437717240846 0.0014319016292007232 0 -0.015736806392847 0.0063255018029188424 0 -0.023651569362444676 0.003777194057048489 0 -0.03446651991643241 0.0066961311397082772 0 -0.033858663346799892 0.0084134234041947434 0 -0.035740498783231468 0.0073942923386502643 0 -0.027133985703689606 0.0022688491383492148 0 -0.026554079841867802 0.0018669047446421476 0 -0.027067437717240846 0.0014319016292007232 0 -0.026309637754099672 0.0027101163109849572 0 -0.027133985703689606 0.0022688491383492148 0 -0.026554079841867802 0.0018669047446421476 0 -0.026554079841867802 0.0018669047446421476 0 -0.027067437717240846 0.0014319016292007232 0 -0.026522392598580486 0.0011439832644027004 0 -0.026522392598580486 0.0011439832644027004 0 -0.025888231873030597 0.0016104019312245385 0 -0.026119317365858322 0.00072490613395179994 0 -0.03203520578070429 0.00064823659841897253 0 -0.032651937156641664 -0.00042311240364067379 0 -0.032446166703432054 0.00015117244877516889 0 -0.032455476006802646 0.00041677846476259709 0 -0.032672107494568836 -0.00042578877551706812 0 -0.026554079841867802 0.0018669047446421476 0 -0.026522392598580486 0.0011439832644027004 0 -0.025888231873030597 0.0016104019312245385 0 -0.032326094657221985 0.00076297220736427668 0 -0.032446166703432054 0.00015117244877516889 0 -0.032455476006802646 0.00041677846476259709 0 -0.026554079841867802 0.0018669047446421476 0 -0.025888231873030597 0.0016104019312245385 0 -0.02610886993934582 0.0021942500425929422 0 -0.026309637754099672 0.0027101163109849572 0 -0.026554079841867802 0.0018669047446421476 0 -0.02610886993934582 0.0021942500425929422 0 -0.0256397851325165 0.0026189148248249054 0 -0.025888231873030597 0.0016104019312245385 0 -0.02610886993934582 0.0021942500425929422 0 -0.045287345180045353 -0.0058610470230569534 0 -0.045818204224115339 -0.0054987176307171896 0 -0.045742497262586002 -0.0051636316421318036 0 -0.026025899631513146 -6.9046030558562234e-05 0 -0.026217423162696964 -9.0139257161001558e-05 0 -0.02613516409506492 -0.00071850806594464067 0 -0.026217423162696964 -9.0139257161001558e-05 0 -0.026069355563224577 0.00054015573505727726 0 -0.026745365749265986 0.00057706667717175248 0 -0.032420040514082642 -0.00053117985066712442 0 -0.032611312983248181 -0.00070513151537948964 0 -0.026217423162696964 -9.0139257161001558e-05 0 -0.02594424631048986 0.00037542816097108685 0 -0.026057984991622891 0.00053476258425347843 0 -0.026025899631513146 -6.9046030558562234e-05 0 -0.026217423162696964 -9.0139257161001558e-05 0 -0.02594424631048986 0.00037542816097108685 0 -0.03093041573799838 -0.0012083462754217829 0 -0.032825358106432133 -0.0010613555190599831 0 -0.033432902025390419 -0.00031115223694652038 0 -0.03344212291309516 -0.00037248400672508324 0 -0.033447374612731937 -0.00035397208810804476 0 -0.033534996122938213 -4.2357774484076096e-05 0 -0.032825358106432133 -0.0010613555190599831 0 -0.03344212291309516 -0.00037248400672508324 0 -0.033447374612731937 -0.00035397208810804476 0 -0.033449210680498193 -0.00036253676157618753 0 -0.032825358106432133 -0.0010613555190599831 0 -0.032611312983248181 -0.00070513151537948964 0 -0.032651937156641664 -0.00042311240364067379 0 -0.032611312983248181 -0.00070513151537948964 0 -0.033534996122938213 -4.2357774484076096e-05 0 -0.032651937156641664 -0.00042311240364067379 0 -0.026522392598580486 0.0011439832644027004 0 -0.026119317365858322 0.00072490613395179994 0 -0.026152131037767999 0.00060540812049723859 0 -0.032301163859354401 -0.00081348634188611012 0 -0.032611312983248181 -0.00070513151537948964 0 -0.026745365749265986 0.00057706667717175248 0 -0.026931336502421275 -0.00016469827082507608 0 -0.027461388465898871 0.0008606532346951836 0 -0.027067437717240846 0.0014319016292007232 0 -0.026522392598580486 0.0011439832644027004 0 -0.026745365749265986 0.00057706667717175248 0 -0.027067437717240846 0.0014319016292007232 0 -0.026745365749265986 0.00057706667717175248 0 -0.027461388465898871 0.0008606532346951836 0 -0.026522392598580486 0.0011439832644027004 0 -0.026069355563224577 0.00054015573505727726 0 -0.026745365749265986 0.00057706667717175248 0 -0.026217423162696964 -9.0139257161001558e-05 0 -0.026745365749265986 0.00057706667717175248 0 -0.026931336502421275 -0.00016469827082507608 0 -0.026217423162696964 -9.0139257161001558e-05 0 -0.026931336502421275 -0.00016469827082507608 0 -0.02613516409506492 -0.00071850806594464067 0 -0.015508784064703046 0.00089340821496766329 0 -0.015103569132983543 0.0033842331556769327 0 0.0067740999922009781 0.0060505650415737617 0 0.0054377300502423277 0.006529932518566821 0 0.0049043398388719656 0.0052740087115825422 0 0.0067740999922009781 0.0060505650415737617 0 0.0054377300502423277 0.006529932518566821 0 0.0057361134237608625 0.0078761327283667412 0 0.0054377300502423277 0.006529932518566821 0 0.0057361134237608625 0.0078761327283667412 0 0.004354125387112673 0.0069044418450465153 0 0.0057361134237608625 0.0078761327283667412 0 0.0044145692062716076 0.0082883757684164838 0 0.004354125387112673 0.0069044418450465153 0 0.004354125387112673 0.0069044418450465153 0 0.0049043398388719656 0.0052740087115825422 0 0.0027747089839118807 0.0060964261275225657 0 0.0054377300502423277 0.006529932518566821 0 0.004354125387112673 0.0069044418450465153 0 0.0049043398388719656 0.0052740087115825422 0 0.0028382114132158519 0.0028386086188741514 0 0.0022416569332683101 0.002268655196231728 0 0.0052199745906306334 0.0033368047365718682 0 0.0031585695688927016 0.0038187992259593058 0 0.0037517819063636747 0.0020927000623807749 0 0.0049043398388719656 0.0052740087115825422 0 0.0052199745906306334 0.0033368047365718682 0 0.0031585695688927016 0.0038187992259593058 0 0.0052199745906306334 0.0033368047365718682 0 0.0062955775960904887 0.0045230091694354506 0 0.0065896040449257608 0.0034382431586015812 0 0.0052199745906306334 0.0033368047365718682 0 0.0065896040449257608 0.0034382431586015812 0 0.0062417319209888654 0.0024767297676531077 0 0.0067740999922009781 0.0060505650415737617 0 0.0049043398388719656 0.0052740087115825422 0 0.0062955775960904887 0.0045230091694354506 0 0.0049043398388719656 0.0052740087115825422 0 0.0052199745906306334 0.0033368047365718682 0 0.0062955775960904887 0.0045230091694354506 0 -0.026931336502421275 -0.00016469827082507608 0 -0.026330961690995552 -0.0012963527128388478 0 -0.02613516409506492 -0.00071850806594464067 0 -0.015508784064703046 0.00089340821496766329 0 -0.017055684794647911 -0.0014803329566716995 0 0.0067740999922009781 0.0060505650415737617 0 0.0062955775960904887 0.0045230091694354506 0 0.0078405952297892854 0.0041437856852928352 0 0.0065896040449257608 0.0034382431586015812 0 0.0078405952297892854 0.0041437856852928352 0 0.0073013973168970046 0.0027436162653732329 0 0.0062955775960904887 0.0045230091694354506 0 0.0065896040449257608 0.0034382431586015812 0 0.0078405952297892854 0.0041437856852928352 0 -0.02543092379775453 -0.0024221808872864829 0 -0.02578004097594068 -0.0018570888321896429 0 -0.025703898953129203 -0.001204520894229942 0 -0.017055684794647911 -0.0014803329566716995 0 -0.020241865133643226 -0.0036840445016872413 0 -0.026330961690995552 -0.0012963527128388478 0 -0.02578004097594068 -0.0018570888321896429 0 -0.025652731165049087 -0.0025090462142684463 0 0.0078405952297892854 0.0041437856852928352 0 0.0088923051580725356 0.0022236079899037673 0 0.0073013973168970046 0.0027436162653732329 0 -0.026330961690995552 -0.0012963527128388478 0 -0.02578004097594068 -0.0018570888321896429 0 -0.025703898953129203 -0.001204520894229942 0 -0.045287345180045353 -0.0058610470230569534 0 -0.045818204224115339 -0.0054987176307171896 0 -0.045659578389054087 -0.0062979883956334271 0 -0.026009674517563263 -3.6625699811109075e-05 0 -0.025703898953129203 -0.001204520894229942 0 -0.02613516409506492 -0.00071850806594464067 0 -0.03093041573799838 -0.0012083462754217829 0 -0.027142978363138663 -0.0026861266124375833 0 -0.026330961690995552 -0.0012963527128388478 0 -0.025703898953129203 -0.001204520894229942 0 -0.02613516409506492 -0.00071850806594464067 0 -0.03093041573799838 -0.0012083462754217829 0 -0.030805486430104327 -0.001093810267196305 0 0.00088033379147336543 0.0075707376396559264 0 0.0027747089839118807 0.0060964261275225657 0 0.00033550591553014708 0.005486066365074726 0 -0.0011298382377133453 0.0071211879486473579 0 -0.0012603842654191572 0.0056190557679963622 0 0.00033550591553014708 0.005486066365074726 0 -0.0011298382377133453 0.0071211879486473579 0 0.00088033379147336543 0.0075707376396559264 0 0.00033550591553014708 0.005486066365074726 0 -0.0011298382377133453 0.0071211879486473579 0 -0.00063164152766669826 0.0088505815774659186 0 0.00088033379147336543 0.0075707376396559264 0 0.0026691068546951056 0.0085506033733501376 0 0.00088033379147336543 0.0075707376396559264 0 0.0027747089839118807 0.0060964261275225657 0 0.0026691068546951056 0.0085506033733501376 0 0.004354125387112673 0.0069044418450465153 0 0.0027747089839118807 0.0060964261275225657 0 0.0026691068546951056 0.0085506033733501376 0 0.0044145692062716076 0.0082883757684164838 0 0.004354125387112673 0.0069044418450465153 0 0.0027747089839118807 0.0060964261275225657 0 0.0017847368088511834 0.0043069415268508363 0 0.00033550591553014708 0.005486066365074726 0 0.0049043398388719656 0.0052740087115825422 0 0.0027747089839118807 0.0060964261275225657 0 0.0034870481800758427 0.0039447890102075247 0 0.0027747089839118807 0.0060964261275225657 0 0.0034870481800758427 0.0039447890102075247 0 0.0017847368088511834 0.0043069415268508363 0 0.0022416569332683101 0.002268655196231728 0 0.0007523570900197056 0.00081478369149287307 0 0.0034870481800758427 0.0039447890102075247 0 0.0017847368088511834 0.0043069415268508363 0 0.0019794276015923686 0.0025509881342054251 0 0.0017847368088511834 0.0043069415268508363 0 0.00033995423565877695 0.0034426008295800033 0 0.0019794276015923686 0.0025509881342054251 0 0.0017847368088511834 0.0043069415268508363 0 0.00033995423565877695 0.0034426008295800033 0 0.00033550591553014708 0.005486066365074726 0 -0.0011735187225603212 0.0044685794950321015 0 0.00033995423565877695 0.0034426008295800033 0 0.00033550591553014708 0.005486066365074726 0 -0.0012603842654191572 0.0056190557679963622 0 -0.0011735187225603212 0.0044685794950321015 0 0.00033550591553014708 0.005486066365074726 0 -0.0011735187225603212 0.0044685794950321015 0 0.00033995423565877695 0.0034426008295800033 0 -0.0014290264655949484 0.0026183941898568668 0 0.00033995423565877695 0.0034426008295800033 0 0.00045533180512076824 0.0012063662146741239 0 -0.0014290264655949484 0.0026183941898568668 0 -0.0016021850688858826 -0.0015194495993218248 0 -0.0029148505722609505 0.00023643548920618363 0 -0.00087861519539552345 -0.0022374708665046264 0 -0.00069161394576110853 -0.0020743754525458405 0 -0.0026712296430955167 -0.00051594160467317493 0 -0.0019867278618203562 -0.0025493289351217999 0 -0.00087861519539552345 -0.0022374708665046264 0 -0.0026712296430955167 -0.00051594160467317493 0 -0.0019867278618203562 -0.0025493289351217999 0 -0.00087861519539552345 -0.0022374708665046264 0 -0.0011131156372948014 -0.0027520569627607567 0 -0.00063534999544981145 -0.0025732652661256379 0 -0.00069813133046103891 -0.0020809679651417638 0 -9.8233327221420986e-05 -0.0029624974280254598 0 -0.00082750198424499846 -0.0026459238716750513 0 -0.00087861519539552345 -0.0022374708665046264 0 -0.0011131156372948014 -0.0027520569627607567 0 -0.00063534999544981145 -0.0025732652661256379 0 -0.00082750198424499846 -0.0026459238716750513 0 -0.00087861519539552345 -0.0022374708665046264 0 -0.00063534999544981145 -0.0025732652661256379 0 -0.00087861519539552345 -0.0022374708665046264 0 -0.00069813133046103891 -0.0020809679651417638 0 -0.0016010130487233974 -0.0015198325519921432 0 -0.0016021850688858826 -0.0015194495993218248 0 0.00033995423565877695 0.0034426008295800033 0 0.00045533180512076824 0.0012063662146741239 0 0.0019794276015923686 0.0025509881342054251 0 -0.0016021850688858826 -0.0015194495993218248 0 0.0007523570900197056 0.00081478369149287307 0 0.0014675213918529998 0.0023556183309032595 0 0.0026187896083054176 0.00097357719614122229 0 0.0037517819063636747 0.0020927000623807749 0 0.0031585695688927016 0.0038187992259593058 0 0.0014675213918529998 0.0023556183309032595 0 0.0037517819063636747 0.0020927000623807749 0 0.0026187896083054176 0.00097357719614122229 0 0.0017854839273802358 -0.00063490061263146247 0 0.0042078211726987481 0.00032401020387036694 0 0.0026187896083054176 0.00097357719614122229 0 0.0037517819063636747 0.0020927000623807749 0 0.0042078211726987481 0.00032401020387036694 0 0.0026187896083054176 0.00097357719614122229 0 0.0014657950070327036 0.00087792364388469097 0 0.0017854839273802358 -0.00063490061263146247 0 -0.00021493846639784425 0.00088961407424291937 0 0.0014675213918529998 0.0023556183309032595 0 0.0014657950070327036 0.00087792364388469097 0 -0.00021493846639784425 0.00088961407424291937 0 0.0014657950070327036 0.00087792364388469097 0 0.0017854839273802358 -0.00063490061263146247 0 0.0014675213918529998 0.0023556183309032595 0 0.0026187896083054176 0.00097357719614122229 0 0.0014657950070327036 0.00087792364388469097 0 -0.0028987933544434115 -0.0047518709742898667 0 -0.0037327154791696924 -0.006111622033407235 0 0.0011717018081462455 -0.0035213049117722422 0 -9.8233327221420986e-05 -0.0029624974280254598 0 -0.00013068509094477153 -0.0040313647514634097 0 -0.0073791071393483083 -0.013610935500850917 0 -0.0075142836235015673 -0.013521018449396875 0 -0.0076352252281933859 -0.013591503650963241 0 -0.0073791071393483083 -0.013610935500850917 0 -0.0076547999402029028 -0.013730590888180622 0 -0.0076352252281933859 -0.013591503650963241 0 -0.0028987933544434115 -0.0047518709742898667 0 -0.0052072342485530521 -0.0042974234332392143 0 -0.0028987933544434115 -0.0047518709742898667 0 -0.0029283916661209117 -0.0051335720681591219 0 -0.0075142836235015673 -0.013521018449396875 0 -0.0074335700654387408 -0.013472292776772424 0 -0.0075411106466380454 -0.01342776417657128 0 -0.0074431661294881947 -0.013558791787684033 0 -0.0075142836235015673 -0.013521018449396875 0 -0.0074335700654387408 -0.013472292776772424 0 -0.0074431661294881947 -0.013558791787684033 0 -0.0074335700654387408 -0.013472292776772424 0 -0.0073620331567353101 -0.013522915761388636 0 -0.0074335700654387408 -0.013472292776772424 0 -0.0073620331567353101 -0.013522915761388636 0 -0.0073400153847674125 -0.013418519457191256 0 -0.007270697966940856 -0.013483398411358002 0 -0.0073620331567353101 -0.013522915761388636 0 -0.0073400153847674125 -0.013418519457191256 0 -0.0043621280256066477 -0.0072048180942096435 0 -0.0037327154791696924 -0.006111622033407235 0 -0.0043621280256066477 -0.0072048180942096435 0 -0.0043059696521237879 -0.0075527950621059534 0 -0.0072203589194673404 -0.013469793674345478 0 -0.0072107038073899498 -0.013321535749040207 0 -0.0069384074143072324 -0.013250597989600288 0 -0.0043621280256066477 -0.0072048180942096435 0 -0.0049575387742700084 -0.0081070265338812359 0 -0.0019867278618203562 -0.0025493289351217999 0 -0.0012027071048620233 -0.0033854920668908292 0 -0.0031316266157804802 -0.0027271528275732287 0 -0.0014428281815047489 -0.0045520903295690847 0 -0.0012027071048620233 -0.0033854920668908292 0 -0.0031316266157804802 -0.0027271528275732287 0 -0.0043621280256066477 -0.0072048180942096435 0 -0.0045814698964259399 -0.0052649191392917178 0 -0.0019867278618203562 -0.0025493289351217999 0 -0.0012027071048620233 -0.0033854920668908292 0 -0.0011131156372948014 -0.0027520569627607567 0 -0.0012027071048620233 -0.0033854920668908292 0 -0.0011131156372948014 -0.0027520569627607567 0 -0.00068253945274065098 -0.003020300184337377 0 -0.0016021850688858826 -0.0015194495993218248 0 -0.0028987933544434115 -0.0047518709742898667 0 -0.00069813133046103891 -0.0020809679651417638 0 0.0011717018081462455 -0.0035213049117722422 0 -9.8233327221420986e-05 -0.0029624974280254598 0 -0.00082750198424499846 -0.0026459238716750513 0 -0.0011131156372948014 -0.0027520569627607567 0 -0.00068253945274065098 -0.003020300184337377 0 -0.00063534999544981145 -0.0025732652661256379 0 -0.00082750198424499846 -0.0026459238716750513 0 -0.00068253945274065098 -0.003020300184337377 0 -0.00063534999544981145 -0.0025732652661256379 0 -0.00068253945274065098 -0.003020300184337377 0 -9.8233327221420986e-05 -0.0029624974280254598 0 -0.00068253945274065098 -0.003020300184337377 0 -9.8233327221420986e-05 -0.0029624974280254598 0 -0.00013068509094477153 -0.0040313647514634097 0 -0.0014428281815047489 -0.0045520903295690847 0 -0.0012027071048620233 -0.0033854920668908292 0 -0.00013068509094477153 -0.0040313647514634097 0 -0.0012027071048620233 -0.0033854920668908292 0 -0.00068253945274065098 -0.003020300184337377 0 -0.00013068509094477153 -0.0040313647514634097 0 -0.0083523620827175137 -0.013734971151498861 0 -0.0082395914934436602 -0.01374340672662896 0 -0.0081487891090035684 -0.013896286720023103 0 -0.020328199121187173 -0.006255887695706128 0 -0.015910265292409655 -0.0043782396681528333 0 -0.0081561086012800332 -0.013740257011802121 0 -0.0081487891090035684 -0.013896286720023103 0 -0.0080325690706097887 -0.013736284377476923 0 -0.0082395914934436602 -0.01374340672662896 0 -0.0081561086012800332 -0.013740257011802121 0 -0.0082242287155150536 -0.013670419706656571 0 -0.0082395914934436602 -0.01374340672662896 0 -0.0081561086012800332 -0.013740257011802121 0 -0.0081487891090035684 -0.013896286720023103 0 -0.020152451590554867 -0.0050828741283318593 0 -0.02123606000337069 -0.0031733766766139336 0 -0.022898738112639285 -0.0038219153468471651 0 0.0088923051580725356 0.0022236079899037673 0 0.007993884605853218 0.0018695034285577904 0 0.0073013973168970046 0.0027436162653732329 0 -0.020241865133643226 -0.0036840445016872413 0 -0.015910265292409655 -0.0043782396681528333 0 -0.02543092379775453 -0.0024221808872864829 0 -0.02578004097594068 -0.0018570888321896429 0 -0.025652731165049087 -0.0025090462142684463 0 0.0073013973168970046 0.0027436162653732329 0 0.0065856162429055141 0.0012945457241464971 0 0.0062417319209888654 0.0024767297676531077 0 0.007993884605853218 0.0018695034285577904 0 0.0073013973168970046 0.0027436162653732329 0 0.0065856162429055141 0.0012945457241464971 0 0.0065896040449257608 0.0034382431586015812 0 0.0073013973168970046 0.0027436162653732329 0 0.0062417319209888654 0.0024767297676531077 0 -0.015910265292409655 -0.0043782396681528333 0 -0.0099450646477160631 -0.0039694747169584325 0 -0.0079631016227315436 -0.013837112352825712 0 -0.0080325690706097887 -0.013736284377476923 0 -0.0078826061812209552 -0.013643289442323918 0 -0.0081487891090035684 -0.013896286720023103 0 -0.0079631016227315436 -0.013837112352825712 0 -0.0080325690706097887 -0.013736284377476923 0 -0.0099450646477160631 -0.0039694747169584325 0 -0.0052072342485530521 -0.0042974234332392143 0 0.0065856162429055141 0.0012945457241464971 0 0.0052114936398370542 0.001897769462870455 0 0.0042078211726987481 0.00032401020387036694 0 -0.0079631016227315436 -0.013837112352825712 0 -0.0076547999402029028 -0.013730590888180622 0 -0.0078826061812209552 -0.013643289442323918 0 0.0065856162429055141 0.0012945457241464971 0 0.0052114936398370542 0.001897769462870455 0 0.0062417319209888654 0.0024767297676531077 0 0.0052199745906306334 0.0033368047365718682 0 0.0052114936398370542 0.001897769462870455 0 0.0062417319209888654 0.0024767297676531077 0 0.0052199745906306334 0.0033368047365718682 0 0.0052114936398370542 0.001897769462870455 0 0.0037517819063636747 0.0020927000623807749 0 0.0052114936398370542 0.001897769462870455 0 0.0037517819063636747 0.0020927000623807749 0 0.0042078211726987481 0.00032401020387036694 0 -0.0076352252281933859 -0.013591503650963241 0 -0.0077129872530828933 -0.013499584258117368 0 -0.0078826061812209552 -0.013643289442323918 0 -0.0076547999402029028 -0.013730590888180622 0 -0.0076352252281933859 -0.013591503650963241 0 -0.0078826061812209552 -0.013643289442323918 0 -0.0075142836235015673 -0.013521018449396875 0 -0.0076352252281933859 -0.013591503650963241 0 -0.0077129872530828933 -0.013499584258117368 0 -0.0075142836235015673 -0.013521018449396875 0 -0.0077129872530828933 -0.013499584258117368 0 -0.0075411106466380454 -0.01342776417657128 0 -0.0077129872530828933 -0.013499584258117368 0 -0.0079034236836688729 -0.013509089279120092 0 -0.0078826061812209552 -0.013643289442323918 0 -0.0077129872530828933 -0.013499584258117368 0 -0.0077897551315524501 -0.013417051721936893 0 -0.0076706194786981419 -0.013404534063244601 0 -0.0077129872530828933 -0.013499584258117368 0 -0.0079034236836688729 -0.013509089279120092 0 -0.0077897551315524501 -0.013417051721936893 0 -0.0079034236836688729 -0.013509089279120092 0 -0.0079606544832581186 -0.013363451296912677 0 -0.0077897551315524501 -0.013417051721936893 0 -0.0080325690706097887 -0.013736284377476923 0 -0.0078826061812209552 -0.013643289442323918 0 -0.0080038750528865516 -0.01359516513236452 0 -0.0080325690706097887 -0.013736284377476923 0 -0.0080038750528865516 -0.01359516513236452 0 -0.0081181373654366281 -0.013644666011460598 0 -0.0081561086012800332 -0.013740257011802121 0 -0.0080325690706097887 -0.013736284377476923 0 -0.0081181373654366281 -0.013644666011460598 0 -0.0080038750528865516 -0.01359516513236452 0 -0.0080694390928463169 -0.013502690459958043 0 -0.0081181373654366281 -0.013644666011460598 0 -0.0079034236836688729 -0.013509089279120092 0 -0.0078826061812209552 -0.013643289442323918 0 -0.0080038750528865516 -0.01359516513236452 0 -0.0079034236836688729 -0.013509089279120092 0 -0.0080038750528865516 -0.01359516513236452 0 -0.0080694390928463169 -0.013502690459958043 0 -0.0079034236836688729 -0.013509089279120092 0 -0.0080694390928463169 -0.013502690459958043 0 -0.0079606544832581186 -0.013363451296912677 0 -0.0080694390928463169 -0.013502690459958043 0 -0.0081784076650135776 -0.013472532150797759 0 -0.0081046915421030055 -0.013337038751182228 0 -0.0080694390928463169 -0.013502690459958043 0 -0.0081784076650135776 -0.013472532150797759 0 -0.0081974202160861286 -0.013578844512748744 0 -0.0082723063095857356 -0.013508154920513781 0 -0.0081784076650135776 -0.013472532150797759 0 -0.0082372597051143786 -0.013395369124463215 0 -0.0082723063095857356 -0.013508154920513781 0 -0.0081784076650135776 -0.013472532150797759 0 -0.0081974202160861286 -0.013578844512748744 0 -0.0082912864083005636 -0.013598691112303477 0 -0.0082723063095857356 -0.013508154920513781 0 -0.0081974202160861286 -0.013578844512748744 0 -0.0082912864083005636 -0.013598691112303477 0 -0.0081974202160861286 -0.013578844512748744 0 -0.0082242287155150536 -0.013670419706656571 0 -0.0080694390928463169 -0.013502690459958043 0 -0.0081974202160861286 -0.013578844512748744 0 -0.0081181373654366281 -0.013644666011460598 0 -0.0081974202160861286 -0.013578844512748744 0 -0.0081181373654366281 -0.013644666011460598 0 -0.0082242287155150536 -0.013670419706656571 0 -0.0081561086012800332 -0.013740257011802121 0 -0.0081181373654366281 -0.013644666011460598 0 -0.0082242287155150536 -0.013670419706656571 0 -0.0083022941173200634 -0.013674647489832195 0 -0.0082395914934436602 -0.01374340672662896 0 -0.0082242287155150536 -0.013670419706656571 0 -0.0081928688928496179 -0.013237794186877198 0 -0.0081046915421030055 -0.013337038751182228 0 -0.0080917097797639885 -0.013179566112664978 0 -0.0082899956765598165 -0.01317318032717109 0 -0.0081928688928496179 -0.013237794186877198 0 -0.0081444757324273913 -0.013065555069900854 0 -0.0081928688928496179 -0.013237794186877198 0 -0.0080917097797639885 -0.013179566112664978 0 -0.0081444757324273913 -0.013065555069900854 0 -0.0081928688928496179 -0.013237794186877198 0 -0.0082372597051143786 -0.013395369124463215 0 -0.0081046915421030055 -0.013337038751182228 0 -0.0081784076650135776 -0.013472532150797759 0 -0.0082372597051143786 -0.013395369124463215 0 -0.0081046915421030055 -0.013337038751182228 0 -0.0080694390928463169 -0.013502690459958043 0 -0.0081046915421030055 -0.013337038751182228 0 -0.0079606544832581186 -0.013363451296912677 0 -0.0081046915421030055 -0.013337038751182228 0 -0.0079606544832581186 -0.013363451296912677 0 -0.0080122741800135403 -0.013239898968516033 0 -0.0080917097797639885 -0.013179566112664978 0 -0.0080122741800135403 -0.013239898968516033 0 -0.0080624092601279951 -0.013088504141998168 0 -0.0081046915421030055 -0.013337038751182228 0 -0.0080917097797639885 -0.013179566112664978 0 -0.0080122741800135403 -0.013239898968516033 0 -0.0086286833309572614 -0.014499762025986409 0 -0.0084459411812508062 -0.014355084241489074 0 -0.0086784246056909684 -0.014225177045965621 0 -0.0081501674182517091 -0.013575192523538086 0 -0.0082329462977021785 -0.013661395160636094 0 -0.0080122741800135403 -0.013239898968516033 0 -0.0079245103155976618 -0.013261977169831162 0 -0.0080624092601279951 -0.013088504141998168 0 -0.0079606544832581186 -0.013363451296912677 0 -0.0080122741800135403 -0.013239898968516033 0 -0.0079245103155976618 -0.013261977169831162 0 -0.0081323096933610083 -0.013559223395623635 0 -0.0081501674182517091 -0.013575192523538086 0 -0.0079606544832581186 -0.013363451296912677 0 -0.0077897551315524501 -0.013417051721936893 0 -0.0077428081992420225 -0.013313760578694937 0 -0.0077897551315524501 -0.013417051721936893 0 -0.0077428081992420225 -0.013313760578694937 0 -0.0076706194786981419 -0.013404534063244601 0 -0.0077129872530828933 -0.013499584258117368 0 -0.0076706194786981419 -0.013404534063244601 0 -0.0075411106466380454 -0.01342776417657128 0 -0.0077428081992420225 -0.013313760578694937 0 -0.0076706194786981419 -0.013404534063244601 0 -0.0076084944909641829 -0.013359328513976721 0 -0.0076706194786981419 -0.013404534063244601 0 -0.0076084944909641829 -0.013359328513976721 0 -0.0075411106466380454 -0.01342776417657128 0 -0.0081501674182517091 -0.013575192523538086 0 -0.0081167772297843117 -0.013653532144903825 0 -0.0076084944909641829 -0.013359328513976721 0 -0.0075211068729914851 -0.013342036398976024 0 -0.0075084080776396138 -0.013377485054276779 0 -0.0077428081992420225 -0.013313760578694937 0 -0.0076084944909641829 -0.013359328513976721 0 -0.0075211068729914851 -0.013342036398976024 0 -0.0084459411812508062 -0.014355084241489074 0 -0.0085248961838084152 -0.014131349740370091 0 -0.0086784246056909684 -0.014225177045965621 0 -0.0085248961838084152 -0.014131349740370091 0 -0.0086894390765029205 -0.013988927277698682 0 -0.0084865668042070682 -0.013944650214281722 0 -0.0082329462977021785 -0.013661395160636094 0 -0.00830068190386672 -0.013709305316486745 0 -0.0085248961838084152 -0.014131349740370091 0 -0.0086784246056909684 -0.014225177045965621 0 -0.0086894390765029205 -0.013988927277698682 0 -0.0080917097797639885 -0.013179566112664978 0 -0.0080624092601279951 -0.013088504141998168 0 -0.0081444757324273913 -0.013065555069900854 0 -0.0080624092601279951 -0.013088504141998168 0 -0.0081444757324273913 -0.013065555069900854 0 -0.0082548165599308065 -0.013006895190428504 0 -0.0081444757324273913 -0.013065555069900854 0 -0.0080501766134960726 -0.012980138567565131 0 -0.0082548165599308065 -0.013006895190428504 0 -0.0082556933886503252 -0.013089703081185244 0 -0.0081444757324273913 -0.013065555069900854 0 -0.0080501766134960726 -0.012980138567565131 0 -0.0074122899104440525 -0.013388790884530719 0 -0.0075277754578493405 -0.013511839316921992 0 -0.0073370266065726194 -0.013400877924240365 0 -0.0074122899104440525 -0.013388790884530719 0 -0.0072107038073899498 -0.013321535749040207 0 -0.0073370266065726194 -0.013400877924240365 0 -0.0072107038073899498 -0.013321535749040207 0 -0.0073370266065726194 -0.013400877924240365 0 -0.006952361158004761 -0.01317817340692057 0 -0.0072203589194673404 -0.013469793674345478 0 -0.0072107038073899498 -0.013321535749040207 0 -0.0073400153847674125 -0.013418519457191256 0 -0.0074122899104440525 -0.013388790884530719 0 -0.0073400153847674125 -0.013418519457191256 0 -0.0074099534426080738 -0.013416229988350143 0 -0.0074122899104440525 -0.013388790884530719 0 -0.0072107038073899498 -0.013321535749040207 0 -0.0073400153847674125 -0.013418519457191256 0 -0.0074122899104440525 -0.013388790884530719 0 -0.0074099534426080738 -0.013416229988350143 0 -0.0074572526177164433 -0.013400086431204154 0 -0.0074335700654387408 -0.013472292776772424 0 -0.0073400153847674125 -0.013418519457191256 0 -0.0074099534426080738 -0.013416229988350143 0 -0.0074335700654387408 -0.013472292776772424 0 -0.0074099534426080738 -0.013416229988350143 0 -0.0074572526177164433 -0.013400086431204154 0 -0.0074335700654387408 -0.013472292776772424 0 -0.0074572526177164433 -0.013400086431204154 0 -0.0075411106466380454 -0.01342776417657128 0 -0.0074572526177164433 -0.013400086431204154 0 -0.0075411106466380454 -0.01342776417657128 0 -0.0075084080776396138 -0.013377485054276779 0 -0.0076084944909641829 -0.013359328513976721 0 -0.0075411106466380454 -0.01342776417657128 0 -0.0075084080776396138 -0.013377485054276779 0 -0.0075211068729914851 -0.013342036398976024 0 -0.0075084080776396138 -0.013377485054276779 0 -0.0074509296086943564 -0.013397004642969912 0 -0.0074572526177164433 -0.013400086431204154 0 -0.0075084080776396138 -0.013377485054276779 0 -0.0074509296086943564 -0.013397004642969912 0 -0.0074122899104440525 -0.013388790884530719 0 -0.0074509296086943564 -0.013397004642969912 0 -0.0075277754578493405 -0.013511839316921992 0 -0.0074122899104440525 -0.013388790884530719 0 -0.0074572526177164433 -0.013400086431204154 0 -0.0074509296086943564 -0.013397004642969912 0 -0.007426752370748347 -0.013486817483609163 0 -0.0077109312560097844 -0.013824420617986791 0 -0.0075277754578493405 -0.013511839316921992 0 -0.0074509296086943564 -0.013397004642969912 0 -0.007426752370748347 -0.013486817483609163 0 -0.0075277754578493405 -0.013511839316921992 0 -0.0075211068729914851 -0.013342036398976024 0 -0.0074509296086943564 -0.013397004642969912 0 -0.007426752370748347 -0.013486817483609163 0 -0.0081167772297843117 -0.013653532144903825 0 -0.0080578785391851628 -0.013673117110910099 0 -0.0084459411812508062 -0.014355084241489074 0 -0.0085248961838084152 -0.014131349740370091 0 -0.0082166113200188903 -0.01420267935383725 0 -0.0085248961838084152 -0.014131349740370091 0 -0.0082166113200188903 -0.01420267935383725 0 -0.0084865668042070682 -0.013944650214281722 0 -0.0082166113200188903 -0.01420267935383725 0 -0.0084865668042070682 -0.013944650214281722 0 -0.0081644919035345105 -0.013841638658687785 0 -0.0080578785391851628 -0.013673117110910099 0 -0.0080280704478671583 -0.013672676665437346 0 -0.0082166113200188903 -0.01420267935383725 0 -0.0077109312560097844 -0.013824420617986791 0 -0.0081644919035345105 -0.013841638658687785 0 -0.0077109312560097844 -0.013824420617986791 0 -0.0075277754578493405 -0.013511839316921992 0 -0.0074973458634031622 -0.013636809475394709 0 -0.0075277754578493405 -0.013511839316921992 0 -0.0073370266065726194 -0.013400877924240365 0 -0.0074973458634031622 -0.013636809475394709 0 -0.0073370266065726194 -0.013400877924240365 0 -0.0074973458634031622 -0.013636809475394709 0 -0.0072939052530463866 -0.013466954369564901 0 -0.0074973458634031622 -0.013636809475394709 0 -0.0073939530259115706 -0.013570401767142 0 -0.0072939052530463866 -0.013466954369564901 0 -0.0073939530259115706 -0.013570401767142 0 -0.0072612176931222136 -0.013468337992732025 0 -0.0072939052530463866 -0.013466954369564901 0 -0.0073862881487378801 -0.013541615529228578 0 -0.0073996818794478825 -0.013553711601782335 0 -0.0073939530259115706 -0.013570401767142 0 -0.0072612176931222136 -0.013468337992732025 0 -0.0075008593877960829 -0.013572911667653426 0 -0.0072612176931222136 -0.013468337992732025 0 -0.006952361158004761 -0.01317817340692057 0 -0.0070673904931170192 -0.013323690420158794 0 -0.0072612176931222136 -0.013468337992732025 0 -0.0072682213506071675 -0.013442612286380181 0 -0.0070673904931170192 -0.013323690420158794 0 -0.0072612176931222136 -0.013468337992732025 0 -0.0072939052530463866 -0.013466954369564901 0 -0.006952361158004761 -0.01317817340692057 0 -0.0073370266065726194 -0.013400877924240365 0 -0.0072939052530463866 -0.013466954369564901 0 -0.006952361158004761 -0.01317817340692057 0 -0.0073054083753973376 -0.013465149290780175 0 -0.0073604861112913852 -0.013480430695597274 0 -0.0073449124139507013 -0.013514768208453988 0 -0.0073054083753973376 -0.013465149290780175 0 -0.0073449124139507013 -0.013514768208453988 0 -0.0072966724407527179 -0.013503866856557479 0 -0.0072612176931222136 -0.013468337992732025 0 -0.0073054083753973376 -0.013465149290780175 0 -0.0072966724407527179 -0.013503866856557479 0 -0.0072612176931222136 -0.013468337992732025 0 -0.0072682213506071675 -0.013442612286380181 0 -0.0073054083753973376 -0.013465149290780175 0 -0.0072682213506071675 -0.013442612286380181 0 -0.0073054083753973376 -0.013465149290780175 0 -0.0073116930913127622 -0.013443387155610118 0 -0.0073054083753973376 -0.013465149290780175 0 -0.0073183244120326296 -0.013431722914842983 0 -0.0073604861112913852 -0.013480430695597274 0 -0.0074637325283802691 -0.0070960723073663478 0 -0.0067233682078885809 -0.0090006370462057967 0 -0.0073054083753973376 -0.013465149290780175 0 -0.0073116930913127622 -0.013443387155610118 0 -0.0073183244120326296 -0.013431722914842983 0 -0.0074200010833735241 -0.0067197448543475178 0 -0.0073772054211899626 -0.0068812838265036886 0 -0.0074637325283802691 -0.0070960723073663478 0 -0.0073772054211899626 -0.0068812838265036886 0 -0.0070748480531355896 -0.007117946295964489 0 -0.0070031626017087465 -0.00678704546255868 0 -0.0076106579591580783 -0.0069284583544653435 0 -0.0073116930913127622 -0.013443387155610118 0 -0.0073183244120326296 -0.013431722914842983 0 -0.007328744848953888 -0.013466747599980344 0 -0.0074200010833735241 -0.0067197448543475178 0 -0.0074637325283802691 -0.0070960723073663478 0 -0.0053025112519319547 -0.0051263766493591526 0 -0.0054214636481561907 -0.0057744751941971048 0 -0.0058860937835440051 -0.0052578192700082019 0 -0.0094624302331638016 -0.013233314214142717 0 -0.007328744848953888 -0.013466747599980344 0 -0.007527685648599923 -0.012666708433164843 0 -0.0072682213506071675 -0.013442612286380181 0 -0.0073116930913127622 -0.013443387155610118 0 -0.007328744848953888 -0.013466747599980344 0 -0.0072682213506071675 -0.013442612286380181 0 -0.007328744848953888 -0.013466747599980344 0 -0.0070673904931170192 -0.013323690420158794 0 -0.007328744848953888 -0.013466747599980344 0 -0.007527685648599923 -0.012666708433164843 0 -0.0068558960609145974 -0.013100806906100767 0 -0.007328744848953888 -0.013466747599980344 0 -0.0070673904931170192 -0.013323690420158794 0 -0.0068558960609145974 -0.013100806906100767 0 -0.007527685648599923 -0.012666708433164843 0 -0.0070699927200700147 -0.010218401805471249 0 -0.0093067335855688427 -0.01065544369548271 0 -0.007527685648599923 -0.012666708433164843 0 -0.0062486264004442613 -0.012510963883881268 0 -0.0070699927200700147 -0.010218401805471249 0 -0.007527685648599923 -0.012666708433164843 0 -0.0068558960609145974 -0.013100806906100767 0 -0.0062486264004442613 -0.012510963883881268 0 -0.0094624302331638016 -0.013233314214142717 0 -0.007527685648599923 -0.012666708433164843 0 -0.0093067335855688427 -0.01065544369548271 0 -0.008239592813840289 -0.0036626766783678633 0 -0.0080762426609379268 -0.0029246313687345854 0 -0.0086197365307621749 -0.0030527151014480883 0 -0.0074200010833735241 -0.0067197448543475178 0 -0.0077403949202398698 -0.0058313535611726527 0 -0.006952361158004761 -0.01317817340692057 0 -0.0070673904931170192 -0.013323690420158794 0 -0.0068558960609145974 -0.013100806906100767 0 -0.006952361158004761 -0.01317817340692057 0 -0.0068558960609145974 -0.013100806906100767 0 -0.0062486264004442613 -0.012510963883881268 0 -0.0052895621665037798 -0.0084456885168587275 0 -0.0049575387742700084 -0.0081070265338812359 0 -0.006952361158004761 -0.01317817340692057 0 -0.0062486264004442613 -0.012510963883881268 0 -0.0069384074143072324 -0.013250597989600288 0 -0.0072107038073899498 -0.013321535749040207 0 -0.006952361158004761 -0.01317817340692057 0 -0.0069384074143072324 -0.013250597989600288 0 -0.0017031248038100319 -0.010939119096463329 0 -0.0045247590343419847 -0.0087261072029311167 0 -0.0017706882405461876 -0.0052264918127921433 0 0.0020844329550760207 -0.0094546468481437156 0 -0.0017031248038100319 -0.010939119096463329 0 -0.0017706882405461876 -0.0052264918127921433 0 -0.0044385291238098765 -0.0061107190174991251 0 -0.0045247590343419847 -0.0087261072029311167 0 -0.0017706882405461876 -0.0052264918127921433 0 -0.0044385291238098765 -0.0061107190174991251 0 -0.0061483251274800114 -0.0074730064547261369 0 -0.0060880103413811599 -0.0054079187001352886 0 -0.0044385291238098765 -0.0061107190174991251 0 -0.0045247590343419847 -0.0087261072029311167 0 -0.0061483251274800114 -0.0074730064547261369 0 -0.0045247590343419847 -0.0087261072029311167 0 -0.0070699927200700147 -0.010218401805471249 0 -0.0061483251274800114 -0.0074730064547261369 0 -0.0062486264004442613 -0.012510963883881268 0 -0.0017031248038100319 -0.010939119096463329 0 -0.0045247590343419847 -0.0087261072029311167 0 -0.0062486264004442613 -0.012510963883881268 0 -0.0045247590343419847 -0.0087261072029311167 0 -0.0070699927200700147 -0.010218401805471249 0 -0.0070699927200700147 -0.010218401805471249 0 -0.0093067335855688427 -0.01065544369548271 0 -0.0079722227194480907 -0.0079330185460733827 0 -0.0070699927200700147 -0.010218401805471249 0 -0.0061483251274800114 -0.0074730064547261369 0 -0.0079722227194480907 -0.0079330185460733827 0 -0.0080762426609379268 -0.0029246313687345854 0 -0.0082493612542154544 -0.0024152713981096395 0 -0.0079044259674032839 -0.0021806121746105471 0 -0.0093067335855688427 -0.01065544369548271 0 -0.0087600125661404168 -0.0069823509756129706 0 -0.0079722227194480907 -0.0079330185460733827 0 -0.0080762426609379268 -0.0029246313687345854 0 -0.0086137989134356836 -0.0024780685004283693 0 -0.0086197365307621749 -0.0030527151014480883 0 -0.0077403949202398698 -0.0058313535611726527 0 -0.0079013017635900882 -0.0045718614784045312 0 -0.0080762426609379268 -0.0029246313687345854 0 -0.0082493612542154544 -0.0024152713981096395 0 -0.0086137989134356836 -0.0024780685004283693 0 -0.0079044259674032839 -0.0021806121746105471 0 -0.0084049200732133275 -0.0020742976984116038 0 -0.0084324814754095905 -0.0014984788525603738 0 -0.0082493612542154544 -0.0024152713981096395 0 -0.0084049200732133275 -0.0020742976984116038 0 -0.0086137989134356836 -0.0024780685004283693 0 -0.0082493612542154544 -0.0024152713981096395 0 -0.0079044259674032839 -0.0021806121746105471 0 -0.0084049200732133275 -0.0020742976984116038 0 -0.0087311970622334072 -0.006753015071348064 0 -0.0072304542877771041 -0.006189945192008689 0 -0.007180265850348394 -0.0035380189215486668 0 -0.0061483251274800114 -0.0074730064547261369 0 -0.0079722227194480907 -0.0079330185460733827 0 -0.0072304542877771041 -0.006189945192008689 0 -0.0087311970622334072 -0.006753015071348064 0 -0.0079722227194480907 -0.0079330185460733827 0 -0.0072304542877771041 -0.006189945192008689 0 -0.0079013017635900882 -0.0045718614784045312 0 -0.0078760384277306375 -0.0046228004862617364 0 -0.0061483251274800114 -0.0074730064547261369 0 -0.0072304542877771041 -0.006189945192008689 0 -0.0060880103413811599 -0.0054079187001352886 0 -0.0079013017635900882 -0.0045718614784045312 0 -0.0078954315656215284 -0.0045966713950465355 0 -0.007180265850348394 -0.0035380189215486668 0 -0.0070968431391166152 -0.0018637849746076711 0 -0.0053903009832023605 -0.0039008983122492632 0 -0.0060880103413811599 -0.0054079187001352886 0 -0.007180265850348394 -0.0035380189215486668 0 -0.0053903009832023605 -0.0039008983122492632 0 -0.0072304542877771041 -0.006189945192008689 0 -0.0060880103413811599 -0.0054079187001352886 0 -0.007180265850348394 -0.0035380189215486668 0 -0.0074363397368447035 -0.0047076017186517046 0 -0.007180265850348394 -0.0035380189215486668 0 -0.0085077851160803401 -0.0030660765588134539 0 -0.0079013017635900882 -0.0045718614784045312 0 -0.0085653967091646466 -0.003334161854537341 0 -0.007180265850348394 -0.0035380189215486668 0 -0.0070968431391166152 -0.0018637849746076711 0 -0.0085077851160803401 -0.0030660765588134539 0 -0.0086998585485010792 0.00096854179288614482 0 -0.0082277883749718814 0.00040124194351094569 0 -0.0083359343442135671 -0.00021340544308173204 0 -0.0070968431391166152 -0.0018637849746076711 0 -0.008330556067201407 -0.0015580281802816752 0 -0.0070968431391166152 -0.0018637849746076711 0 -0.008330556067201407 -0.0015580281802816752 0 -0.0085077851160803401 -0.0030660765588134539 0 -0.0067905682861835442 0.0011630266061201113 0 -0.0070968431391166152 -0.0018637849746076711 0 -0.0049687028332752242 -0.0017941882109453289 0 -0.0070968431391166152 -0.0018637849746076711 0 -0.0049687028332752242 -0.0017941882109453289 0 -0.0053903009832023605 -0.0039008983122492632 0 -0.0047292060105503901 0.0011434024773861373 0 -0.0048838329190960617 -0.00084868551084950371 0 -0.0026712296430955167 -0.00051594160467317493 0 -0.0048838329190960617 -0.00084868551084950371 0 -0.0026712296430955167 -0.00051594160467317493 0 -0.0031316266157804802 -0.0027271528275732287 0 -0.0019867278618203562 -0.0025493289351217999 0 -0.0026712296430955167 -0.00051594160467317493 0 -0.0031316266157804802 -0.0027271528275732287 0 -0.0049687028332752242 -0.0017941882109453289 0 -0.0017706882405461876 -0.0052264918127921433 0 -0.0053903009832023605 -0.0039008983122492632 0 -0.0044385291238098765 -0.0061107190174991251 0 -0.0017706882405461876 -0.0052264918127921433 0 -0.0053903009832023605 -0.0039008983122492632 0 -0.0055776642070498889 -0.0032737345781956358 0 -0.0045814698964259399 -0.0052649191392917178 0 -0.0044385291238098765 -0.0061107190174991251 0 -0.0060880103413811599 -0.0054079187001352886 0 -0.0053903009832023605 -0.0039008983122492632 0 -0.010080094962551672 -0.0013963980508074003 0 -0.0096458492351041442 -0.0016920008491822527 0 -0.0098558005226702695 -0.0020842661355553213 0 -0.010080094962551672 -0.0013963980508074003 0 -0.0097900520319287466 -0.00098063463228802031 0 -0.0096458492351041442 -0.0016920008491822527 0 -0.010080094962551672 -0.0013963980508074003 0 -0.010295879310939154 -0.0017244884724779148 0 -0.0098558005226702695 -0.0020842661355553213 0 -0.010583535854895153 -0.0012100393660937614 0 -0.010686084747081706 -0.001896777809913298 0 -0.010990048339710999 -0.0014858907532262237 0 -0.010295879310939154 -0.0017244884724779148 0 -0.010583535854895153 -0.0012100393660937614 0 -0.010686084747081706 -0.001896777809913298 0 -0.010080094962551672 -0.0013963980508074003 0 -0.010295879310939154 -0.0017244884724779148 0 -0.010583535854895153 -0.0012100393660937614 0 -0.010450625553435938 -0.00048829136171067863 0 -0.010583535854895153 -0.0012100393660937614 0 -0.011048500161203189 -0.00063832997810343687 0 -0.010583535854895153 -0.0012100393660937614 0 -0.011048500161203189 -0.00063832997810343687 0 -0.010990048339710999 -0.0014858907532262237 0 -0.010450625553435938 -0.00048829136171067863 0 -0.010583535854895153 -0.0012100393660937614 0 -0.0101845371076076 -0.00092965018529051618 0 -0.010450625553435938 -0.00048829136171067863 0 -0.010102833883584718 -0.00038595347100412971 0 -0.0101845371076076 -0.00092965018529051618 0 -0.010080094962551672 -0.0013963980508074003 0 -0.010583535854895153 -0.0012100393660937614 0 -0.0101845371076076 -0.00092965018529051618 0 -0.010080094962551672 -0.0013963980508074003 0 -0.0101845371076076 -0.00092965018529051618 0 -0.0097900520319287466 -0.00098063463228802031 0 -0.010102833883584718 -0.00038595347100412971 0 -0.0097672382118411359 -0.00054822427258638775 0 -0.0097900520319287466 -0.00098063463228802031 0 -0.010102833883584718 -0.00038595347100412971 0 -0.0101845371076076 -0.00092965018529051618 0 -0.0097900520319287466 -0.00098063463228802031 0 -0.0097672382118411359 -0.00054822427258638775 0 -0.0097900520319287466 -0.00098063463228802031 0 -0.0089652941676115865 -0.00078816466758242993 0 -0.0097900520319287466 -0.00098063463228802031 0 -0.0089652941676115865 -0.00078816466758242993 0 -0.0092024391564325576 -0.0015040626613297037 0 -0.0090919761745847875 -0.0024275012660099965 0 -0.0085653967091646466 -0.003334161854537341 0 -0.0089652941676115865 -0.00078816466758242993 0 -0.0084324814754095905 -0.0014984788525603738 0 -0.0092024391564325576 -0.0015040626613297037 0 -0.008330556067201407 -0.0015580281802816752 0 -0.0093664393453522996 -0.001191023110499899 0 -0.0085077851160803401 -0.0030660765588134539 0 -0.0083359343442135671 -0.00021340544308173204 0 -0.008330556067201407 -0.0015580281802816752 0 -0.0093664393453522996 -0.001191023110499899 0 -0.0084324814754095905 -0.0014984788525603738 0 -0.0092024391564325576 -0.0015040626613297037 0 -0.0088138032638251287 -0.0019218402577361351 0 -0.0084049200732133275 -0.0020742976984116038 0 -0.0084324814754095905 -0.0014984788525603738 0 -0.0088138032638251287 -0.0019218402577361351 0 -0.0096458492351041442 -0.0016920008491822527 0 -0.0092024391564325576 -0.0015040626613297037 0 -0.0092412720282494341 -0.0021933080565276148 0 -0.0097900520319287466 -0.00098063463228802031 0 -0.0096458492351041442 -0.0016920008491822527 0 -0.0092024391564325576 -0.0015040626613297037 0 -0.0092024391564325576 -0.0015040626613297037 0 -0.0092412720282494341 -0.0021933080565276148 0 -0.0088138032638251287 -0.0019218402577361351 0 -0.0096458492351041442 -0.0016920008491822527 0 -0.0092412720282494341 -0.0021933080565276148 0 -0.0098558005226702695 -0.0020842661355553213 0 -0.0092412720282494341 -0.0021933080565276148 0 -0.0096026209868403916 -0.0025814932125864218 0 -0.0098558005226702695 -0.0020842661355553213 0 -0.0092412720282494341 -0.0021933080565276148 0 -0.0088138032638251287 -0.0019218402577361351 0 -0.0086137989134356836 -0.0024780685004283693 0 -0.0084049200732133275 -0.0020742976984116038 0 -0.0088138032638251287 -0.0019218402577361351 0 -0.0086137989134356836 -0.0024780685004283693 0 -0.0092412720282494341 -0.0021933080565276148 0 -0.0086137989134356836 -0.0024780685004283693 0 -0.009138042075751647 -0.0028249368666438709 0 -0.0086137989134356836 -0.0024780685004283693 0 -0.009138042075751647 -0.0028249368666438709 0 -0.0086197365307621749 -0.0030527151014480883 0 -0.009138042075751647 -0.0028249368666438709 0 -0.0096026209868403916 -0.0025814932125864218 0 -0.0097638311928718823 -0.0030745241119420857 0 -0.0092412720282494341 -0.0021933080565276148 0 -0.009138042075751647 -0.0028249368666438709 0 -0.0096026209868403916 -0.0025814932125864218 0 -0.0096026209868403916 -0.0025814932125864218 0 -0.010038291755786466 -0.0026889061999600659 0 -0.0097638311928718823 -0.0030745241119420857 0 -0.0098558005226702695 -0.0020842661355553213 0 -0.010263589181395744 -0.0021550923658372042 0 -0.010038291755786466 -0.0026889061999600659 0 -0.0096026209868403916 -0.0025814932125864218 0 -0.0098558005226702695 -0.0020842661355553213 0 -0.010038291755786466 -0.0026889061999600659 0 -0.010295879310939154 -0.0017244884724779148 0 -0.0098558005226702695 -0.0020842661355553213 0 -0.010263589181395744 -0.0021550923658372042 0 -0.010686084747081706 -0.001896777809913298 0 -0.010660608233908997 -0.0022980269268255168 0 -0.011109834425487268 -0.0020706794206060458 0 -0.010686084747081706 -0.001896777809913298 0 -0.010263589181395744 -0.0021550923658372042 0 -0.010660608233908997 -0.0022980269268255168 0 -0.010295879310939154 -0.0017244884724779148 0 -0.010686084747081706 -0.001896777809913298 0 -0.010263589181395744 -0.0021550923658372042 0 -0.010263589181395744 -0.0021550923658372042 0 -0.010660608233908997 -0.0022980269268255168 0 -0.010038291755786466 -0.0026889061999600659 0 -0.010038291755786466 -0.0026889061999600659 0 -0.010292999482768898 -0.0029431662080745048 0 -0.0097638311928718823 -0.0030745241119420857 0 -0.0091140893624107842 -0.0050500595383657998 0 -0.0087963418040529207 -0.0052741002867652872 0 -0.0038599939424291668 0.0004907263243895928 0 -0.002147459973997214 0.00070563333629531733 0 -0.010038291755786466 -0.0026889061999600659 0 -0.010292999482768898 -0.0029431662080745048 0 -0.01088118199037387 -0.0026332625141468656 0 -0.010660608233908997 -0.0022980269268255168 0 -0.010038291755786466 -0.0026889061999600659 0 -0.011133348934299635 -0.0026849285741973729 0 -0.010292999482768898 -0.0029431662080745048 0 -0.010072545266442228 -0.003850448202758803 0 -0.0078517623866452314 -0.0038282402567283141 0 -0.010292999482768898 -0.0029431662080745048 0 -0.010072545266442228 -0.003850448202758803 0 -0.010930404128777365 -0.0035250889368344416 0 -0.010072545266442228 -0.003850448202758803 0 -0.0096082585185136554 -0.0046410360521126981 0 -0.0078517623866452314 -0.0038282402567283141 0 -0.010072545266442228 -0.003850448202758803 0 -0.0096082585185136554 -0.0046410360521126981 0 -0.011232098925059612 -0.0043894410598125542 0 -0.0096082585185136554 -0.0046410360521126981 0 -0.0084212198129569524 -0.0048404097021150375 0 -0.0091523706046293899 -0.0053800573841948276 0 -0.0078517623866452314 -0.0038282402567283141 0 -0.0084212198129569524 -0.0048404097021150375 0 -0.0074202680728065861 -0.005672544006974329 0 -0.0096082585185136554 -0.0046410360521126981 0 -0.0078517623866452314 -0.0038282402567283141 0 -0.0084212198129569524 -0.0048404097021150375 0 -0.0084212198129569524 -0.0048404097021150375 0 -0.0074202680728065861 -0.005672544006974329 0 -0.0091523706046293899 -0.0053800573841948276 0 -0.0074202680728065861 -0.005672544006974329 0 -0.0067380187795587961 -0.0060788616854592853 0 -0.0071069348881994338 -0.0058205789290384701 0 -0.0061211105188551688 -0.0043507118523543912 0 -0.0055924654290008501 -0.0041165409120571504 0 -0.0074202680728065861 -0.005672544006974329 0 -0.0071049389541090408 -0.0059963672136630246 0 -0.0071069348881994338 -0.0058205789290384701 0 -0.0074202680728065861 -0.005672544006974329 0 -0.0099164927104700151 -0.0063546132512448446 0 -0.0091523706046293899 -0.0053800573841948276 0 -0.0096082585185136554 -0.0046410360521126981 0 -0.0091523706046293899 -0.0053800573841948276 0 -0.010331198548067333 -0.0053971434736004489 0 -0.0099164927104700151 -0.0063546132512448446 0 -0.0091523706046293899 -0.0053800573841948276 0 -0.010331198548067333 -0.0053971434736004489 0 -0.0074200010833735241 -0.0067197448543475178 0 -0.0081491844473506603 -0.0058499638601347608 0 -0.008239592813840289 -0.0036626766783678633 0 -0.0086197365307621749 -0.0030527151014480883 0 -0.0090241676313654682 -0.0033733744486995629 0 -0.0053025112519319547 -0.0051263766493591526 0 -0.0063891553971081264 -0.0046618359513529856 0 -0.0058860937835440051 -0.0052578192700082019 0 -0.009138042075751647 -0.0028249368666438709 0 -0.0086197365307621749 -0.0030527151014480883 0 -0.0090241676313654682 -0.0033733744486995629 0 -0.009138042075751647 -0.0028249368666438709 0 -0.0097638311928718823 -0.0030745241119420857 0 -0.0090241676313654682 -0.0033733744486995629 0 -0.0087963418040529207 -0.0052741002867652872 0 -0.0081491844473506603 -0.0058499638601347608 0 -0.0078517623866452314 -0.0038282402567283141 0 -0.0074202680728065861 -0.005672544006974329 0 -0.0063891553971081264 -0.0046618359513529856 0 -0.0074202680728065861 -0.005672544006974329 0 -0.0064252031691564042 -0.0054997643487470077 0 -0.0071049389541090408 -0.0059963672136630246 0 -0.0074202680728065861 -0.005672544006974329 0 -0.0063891553971081264 -0.0046618359513529856 0 -0.0064252031691564042 -0.0054997643487470077 0 -0.0054214636481561907 -0.0057744751941971048 0 -0.0064252031691564042 -0.0054997643487470077 0 -0.0071049389541090408 -0.0059963672136630246 0 -0.0054214636481561907 -0.0057744751941971048 0 -0.0064252031691564042 -0.0054997643487470077 0 -0.0058860937835440051 -0.0052578192700082019 0 -0.0063891553971081264 -0.0046618359513529856 0 -0.0064252031691564042 -0.0054997643487470077 0 -0.0058860937835440051 -0.0052578192700082019 0 -0.009273515479241096 -0.0062050250305606021 0 -0.0087638835017540394 -0.0056765891846285912 0 -0.0090128958600530409 -0.0049836175652033798 0 -0.009273515479241096 -0.0062050250305606021 0 -0.0087638835017540394 -0.0056765891846285912 0 -0.0080730737125040471 -0.0059145593123300704 0 -0.0074637325283802691 -0.0070960723073663478 0 -0.0072659748192324593 -0.0067596512955317321 0 -0.0087638835017540394 -0.0056765891846285912 0 -0.0080730737125040471 -0.0059145593123300704 0 -0.0083211243989057462 -0.0052289210782751876 0 -0.0080730737125040471 -0.0059145593123300704 0 -0.0083211243989057462 -0.0052289210782751876 0 -0.0076362014867511884 -0.0051280382048599646 0 -0.0083211243989057462 -0.0052289210782751876 0 -0.0076362014867511884 -0.0051280382048599646 0 -0.0081285961380218215 -0.0044226800693977272 0 -0.0083211243989057462 -0.0052289210782751876 0 -0.0090128958600530409 -0.0049836175652033798 0 -0.0081285961380218215 -0.0044226800693977272 0 -0.0087638835017540394 -0.0056765891846285912 0 -0.0083211243989057462 -0.0052289210782751876 0 -0.0090128958600530409 -0.0049836175652033798 0 -0.0069222098245520711 -0.0056719109159720322 0 -0.00632990366703951 -0.0057337039897556149 0 -0.0064512729643362177 -0.0052301072436369131 0 -0.0067380187795587961 -0.0060788616854592853 0 -0.0069222098245520711 -0.0056719109159720322 0 -0.00632990366703951 -0.0057337039897556149 0 -0.0067380187795587961 -0.0060788616854592853 0 -0.0069222098245520711 -0.0056719109159720322 0 -0.0071069348881994338 -0.0058205789290384701 0 -0.0071049389541090408 -0.0059963672136630246 0 -0.0069222098245520711 -0.0056719109159720322 0 -0.0071069348881994338 -0.0058205789290384701 0 -0.0072659748192324593 -0.0067596512955317321 0 -0.0071384024833757494 -0.0066341398136455197 0 -0.0080730737125040471 -0.0059145593123300704 0 -0.0069222098245520711 -0.0056719109159720322 0 -0.0076362014867511884 -0.0051280382048599646 0 -0.0069222098245520711 -0.0056719109159720322 0 -0.0076362014867511884 -0.0051280382048599646 0 -0.0070142835734602746 -0.0050416629148770159 0 -0.0076362014867511884 -0.0051280382048599646 0 -0.0070142835734602746 -0.0050416629148770159 0 -0.0072861641763981673 -0.0043160134636485228 0 -0.0069222098245520711 -0.0056719109159720322 0 -0.0070142835734602746 -0.0050416629148770159 0 -0.0064512729643362177 -0.0052301072436369131 0 -0.0070142835734602746 -0.0050416629148770159 0 -0.0066106723004145168 -0.0046225375863834448 0 -0.0064512729643362177 -0.0052301072436369131 0 -0.0066106723004145168 -0.0046225375863834448 0 -0.0072861641763981673 -0.0043160134636485228 0 -0.0065158005571593122 -0.0038579370358593165 0 -0.0070142835734602746 -0.0050416629148770159 0 -0.0066106723004145168 -0.0046225375863834448 0 -0.0072861641763981673 -0.0043160134636485228 0 -0.0072861641763981673 -0.0043160134636485228 0 -0.0076111616001763886 -0.0037643724131806236 0 -0.0081285961380218215 -0.0044226800693977272 0 -0.0076362014867511884 -0.0051280382048599646 0 -0.0072861641763981673 -0.0043160134636485228 0 -0.0081285961380218215 -0.0044226800693977272 0 -0.0072861641763981673 -0.0043160134636485228 0 -0.0076111616001763886 -0.0037643724131806236 0 -0.0071441911386982675 -0.0035146721359243767 0 -0.0076111616001763886 -0.0037643724131806236 0 -0.0071441911386982675 -0.0035146721359243767 0 -0.0077829261461197759 -0.0033015439816730476 0 -0.0071441911386982675 -0.0035146721359243767 0 -0.0065158005571593122 -0.0038579370358593165 0 -0.0065304252024201053 -0.0029265651119127203 0 -0.0072861641763981673 -0.0043160134636485228 0 -0.0071441911386982675 -0.0035146721359243767 0 -0.0065158005571593122 -0.0038579370358593165 0 -0.0071441911386982675 -0.0035146721359243767 0 -0.0065304252024201053 -0.0029265651119127203 0 -0.0073300421860969921 -0.0029191335091233914 0 -0.0071441911386982675 -0.0035146721359243767 0 -0.0073300421860969921 -0.0029191335091233914 0 -0.0077829261461197759 -0.0033015439816730476 0 -0.0073300421860969921 -0.0029191335091233914 0 -0.0078088651282029057 -0.0026751474508932283 0 -0.0077829261461197759 -0.0033015439816730476 0 -0.0073300421860969921 -0.0029191335091233914 0 -0.0073760381197808993 -0.0022127121659414736 0 -0.0078088651282029057 -0.0026751474508932283 0 -0.0073760381197808993 -0.0022127121659414736 0 -0.0079277326953148524 -0.0022358566221717356 0 -0.0078088651282029057 -0.0026751474508932283 0 0.013773733884068533 -0.02869606377474106 0 0.01279208276778249 -0.027821945819333709 0 0.014035780577045999 -0.027815062764180751 0 -0.0065304252024201053 -0.0029265651119127203 0 -0.0073300421860969921 -0.0029191335091233914 0 -0.0073760381197808993 -0.0022127121659414736 0 0.0021817166481755156 -0.017509224274707785 0 6.8646495617732137e-05 -0.018344336401510977 0 -0.0074799767297827387 -0.013613566443741412 0 -0.0074779642175296784 -0.013623661486319655 0 -0.0074672136091742218 -0.013616396351578892 0 -0.0075074699524472861 -0.013613330348321327 0 -0.0074955563615948474 -0.013604943448412548 0 -0.0075214075558876683 -0.013602329728835549 0 -0.0074799767297827387 -0.013613566443741412 0 -0.0075074699524472861 -0.013613330348321327 0 -0.0074955563615948474 -0.013604943448412548 0 -0.0074799767297827387 -0.013613566443741412 0 -0.0074672136091742218 -0.013616396351578892 0 -0.0075074699524472861 -0.013613330348321327 0 -0.0074955563615948474 -0.013604943448412548 0 -0.0075214075558876683 -0.013602329728835549 0 -0.0074962579687047571 -0.01358908006406848 0 -0.0074799767297827387 -0.013613566443741412 0 -0.0074779642175296784 -0.013623661486319655 0 -0.0074791439184836144 -0.013601900775202957 0 -0.0074955563615948474 -0.013604943448412548 0 -0.0074791439184836144 -0.013601900775202957 0 -0.0074962579687047571 -0.01358908006406848 0 -0.0074799767297827387 -0.013613566443741412 0 -0.0074955563615948474 -0.013604943448412548 0 -0.0074791439184836144 -0.013601900775202957 0 -0.0083955436118267612 -0.0025636202640402137 0 -0.0079277326953148524 -0.0022358566221717356 0 -0.0078088651282029057 -0.0026751474508932283 0 -0.0083955436118267612 -0.0025636202640402137 0 -0.0078088651282029057 -0.0026751474508932283 0 -0.0080857929719954421 -0.0029901750459699799 0 -0.0078088651282029057 -0.0026751474508932283 0 -0.0080857929719954421 -0.0029901750459699799 0 -0.0077829261461197759 -0.0033015439816730476 0 -0.0083955436118267612 -0.0025636202640402137 0 -0.0080857929719954421 -0.0029901750459699799 0 -0.0082607824014056062 -0.0033096685423192741 0 -0.0080857929719954421 -0.0029901750459699799 0 -0.0077829261461197759 -0.0033015439816730476 0 -0.0082607824014056062 -0.0033096685423192741 0 -0.0083955436118267612 -0.0025636202640402137 0 -0.0082607824014056062 -0.0033096685423192741 0 -0.0087229121975338168 -0.0037407930576970846 0 -0.0040436325082696739 -0.013137868905268421 0 -0.0055658555639957526 -0.010429256519926197 0 -0.0074672136091742218 -0.013616396351578892 0 -0.0074184725461176361 -0.013555786193792191 0 -0.0073587604220247448 -0.013563217442456319 0 -0.0074183189333200793 -0.013570419671114787 0 -0.0074137276027437726 -0.013566293021977203 0 -0.0074779642175296784 -0.013623661486319655 0 -0.0074672136091742218 -0.013616396351578892 0 -0.0074184725461176361 -0.013555786193792191 0 -0.0074672136091742218 -0.013616396351578892 0 -0.0075074699524472861 -0.013613330348321327 0 -0.00754670249357128 -0.013627314136884254 0 -0.0076111616001763886 -0.0037643724131806236 0 -0.0081195325079185428 -0.0037289830437596005 0 -0.0081285961380218215 -0.0044226800693977272 0 -0.0087229121975338168 -0.0037407930576970846 0 -0.0081195325079185428 -0.0037289830437596005 0 -0.0081285961380218215 -0.0044226800693977272 0 -0.0077829261461197759 -0.0033015439816730476 0 -0.0082607824014056062 -0.0033096685423192741 0 -0.0081195325079185428 -0.0037289830437596005 0 -0.0076111616001763886 -0.0037643724131806236 0 -0.0077829261461197759 -0.0033015439816730476 0 -0.0081195325079185428 -0.0037289830437596005 0 -0.0082607824014056062 -0.0033096685423192741 0 -0.0087229121975338168 -0.0037407930576970846 0 -0.0081195325079185428 -0.0037289830437596005 0 -0.0073604861112913852 -0.013480430695597274 0 -0.0074184725461176361 -0.013555786193792191 0 -0.0073449124139507013 -0.013514768208453988 0 -0.0067233682078885809 -0.0090006370462057967 0 -0.0055658555639957526 -0.010429256519926197 0 -0.0090128958600530409 -0.0049836175652033798 0 -0.0087229121975338168 -0.0037407930576970846 0 -0.0081285961380218215 -0.0044226800693977272 0 -0.0073449124139507013 -0.013514768208453988 0 -0.0072966724407527179 -0.013503866856557479 0 -0.0073587604220247448 -0.013563217442456319 0 -0.0073996818794478825 -0.013553711601782335 0 -0.0074137276027437726 -0.013566293021977203 0 -0.0075008593877960829 -0.013572911667653426 0 -0.0075246601882750872 -0.013612028777675683 0 -0.0074849202144256933 -0.013606467269221141 0 -0.0075246601882750872 -0.013612028777675683 0 -0.0074849202144256933 -0.013606467269221141 0 -0.0075403246463407606 -0.013606450804698106 0 -0.0075008593877960829 -0.013572911667653426 0 -0.0075246601882750872 -0.013612028777675683 0 -0.00754670249357128 -0.013627314136884254 0 -0.0074184725461176361 -0.013555786193792191 0 -0.0073449124139507013 -0.013514768208453988 0 -0.0073587604220247448 -0.013563217442456319 0 -0.0075246601882750872 -0.013612028777675683 0 -0.00754670249357128 -0.013627314136884254 0 -0.0075479438438840508 -0.013620098732639432 0 -0.0074973458634031622 -0.013636809475394709 0 -0.0073939530259115706 -0.013570401767142 0 -0.0075085020729358234 -0.01362411670999507 0 -0.0073939530259115706 -0.013570401767142 0 -0.0075085020729358234 -0.01362411670999507 0 -0.0074849202144256933 -0.013606467269221141 0 -0.0073939530259115706 -0.013570401767142 0 -0.0075008593877960829 -0.013572911667653426 0 -0.0074849202144256933 -0.013606467269221141 0 -0.0074849202144256933 -0.013606467269221141 0 -0.007534233085868031 -0.013573414786823322 0 -0.0075403246463407606 -0.013606450804698106 0 -0.0075085020729358234 -0.01362411670999507 0 -0.007534233085868031 -0.013573414786823322 0 -0.0075984389590267043 -0.013556763359009369 0 -0.0075085020729358234 -0.01362411670999507 0 -0.0074849202144256933 -0.013606467269221141 0 -0.007534233085868031 -0.013573414786823322 0 -0.007534233085868031 -0.013573414786823322 0 -0.0075984389590267043 -0.013556763359009369 0 -0.0075528479603733482 -0.013518345681067172 0 -0.007534233085868031 -0.013573414786823322 0 -0.0075730717344927962 -0.013595439802360164 0 -0.0075403246463407606 -0.013606450804698106 0 -0.0075686305591270682 -0.013592679880068567 0 -0.0075730717344927962 -0.013595439802360164 0 -0.0076379585768073591 -0.013616887818381928 0 -0.0075686305591270682 -0.013592679880068567 0 -0.0076379585768073591 -0.013616887818381928 0 -0.0077241435574473185 -0.013685816891867077 0 -0.007534233085868031 -0.013573414786823322 0 -0.0075686305591270682 -0.013592679880068567 0 -0.0075730717344927962 -0.013595439802360164 0 -0.007534233085868031 -0.013573414786823322 0 -0.0075686305591270682 -0.013592679880068567 0 -0.0075528479603733482 -0.013518345681067172 0 -0.0075074699524472861 -0.013613330348321327 0 -0.00754670249357128 -0.013627314136884254 0 -0.0075416383304261758 -0.013618124354467534 0 -0.00754670249357128 -0.013627314136884254 0 -0.0075416383304261758 -0.013618124354467534 0 -0.0075479438438840508 -0.013620098732639432 0 -0.0075416383304261758 -0.013618124354467534 0 -0.0075479438438840508 -0.013620098732639432 0 -0.0075790014587046794 -0.013615780774240638 0 -0.0075246601882750872 -0.013612028777675683 0 -0.0075479438438840508 -0.013620098732639432 0 -0.0075403246463407606 -0.013606450804698106 0 -0.0075730717344927962 -0.013595439802360164 0 -0.0075403246463407606 -0.013606450804698106 0 -0.0075790014587046794 -0.013615780774240638 0 -0.0075479438438840508 -0.013620098732639432 0 -0.0075403246463407606 -0.013606450804698106 0 -0.0075790014587046794 -0.013615780774240638 0 -0.0075790014587046794 -0.013615780774240638 0 -0.0076379585768073591 -0.013616887818381928 0 -0.0075578464045056061 -0.013606776154105009 0 -0.0075730717344927962 -0.013595439802360164 0 -0.0075790014587046794 -0.013615780774240638 0 -0.0076379585768073591 -0.013616887818381928 0 -0.0076379585768073591 -0.013616887818381928 0 -0.0075578464045056061 -0.013606776154105009 0 -0.0075687639205259064 -0.013578621249289682 0 -0.0075578464045056061 -0.013606776154105009 0 -0.0075388108378724311 -0.013585842775107916 0 -0.0075687639205259064 -0.013578621249289682 0 -0.0075416383304261758 -0.013618124354467534 0 -0.0075790014587046794 -0.013615780774240638 0 -0.0075578464045056061 -0.013606776154105009 0 -0.0075416383304261758 -0.013618124354467534 0 -0.0075578464045056061 -0.013606776154105009 0 -0.0075214075558876683 -0.013602329728835549 0 -0.0075074699524472861 -0.013613330348321327 0 -0.0075416383304261758 -0.013618124354467534 0 -0.0075214075558876683 -0.013602329728835549 0 -0.0075578464045056061 -0.013606776154105009 0 -0.0075214075558876683 -0.013602329728835549 0 -0.0075388108378724311 -0.013585842775107916 0 -0.0075214075558876683 -0.013602329728835549 0 -0.0075161190439393998 -0.013581309380674127 0 -0.0075388108378724311 -0.013585842775107916 0 -0.0075161190439393998 -0.013581309380674127 0 -0.0075388108378724311 -0.013585842775107916 0 -0.0075324641918472577 -0.013558180631432208 0 -0.0075161190439393998 -0.013581309380674127 0 -0.0075324641918472577 -0.013558180631432208 0 -0.0074992938511044419 -0.013559317294733399 0 -0.0075324641918472577 -0.013558180631432208 0 -0.0075596541838666544 -0.013549848115336757 0 -0.0075687639205259064 -0.013578621249289682 0 -0.0075388108378724311 -0.013585842775107916 0 -0.0075324641918472577 -0.013558180631432208 0 -0.0075687639205259064 -0.013578621249289682 0 -0.0044777363352418425 -0.018404085013910266 0 -0.0044269382386345158 -0.019121399341981236 0 -0.0076379585768073591 -0.013616887818381928 0 -0.0077241435574473185 -0.013685816891867077 0 -0.0077662104334822405 -0.013716385362370302 0 -0.0076379585768073591 -0.013616887818381928 0 -0.0075687639205259064 -0.013578621249289682 0 -0.007595746695666955 -0.013545141903273631 0 -0.0044396199225687884 -0.019036605890161703 0 -0.0044269382386345158 -0.019121399341981236 0 -0.0075596541838666544 -0.013549848115336757 0 -0.0075687639205259064 -0.013578621249289682 0 -0.007595746695666955 -0.013545141903273631 0 -0.0077241435574473185 -0.013685816891867077 0 -0.0079435962623543646 -0.013834094830458174 0 -0.0079611643935195361 -0.014076521366798199 0 -0.0079435962623543646 -0.013834094830458174 0 -0.0079611643935195361 -0.014076521366798199 0 -0.0080086028590599205 -0.014121666205309902 0 -0.0052220288194088672 -0.020605993104094219 0 -0.0054497027970437191 -0.020808848683835868 0 -0.0052790695407519224 -0.020982778951657798 0 -0.0044269382386345158 -0.019121399341981236 0 -0.0049589840142963528 -0.020406993378609191 0 -0.0075421550814447737 -0.01351970487621411 0 -0.007497612054605772 -0.013491878436507008 0 -0.0074997260317495266 -0.013526515983374445 0 -0.0042901387381772257 -0.020179735169342915 0 -0.0040469767044213519 -0.021515183910317336 0 -0.0075324641918472577 -0.013558180631432208 0 -0.0075421550814447737 -0.01351970487621411 0 -0.0074997260317495266 -0.013526515983374445 0 -0.0075596541838666544 -0.013549848115336757 0 -0.007595746695666955 -0.013545141903273631 0 -0.0075421550814447737 -0.01351970487621411 0 -0.0044269382386345158 -0.019121399341981236 0 -0.0042901387381772257 -0.020179735169342915 0 -0.0075324641918472577 -0.013558180631432208 0 -0.0075596541838666544 -0.013549848115336757 0 -0.0075421550814447737 -0.01351970487621411 0 -0.0080986174767789208 -0.013948429094169905 0 -0.0081537823789406428 -0.013942771717741855 0 -0.0075686305591270682 -0.013592679880068567 0 -0.0075304689305529058 -0.013715203075845383 0 -0.0075528479603733482 -0.013518345681067172 0 -0.0083854951224276459 -0.014360105088804594 0 -0.0085111568123739934 -0.014235068485888756 0 -0.0087183772609894378 -0.014394366918253968 0 -0.0075686305591270682 -0.013592679880068567 0 -0.0077241435574473185 -0.013685816891867077 0 -0.0075304689305529058 -0.013715203075845383 0 -0.0079611643935195361 -0.014076521366798199 0 -0.0083854951224276459 -0.014360105088804594 0 -0.0082893529605405549 -0.014116786282223924 0 -0.0077241435574473185 -0.013685816891867077 0 -0.0079611643935195361 -0.014076521366798199 0 -0.0075304689305529058 -0.013715203075845383 0 -0.00808121136115981 -0.013953176681225981 0 -0.0080986174767789208 -0.013948429094169905 0 -0.0083854951224276459 -0.014360105088804594 0 -0.0082893529605405549 -0.014116786282223924 0 -0.0085111568123739934 -0.014235068485888756 0 -0.0085111568123739934 -0.014235068485888756 0 -0.0085119433843650685 -0.014020783802506464 0 -0.0086938870712850273 -0.01424699646865466 0 -0.0082893529605405549 -0.014116786282223924 0 -0.0085119433843650685 -0.014020783802506464 0 -0.0082819709289389809 -0.013955278257924041 0 -0.0082893529605405549 -0.014116786282223924 0 -0.0085111568123739934 -0.014235068485888756 0 -0.0085119433843650685 -0.014020783802506464 0 -0.0082893529605405549 -0.014116786282223924 0 -0.0082819709289389809 -0.013955278257924041 0 -0.0081124091223880243 -0.014038344533118148 0 -0.0079611643935195361 -0.014076521366798199 0 -0.0082893529605405549 -0.014116786282223924 0 -0.0081124091223880243 -0.014038344533118148 0 -0.0082819709289389809 -0.013955278257924041 0 -0.0081124091223880243 -0.014038344533118148 0 -0.0081169703737544955 -0.013944761932308099 0 -0.0082819709289389809 -0.013955278257924041 0 -0.008247910091014065 -0.013809103924597057 0 -0.0084509692321644552 -0.013826115204080383 0 -0.0082819709289389809 -0.013955278257924041 0 -0.008247910091014065 -0.013809103924597057 0 -0.0081169703737544955 -0.013944761932308099 0 -0.0085119433843650685 -0.014020783802506464 0 -0.0084509692321644552 -0.013826115204080383 0 -0.008605270417093254 -0.013850853339630884 0 -0.0085119433843650685 -0.014020783802506464 0 -0.0082819709289389809 -0.013955278257924041 0 -0.0084509692321644552 -0.013826115204080383 0 -0.0054347043104707067 -0.021039656047893911 0 -0.0052790695407519224 -0.020982778951657798 0 -0.005335568623529182 -0.02135683941485144 0 -0.0054398750652880053 -0.023022969406446086 0 -0.0040469767044213519 -0.021515183910317336 0 -0.0054347043104707067 -0.021039656047893911 0 -0.005335568623529182 -0.02135683941485144 0 -0.0056745084411445792 -0.021009738484985885 0 -0.0054497027970437191 -0.020808848683835868 0 -0.0054347043104707067 -0.021039656047893911 0 -0.0056745084411445792 -0.021009738484985885 0 -0.0054497027970437191 -0.020808848683835868 0 -0.0054347043104707067 -0.021039656047893911 0 -0.0052790695407519224 -0.020982778951657798 0 -0.0049589840142963528 -0.020406993378609191 0 -0.0054398750652880053 -0.023022969406446086 0 -0.0080086028590599205 -0.014121666205309902 0 -0.0081169703737544955 -0.013944761932308099 0 -0.0079636910359820057 -0.013866452281004625 0 -0.0079611643935195361 -0.014076521366798199 0 -0.0080086028590599205 -0.014121666205309902 0 -0.0081124091223880243 -0.014038344533118148 0 -0.0080086028590599205 -0.014121666205309902 0 -0.0081124091223880243 -0.014038344533118148 0 -0.0081169703737544955 -0.013944761932308099 0 -0.008247910091014065 -0.013809103924597057 0 -0.0081169703737544955 -0.013944761932308099 0 -0.0079636910359820057 -0.013866452281004625 0 -0.0023507653951340478 -0.028386837764001405 0 -0.0024726968018318049 -0.028386302294922908 0 -0.0024682287657154614 -0.028253472623997685 0 -0.0023507653951340478 -0.028386837764001405 0 -0.0024726968018318049 -0.028386302294922908 0 -0.0024147461561240566 -0.028454937592229921 0 -0.0024726968018318049 -0.028386302294922908 0 -0.0024682287657154614 -0.028253472623997685 0 -0.0025534627810330107 -0.028330975932723861 0 -0.0024726968018318049 -0.028386302294922908 0 -0.0025512735058041366 -0.028421711290449021 0 -0.0024990751061407463 -0.028478854391391077 0 -0.0024726968018318049 -0.028386302294922908 0 -0.0025534627810330107 -0.028330975932723861 0 -0.0025512735058041366 -0.028421711290449021 0 -0.0040469767044213519 -0.021515183910317336 0 -0.0037754916170026445 -0.022871334669898595 0 -0.0020911366642871244 -0.022040646255561621 0 -0.0023837818728588505 -0.021948329214207932 0 -0.002408526350031746 -0.022323429555165537 0 -0.0021207232648710419 -0.025140318429874263 0 -0.0026537724210407643 -0.025241922300377875 0 -0.0019399582839482185 -0.024299887457589719 0 -0.0023837818728588505 -0.021948329214207932 0 -0.0026261810341808006 -0.022139732064532732 0 -0.0025245082376366425 -0.021674106296649537 0 -0.0023837818728588505 -0.021948329214207932 0 -0.0026261810341808006 -0.022139732064532732 0 -0.002408526350031746 -0.022323429555165537 0 -0.0037754916170026445 -0.022871334669898595 0 -0.0034834291629591155 -0.023927786915764533 0 -0.0028662915248583803 -0.022435067006143079 0 -0.0034834291629591155 -0.023927786915764533 0 -0.0026261810341808006 -0.022139732064532732 0 -0.002408526350031746 -0.022323429555165537 0 -0.0027281245174675846 -0.02260820864311109 0 -0.0025534627810330107 -0.028330975932723861 0 -0.0025512735058041366 -0.028421711290449021 0 -0.0026471321291068953 -0.028412209747740468 0 -0.0023115401315094521 -0.025964929862409 0 -0.0026378588084634428 -0.02602688993666074 0 -0.0027958759318905788 -0.025770885623394635 0 -0.0023115401315094521 -0.025964929862409 0 -0.0027958759318905788 -0.025770885623394635 0 -0.0026537724210407643 -0.025241922300377875 0 -0.0027958759318905788 -0.025770885623394635 0 -0.0032078493792983202 -0.025395047769912617 0 -0.0029093473313834971 -0.026395952084233596 0 -0.0021207232648710419 -0.025140318429874263 0 -0.0023115401315094521 -0.025964929862409 0 -0.0026537724210407643 -0.025241922300377875 0 -0.0026378588084634428 -0.02602688993666074 0 -0.0027958759318905788 -0.025770885623394635 0 -0.0029093473313834971 -0.026395952084233596 0 -0.0027958759318905788 -0.025770885623394635 0 -0.0032078493792983202 -0.025395047769912617 0 -0.0026537724210407643 -0.025241922300377875 0 -0.0032673507038072447 -0.026373789710658756 0 -0.0032375979413004595 -0.026578778903298753 0 -0.0033366435460374503 -0.026062759721802435 0 -0.0032078493792983202 -0.025395047769912617 0 -0.0029136271188341593 -0.026539496340462796 0 -0.0035930146327910672 -0.026153356373858901 0 -0.0033366435460374503 -0.026062759721802435 0 -0.0036602683321806505 -0.025611612215051736 0 -0.0033366435460374503 -0.026062759721802435 0 -0.0036602683321806505 -0.025611612215051736 0 -0.0032078493792983202 -0.025395047769912617 0 -0.0036602683321806505 -0.025611612215051736 0 -0.0030675916987957233 -0.024887701076387672 0 -0.0042568556544695692 -0.025502433610168417 0 -0.0036602683321806505 -0.025611612215051736 0 -0.0032078493792983202 -0.025395047769912617 0 -0.0030675916987957233 -0.024887701076387672 0 0.0026867866909474855 -0.023812685391950743 0 0.0061672174907046956 -0.027207233502235754 0 -0.0030675916987957233 -0.024887701076387672 0 -0.0026537724210407643 -0.025241922300377875 0 -0.0019399582839482185 -0.024299887457589719 0 -0.0032078493792983202 -0.025395047769912617 0 -0.0030675916987957233 -0.024887701076387672 0 -0.0026537724210407643 -0.025241922300377875 0 0.013124661841274036 -0.026168170082988516 0 0.012638743056945706 -0.026943748368303815 0 0.011871827933078775 -0.02677970130370759 0 0.0026867866909474855 -0.023812685391950743 0 -0.0022262173887648367 -0.020495463316250434 0 0.013124661841274036 -0.026168170082988516 0 0.013550023879386905 -0.027047416734358024 0 0.014045073431698016 -0.026484687565752597 0 0.013124661841274036 -0.026168170082988516 0 0.012638743056945706 -0.026943748368303815 0 0.013550023879386905 -0.027047416734358024 0 0.01279208276778249 -0.027821945819333709 0 0.013550023879386905 -0.027047416734358024 0 0.014035780577045999 -0.027815062764180751 0 6.8646495617732137e-05 -0.018344336401510977 0 -0.0023284875044802707 -0.020071650833280302 0 0.01279208276778249 -0.027821945819333709 0 0.012638743056945706 -0.026943748368303815 0 0.013550023879386905 -0.027047416734358024 0 0.01279208276778249 -0.027821945819333709 0 0.012638743056945706 -0.026943748368303815 0 0.011844931877585696 -0.026900563606661498 0 -0.0083955436118267612 -0.0025636202640402137 0 -0.0079277326953148524 -0.0022358566221717356 0 -0.0081284251546527766 -0.0015002970265198977 0 -0.0074779642175296784 -0.013623661486319655 0 -0.0074791439184836144 -0.013601900775202957 0 -0.0074366695051435406 -0.013547597644729438 0 -0.0040436325082696739 -0.013137868905268421 0 -0.0023284875044802707 -0.020071650833280302 0 -0.0073760381197808993 -0.0022127121659414736 0 -0.0079277326953148524 -0.0022358566221717356 0 -0.0081284251546527766 -0.0015002970265198977 0 -0.0074791439184836144 -0.013601900775202957 0 -0.0074758773014853329 -0.013581679335817045 0 -0.0074366695051435406 -0.013547597644729438 0 -0.0074791439184836144 -0.013601900775202957 0 -0.0074758773014853329 -0.013581679335817045 0 -0.0074962579687047571 -0.01358908006406848 0 -0.0074758773014853329 -0.013581679335817045 0 -0.0074962579687047571 -0.01358908006406848 0 -0.0074891833622602036 -0.01357567055196866 0 -0.0075161190439393998 -0.013581309380674127 0 -0.0074891833622602036 -0.01357567055196866 0 -0.0074992938511044419 -0.013559317294733399 0 -0.0075214075558876683 -0.013602329728835549 0 -0.0075161190439393998 -0.013581309380674127 0 -0.0074962579687047571 -0.01358908006406848 0 -0.0075161190439393998 -0.013581309380674127 0 -0.0074962579687047571 -0.01358908006406848 0 -0.0074891833622602036 -0.01357567055196866 0 -0.0074758773014853329 -0.013581679335817045 0 -0.0074747908322442139 -0.013562852200852262 0 -0.0074366695051435406 -0.013547597644729438 0 -0.0074891833622602036 -0.01357567055196866 0 -0.0074992938511044419 -0.013559317294733399 0 -0.0074747908322442139 -0.013562852200852262 0 -0.0074758773014853329 -0.013581679335817045 0 -0.0074891833622602036 -0.01357567055196866 0 -0.0074747908322442139 -0.013562852200852262 0 -0.0074992938511044419 -0.013559317294733399 0 -0.0074825772277877312 -0.013552932235476172 0 -0.0074747908322442139 -0.013562852200852262 0 -0.0074825772277877312 -0.013552932235476172 0 -0.0074747908322442139 -0.013562852200852262 0 -0.0074642788224696293 -0.013548782063754292 0 -0.0020911366642871244 -0.022040646255561621 0 -0.0023837818728588505 -0.021948329214207932 0 -0.0024757758424922725 -0.021649128481019037 0 -0.0074642788224696293 -0.013548782063754292 0 -0.0074997260317495266 -0.013526515983374445 0 -0.0074446093065064327 -0.013541699119642104 0 -0.0040469767044213519 -0.021515183910317336 0 -0.0023576462082455811 -0.020342656620982936 0 -0.0074825772277877312 -0.013552932235476172 0 -0.0074642788224696293 -0.013548782063754292 0 -0.0074997260317495266 -0.013526515983374445 0 -0.007497612054605772 -0.013491878436507008 0 -0.0074997260317495266 -0.013526515983374445 0 -0.0074446093065064327 -0.013541699119642104 0 -0.0075324641918472577 -0.013558180631432208 0 -0.0074992938511044419 -0.013559317294733399 0 -0.0074997260317495266 -0.013526515983374445 0 -0.0074992938511044419 -0.013559317294733399 0 -0.0074825772277877312 -0.013552932235476172 0 -0.0074997260317495266 -0.013526515983374445 0 -0.0023837818728588505 -0.021948329214207932 0 -0.0025245082376366425 -0.021674106296649537 0 -0.0024757758424922725 -0.021649128481019037 0 0.012638743056945706 -0.026943748368303815 0 0.011844931877585696 -0.026900563606661498 0 0.011871827933078775 -0.02677970130370759 0 -0.0028662915248583803 -0.022435067006143079 0 -0.0022262173887648367 -0.020495463316250434 0 -0.0074747908322442139 -0.013562852200852262 0 -0.0074642788224696293 -0.013548782063754292 0 -0.0074366695051435406 -0.013547597644729438 0 -0.0023284875044802707 -0.020071650833280302 0 -0.0023576462082455811 -0.020342656620982936 0 -0.0024038671512410957 -0.020317640825949904 0 -0.0023576462082455811 -0.020342656620982936 0 -0.0074642788224696293 -0.013548782063754292 0 -0.0074366695051435406 -0.013547597644729438 0 -0.0074418349301215011 -0.013542118395279509 0 -0.0023284875044802707 -0.020071650833280302 0 -0.0022262173887648367 -0.020495463316250434 0 -0.00069685966349545419 -0.023166594961418954 0 4.0209611477954521e-05 -0.019765082387554003 0 -0.0026858151149149832 -0.021156326889849201 0 -0.0022262173887648367 -0.020495463316250434 0 -0.0023576462082455811 -0.020342656620982936 0 -0.0076675645662122741 -0.013811498364015167 0 -0.0074513541766347722 -0.014396394393533506 0 -0.0079816553716181501 -0.014361059174105611 0 -0.0079816553716181501 -0.014361059174105611 0 -0.0085997666165518825 -0.014141663575683657 0 -0.0085096103960365464 -0.014860832408805232 0 -0.0076675645662122741 -0.013811498364015167 0 -0.0079816553716181501 -0.014361059174105611 0 -0.0085997666165518825 -0.014141663575683657 0 -0.0074513541766347722 -0.014396394393533506 0 -0.0079816553716181501 -0.014361059174105611 0 -0.0076350143951245545 -0.014950966660246359 0 -0.0083429034757790833 -0.013882032030540479 0 -0.008336380431637062 -0.013805596133901664 0 -0.0085997666165518825 -0.014141663575683657 0 -0.0080508480924810846 -0.013298091090439232 0 -0.008447135182773638 -0.013405058363072623 0 -0.0085997666165518825 -0.014141663575683657 0 -0.0086872226102024646 -0.01396214334957321 0 -0.0088243170112496175 -0.014122333276080394 0 -0.0076675645662122741 -0.013811498364015167 0 -0.0085997666165518825 -0.014141663575683657 0 -0.0080508480924810846 -0.013298091090439232 0 -0.0080508480924810846 -0.013298091090439232 0 -0.0080501766134960726 -0.012980138567565131 0 -0.0082548165599308065 -0.013006895190428504 0 -0.008336380431637062 -0.013805596133901664 0 -0.00830068190386672 -0.013709305316486745 0 -0.0080508480924810846 -0.013298091090439232 0 -0.008447135182773638 -0.013405058363072623 0 -0.0082548165599308065 -0.013006895190428504 0 -0.0086872226102024646 -0.01396214334957321 0 -0.0086894390765029205 -0.013988927277698682 0 -0.0086703666278567567 -0.013951535957503697 0 -0.0086894390765029205 -0.013988927277698682 0 -0.0084865668042070682 -0.013944650214281722 0 -0.0086703666278567567 -0.013951535957503697 0 -0.0086703666278567567 -0.013951535957503697 0 -0.0088243170112496175 -0.014122333276080394 0 -0.008848737147936948 -0.014249399553173581 0 -0.0088243170112496175 -0.014122333276080394 0 -0.008848737147936948 -0.014249399553173581 0 -0.0095057050867246619 -0.014788704321731749 0 -0.0085997666165518825 -0.014141663575683657 0 -0.0088243170112496175 -0.014122333276080394 0 -0.0095057050867246619 -0.014788704321731749 0 -0.0086872226102024646 -0.01396214334957321 0 -0.0086703666278567567 -0.013951535957503697 0 -0.0088243170112496175 -0.014122333276080394 0 -0.008848737147936948 -0.014249399553173581 0 -0.008807808804011226 -0.0143158522997846 0 -0.0089721247615802743 -0.014437463522177278 0 -0.008807808804011226 -0.0143158522997846 0 -0.0088597225784091023 -0.014226928772000423 0 -0.0088143494987340931 -0.014340018471292874 0 -0.0082489016932426624 -0.01394222714182332 0 -0.0082172938549825037 -0.013940048246785538 0 -0.008807808804011226 -0.0143158522997846 0 -0.0084611844041353641 -0.01382027744597175 0 -0.0088597225784091023 -0.014226928772000423 0 -0.0086703666278567567 -0.013951535957503697 0 -0.008848737147936948 -0.014249399553173581 0 -0.0084611844041353641 -0.01382027744597175 0 -0.008848737147936948 -0.014249399553173581 0 -0.008807808804011226 -0.0143158522997846 0 -0.0084611844041353641 -0.01382027744597175 0 -0.0084865668042070682 -0.013944650214281722 0 -0.0086703666278567567 -0.013951535957503697 0 -0.0084611844041353641 -0.01382027744597175 0 -0.0084865668042070682 -0.013944650214281722 0 -0.0081644919035345105 -0.013841638658687785 0 -0.0084611844041353641 -0.01382027744597175 0 -0.0077109312560097844 -0.013824420617986791 0 -0.0081644919035345105 -0.013841638658687785 0 -0.0077712899830303939 -0.013734455715789096 0 -0.0084611844041353641 -0.01382027744597175 0 -0.0077712899830303939 -0.013734455715789096 0 -0.0078002398253992711 -0.01344615359170242 0 -0.0081644919035345105 -0.013841638658687785 0 -0.0084611844041353641 -0.01382027744597175 0 -0.0077712899830303939 -0.013734455715789096 0 -0.0077109312560097844 -0.013824420617986791 0 -0.0074973458634031622 -0.013636809475394709 0 -0.0077712899830303939 -0.013734455715789096 0 -0.0074973458634031622 -0.013636809475394709 0 -0.0075085020729358234 -0.01362411670999507 0 -0.0077712899830303939 -0.013734455715789096 0 -0.0075085020729358234 -0.01362411670999507 0 -0.0077712899830303939 -0.013734455715789096 0 -0.0075984389590267043 -0.013556763359009369 0 -0.0075984389590267043 -0.013556763359009369 0 -0.0078002398253992711 -0.01344615359170242 0 -0.0075528479603733482 -0.013518345681067172 0 -0.0077712899830303939 -0.013734455715789096 0 -0.0075984389590267043 -0.013556763359009369 0 -0.0078002398253992711 -0.01344615359170242 0 -0.0088597225784091023 -0.014226928772000423 0 -0.0087183772609894378 -0.014394366918253968 0 -0.0088143494987340931 -0.014340018471292874 0 -0.0082172938549825037 -0.013940048246785538 0 -0.0081537823789406428 -0.013942771717741855 0 -0.0085111568123739934 -0.014235068485888756 0 -0.0087183772609894378 -0.014394366918253968 0 -0.0086938870712850273 -0.01424699646865466 0 -0.0087183772609894378 -0.014394366918253968 0 -0.0088143494987340931 -0.014340018471292874 0 -0.0086938870712850273 -0.01424699646865466 0 -0.0088143494987340931 -0.014340018471292874 0 -0.0086938870712850273 -0.01424699646865466 0 -0.0088124641481183274 -0.014265311854688868 0 -0.0098733475816120079 -0.018914160457738888 0 -0.0097423998177059053 -0.020144721780564274 0 -0.0085119433843650685 -0.014020783802506464 0 -0.0086938870712850273 -0.01424699646865466 0 -0.0087062523230828394 -0.013971034216524094 0 -0.0085119433843650685 -0.014020783802506464 0 -0.0087062523230828394 -0.013971034216524094 0 -0.008605270417093254 -0.013850853339630884 0 -0.0087062523230828394 -0.013971034216524094 0 -0.008605270417093254 -0.013850853339630884 0 -0.0087560739536284796 -0.013748534008399206 0 -0.0097423998177059053 -0.020144721780564274 0 -0.0091068837644431803 -0.024222147218837319 0 -0.0087458832791106611 -0.01420096042046682 0 -0.0088360820659702643 -0.014176702317656924 0 -0.0087788604905474181 -0.014124590545866521 0 -0.0084999560150810644 -0.023041718382821288 0 -0.0091068837644431803 -0.024222147218837319 0 -0.0088360820659702643 -0.014176702317656924 0 -0.0088638521947831412 -0.014100669760403289 0 -0.008772647479168165 -0.014095728117975959 0 -0.0086938870712850273 -0.01424699646865466 0 -0.0087458832791106611 -0.01420096042046682 0 -0.0088124641481183274 -0.014265311854688868 0 -0.0087458832791106611 -0.01420096042046682 0 -0.0088124641481183274 -0.014265311854688868 0 -0.0088360820659702643 -0.014176702317656924 0 -0.0088124641481183274 -0.014265311854688868 0 -0.0088873492980038968 -0.01423725219022196 0 -0.0088360820659702643 -0.014176702317656924 0 -0.0088360820659702643 -0.014176702317656924 0 -0.0089508164966666508 -0.014119916167652588 0 -0.0088638521947831412 -0.014100669760403289 0 -0.0088873492980038968 -0.01423725219022196 0 -0.0088360820659702643 -0.014176702317656924 0 -0.0089508164966666508 -0.014119916167652588 0 -0.0089508164966666508 -0.014119916167652588 0 -0.0090098634601868677 -0.014250338553033492 0 -0.0090883354474939997 -0.014133870061808286 0 -0.0088873492980038968 -0.01423725219022196 0 -0.0089508164966666508 -0.014119916167652588 0 -0.0090098634601868677 -0.014250338553033492 0 -0.0088873492980038968 -0.01423725219022196 0 -0.0090098634601868677 -0.014250338553033492 0 -0.0088923210616116185 -0.01435313663887647 0 -0.0090098634601868677 -0.014250338553033492 0 -0.0088923210616116185 -0.01435313663887647 0 -0.0090769990768342513 -0.014406522330119687 0 -0.0088923210616116185 -0.01435313663887647 0 -0.0089721247615802743 -0.014437463522177278 0 -0.0090769990768342513 -0.014406522330119687 0 -0.0088143494987340931 -0.014340018471292874 0 -0.0088124641481183274 -0.014265311854688868 0 -0.0088923210616116185 -0.01435313663887647 0 -0.0088124641481183274 -0.014265311854688868 0 -0.0088873492980038968 -0.01423725219022196 0 -0.0088923210616116185 -0.01435313663887647 0 -0.008807808804011226 -0.0143158522997846 0 -0.0088143494987340931 -0.014340018471292874 0 -0.0088923210616116185 -0.01435313663887647 0 -0.008807808804011226 -0.0143158522997846 0 -0.0088923210616116185 -0.01435313663887647 0 -0.0089721247615802743 -0.014437463522177278 0 -0.008848737147936948 -0.014249399553173581 0 -0.0089721247615802743 -0.014437463522177278 0 -0.0095057050867246619 -0.014788704321731749 0 -0.0091375695604846621 -0.017823635680729887 0 -0.009127694676369336 -0.018399398516453353 0 -0.0095057050867246619 -0.014788704321731749 0 -0.0090769990768342513 -0.014406522330119687 0 -0.0093073436328595504 -0.014252052024715998 0 -0.0095057050867246619 -0.014788704321731749 0 -0.011228829973900418 -0.016995921867772695 0 -0.0089811746971063151 -0.015869964056244936 0 -0.0089721247615802743 -0.014437463522177278 0 -0.0095057050867246619 -0.014788704321731749 0 -0.0090769990768342513 -0.014406522330119687 0 -0.0090098634601868677 -0.014250338553033492 0 -0.0090883354474939997 -0.014133870061808286 0 -0.0093073436328595504 -0.014252052024715998 0 -0.0090098634601868677 -0.014250338553033492 0 -0.0090769990768342513 -0.014406522330119687 0 -0.0093073436328595504 -0.014252052024715998 0 -0.0090883354474939997 -0.014133870061808286 0 -0.0091993834478688967 -0.014107613541837379 0 -0.0093073436328595504 -0.014252052024715998 0 -0.0090164562145970076 -0.020044809123114078 0 -0.009127694676369336 -0.018399398516453353 0 -0.01309729000347548 -0.020239987010621387 0 -0.011228829973900418 -0.016995921867772695 0 -0.010699191834290914 -0.019075542346203324 0 -0.01309729000347548 -0.020239987010621387 0 -0.010699191834290914 -0.019075542346203324 0 -0.010779036476825253 -0.021153196247433101 0 -0.011228829973900418 -0.016995921867772695 0 -0.0090186012638002397 -0.018062298039852771 0 -0.0089811746971063151 -0.015869964056244936 0 -0.011228829973900418 -0.016995921867772695 0 -0.0090186012638002397 -0.018062298039852771 0 -0.010699191834290914 -0.019075542346203324 0 -0.0090186012638002397 -0.018062298039852771 0 -0.010699191834290914 -0.019075542346203324 0 -0.0094790190416003325 -0.019613659783614158 0 -0.010699191834290914 -0.019075542346203324 0 -0.0094790190416003325 -0.019613659783614158 0 -0.010779036476825253 -0.021153196247433101 0 -0.0090186012638002397 -0.018062298039852771 0 -0.0094790190416003325 -0.019613659783614158 0 -0.0076234982181626618 -0.020205322708780695 0 -0.0071908790953869534 -0.018153034001533654 0 -0.0090186012638002397 -0.018062298039852771 0 -0.0076234982181626618 -0.020205322708780695 0 -0.0090186012638002397 -0.018062298039852771 0 -0.0078401150191080033 -0.016632634440919836 0 -0.0089811746971063151 -0.015869964056244936 0 -0.0071908790953869534 -0.018153034001533654 0 -0.0090186012638002397 -0.018062298039852771 0 -0.0078401150191080033 -0.016632634440919836 0 -0.0071857790558782246 -0.015835153927202091 0 -0.0078401150191080033 -0.016632634440919836 0 -0.0080686209033051289 -0.015585755974310523 0 -0.0071857790558782246 -0.015835153927202091 0 -0.0080686209033051289 -0.015585755974310523 0 -0.0076350143951245545 -0.014950966660246359 0 -0.0078401150191080033 -0.016632634440919836 0 -0.0080686209033051289 -0.015585755974310523 0 -0.0089811746971063151 -0.015869964056244936 0 -0.0095057050867246619 -0.014788704321731749 0 -0.0089811746971063151 -0.015869964056244936 0 -0.0085096103960365464 -0.014860832408805232 0 -0.0080686209033051289 -0.015585755974310523 0 -0.0089811746971063151 -0.015869964056244936 0 -0.0085096103960365464 -0.014860832408805232 0 -0.0085997666165518825 -0.014141663575683657 0 -0.0095057050867246619 -0.014788704321731749 0 -0.0085096103960365464 -0.014860832408805232 0 -0.0079816553716181501 -0.014361059174105611 0 -0.0085096103960365464 -0.014860832408805232 0 -0.0076350143951245545 -0.014950966660246359 0 -0.0080686209033051289 -0.015585755974310523 0 -0.0085096103960365464 -0.014860832408805232 0 -0.0076350143951245545 -0.014950966660246359 0 -0.014626779620267346 -0.032683764657327086 0 -0.013649469864824052 -0.033395689635075193 0 -0.0011000968844409179 -0.037959745894679618 0 -0.004657399842185884 -0.035404150362382251 0 -0.0069899362110533185 -0.039018880197351322 0 -0.004657399842185884 -0.035404150362382251 0 -0.0074169237544041118 -0.035301158242267996 0 -0.0057716285627575055 -0.032772454923216475 0 -0.0011000968844409179 -0.037959745894679618 0 -0.004657399842185884 -0.035404150362382251 0 -0.0028435182536426301 -0.034651434516141291 0 -0.004657399842185884 -0.035404150362382251 0 -0.0074169237544041118 -0.035301158242267996 0 -0.0069899362110533185 -0.039018880197351322 0 -0.0094150485966305146 -0.03702495578710293 0 -0.0074169237544041118 -0.035301158242267996 0 -0.0069899362110533185 -0.039018880197351322 0 -0.0094150485966305146 -0.03702495578710293 0 -0.012637427862515489 -0.039017943026756936 0 -0.0069899362110533185 -0.039018880197351322 0 -0.0094150485966305146 -0.03702495578710293 0 -0.011549649630089941 -0.037368000663223745 0 -0.012637427862515489 -0.039017943026756936 0 -0.011549649630089941 -0.037368000663223745 0 -0.0098601565799193436 -0.034722866109296154 0 -0.011610532589244219 -0.034741638548141399 0 -0.0094150485966305146 -0.03702495578710293 0 -0.011549649630089941 -0.037368000663223745 0 -0.0098601565799193436 -0.034722866109296154 0 -0.0094150485966305146 -0.03702495578710293 0 -0.0098601565799193436 -0.034722866109296154 0 -0.0074169237544041118 -0.035301158242267996 0 -0.0098601565799193436 -0.034722866109296154 0 -0.0074169237544041118 -0.035301158242267996 0 -0.0079615362051441152 -0.03288787004298889 0 -0.0098601565799193436 -0.034722866109296154 0 -0.0079615362051441152 -0.03288787004298889 0 -0.0097023931574565098 -0.031343503901696441 0 -0.0079615362051441152 -0.03288787004298889 0 -0.0073945195421115557 -0.030125086476219878 0 -0.0057716285627575055 -0.032772454923216475 0 -0.0098601565799193436 -0.034722866109296154 0 -0.0097023931574565098 -0.031343503901696441 0 -0.011874159512206654 -0.032766652279073279 0 -0.0098601565799193436 -0.034722866109296154 0 -0.011874159512206654 -0.032766652279073279 0 -0.011610532589244219 -0.034741638548141399 0 -0.0097023931574565098 -0.031343503901696441 0 -0.0073945195421115557 -0.030125086476219878 0 -0.01022110809216608 -0.027567415327463214 0 -0.0097023931574565098 -0.031343503901696441 0 -0.012174645864316746 -0.030075266414879034 0 -0.011874159512206654 -0.032766652279073279 0 -0.0097023931574565098 -0.031343503901696441 0 -0.01022110809216608 -0.027567415327463214 0 -0.012174645864316746 -0.030075266414879034 0 -0.0079615362051441152 -0.03288787004298889 0 -0.0097023931574565098 -0.031343503901696441 0 -0.0073945195421115557 -0.030125086476219878 0 -0.0073945195421115557 -0.030125086476219878 0 -0.0050464265398209905 -0.030675222689688832 0 -0.0057716285627575055 -0.032772454923216475 0 -0.0074169237544041118 -0.035301158242267996 0 -0.0079615362051441152 -0.03288787004298889 0 -0.0057716285627575055 -0.032772454923216475 0 -0.0050464265398209905 -0.030675222689688832 0 -0.0057716285627575055 -0.032772454923216475 0 -0.0035672975184882724 -0.03255529906693895 0 -0.004657399842185884 -0.035404150362382251 0 -0.0028435182536426301 -0.034651434516141291 0 -0.0035672975184882724 -0.03255529906693895 0 -0.004657399842185884 -0.035404150362382251 0 -0.0057716285627575055 -0.032772454923216475 0 -0.0035672975184882724 -0.03255529906693895 0 -0.0020339601022898489 -0.032702870027860681 0 -0.0028435182536426301 -0.034651434516141291 0 -0.0035672975184882724 -0.03255529906693895 0 -0.0016281758516722062 -0.031846602968284309 0 -0.0035672975184882724 -0.03255529906693895 0 -0.003173988516627512 -0.030348701548034041 0 -0.0050464265398209905 -0.030675222689688832 0 -0.0035672975184882724 -0.03255529906693895 0 -0.003173988516627512 -0.030348701548034041 0 -0.0019255137595127131 -0.02869051034795091 0 -0.003173988516627512 -0.030348701548034041 0 -0.0051362561359313648 -0.027956693043050377 0 -0.0050464265398209905 -0.030675222689688832 0 -0.003173988516627512 -0.030348701548034041 0 -0.0051362561359313648 -0.027956693043050377 0 -0.0073945195421115557 -0.030125086476219878 0 -0.0050464265398209905 -0.030675222689688832 0 -0.0051362561359313648 -0.027956693043050377 0 -0.0047768258998662858 -0.027564549695738353 0 -0.0047071612244049023 -0.024778857390066588 0 -0.0073952284203694504 -0.023999955471461932 0 -0.002160056126774194 -0.025746488747360127 0 -0.0047768258998662858 -0.027564549695738353 0 -0.0047071612244049023 -0.024778857390066588 0 -0.002160056126774194 -0.025746488747360127 0 -0.0047071612244049023 -0.024778857390066588 0 -0.0036319474488116692 -0.021209385840892166 0 -0.0047071612244049023 -0.024778857390066588 0 -0.0036319474488116692 -0.021209385840892166 0 -0.0073952284203694504 -0.023999955471461932 0 -0.0095264648568973136 -0.023303004461995774 0 -0.0095184986372151958 -0.023121417130135196 0 -0.0036319474488116692 -0.021209385840892166 0 -0.010779036476825253 -0.021153196247433101 0 -0.0073952284203694504 -0.023999955471461932 0 -0.0094790190416003325 -0.019613659783614158 0 -0.0076234982181626618 -0.020205322708780695 0 -0.010779036476825253 -0.021153196247433101 0 -0.010779036476825253 -0.021153196247433101 0 -0.0073952284203694504 -0.023999955471461932 0 -0.011563220512742113 -0.024016320750540526 0 -0.0073945195421115557 -0.030125086476219878 0 -0.0051362561359313648 -0.027956693043050377 0 -0.01022110809216608 -0.027567415327463214 0 -0.010264152184414611 -0.028047739614391283 0 -0.010024200284314588 -0.028034719597866808 0 -0.0073952284203694504 -0.023999955471461932 0 -0.01022110809216608 -0.027567415327463214 0 -0.011563220512742113 -0.024016320750540526 0 -0.0047768258998662858 -0.027564549695738353 0 -0.0073952284203694504 -0.023999955471461932 0 -0.01022110809216608 -0.027567415327463214 0 -0.01022110809216608 -0.027567415327463214 0 -0.014936783863188809 -0.026723102543869337 0 -0.012174645864316746 -0.030075266414879034 0 -0.01022110809216608 -0.027567415327463214 0 -0.014936783863188809 -0.026723102543869337 0 -0.011563220512742113 -0.024016320750540526 0 -0.014936783863188809 -0.026723102543869337 0 -0.013731629282154285 -0.031577845280335935 0 -0.012174645864316746 -0.030075266414879034 0 -0.0091993834478688967 -0.014107613541837379 0 -0.0091436546683271655 -0.013999691017126356 0 -0.0091122140724352266 -0.014058910203655921 0 -0.01309729000347548 -0.020239987010621387 0 -0.014936783863188809 -0.026723102543869337 0 -0.011563220512742113 -0.024016320750540526 0 -0.0090164562145970076 -0.020044809123114078 0 -0.0086657090424536488 -0.022737633472023046 0 -0.01309729000347548 -0.020239987010621387 0 -0.010779036476825253 -0.021153196247433101 0 -0.011563220512742113 -0.024016320750540526 0 -0.0090883354474939997 -0.014133870061808286 0 -0.0091122140724352266 -0.014058910203655921 0 -0.0090489400332751588 -0.01406399220206821 0 -0.0090883354474939997 -0.014133870061808286 0 -0.0091993834478688967 -0.014107613541837379 0 -0.0091122140724352266 -0.014058910203655921 0 -0.0091122140724352266 -0.014058910203655921 0 -0.0090754302231844403 -0.014005298104372314 0 -0.0090489400332751588 -0.01406399220206821 0 -0.0091436546683271655 -0.013999691017126356 0 -0.0091122140724352266 -0.014058910203655921 0 -0.0090754302231844403 -0.014005298104372314 0 -0.0091436546683271655 -0.013999691017126356 0 -0.0090754302231844403 -0.014005298104372314 0 -0.0090950128586718693 -0.013966137560895498 0 -0.0090754302231844403 -0.014005298104372314 0 -0.0090950128586718693 -0.013966137560895498 0 -0.0090332094566199332 -0.013950837943845776 0 -0.0091436546683271655 -0.013999691017126356 0 -0.0090950128586718693 -0.013966137560895498 0 -0.0091261010502370916 -0.013914372434582529 0 -0.012069630275206075 -0.038101102163252569 0 -0.012316829733193656 -0.03812515786505967 0 -0.011755428790474443 -0.038492327884261116 0 -0.0079090260614774529 -0.02643387219324253 0 -0.0087722732724989858 -0.025639491318945471 0 -0.0090950128586718693 -0.013966137560895498 0 -0.0091261010502370916 -0.013914372434582529 0 -0.0090332094566199332 -0.013950837943845776 0 -0.014936783863188809 -0.026723102543869337 0 -0.013731629282154285 -0.031577845280335935 0 -0.016023269654996796 -0.033913867883852908 0 -0.0086657090424536488 -0.022737633472023046 0 -0.0079090260614774529 -0.02643387219324253 0 -0.013731629282154285 -0.031577845280335935 0 -0.012174645864316746 -0.030075266414879034 0 -0.011874159512206654 -0.032766652279073279 0 -0.013731629282154285 -0.031577845280335935 0 -0.011874159512206654 -0.032766652279073279 0 -0.013169323178277284 -0.034166081751511999 0 -0.011874159512206654 -0.032766652279073279 0 -0.013169323178277284 -0.034166081751511999 0 -0.011610532589244219 -0.034741638548141399 0 -0.013731629282154285 -0.031577845280335935 0 -0.013169323178277284 -0.034166081751511999 0 -0.016023269654996796 -0.033913867883852908 0 -0.012267245732934043 -0.038113112215843639 0 -0.012279161230712776 -0.038271826493999475 0 -0.012168608025163856 -0.038590080242861161 0 -0.0079090260614774529 -0.02643387219324253 0 -0.0079271739719824503 -0.026548277912244671 0 -0.011549649630089941 -0.037368000663223745 0 -0.012282438565111806 -0.038071829299359483 0 -0.012267245732934043 -0.038113112215843639 0 -0.011549649630089941 -0.037368000663223745 0 -0.012267245732934043 -0.038113112215843639 0 -0.012279161230712776 -0.038271826493999475 0 -0.011549649630089941 -0.037368000663223745 0 -0.013169323178277284 -0.034166081751511999 0 -0.011610532589244219 -0.034741638548141399 0 -0.0077920215322732573 -0.027088384144434915 0 -0.0079090260614774529 -0.02643387219324253 0 -0.011549649630089941 -0.037368000663223745 0 -0.013169323178277284 -0.034166081751511999 0 -0.016023269654996796 -0.033913867883852908 0 -0.011549649630089941 -0.037368000663223745 0 -0.012279161230712776 -0.038271826493999475 0 -0.012637427862515489 -0.039017943026756936 0 -0.012845564470284071 -0.037577065608008921 0 -0.012989860884107635 -0.037336125232497464 0 -0.012069630275206075 -0.038101102163252569 0 -0.011673023407140793 -0.037763111040701083 0 -0.011935686835399259 -0.037529501837813083 0 -0.012069630275206075 -0.038101102163252569 0 -0.012267245732934043 -0.038113112215843639 0 -0.012168608025163856 -0.038590080242861161 0 -0.012069630275206075 -0.038101102163252569 0 -0.011935686835399259 -0.037529501837813083 0 -0.012298863961012547 -0.037415389445958465 0 -0.012069630275206075 -0.038101102163252569 0 -0.012316829733193656 -0.03812515786505967 0 -0.012267245732934043 -0.038113112215843639 0 -0.011337990192334307 -0.037934133699043304 0 -0.011673023407140793 -0.037763111040701083 0 -0.011648859076468662 -0.038156264888620686 0 -0.012069630275206075 -0.038101102163252569 0 -0.011673023407140793 -0.037763111040701083 0 -0.011648859076468662 -0.038156264888620686 0 -0.011673023407140793 -0.037763111040701083 0 -0.011360641321313732 -0.03764824934439797 0 -0.011630737057714797 -0.037337325259932642 0 -0.011337990192334307 -0.037934133699043304 0 -0.011673023407140793 -0.037763111040701083 0 -0.011360641321313732 -0.03764824934439797 0 -0.011337990192334307 -0.037934133699043304 0 -0.011360641321313732 -0.03764824934439797 0 -0.011102866596099371 -0.037751378742315933 0 -0.011360641321313732 -0.03764824934439797 0 -0.011102866596099371 -0.037751378742315933 0 -0.011077595371277787 -0.037438950284141376 0 -0.011102866596099371 -0.037751378742315933 0 -0.010750869635387281 -0.037748813169796648 0 -0.011077595371277787 -0.037438950284141376 0 -0.011102866596099371 -0.037751378742315933 0 -0.010979637075143706 -0.038055742030856078 0 -0.010750869635387281 -0.037748813169796648 0 -0.011337990192334307 -0.037934133699043304 0 -0.011102866596099371 -0.037751378742315933 0 -0.010979637075143706 -0.038055742030856078 0 -0.011337990192334307 -0.037934133699043304 0 -0.010979637075143706 -0.038055742030856078 0 -0.011151422989334261 -0.038368916144510989 0 -0.010979637075143706 -0.038055742030856078 0 -0.011151422989334261 -0.038368916144510989 0 -0.010606324955852188 -0.03849776367149349 0 -0.011151422989334261 -0.038368916144510989 0 -0.011648859076468662 -0.038156264888620686 0 -0.011755428790474443 -0.038492327884261116 0 -0.011337990192334307 -0.037934133699043304 0 -0.011151422989334261 -0.038368916144510989 0 -0.011648859076468662 -0.038156264888620686 0 -0.012069630275206075 -0.038101102163252569 0 -0.011648859076468662 -0.038156264888620686 0 -0.011755428790474443 -0.038492327884261116 0 -0.0090754302231844403 -0.014005298104372314 0 -0.0090332094566199332 -0.013950837943845776 0 -0.0089966802765546125 -0.014018207987587928 0 -0.0090332094566199332 -0.013950837943845776 0 -0.0089966802765546125 -0.014018207987587928 0 -0.0088990575215200582 -0.014012157172428593 0 -0.0087722732724989858 -0.025639491318945471 0 -0.009013863889264874 -0.025029300246313411 0 -0.0089508164966666508 -0.014119916167652588 0 -0.0090883354474939997 -0.014133870061808286 0 -0.0090489400332751588 -0.01406399220206821 0 -0.0089508164966666508 -0.014119916167652588 0 -0.0089966802765546125 -0.014018207987587928 0 -0.0090489400332751588 -0.01406399220206821 0 -0.0089508164966666508 -0.014119916167652588 0 -0.0089966802765546125 -0.014018207987587928 0 -0.0088990575215200582 -0.014012157172428593 0 -0.0090754302231844403 -0.014005298104372314 0 -0.0089966802765546125 -0.014018207987587928 0 -0.0090489400332751588 -0.01406399220206821 0 -0.0089508164966666508 -0.014119916167652588 0 -0.0088638521947831412 -0.014100669760403289 0 -0.0088990575215200582 -0.014012157172428593 0 -0.0088638521947831412 -0.014100669760403289 0 -0.0088990575215200582 -0.014012157172428593 0 -0.008772647479168165 -0.014095728117975959 0 -0.011151422989334261 -0.038368916144510989 0 -0.011062687342852753 -0.038891317709507794 0 -0.010606324955852188 -0.03849776367149349 0 -0.011151422989334261 -0.038368916144510989 0 -0.011755428790474443 -0.038492327884261116 0 -0.011062687342852753 -0.038891317709507794 0 -0.011062687342852753 -0.038891317709507794 0 -0.010469762021058725 -0.039258400808709432 0 -0.010606324955852188 -0.03849776367149349 0 -0.010558179023345668 -0.035066947379013905 0 -0.011034303927992104 -0.035678150785360595 0 -0.010398853130183789 -0.036069560719749559 0 -0.0091068837644431803 -0.024222147218837319 0 -0.0088509815622306257 -0.031349968862715613 0 -0.009013863889264874 -0.025029300246313411 0 -0.0091068837644431803 -0.024222147218837319 0 -0.0087560739536284796 -0.013748534008399206 0 -0.0085811942375014355 -0.013718384480796479 0 -0.0086046236710151172 -0.013575582650524982 0 -0.0091068837644431803 -0.024222147218837319 0 -0.0081950339822944845 -0.026634248972629473 0 -0.0084509692321644552 -0.013826115204080383 0 -0.008605270417093254 -0.013850853339630884 0 -0.0085811942375014355 -0.013718384480796479 0 -0.008605270417093254 -0.013850853339630884 0 -0.0087560739536284796 -0.013748534008399206 0 -0.0085811942375014355 -0.013718384480796479 0 -0.0085811942375014355 -0.013718384480796479 0 -0.0086046236710151172 -0.013575582650524982 0 -0.0084419195859572575 -0.013635072710464654 0 -0.011034303927992104 -0.035678150785360595 0 -0.011058714161000231 -0.036108343517836976 0 -0.010398853130183789 -0.036069560719749559 0 -0.011034303927992104 -0.035678150785360595 0 -0.011058714161000231 -0.036108343517836976 0 -0.01144903442410454 -0.03621131292524013 0 -0.0081950339822944845 -0.026634248972629473 0 -0.0073028943775183888 -0.029161394628945635 0 -0.011058714161000231 -0.036108343517836976 0 -0.011163845689298945 -0.036500621134620777 0 -0.01144903442410454 -0.03621131292524013 0 -0.011163845689298945 -0.036500621134620777 0 -0.010758995111661278 -0.036364558115273712 0 -0.010590812456112935 -0.0367856813612027 0 -0.011058714161000231 -0.036108343517836976 0 -0.010758995111661278 -0.036364558115273712 0 -0.010398853130183789 -0.036069560719749559 0 -0.011058714161000231 -0.036108343517836976 0 -0.011163845689298945 -0.036500621134620777 0 -0.010758995111661278 -0.036364558115273712 0 -0.0088509815622306257 -0.031349968862715613 0 -0.0088519602573079569 -0.033989900731482843 0 -0.010979637075143706 -0.038055742030856078 0 -0.010606324955852188 -0.03849776367149349 0 -0.010750869635387281 -0.037748813169796648 0 -0.010758995111661278 -0.036364558115273712 0 -0.010398853130183789 -0.036069560719749559 0 -0.010590812456112935 -0.0367856813612027 0 -0.010398853130183789 -0.036069560719749559 0 -0.010590812456112935 -0.0367856813612027 0 -0.010331768227709372 -0.036944513039307555 0 -0.010331768227709372 -0.036944513039307555 0 -0.010569460488021289 -0.036945975434166133 0 -0.01045882507494687 -0.03702080776085661 0 -0.010590812456112935 -0.0367856813612027 0 -0.010331768227709372 -0.036944513039307555 0 -0.010569460488021289 -0.036945975434166133 0 -0.0072762268477682517 -0.030024521868264552 0 -0.0072142744564932188 -0.030698732431744459 0 -0.010932732192979154 -0.036606922164417993 0 -0.010590812456112935 -0.0367856813612027 0 -0.010569460488021289 -0.036945975434166133 0 -0.0072762268477682517 -0.030024521868264552 0 -0.0074239069285599599 -0.030281341559268801 0 -0.010743351697660697 -0.036730683753740709 0 -0.010569460488021289 -0.036945975434166133 0 -0.01067646057474822 -0.036926921456044155 0 -0.010743351697660697 -0.036730683753740709 0 -0.01067646057474822 -0.036926921456044155 0 -0.010873688903152184 -0.036665312778746323 0 -0.0070805449712309197 -0.032123105004040829 0 -0.0072449762609522548 -0.029821995708327883 0 -0.0095907906786563604 -0.038079560297610192 0 -0.0088298165639486264 -0.038188177055269626 0 -0.0090773642853662611 -0.037737821062312646 0 -0.0095907906786563604 -0.038079560297610192 0 -0.0095447481778027417 -0.037352840038805353 0 -0.010436237727242257 -0.037091462566750479 0 -0.0095447481778027417 -0.037352840038805353 0 -0.0091763830022204718 -0.036858434101300297 0 -0.0088628326418100731 -0.037290260555064271 0 -0.0095447481778027417 -0.037352840038805353 0 -0.0088628326418100731 -0.037290260555064271 0 -0.0090773642853662611 -0.037737821062312646 0 -0.0095907906786563604 -0.038079560297610192 0 -0.0095447481778027417 -0.037352840038805353 0 -0.0090773642853662611 -0.037737821062312646 0 -0.010569460488021289 -0.036945975434166133 0 -0.01067646057474822 -0.036926921456044155 0 -0.010436237727242257 -0.037091462566750479 0 -0.010569460488021289 -0.036945975434166133 0 -0.01045882507494687 -0.03702080776085661 0 -0.010436237727242257 -0.037091462566750479 0 -0.0095447481778027417 -0.037352840038805353 0 -0.010436237727242257 -0.037091462566750479 0 -0.0099262839270229091 -0.037012035429562017 0 -0.0070805449712309197 -0.032123105004040829 0 -0.0071303859986635958 -0.032736073503992491 0 -0.01045882507494687 -0.03702080776085661 0 -0.010436237727242257 -0.037091462566750479 0 -0.010708648992475771 -0.037007113398537711 0 -0.010436237727242257 -0.037091462566750479 0 -0.0099262839270229091 -0.037012035429562017 0 -0.010268990470117929 -0.036611401213875287 0 -0.010436237727242257 -0.037091462566750479 0 -0.010268990470117929 -0.036611401213875287 0 -0.010708648992475771 -0.037007113398537711 0 -0.0099262839270229091 -0.037012035429562017 0 -0.010268990470117929 -0.036611401213875287 0 -0.0096944626917249994 -0.036461141186077003 0 -0.0099262839270229091 -0.037012035429562017 0 -0.0096944626917249994 -0.036461141186077003 0 -0.0086902770083680161 -0.036334679014762686 0 -0.0099262839270229091 -0.037012035429562017 0 -0.0091763830022204718 -0.036858434101300297 0 -0.0089660777818370077 -0.035925019304490692 0 -0.0083001133852114023 -0.036111709175136432 0 -0.0079057337473534082 -0.035763689647430076 0 -0.0095447481778027417 -0.037352840038805353 0 -0.0099262839270229091 -0.037012035429562017 0 -0.0091763830022204718 -0.036858434101300297 0 -0.0096944626917249994 -0.036461141186077003 0 -0.0098489764505425986 -0.035826015347905533 0 -0.0086902770083680161 -0.036334679014762686 0 -0.0088543546743594589 -0.034999702656891715 0 -0.0098489764505425986 -0.035826015347905533 0 -0.010530435984851675 -0.034999964739099214 0 -0.0088543546743594589 -0.034999702656891715 0 -0.0098489764505425986 -0.035826015347905533 0 -0.0086902770083680161 -0.036334679014762686 0 -0.0098489764505425986 -0.035826015347905533 0 -0.010530435984851675 -0.034999964739099214 0 -0.011171899014397189 -0.03631624368756068 0 -0.010268990470117929 -0.036611401213875287 0 -0.0096944626917249994 -0.036461141186077003 0 -0.0098489764505425986 -0.035826015347905533 0 -0.011478523950551539 -0.03595691352020914 0 -0.011708930169081394 -0.03601290185589557 0 -0.010268990470117929 -0.036611401213875287 0 -0.0098489764505425986 -0.035826015347905533 0 -0.010666203529145414 -0.036059342301571512 0 -0.010666203529145414 -0.036059342301571512 0 -0.011076734145003601 -0.036648781405994077 0 -0.010679728409907972 -0.036583788289385202 0 -0.010268990470117929 -0.036611401213875287 0 -0.010666203529145414 -0.036059342301571512 0 -0.010679728409907972 -0.036583788289385202 0 -0.010666203529145414 -0.036059342301571512 0 -0.011411800305711491 -0.036297425140364235 0 -0.011076734145003601 -0.036648781405994077 0 -0.011708930169081394 -0.03601290185589557 0 -0.012213805406583674 -0.036117276255999871 0 -0.010530435984851675 -0.034999964739099214 0 -0.011171899014397189 -0.03631624368756068 0 -0.012206900527662589 -0.034999983324876464 0 -0.011171899014397189 -0.03631624368756068 0 -0.012206900527662589 -0.034999983324876464 0 -0.012460650690433606 -0.036741509798747039 0 -0.012206673215483983 -0.035002101148489048 0 -0.012213805406583674 -0.036117276255999871 0 -0.01220698189302513 -0.035000065379050906 0 -0.01249926924540035 -0.036752874769718641 0 -0.013396067667516543 -0.035994128287701682 0 -0.012213805406583674 -0.036117276255999871 0 -0.012818913628242194 -0.036431481609132295 0 -0.011481196048290461 -0.036313752505503651 0 -0.01155900378822264 -0.036822131997728685 0 -0.012058584056630677 -0.036504238448718036 0 -0.011499963001108513 -0.03686144543063722 0 -0.011076734145003601 -0.036648781405994077 0 -0.011183935528363519 -0.03709633425647859 0 -0.012213805406583674 -0.036117276255999871 0 -0.012182440573010897 -0.036313171878264411 0 -0.011411800305711491 -0.036297425140364235 0 -0.011499963001108513 -0.03686144543063722 0 -0.011076734145003601 -0.036648781405994077 0 -0.011076734145003601 -0.036648781405994077 0 -0.010679728409907972 -0.036583788289385202 0 -0.010708648992475771 -0.037007113398537711 0 -0.010268990470117929 -0.036611401213875287 0 -0.010679728409907972 -0.036583788289385202 0 -0.010708648992475771 -0.037007113398537711 0 -0.011076734145003601 -0.036648781405994077 0 -0.010708648992475771 -0.037007113398537711 0 -0.011183935528363519 -0.03709633425647859 0 -0.010708648992475771 -0.037007113398537711 0 -0.011183935528363519 -0.03709633425647859 0 -0.011077595371277787 -0.037438950284141376 0 -0.010750869635387281 -0.037748813169796648 0 -0.010708648992475771 -0.037007113398537711 0 -0.011077595371277787 -0.037438950284141376 0 -0.0088519602573079569 -0.033989900731482843 0 -0.0088938540449210284 -0.034653717160216278 0 -0.010331768227709372 -0.036944513039307555 0 -0.01045882507494687 -0.03702080776085661 0 -0.010708648992475771 -0.037007113398537711 0 -0.011360641321313732 -0.03764824934439797 0 -0.011077595371277787 -0.037438950284141376 0 -0.011630737057714797 -0.037337325259932642 0 -0.011673023407140793 -0.037763111040701083 0 -0.011630737057714797 -0.037337325259932642 0 -0.011935686835399259 -0.037529501837813083 0 -0.01155900378822264 -0.036822131997728685 0 -0.011630737057714797 -0.037337325259932642 0 -0.012024564531882069 -0.037011432009411697 0 -0.012182440573010897 -0.036313171878264411 0 -0.012175976887753367 -0.036400208090730128 0 -0.011499963001108513 -0.03686144543063722 0 -0.011183935528363519 -0.03709633425647859 0 -0.011630737057714797 -0.037337325259932642 0 -0.011183935528363519 -0.03709633425647859 0 -0.011077595371277787 -0.037438950284141376 0 -0.011630737057714797 -0.037337325259932642 0 -0.011630737057714797 -0.037337325259932642 0 -0.011935686835399259 -0.037529501837813083 0 -0.012024564531882069 -0.037011432009411697 0 -0.011935686835399259 -0.037529501837813083 0 -0.012298863961012547 -0.037415389445958465 0 -0.012024564531882069 -0.037011432009411697 0 -0.012298863961012547 -0.037415389445958465 0 -0.012629043290483578 -0.036694608078675292 0 -0.012024564531882069 -0.037011432009411697 0 -0.012168608025163856 -0.038590080242861161 0 -0.012596394664217445 -0.036950094476702826 0 -0.013318075102625917 -0.037950828006564789 0 -0.012279161230712776 -0.038271826493999475 0 -0.012168608025163856 -0.038590080242861161 0 -0.012637427862515489 -0.039017943026756936 0 -0.012168608025163856 -0.038590080242861161 0 -0.012637427862515489 -0.039017943026756936 0 -0.013318075102625917 -0.037950828006564789 0 -0.012989860884107635 -0.037336125232497464 0 -0.013382543712170967 -0.036702493055384179 0 -0.013382543712170967 -0.036702493055384179 0 -0.012818913628242194 -0.036431481609132295 0 -0.012629043290483578 -0.036694608078675292 0 -0.012024564531882069 -0.037011432009411697 0 -0.012058584056630677 -0.036504238448718036 0 -0.01155900378822264 -0.036822131997728685 0 -0.012024564531882069 -0.037011432009411697 0 -0.012058584056630677 -0.036504238448718036 0 -0.01249926924540035 -0.036752874769718641 0 -0.01366968117270133 -0.03713106750539346 0 -0.013396067667516543 -0.035994128287701682 0 -0.01366968117270133 -0.03713106750539346 0 -0.013396067667516543 -0.035994128287701682 0 -0.014288193533775294 -0.036376254800862692 0 -0.014127487937503668 -0.034999821041306056 0 -0.013396067667516543 -0.035994128287701682 0 -0.014288193533775294 -0.036376254800862692 0 -0.01220698189302513 -0.035000065379050906 0 -0.014127487937503668 -0.034999821041306056 0 -0.013396067667516543 -0.035994128287701682 0 -0.014127487937503668 -0.034999821041306056 0 -0.015408160437247593 -0.036264221135860614 0 -0.015983655680250747 -0.034925913157115927 0 -0.014127487937503668 -0.034999821041306056 0 -0.014288193533775294 -0.036376254800862692 0 -0.015408160437247593 -0.036264221135860614 0 -0.013382543712170967 -0.036702493055384179 0 -0.013757890316342763 -0.036328701823342704 0 -0.014845568479784405 -0.037514657220682403 0 -0.014288193533775294 -0.036376254800862692 0 -0.015408160437247593 -0.036264221135860614 0 -0.014845568479784405 -0.037514657220682403 0 -0.01366968117270133 -0.03713106750539346 0 -0.014288193533775294 -0.036376254800862692 0 -0.014492688421377175 -0.037189444585130065 0 -0.01502026708220883 -0.036135097503463852 0 -0.015150240981140149 -0.036916749246204576 0 -0.01502026708220883 -0.036135097503463852 0 -0.016006096856813493 -0.035662527934320364 0 -0.016191462762635785 -0.03670416241698566 0 -0.01502026708220883 -0.036135097503463852 0 -0.016191462762635785 -0.03670416241698566 0 -0.015150240981140149 -0.036916749246204576 0 -0.01502026708220883 -0.036135097503463852 0 -0.016006096856813493 -0.035662527934320364 0 -0.015982843484763181 -0.034925641850749103 0 -0.013757890316342763 -0.036328701823342704 0 -0.013917062622242168 -0.036131038686203883 0 -0.016006096856813493 -0.035662527934320364 0 -0.015982843484763181 -0.034925641850749103 0 -0.016811895085293946 -0.035691508686502539 0 -0.017968724152282546 -0.034999706515065794 0 -0.015982843484763181 -0.034925641850749103 0 -0.016811895085293946 -0.035691508686502539 0 -0.016006096856813493 -0.035662527934320364 0 -0.016811895085293946 -0.035691508686502539 0 -0.016191462762635785 -0.03670416241698566 0 -0.017977080007859123 -0.036299516173153329 0 -0.016811895085293946 -0.035691508686502539 0 -0.016191462762635785 -0.03670416241698566 0 -0.017676025306073821 -0.037864264799006321 0 -0.016191462762635785 -0.03670416241698566 0 -0.016450601609461719 -0.038379245025025689 0 -0.016191462762635785 -0.03670416241698566 0 -0.015155457226866375 -0.037570118546122577 0 -0.016450601609461719 -0.038379245025025689 0 -0.014492688421377175 -0.037189444585130065 0 -0.015150240981140149 -0.036916749246204576 0 -0.015155457226866375 -0.037570118546122577 0 -0.013382543712170967 -0.036702493055384179 0 -0.013627600309457488 -0.036796109760076044 0 -0.016191462762635785 -0.03670416241698566 0 -0.015150240981140149 -0.036916749246204576 0 -0.015155457226866375 -0.037570118546122577 0 -0.012596394664217445 -0.036950094476702826 0 -0.013318075102625917 -0.037950828006564789 0 -0.015155457226866375 -0.037570118546122577 0 -0.013318075102625917 -0.037950828006564789 0 -0.015155457226866375 -0.037570118546122577 0 -0.015532380402198856 -0.039717657883288099 0 -0.013449530697132108 -0.033637677874804199 0 -0.013649469864824052 -0.033395689635075193 0 -0.012637427862515489 -0.039017943026756936 0 -0.013318075102625917 -0.037950828006564789 0 -0.015532380402198856 -0.039717657883288099 0 -0.015155457226866375 -0.037570118546122577 0 -0.016450601609461719 -0.038379245025025689 0 -0.015532380402198856 -0.039717657883288099 0 -0.017580625070136458 -0.039996014444269271 0 -0.016450601609461719 -0.038379245025025689 0 -0.015532380402198856 -0.039717657883288099 0 -0.002584056988476113 -0.028737354071622333 0 -0.0024648004492135987 -0.028716797874074367 0 -0.002530844837229936 -0.028822599815450666 0 -0.002584056988476113 -0.028737354071622333 0 -0.0024648004492135987 -0.028716797874074367 0 -0.0025346855530363403 -0.028626555587727968 0 -0.002584056988476113 -0.028737354071622333 0 -0.0026973266534768151 -0.028690651782888269 0 -0.0026233278808293109 -0.028635148999468594 0 -0.0024648004492135987 -0.028716797874074367 0 -0.0024334928683597788 -0.02882629122175322 0 -0.0023790904361169563 -0.028751172012551687 0 -0.0024648004492135987 -0.028716797874074367 0 -0.0024334928683597788 -0.02882629122175322 0 -0.002530844837229936 -0.028822599815450666 0 -0.0024334928683597788 -0.02882629122175322 0 -0.002530844837229936 -0.028822599815450666 0 -0.0025131360208745213 -0.028932371342489705 0 -0.0024334928683597788 -0.02882629122175322 0 -0.0025131360208745213 -0.028932371342489705 0 -0.0024420692690142283 -0.028975805295536852 0 -0.002584056988476113 -0.028737354071622333 0 -0.002530844837229936 -0.028822599815450666 0 -0.0026285110643097078 -0.028864235349203255 0 -0.002530844837229936 -0.028822599815450666 0 -0.0026285110643097078 -0.028864235349203255 0 -0.0025131360208745213 -0.028932371342489705 0 0.0029160655562753247 -0.028469632121474537 0 0.0021098764366741223 -0.029242813654575379 0 0.0058519496587028886 -0.029563285750113858 0 0.0057847343370908289 -0.030030199458500943 0 0.005333701099552223 -0.029127245472037589 0 -0.0025681420080972293 -0.02841163597807362 0 -0.0028082525465699306 -0.027975136274699657 0 -0.0027439266484815864 -0.028689756976566207 0 -0.0031525250158786636 -0.027850490853118495 0 -0.0028082525465699306 -0.027975136274699657 0 -0.0027439266484815864 -0.028689756976566207 0 0.0057510369305158997 -0.029188355688404079 0 0.0058519496587028886 -0.029563285750113858 0 0.005333701099552223 -0.029127245472037589 0 0.00071217267876977212 -0.033593248983331936 0 0.002866500984992425 -0.032828928923557231 0 -0.0013424704850370332 -0.030554194604554153 0 -0.0011907999452860981 -0.030191622088018587 0 -0.00045198604330179258 -0.031191302350326158 0 0.0057510369305158997 -0.029188355688404079 0 0.0058519496587028886 -0.029563285750113858 0 0.0063116499211969103 -0.029594596039588347 0 0.0022837603912870003 -0.031099718256461829 0 0.002866500984992425 -0.032828928923557231 0 0.0058519496587028886 -0.029563285750113858 0 0.0060710818831746487 -0.029874333189778522 0 0.0063116499211969103 -0.029594596039588347 0 0.0058519496587028886 -0.029563285750113858 0 0.0060710818831746487 -0.029874333189778522 0 0.0057847343370908289 -0.030030199458500943 0 0.0060710818831746487 -0.029874333189778522 0 0.0057847343370908289 -0.030030199458500943 0 0.0060879786554629981 -0.030203805107951849 0 0.0060710818831746487 -0.029874333189778522 0 0.0060879786554629981 -0.030203805107951849 0 0.0063205072596639452 -0.030092481504544067 0 -0.0030019156606861603 -0.027649563502694773 0 -0.0032507523974905999 -0.026837115488430444 0 -0.002584056988476113 -0.028737354071622333 0 -0.0026285110643097078 -0.028864235349203255 0 -0.0026973266534768151 -0.028690651782888269 0 -0.0025681420080972293 -0.02841163597807362 0 -0.0028082525465699306 -0.027975136274699657 0 -0.0027338354006377717 -0.02767014452372913 0 -0.0031525250158786636 -0.027850490853118495 0 -0.0028082525465699306 -0.027975136274699657 0 -0.0026805608843153425 -0.027617551142351475 0 -0.0032512024291532476 -0.026874642597510746 0 -0.0032507523974905999 -0.026837115488430444 0 -0.0032507523974905999 -0.026837115488430444 0 -0.0033813399850795255 -0.025674561810213242 0 -0.0026446691859176486 -0.027340248152663209 0 -0.0024963367813596719 -0.026662511277656582 0 -0.0029093473313834971 -0.026395952084233596 0 -0.0026973266534768151 -0.028690651782888269 0 -0.0026748230318854598 -0.028548760191216067 0 -0.0026233278808293109 -0.028635148999468594 0 -0.0026805608843153425 -0.027617551142351475 0 -0.0031424700414956386 -0.027099891032447868 0 -0.0029136271188341593 -0.026539496340462796 0 -0.0032507523974905999 -0.026837115488430444 0 -0.0032375979413004595 -0.026578778903298753 0 -0.0031525250158786636 -0.027850490853118495 0 -0.0026805608843153425 -0.027617551142351475 0 -0.0031424700414956386 -0.027099891032447868 0 0.0057847343370908289 -0.030030199458500943 0 0.0060879786554629981 -0.030203805107951849 0 0.0062379324926121011 -0.030883420407456737 0 -0.0031525250158786636 -0.027850490853118495 0 -0.0031424700414956386 -0.027099891032447868 0 -0.0036999230227043132 -0.026710517395824293 0 0.0029160655562753247 -0.028469632121474537 0 0.0041679323647542729 -0.027811972803625736 0 0.0060879786554629981 -0.030203805107951849 0 0.0062379324926121011 -0.030883420407456737 0 0.0062609182401743933 -0.030382675637090135 0 -0.0031424700414956386 -0.027099891032447868 0 -0.0033188960602281207 -0.02662741105421125 0 -0.0036999230227043132 -0.026710517395824293 0 -0.0031424700414956386 -0.027099891032447868 0 -0.0033188960602281207 -0.02662741105421125 0 -0.0029136271188341593 -0.026539496340462796 0 -0.0033188960602281207 -0.02662741105421125 0 -0.0032903571521727421 -0.026401775322628926 0 -0.0029136271188341593 -0.026539496340462796 0 -0.0033366435460374503 -0.026062759721802435 0 -0.0032903571521727421 -0.026401775322628926 0 -0.0029136271188341593 -0.026539496340462796 0 -0.0035930146327910672 -0.026153356373858901 0 -0.0033188960602281207 -0.02662741105421125 0 -0.0036999230227043132 -0.026710517395824293 0 -0.0035930146327910672 -0.026153356373858901 0 -0.0033188960602281207 -0.02662741105421125 0 -0.0032903571521727421 -0.026401775322628926 0 -0.0035930146327910672 -0.026153356373858901 0 -0.0033366435460374503 -0.026062759721802435 0 -0.0032903571521727421 -0.026401775322628926 0 -0.0023463977643616201 -0.025977190411854589 0 -0.0024963367813596719 -0.026662511277656582 0 -0.002676398765281402 -0.026272094704485417 0 -0.0034834291629591155 -0.023927786915764533 0 -0.0033813399850795255 -0.025674561810213242 0 -0.0024963367813596719 -0.026662511277656582 0 -0.0029093473313834971 -0.026395952084233596 0 -0.002676398765281402 -0.026272094704485417 0 -0.0026378588084634428 -0.02602688993666074 0 -0.0029093473313834971 -0.026395952084233596 0 -0.002676398765281402 -0.026272094704485417 0 -0.0023115401315094521 -0.025964929862409 0 -0.0026378588084634428 -0.02602688993666074 0 -0.002676398765281402 -0.026272094704485417 0 -0.0034834291629591155 -0.023927786915764533 0 -0.0034952848640097058 -0.02398679367818525 0 -0.0025914090703711692 -0.028506427208056431 0 -0.0025346855530363403 -0.028626555587727968 0 -0.0024990751061407463 -0.028478854391391077 0 -0.0025512735058041366 -0.028421711290449021 0 -0.0026471321291068953 -0.028412209747740468 0 -0.0025914090703711692 -0.028506427208056431 0 -0.0026471321291068953 -0.028412209747740468 0 -0.0026748230318854598 -0.028548760191216067 0 -0.0025914090703711692 -0.028506427208056431 0 -0.0025512735058041366 -0.028421711290449021 0 -0.0025914090703711692 -0.028506427208056431 0 -0.0024990751061407463 -0.028478854391391077 0 -0.0025914090703711692 -0.028506427208056431 0 -0.0025346855530363403 -0.028626555587727968 0 -0.0026233278808293109 -0.028635148999468594 0 -0.0026748230318854598 -0.028548760191216067 0 -0.0025914090703711692 -0.028506427208056431 0 -0.0026233278808293109 -0.028635148999468594 0 -0.002584056988476113 -0.028737354071622333 0 -0.0025346855530363403 -0.028626555587727968 0 -0.0026233278808293109 -0.028635148999468594 0 -0.0025346855530363403 -0.028626555587727968 0 -0.0024309935485804035 -0.028609885396941898 0 -0.0024990751061407463 -0.028478854391391077 0 -0.0024648004492135987 -0.028716797874074367 0 -0.0024309935485804035 -0.028609885396941898 0 -0.0023898275679214275 -0.028682668780798649 0 -0.0024648004492135987 -0.028716797874074367 0 -0.0025346855530363403 -0.028626555587727968 0 -0.0024309935485804035 -0.028609885396941898 0 -0.0024726968018318049 -0.028386302294922908 0 -0.0024990751061407463 -0.028478854391391077 0 -0.0024147461561240566 -0.028454937592229921 0 -0.0024990751061407463 -0.028478854391391077 0 -0.0024147461561240566 -0.028454937592229921 0 -0.0023773543789195584 -0.028527508247352402 0 -0.0054398750652880053 -0.023022969406446086 0 -0.0052113232868258481 -0.026846054151996805 0 -0.0024309935485804035 -0.028609885396941898 0 -0.0024990751061407463 -0.028478854391391077 0 -0.0023294326128236163 -0.028586264207450297 0 -0.0045004649273146444 -0.027221348530468557 0 -0.0052113232868258481 -0.026846054151996805 0 -0.0023507653951340478 -0.028386837764001405 0 -0.0024147461561240566 -0.028454937592229921 0 -0.0023773543789195584 -0.028527508247352402 0 -0.0064507566717017456 -0.027329574180755638 0 -0.0064739672482580874 -0.027478135144918953 0 -0.0063320413981484899 -0.02746644883109578 0 -0.0054398750652880053 -0.023022969406446086 0 -0.0072276088489553383 -0.024753686523158291 0 -0.008247910091014065 -0.013809103924597057 0 -0.0079636910359820057 -0.013866452281004625 0 -0.0082250798439817644 -0.013636028778280617 0 -0.0064739672482580874 -0.027478135144918953 0 -0.0063320413981484899 -0.02746644883109578 0 -0.0063333095042562987 -0.027496990045440744 0 -0.0052113232868258481 -0.026846054151996805 0 -0.0058045981131100155 -0.028335063518115485 0 -0.0064739672482580874 -0.027478135144918953 0 -0.0063333095042562987 -0.027496990045440744 0 -0.0063580065762407637 -0.027544117996533325 0 -0.0022871364925080902 -0.028672873788296006 0 -0.0023373256967204456 -0.028604511482142787 0 -0.0022212697470200098 -0.028662645824224522 0 -0.0022871364925080902 -0.028672873788296006 0 -0.0023400464355326283 -0.028637648011734351 0 -0.0023384342606539619 -0.028697532061098336 0 -0.0023400464355326283 -0.028637648011734351 0 -0.0023898275679214275 -0.028682668780798649 0 -0.0023384342606539619 -0.028697532061098336 0 -0.0024309935485804035 -0.028609885396941898 0 -0.0023400464355326283 -0.028637648011734351 0 -0.0023898275679214275 -0.028682668780798649 0 -0.0024309935485804035 -0.028609885396941898 0 -0.0023400464355326283 -0.028637648011734351 0 -0.0023294326128236163 -0.028586264207450297 0 -0.0022871364925080902 -0.028672873788296006 0 -0.0023400464355326283 -0.028637648011734351 0 -0.0023373256967204456 -0.028604511482142787 0 -0.0052006522747211573 -0.026872349788653424 0 -0.0052113232868258481 -0.026846054151996805 0 -0.0084509692321644552 -0.013826115204080383 0 -0.0085811942375014355 -0.013718384480796479 0 -0.0084419195859572575 -0.013635072710464654 0 -0.008247910091014065 -0.013809103924597057 0 -0.0084509692321644552 -0.013826115204080383 0 -0.0084419195859572575 -0.013635072710464654 0 -0.008247910091014065 -0.013809103924597057 0 -0.0084419195859572575 -0.013635072710464654 0 -0.0082250798439817644 -0.013636028778280617 0 -0.0063333095042562987 -0.027496990045440744 0 -0.0063580065762407637 -0.027544117996533325 0 -0.0062332502209126433 -0.027615015311215331 0 -0.0063320413981484899 -0.02746644883109578 0 -0.0063333095042562987 -0.027496990045440744 0 -0.0062290358120190275 -0.027599406208335824 0 -0.0071472998408223434 -0.029341115089521256 0 -0.0070847550743606165 -0.029609699948008855 0 -0.0086046236710151172 -0.013575582650524982 0 -0.0084419195859572575 -0.013635072710464654 0 -0.0084693888180306341 -0.013423643579107481 0 -0.0072276088489553383 -0.024753686523158291 0 -0.0073028943775183888 -0.029161394628945635 0 -0.0084419195859572575 -0.013635072710464654 0 -0.0082250798439817644 -0.013636028778280617 0 -0.0084693888180306341 -0.013423643579107481 0 -0.0063333095042562987 -0.027496990045440744 0 -0.0062290358120190275 -0.027599406208335824 0 -0.0062546461206843488 -0.027607489379207761 0 -0.0084235551833216626 -0.029936963071918635 0 -0.0069748429896775944 -0.031400802674935606 0 -0.0064324698643030958 -0.030728991989673295 0 -0.0072762268477682517 -0.030024521868264552 0 -0.0073028943775183888 -0.029161394628945635 0 -0.0072762268477682517 -0.030024521868264552 0 -0.0072449762609522548 -0.029821995708327883 0 -0.0062290358120190275 -0.027599406208335824 0 -0.0062546461206843488 -0.027607489379207761 0 -0.0062451584923527443 -0.027618457016655037 0 -0.0073028943775183888 -0.029161394628945635 0 -0.0072449762609522548 -0.029821995708327883 0 -0.0070847550743606165 -0.029609699948008855 0 -0.0072449762609522548 -0.029821995708327883 0 -0.0019492819165685901 -0.028757380143350976 0 -0.0019076781548155396 -0.028793812778179821 0 -0.0021228480321042712 -0.028788472877467157 0 -0.0058045981131100155 -0.028335063518115485 0 -0.0070847550743606165 -0.029609699948008855 0 -0.0019076781548155396 -0.028793812778179821 0 -0.0021228480321042712 -0.028788472877467157 0 -0.0021294946598318099 -0.029177035397014564 0 -0.0022212697470200098 -0.028662645824224522 0 -0.0019492819165685901 -0.028757380143350976 0 -0.0021228480321042712 -0.028788472877467157 0 -0.0021228480321042712 -0.028788472877467157 0 -0.0022367257376411011 -0.028755582585733071 0 -0.0022595570196785441 -0.028867211964885259 0 -0.0022212697470200098 -0.028662645824224522 0 -0.0021228480321042712 -0.028788472877467157 0 -0.0022367257376411011 -0.028755582585733071 0 -0.0021294946598318099 -0.029177035397014564 0 -0.0025897743321381512 -0.029175497750067874 0 -0.0024705483147305141 -0.029637773773540738 0 -0.0021228480321042712 -0.028788472877467157 0 -0.0021294946598318099 -0.029177035397014564 0 -0.0025897743321381512 -0.029175497750067874 0 -0.002599758772227402 -0.030660978742123542 0 -0.0028669891283923474 -0.031005724773619507 0 -0.008739429390892714 -0.038996519805771498 0 -0.00811763511283339 -0.038236537781810354 0 -0.0088298165639486264 -0.038188177055269626 0 -0.0072449762609522548 -0.029821995708327883 0 -0.0064643277634899923 -0.031406375957723498 0 -0.0095907906786563604 -0.038079560297610192 0 -0.008739429390892714 -0.038996519805771498 0 -0.0088298165639486264 -0.038188177055269626 0 -0.00811763511283339 -0.038236537781810354 0 -0.0088298165639486264 -0.038188177055269626 0 -0.0085599857434025227 -0.037776402329735934 0 -0.0088298165639486264 -0.038188177055269626 0 -0.0090773642853662611 -0.037737821062312646 0 -0.0085599857434025227 -0.037776402329735934 0 -0.0023790904361169563 -0.028751172012551687 0 -0.0023046869341496203 -0.028762786140109853 0 -0.0023460155297276375 -0.028834890675267327 0 -0.0024334928683597788 -0.02882629122175322 0 -0.0023790904361169563 -0.028751172012551687 0 -0.0023460155297276375 -0.028834890675267327 0 -0.0024648004492135987 -0.028716797874074367 0 -0.0023898275679214275 -0.028682668780798649 0 -0.0023790904361169563 -0.028751172012551687 0 -0.0023898275679214275 -0.028682668780798649 0 -0.0023790904361169563 -0.028751172012551687 0 -0.0023384342606539619 -0.028697532061098336 0 -0.0023790904361169563 -0.028751172012551687 0 -0.0023384342606539619 -0.028697532061098336 0 -0.0023046869341496203 -0.028762786140109853 0 -0.0022367257376411011 -0.028755582585733071 0 -0.0023046869341496203 -0.028762786140109853 0 -0.0022595570196785441 -0.028867211964885259 0 -0.0022871364925080902 -0.028672873788296006 0 -0.0022367257376411011 -0.028755582585733071 0 -0.0023046869341496203 -0.028762786140109853 0 -0.0022871364925080902 -0.028672873788296006 0 -0.0023384342606539619 -0.028697532061098336 0 -0.0023046869341496203 -0.028762786140109853 0 -0.0022871364925080902 -0.028672873788296006 0 -0.0022212697470200098 -0.028662645824224522 0 -0.0022367257376411011 -0.028755582585733071 0 -0.0023046869341496203 -0.028762786140109853 0 -0.0022595570196785441 -0.028867211964885259 0 -0.0023460155297276375 -0.028834890675267327 0 -0.0038231953113557534 -0.031554744767015051 0 -0.0037326090453032087 -0.032115488751659323 0 -0.0022595570196785441 -0.028867211964885259 0 -0.0023460155297276375 -0.028834890675267327 0 -0.0023670102256658373 -0.028964652857933936 0 -0.0024334928683597788 -0.02882629122175322 0 -0.0023460155297276375 -0.028834890675267327 0 -0.0023670102256658373 -0.028964652857933936 0 -0.0037326090453032087 -0.032115488751659323 0 -0.0032081142154299072 -0.032980517782369739 0 -0.0030899012404423478 -0.029632977967646613 0 -0.0024705483147305141 -0.029637773773540738 0 -0.0028409821793336002 -0.030104081629293615 0 -0.0028669891283923474 -0.031005724773619507 0 -0.0037326090453032087 -0.032115488751659323 0 -0.0025897743321381512 -0.029175497750067874 0 -0.0030899012404423478 -0.029632977967646613 0 -0.0024705483147305141 -0.029637773773540738 0 -0.0074865798818525226 -0.037468772357787859 0 -0.0074705332295667776 -0.036477712572002649 0 -0.0068554884088997507 -0.036692836023952839 0 -0.0056165515799906753 -0.03250508595724632 0 -0.0047467091121338404 -0.033389716245190035 0 -0.0074705332295667776 -0.036477712572002649 0 -0.0068554884088997507 -0.036692836023952839 0 -0.0072565494957580494 -0.035945754386020233 0 -0.0038588386739525525 -0.034040634096440876 0 -0.003877697454686635 -0.034007315891120278 0 -0.003827950290402002 -0.034014448699323963 0 -0.003877697454686635 -0.034007315891120278 0 -0.0038548041243818324 -0.033980564007946884 0 -0.003827950290402002 -0.034014448699323963 0 -0.0047467091121338404 -0.033389716245190035 0 -0.004615208163173041 -0.03390026350489421 0 -0.0037326090453032087 -0.032115488751659323 0 -0.0047467091121338404 -0.033389716245190035 0 -0.0088628326418100731 -0.037290260555064271 0 -0.0090773642853662611 -0.037737821062312646 0 -0.0085599857434025227 -0.037776402329735934 0 -0.0088628326418100731 -0.037290260555064271 0 -0.0085599857434025227 -0.037776402329735934 0 -0.0081351298517217917 -0.037322773875690579 0 -0.0064643277634899923 -0.031406375957723498 0 -0.0056165515799906753 -0.03250508595724632 0 -0.00811763511283339 -0.038236537781810354 0 -0.0074865798818525226 -0.037468772357787859 0 -0.0081351298517217917 -0.037322773875690579 0 -0.00811763511283339 -0.038236537781810354 0 -0.0085599857434025227 -0.037776402329735934 0 -0.0081351298517217917 -0.037322773875690579 0 -0.0074865798818525226 -0.037468772357787859 0 -0.0081351298517217917 -0.037322773875690579 0 -0.0079931784028354231 -0.036717080477865614 0 -0.0074865798818525226 -0.037468772357787859 0 -0.0074705332295667776 -0.036477712572002649 0 -0.0079931784028354231 -0.036717080477865614 0 -0.0074705332295667776 -0.036477712572002649 0 -0.0079931784028354231 -0.036717080477865614 0 -0.0078180999412263436 -0.036243309947008404 0 -0.0079931784028354231 -0.036717080477865614 0 -0.008574835745424109 -0.036688226405055632 0 -0.0082063254830891108 -0.036083198565754704 0 -0.0081351298517217917 -0.037322773875690579 0 -0.0079931784028354231 -0.036717080477865614 0 -0.008574835745424109 -0.036688226405055632 0 -0.0091763830022204718 -0.036858434101300297 0 -0.008574835745424109 -0.036688226405055632 0 -0.0089660777818370077 -0.035925019304490692 0 -0.0088628326418100731 -0.037290260555064271 0 -0.0081351298517217917 -0.037322773875690579 0 -0.008574835745424109 -0.036688226405055632 0 -0.0091763830022204718 -0.036858434101300297 0 -0.0088628326418100731 -0.037290260555064271 0 -0.008574835745424109 -0.036688226405055632 0 -0.0089660777818370077 -0.035925019304490692 0 -0.0082063254830891108 -0.036083198565754704 0 -0.0079443481385491309 -0.035464110325020996 0 -0.008574835745424109 -0.036688226405055632 0 -0.0089660777818370077 -0.035925019304490692 0 -0.0082063254830891108 -0.036083198565754704 0 -0.0082063254830891108 -0.036083198565754704 0 -0.0078813588781318812 -0.035925876798613074 0 -0.0079443481385491309 -0.035464110325020996 0 -0.0079931784028354231 -0.036717080477865614 0 -0.0082063254830891108 -0.036083198565754704 0 -0.0078180999412263436 -0.036243309947008404 0 -0.0074705332295667776 -0.036477712572002649 0 -0.0078180999412263436 -0.036243309947008404 0 -0.0075566937939119715 -0.035912376627534569 0 -0.0082063254830891108 -0.036083198565754704 0 -0.0078180999412263436 -0.036243309947008404 0 -0.0078813588781318812 -0.035925876798613074 0 -0.0078180999412263436 -0.036243309947008404 0 -0.0078813588781318812 -0.035925876798613074 0 -0.0075566937939119715 -0.035912376627534569 0 -0.0078813588781318812 -0.035925876798613074 0 -0.0079443481385491309 -0.035464110325020996 0 -0.0075566937939119715 -0.035912376627534569 0 -0.0079443481385491309 -0.035464110325020996 0 -0.0075566937939119715 -0.035912376627534569 0 -0.0072548396441924224 -0.03594622238589211 0 -0.0089660777818370077 -0.035925019304490692 0 -0.0079443481385491309 -0.035464110325020996 0 -0.0079957931782355055 -0.034872777408017246 0 -0.0079443481385491309 -0.035464110325020996 0 -0.0078247337055966509 -0.03488255870069791 0 -0.0072548396441924224 -0.03594622238589211 0 -0.0079443481385491309 -0.035464110325020996 0 -0.0078247337055966509 -0.03488255870069791 0 -0.0079957931782355055 -0.034872777408017246 0 -0.0069638947540596307 -0.034999725735273129 0 -0.0069307399356239108 -0.035061416190284626 0 -0.0071452316968520536 -0.03490353100765356 0 -0.0068305725061468311 -0.034942580053306381 0 -0.006991455655678983 -0.034991476086304381 0 -0.0069575076584007002 -0.03499699739455675 0 -0.0068305725061468311 -0.034942580053306381 0 -0.0088543546743594589 -0.034999702656891715 0 -0.0086902770083680161 -0.036334679014762686 0 -0.0071455168630694893 -0.034903618075094428 0 -0.0079057337473534082 -0.035763689647430076 0 -0.006991455655678983 -0.034991476086304381 0 -0.0047160688245613328 -0.034810769819726785 0 -0.0050557418936182704 -0.034773070844200581 0 -0.0048509412694494342 -0.034631689408227757 0 -0.004615208163173041 -0.03390026350489421 0 -0.0054011924578387547 -0.034084382384148154 0 -0.0046454640427489461 -0.034723738850774254 0 -0.0048509412694494342 -0.034631689408227757 0 -0.0046348359519448219 -0.03457434148983677 0 -0.0046454640427489461 -0.034723738850774254 0 -0.0047160688245613328 -0.034810769819726785 0 -0.0048509412694494342 -0.034631689408227757 0 -0.0046214432168774659 -0.033911613661661712 0 -0.004615208163173041 -0.03390026350489421 0 -0.0047467091121338404 -0.033389716245190035 0 -0.0054011924578387547 -0.034084382384148154 0 -0.0049876789639549312 -0.034425415703942967 0 -0.0049316795590452715 -0.034356869373658325 0 -0.005031270620239228 -0.034345680210317683 0 -0.0074705332295667776 -0.036477712572002649 0 -0.0075566937939119715 -0.035912376627534569 0 -0.0072565494957580494 -0.035945754386020233 0 -0.0054353394459135309 -0.034089997125933837 0 -0.0054011924578387547 -0.034084382384148154 0 -0.0052665475963335007 -0.034385478727044401 0 -0.0048475658696496299 -0.034408134954607733 0 -0.0048509412694494342 -0.034631689408227757 0 -0.0069637480994088549 -0.034999998424831841 0 -0.0069045159163767114 -0.03511016113183308 0 -0.0054621267912535725 -0.034999998904355928 0 -0.0068305725061468311 -0.034942580053306381 0 -0.0053236607625616519 -0.034898668194446383 0 -0.0069045159163767114 -0.03511016113183308 0 -0.0054621267912535725 -0.034999998904355928 0 -0.0053019815355334152 -0.035200709804432552 0 -0.0052665475963335007 -0.034385478727044401 0 -0.0050557418936182704 -0.034773070844200581 0 -0.0048509412694494342 -0.034631689408227757 0 -0.0068305725061468311 -0.034942580053306381 0 -0.0054011924578387547 -0.034084382384148154 0 -0.0054621267912535725 -0.034999998904355928 0 -0.0053019815355334152 -0.035200709804432552 0 -0.0039605073519192596 -0.034999997169708065 0 -0.0053236607625616519 -0.034898668194446383 0 -0.0039556644927076379 -0.034861262630140846 0 -0.0048475658696496299 -0.034408134954607733 0 -0.0046348359519448219 -0.03457434148983677 0 -0.0044294097844128737 -0.034431366813165103 0 -0.0048475658696496299 -0.034408134954607733 0 -0.0048509412694494342 -0.034631689408227757 0 -0.0046348359519448219 -0.03457434148983677 0 -0.0053019815355334152 -0.035200709804432552 0 -0.0039605073519192596 -0.034999997169708065 0 -0.0036995662323846697 -0.035291056050519597 0 -0.0044294097844128737 -0.034431366813165103 0 -0.0041305616449288417 -0.034762982007605317 0 -0.0044016008743219199 -0.034676607281112388 0 -0.0039598967591967767 -0.03499840124958678 0 -0.0039556644927076379 -0.034861262630140846 0 -0.0039604396754781895 -0.035000013009335758 0 -0.0037492575655514926 -0.034999984466206217 0 -0.003706824792250448 -0.035250548614165926 0 -0.0046348359519448219 -0.03457434148983677 0 -0.0044294097844128737 -0.034431366813165103 0 -0.0044016008743219199 -0.034676607281112388 0 -0.0037492575655514926 -0.034999984466206217 0 -0.003706824792250448 -0.035250548614165926 0 -0.0021861617183122207 -0.035835372775079519 0 -0.003706824792250448 -0.035250548614165926 0 -0.0027304919184480804 -0.036339056469665065 0 -0.0021861617183122207 -0.035835372775079519 0 -0.0037469496249751839 -0.034999317537740431 0 -0.0026365759678752304 -0.034946758486879996 0 -0.0037491882817660485 -0.035000001057717674 0 -0.0019085921570632567 -0.035977198737018573 0 -0.0017612914590239158 -0.034999993382224023 0 -0.0039556644927076379 -0.034861262630140846 0 -0.0027501260536117772 -0.034512498129067683 0 -0.0027501260536117772 -0.034512498129067683 0 -0.0026365759678752304 -0.034946758486879996 0 -0.0041305616449288417 -0.034762982007605317 0 -0.0042390425246622799 -0.034863121616447647 0 -0.0044016008743219199 -0.034676607281112388 0 -0.0027501260536117772 -0.034512498129067683 0 -0.0029179101685583441 -0.03418934328264036 0 -0.0027717696558480667 -0.034066205756800409 0 -0.0024080664973099969 -0.033728418460703673 0 -0.003148352587422929 -0.033644709646476159 0 -0.0025306195434914155 -0.029079079356450689 0 -0.0024881942559421564 -0.029127515723869284 0 -0.0022708866834350479 -0.028978905476691047 0 -0.0029179101685583441 -0.03418934328264036 0 -0.0021908679545714731 -0.03448711470050192 0 -0.0027501260536117772 -0.034512498129067683 0 -0.0021908679545714731 -0.03448711470050192 0 -0.0023657552194273021 -0.034953617019710927 0 -0.0022097725400567949 -0.035128101728320982 0 -0.0021715663003590729 -0.034954689963283284 0 -0.0046454640427489461 -0.034723738850774254 0 -0.0047151113971850679 -0.034809419472181378 0 -0.0042390425246622799 -0.034863121616447647 0 -0.0046454640427489461 -0.034723738850774254 0 -0.0042390425246622799 -0.034863121616447647 0 -0.0044016008743219199 -0.034676607281112388 0 -0.004615208163173041 -0.03390026350489421 0 -0.0029179101685583441 -0.03418934328264036 0 -0.0046454640427489461 -0.034723738850774254 0 -0.0046348359519448219 -0.03457434148983677 0 -0.0044016008743219199 -0.034676607281112388 0 -0.0038548041243818324 -0.033980564007946884 0 -0.0037968486871287378 -0.033988444744029192 0 -0.003827950290402002 -0.034014448699323963 0 -0.0024435829024818307 -0.029063069635020301 0 -0.002489270113656935 -0.029057628925720169 0 -0.0024420692690142283 -0.028975805295536852 0 -0.0025306195434914155 -0.029079079356450689 0 -0.0024435829024818307 -0.029063069635020301 0 -0.002489270113656935 -0.029057628925720169 0 -0.0029179101685583441 -0.03418934328264036 0 -0.0032081142154299072 -0.032980517782369739 0 0.0016250802080186454 -0.029388779339743373 0 0.0019029385701712562 -0.029621899431882898 0 -0.0024881942559421564 -0.029127515723869284 0 -0.0025354917813802036 -0.029005476678001432 0 -0.0026655861488482789 -0.028935126586586712 0 -0.0024881942559421564 -0.029127515723869284 0 -0.0021903205267672162 -0.029938019686313645 0 -0.0022037047518403655 -0.029305600762095006 0 -0.0025306195434914155 -0.029079079356450689 0 -0.0024881942559421564 -0.029127515723869284 0 -0.002489270113656935 -0.029057628925720169 0 -0.0024881942559421564 -0.029127515723869284 0 -0.0022037047518403655 -0.029305600762095006 0 -0.0022708866834350479 -0.028978905476691047 0 -0.0024881942559421564 -0.029127515723869284 0 -0.002489270113656935 -0.029057628925720169 0 -0.0025354917813802036 -0.029005476678001432 0 -0.0030019156606861603 -0.027649563502694773 0 -0.0029222312604293837 -0.027913146901953085 0 -0.002489270113656935 -0.029057628925720169 0 -0.0025354917813802036 -0.029005476678001432 0 -0.0025131360208745213 -0.028932371342489705 0 -0.0026285110643097078 -0.028864235349203255 0 -0.0025354917813802036 -0.029005476678001432 0 -0.0025131360208745213 -0.028932371342489705 0 -0.002489270113656935 -0.029057628925720169 0 -0.0025131360208745213 -0.028932371342489705 0 -0.0024420692690142283 -0.028975805295536852 0 -0.0024334928683597788 -0.02882629122175322 0 -0.0023465039725160046 -0.028980912751247735 0 -0.0024420692690142283 -0.028975805295536852 0 -0.0023465039725160046 -0.028980912751247735 0 -0.0024435829024818307 -0.029063069635020301 0 -0.0024420692690142283 -0.028975805295536852 0 -0.00021625601839000104 -0.038730389811580335 0 0.00043622967728544561 -0.037994372749899905 0 0.00089948436890440896 -0.038532214568146428 0 -0.00021625601839000104 -0.038730389811580335 0 -0.00073829103821294124 -0.03791593923875055 0 -0.00018514251542488673 -0.037962269069742774 0 -0.00021625601839000104 -0.038730389811580335 0 -0.00018514251542488673 -0.037962269069742774 0 0.00043622967728544561 -0.037994372749899905 0 -0.0013424704850370332 -0.030554194604554153 0 -0.0011907999452860981 -0.030191622088018587 0 -0.0021903205267672162 -0.029938019686313645 0 -0.0025681420080972293 -0.02841163597807362 0 -0.0025354917813802036 -0.029005476678001432 0 -0.0027439266484815864 -0.028689756976566207 0 -0.0011907999452860981 -0.030191622088018587 0 -0.0021903205267672162 -0.029938019686313645 0 -0.0018931830357981822 -0.029269133226907253 0 0.0022837603912870003 -0.031099718256461829 0 0.0019029385701712562 -0.029621899431882898 0 0.0057510369305158997 -0.029188355688404079 0 0.005333701099552223 -0.029127245472037589 0 0.0051678845821109308 -0.02878733962554272 0 0.0021098764366741223 -0.029242813654575379 0 0.0019029385701712562 -0.029621899431882898 0 -0.0025354917813802036 -0.029005476678001432 0 -0.0027439266484815864 -0.028689756976566207 0 -0.0026655861488482789 -0.028935126586586712 0 0.00071217267876977212 -0.033593248983331936 0 -0.0012344673311522423 -0.034279927022542601 0 -0.0010569964977649219 -0.037563728348270174 0 -0.00022273749760444634 -0.037207693772604258 0 -0.0015074523785948996 -0.037055433003455727 0 -0.00021625601839000104 -0.038730389811580335 0 -0.00073829103821294124 -0.03791593923875055 0 -0.0010588492053639877 -0.037563283199385615 0 -0.0011926923255566983 -0.03434745154811842 0 -0.0012344673311522423 -0.034279927022542601 0 -0.0021903205267672162 -0.029938019686313645 0 -0.0022037047518403655 -0.029305600762095006 0 -0.0018931830357981822 -0.029269133226907253 0 -0.0012344673311522423 -0.034279927022542601 0 -0.0021908679545714731 -0.03448711470050192 0 -0.0022037047518403655 -0.029305600762095006 0 -0.0018931830357981822 -0.029269133226907253 0 -0.0022708866834350479 -0.028978905476691047 0 -0.00073829103821294124 -0.03791593923875055 0 -0.0010569964977649219 -0.037563728348270174 0 -0.00022273749760444634 -0.037207693772604258 0 -0.00073829103821294124 -0.03791593923875055 0 -0.00022273749760444634 -0.037207693772604258 0 -0.00018514251542488673 -0.037962269069742774 0 -0.00022273749760444634 -0.037207693772604258 0 -0.00018514251542488673 -0.037962269069742774 0 0.00043622967728544561 -0.037994372749899905 0 -0.0016981872532933202 -0.035188044240965159 0 -0.0016608339421581239 -0.034992897832328146 0 -0.0011825268666574703 -0.035247950412107397 0 -0.0016981872532933202 -0.035188044240965159 0 -0.0016608339421581239 -0.034992897832328146 0 -0.0019747902678563466 -0.034996782368113509 0 -0.00058931264846030849 -0.036670215284972815 0 -0.00072739934598211307 -0.035747206805721153 0 0.00014189748373670926 -0.036327079004835824 0 -0.0016608339421581239 -0.034992897832328146 0 -0.0019747902678563466 -0.034996782368113509 0 -0.0021356206433160766 -0.034740275593719686 0 -0.0014894424756464746 -0.035372869332048473 0 -0.0026365759678752304 -0.034946758486879996 0 -0.0016981872532933202 -0.035188044240965159 0 -0.0022097725400567949 -0.035128101728320982 0 -0.0019747902678563466 -0.034996782368113509 0 -0.00058931264846030849 -0.036670215284972815 0 -0.001907874964349647 -0.035976607925794504 0 -0.001654555332534935 -0.035742286191793836 0 -0.0012838614024749638 -0.035134730949245567 0 -0.0021908679545714731 -0.03448711470050192 0 -0.0022097725400567949 -0.035128101728320982 0 -0.0019747902678563466 -0.034996782368113509 0 -0.0021715663003590729 -0.034954689963283284 0 -0.0019747902678563466 -0.034996782368113509 0 -0.0021715663003590729 -0.034954689963283284 0 -0.0021356206433160766 -0.034740275593719686 0 -0.0023657552194273021 -0.034953617019710927 0 -0.0021715663003590729 -0.034954689963283284 0 -0.0021356206433160766 -0.034740275593719686 0 -0.0019085921570632567 -0.035977198737018573 0 -0.001654555332534935 -0.035742286191793836 0 -0.0017612914590239158 -0.034999993382224023 0 -0.0026365759678752304 -0.034946758486879996 0 -0.0026334593038626524 -0.034948993356907765 0 -0.001654555332534935 -0.035742286191793836 0 -0.0017612914590239158 -0.034999993382224023 0 -0.00072739934598211307 -0.035747206805721153 0 -0.00072739934598211307 -0.035747206805721153 0 0.00022661943895087568 -0.034999984258303203 0 0.00014189748373670926 -0.036327079004835824 0 -0.0017612914590239158 -0.034999993382224023 0 -0.00072739934598211307 -0.035747206805721153 0 0.00022661943895087568 -0.034999984258303203 0 -0.00058931264846030849 -0.036670215284972815 0 -0.001654555332534935 -0.035742286191793836 0 -0.00072739934598211307 -0.035747206805721153 0 0.00022661943895087568 -0.034999984258303203 0 0.0010365489560012343 -0.035967117703137784 0 0.00014189748373670926 -0.036327079004835824 0 0.0010365489560012343 -0.035967117703137784 0 0.0018149001605693262 -0.036692218304535965 0 0.0022145423085461547 -0.034999981042688706 0 0.00022661943895087568 -0.034999984258303203 0 0.0010365489560012343 -0.035967117703137784 0 0.0022145423085461547 -0.034999981042688706 0 0.0010365489560012343 -0.035967117703137784 0 0.0018149001605693262 -0.036692218304535965 0 0.00097051341817674236 -0.036794807063999693 0 0.0018149001605693262 -0.036692218304535965 0 0.0012913876158165158 -0.037095547505138445 0 0.00097051341817674236 -0.036794807063999693 0 -0.00058931264846030849 -0.036670215284972815 0 0.00014189748373670926 -0.036327079004835824 0 0.00074249586522147847 -0.037359349172962006 0 0.00097051341817674236 -0.036794807063999693 0 0.00014189748373670926 -0.036327079004835824 0 0.00074249586522147847 -0.037359349172962006 0 0.0012913876158165158 -0.037095547505138445 0 0.00097051341817674236 -0.036794807063999693 0 0.00074249586522147847 -0.037359349172962006 0 -0.0014894424756464746 -0.035372869332048473 0 -0.00055607805177450818 -0.035654967743804611 0 0.0010365489560012343 -0.035967117703137784 0 0.00097051341817674236 -0.036794807063999693 0 0.00014189748373670926 -0.036327079004835824 0 0.0042023904632759639 -0.034999998469727317 0 0.0030975997260831705 -0.036505221475432371 0 0.004454399725287001 -0.036336216793105565 0 0.0018149001605693262 -0.036692218304535965 0 0.0022145423085461547 -0.034999981042688706 0 0.0030975997260831705 -0.036505221475432371 0 0.0042023904632759639 -0.034999998469727317 0 0.0022145423085461547 -0.034999981042688706 0 0.0030975997260831705 -0.036505221475432371 0 0.0018149001605693262 -0.036692218304535965 0 0.0030975997260831705 -0.036505221475432371 0 0.0026160481650343704 -0.037438914686281015 0 0.0030975997260831705 -0.036505221475432371 0 0.0035015247252245846 -0.037654382731135673 0 0.004454399725287001 -0.036336216793105565 0 0.0035015247252245846 -0.037654382731135673 0 0.0044878143523412982 -0.037668365817497586 0 0.004454399725287001 -0.036336216793105565 0 0.0035015247252245846 -0.037654382731135673 0 0.0032693536897600186 -0.038824195371558581 0 0.0044878143523412982 -0.037668365817497586 0 0.0030975997260831705 -0.036505221475432371 0 0.0035015247252245846 -0.037654382731135673 0 0.0026160481650343704 -0.037438914686281015 0 0.0035015247252245846 -0.037654382731135673 0 0.0026160481650343704 -0.037438914686281015 0 0.0028120669658089226 -0.038331119448972759 0 0.0026160481650343704 -0.037438914686281015 0 0.0028120669658089226 -0.038331119448972759 0 0.0017676420214785076 -0.037865326883974898 0 0.00051439114134990585 -0.036330603517941547 0 0.00022548867736380411 -0.036151080759444898 0 0.0035015247252245846 -0.037654382731135673 0 0.0028120669658089226 -0.038331119448972759 0 0.0032693536897600186 -0.038824195371558581 0 0.0028120669658089226 -0.038331119448972759 0 0.0026380596824838246 -0.038968822257533633 0 0.0018804175264991517 -0.038629572933509555 0 0.0028120669658089226 -0.038331119448972759 0 0.0026380596824838246 -0.038968822257533633 0 0.0032693536897600186 -0.038824195371558581 0 0.0026380596824838246 -0.038968822257533633 0 0.0032693536897600186 -0.038824195371558581 0 0.0032467618777260103 -0.039503357855627808 0 0.0032693536897600186 -0.038824195371558581 0 0.0044282686629759432 -0.038818020838746525 0 0.0045859366444165432 -0.037597494697121307 0 0.0032693536897600186 -0.038824195371558581 0 0.0044282686629759432 -0.038818020838746525 0 0.0040853748992751874 -0.03953577903407493 0 0.0045630101447127472 -0.037621254137265699 0 0.0048959872436628851 -0.037304998098619466 0 -0.00022273749760444634 -0.037207693772604258 0 0.00043622967728544561 -0.037994372749899905 0 0.0010537701260493265 -0.037362311425556849 0 -0.0012838614024749638 -0.035134730949245567 0 -0.00055607805177450818 -0.035654967743804611 0 0.0012956768416541771 -0.037986624766755343 0 0.00043622967728544561 -0.037994372749899905 0 0.0010537701260493265 -0.037362311425556849 0 0.0012913876158165158 -0.037095547505138445 0 0.00074249586522147847 -0.037359349172962006 0 0.0017676420214785076 -0.037865326883974898 0 -0.00055607805177450818 -0.035654967743804611 0 0.00022548867736380411 -0.036151080759444898 0 0.0018149001605693262 -0.036692218304535965 0 0.0012913876158165158 -0.037095547505138445 0 0.0017676420214785076 -0.037865326883974898 0 0.0018149001605693262 -0.036692218304535965 0 0.0026160481650343704 -0.037438914686281015 0 0.0017676420214785076 -0.037865326883974898 0 0.0012956768416541771 -0.037986624766755343 0 0.0010537701260493265 -0.037362311425556849 0 0.0019421435946782022 -0.037848568616793581 0 0.0012956768416541771 -0.037986624766755343 0 0.0019421435946782022 -0.037848568616793581 0 0.0018804175264991517 -0.038629572933509555 0 0.0028120669658089226 -0.038331119448972759 0 0.0019421435946782022 -0.037848568616793581 0 0.0018804175264991517 -0.038629572933509555 0 0.0026380596824838246 -0.038968822257533633 0 0.0018804175264991517 -0.038629572933509555 0 0.0020302403375044857 -0.0392735327700506 0 0.0018804175264991517 -0.038629572933509555 0 0.001052740839831025 -0.039250269729910504 0 0.0020302403375044857 -0.0392735327700506 0 -0.00021625601839000104 -0.038730389811580335 0 0.00089948436890440896 -0.038532214568146428 0 0.001052740839831025 -0.039250269729910504 0 0.0018804175264991517 -0.038629572933509555 0 0.00089948436890440896 -0.038532214568146428 0 0.001052740839831025 -0.039250269729910504 0 0.0012956768416541771 -0.037986624766755343 0 0.0018804175264991517 -0.038629572933509555 0 0.00089948436890440896 -0.038532214568146428 0 0.0012956768416541771 -0.037986624766755343 0 0.00043622967728544561 -0.037994372749899905 0 0.00089948436890440896 -0.038532214568146428 0 -0.00021625601839000104 -0.038730389811580335 0 0.001052740839831025 -0.039250269729910504 0 0.00062272090202120751 -0.039879736230748856 0 0.00062272090202120751 -0.039879736230748856 0 0.0014439682265231593 -0.040450354267594982 0 0.0016100899111110311 -0.039708532283101845 0 0.001052740839831025 -0.039250269729910504 0 0.00062272090202120751 -0.039879736230748856 0 0.0016100899111110311 -0.039708532283101845 0 0.0060710818831746487 -0.029874333189778522 0 0.0063116499211969103 -0.029594596039588347 0 0.0063205072596639452 -0.030092481504544067 0 0.0064253806437747337 -0.029850400482493981 0 0.0067686960640430272 -0.030297338566729736 0 0.0067881218590730916 -0.03009510464931088 0 0.0063116499211969103 -0.029594596039588347 0 0.0067255412245385265 -0.030178990819742849 0 0.0063205072596639452 -0.030092481504544067 0 0.002866500984992425 -0.032828928923557231 0 0.0034691865804443705 -0.032525137302336152 0 0.002866500984992425 -0.032828928923557231 0 0.0042643658959591896 -0.033968392625537851 0 0.0067255412245385265 -0.030178990819742849 0 0.0063205072596639452 -0.030092481504544067 0 0.0065065570952967814 -0.030372716275734863 0 0.0060879786554629981 -0.030203805107951849 0 0.0063205072596639452 -0.030092481504544067 0 0.0062609182401743933 -0.030382675637090135 0 0.0022345423979052126 -0.041008803665681728 0 0.0014439682265231593 -0.040450354267594982 0 0.0016100899111110311 -0.039708532283101845 0 0.0055639647122750022 -0.034943091419004868 0 0.0055377968349236339 -0.03580505860437154 0 0.0022959830723244673 -0.041163718921513187 0 0.0023570260219065858 -0.040295101633054241 0 0.0016100899111110311 -0.039708532283101845 0 0.0067686960640430272 -0.030297338566729736 0 0.0071548853895952768 -0.030340448728793178 0 0.0067881218590730916 -0.03009510464931088 0 0.0055639647122750022 -0.034943091419004868 0 0.0042643658959591896 -0.033968392625537851 0 0.0023570260219065858 -0.040295101633054241 0 0.0022675764107809031 -0.039738234137362688 0 0.0016100899111110311 -0.039708532283101845 0 0.001052740839831025 -0.039250269729910504 0 0.0016100899111110311 -0.039708532283101845 0 0.0020302403375044857 -0.0392735327700506 0 0.0022675764107809031 -0.039738234137362688 0 0.0016100899111110311 -0.039708532283101845 0 0.0020302403375044857 -0.0392735327700506 0 0.0022675764107809031 -0.039738234137362688 0 0.0020302403375044857 -0.0392735327700506 0 0.0025553805162032129 -0.039472971570568692 0 0.0026380596824838246 -0.038968822257533633 0 0.0025553805162032129 -0.039472971570568692 0 0.0032467618777260103 -0.039503357855627808 0 0.0025553805162032129 -0.039472971570568692 0 0.0032467618777260103 -0.039503357855627808 0 0.0027893107508074619 -0.039948129179341069 0 0.0026380596824838246 -0.038968822257533633 0 0.0020302403375044857 -0.0392735327700506 0 0.0025553805162032129 -0.039472971570568692 0 0.0032467618777260103 -0.039503357855627808 0 0.0027893107508074619 -0.039948129179341069 0 0.0033717213330773451 -0.040273463504100271 0 0.0022675764107809031 -0.039738234137362688 0 0.0025553805162032129 -0.039472971570568692 0 0.0027893107508074619 -0.039948129179341069 0 0.0023570260219065858 -0.040295101633054241 0 0.0022675764107809031 -0.039738234137362688 0 0.0027893107508074619 -0.039948129179341069 0 0.0032467618777260103 -0.039503357855627808 0 0.0040853748992751874 -0.03953577903407493 0 0.0037255051791718983 -0.039924911436763515 0 0.0032693536897600186 -0.038824195371558581 0 0.0032467618777260103 -0.039503357855627808 0 0.0040853748992751874 -0.03953577903407493 0 0.0032467618777260103 -0.039503357855627808 0 0.0037255051791718983 -0.039924911436763515 0 0.0033717213330773451 -0.040273463504100271 0 0.0040853748992751874 -0.03953577903407493 0 0.0041960077777199465 -0.040383277710992128 0 0.0050067231150590537 -0.039572859217487294 0 0.0040853748992751874 -0.03953577903407493 0 0.0037255051791718983 -0.039924911436763515 0 0.0041960077777199465 -0.040383277710992128 0 0.0041960077777199465 -0.040383277710992128 0 0.003530082543115068 -0.041056373377220463 0 0.0043635274392817922 -0.041614175358546585 0 0.0037255051791718983 -0.039924911436763515 0 0.0041960077777199465 -0.040383277710992128 0 0.0033717213330773451 -0.040273463504100271 0 0.0041960077777199465 -0.040383277710992128 0 0.003530082543115068 -0.041056373377220463 0 0.0033717213330773451 -0.040273463504100271 0 0.0023570260219065858 -0.040295101633054241 0 0.0027893107508074619 -0.039948129179341069 0 0.0028361362032629559 -0.04079735610836549 0 0.0027893107508074619 -0.039948129179341069 0 0.0033717213330773451 -0.040273463504100271 0 0.0028361362032629559 -0.04079735610836549 0 0.003530082543115068 -0.041056373377220463 0 0.0028361362032629559 -0.04079735610836549 0 0.0030837111636244172 -0.041223139112945728 0 0.003530082543115068 -0.041056373377220463 0 0.0033717213330773451 -0.040273463504100271 0 0.0028361362032629559 -0.04079735610836549 0 0.0028361362032629559 -0.04079735610836549 0 0.0026571792569446712 -0.04141777405445457 0 0.0030837111636244172 -0.041223139112945728 0 0.0022959830723244673 -0.041163718921513187 0 0.0028361362032629559 -0.04079735610836549 0 0.0026571792569446712 -0.04141777405445457 0 0.0022959830723244673 -0.041163718921513187 0 0.0023570260219065858 -0.040295101633054241 0 0.0028361362032629559 -0.04079735610836549 0 0.0055639647122750022 -0.034943091419004868 0 0.0055642356861557805 -0.034989639678336737 0 0.0055639647122750022 -0.034943091419004868 0 0.0073956575919384071 -0.03412080241205985 0 0.0071548853895952768 -0.030340448728793178 0 0.0074202112580761884 -0.030834053587340492 0 0.0071170164190571036 -0.030753740582331244 0 0.0023040520404248102 -0.04116347907084221 0 0.0026571792569446712 -0.04141777405445457 0 0.0028785237817812656 -0.042341963303681916 0 0.0026571792569446712 -0.04141777405445457 0 0.0030837111636244172 -0.041223139112945728 0 0.0033209880250975907 -0.041748966536943176 0 0.003530082543115068 -0.041056373377220463 0 0.0030837111636244172 -0.041223139112945728 0 0.0033209880250975907 -0.041748966536943176 0 0.0026571792569446712 -0.04141777405445457 0 0.0033209880250975907 -0.041748966536943176 0 0.0028785237817812656 -0.042341963303681916 0 0.003530082543115068 -0.041056373377220463 0 0.0033209880250975907 -0.041748966536943176 0 0.0043635274392817922 -0.041614175358546585 0 0.0033209880250975907 -0.041748966536943176 0 0.0043635274392817922 -0.041614175358546585 0 0.0038474887450518401 -0.042593056821056484 0 0.0043635274392817922 -0.041614175358546585 0 0.0038474887450518401 -0.042593056821056484 0 0.0047345592003636104 -0.042569403693315244 0 0.0038474887450518401 -0.042593056821056484 0 0.0034500067441654496 -0.043515988708482077 0 0.0042058742035535031 -0.043546992385476289 0 0.0038474887450518401 -0.042593056821056484 0 0.0047345592003636104 -0.042569403693315244 0 0.0042058742035535031 -0.043546992385476289 0 0.0074202112580761884 -0.030834053587340492 0 0.0074101546291127926 -0.031135639417888879 0 0.0076950147881723633 -0.031388803376307936 0 0.0073956575919384071 -0.03412080241205985 0 0.009276755038266046 -0.032676055106786277 0 0.0038474887450518401 -0.042593056821056484 0 0.0028785237817812656 -0.042341963303681916 0 0.0034500067441654496 -0.043515988708482077 0 0.0074202112580761884 -0.030834053587340492 0 0.0072964326237941373 -0.03099836873527298 0 0.0071170164190571036 -0.030753740582331244 0 0.0074202112580761884 -0.030834053587340492 0 0.0072964326237941373 -0.03099836873527298 0 0.0074101546291127926 -0.031135639417888879 0 0.0033209880250975907 -0.041748966536943176 0 0.0038474887450518401 -0.042593056821056484 0 0.0028785237817812656 -0.042341963303681916 0 0.0074101546291127926 -0.031135639417888879 0 0.0072453877417990925 -0.031205113861354591 0 0.0076950147881723633 -0.031388803376307936 0 0.0072964326237941373 -0.03099836873527298 0 0.0072453877417990925 -0.031205113861354591 0 0.0071267611020586026 -0.031046270616047134 0 0.0072964326237941373 -0.03099836873527298 0 0.0074101546291127926 -0.031135639417888879 0 0.0072453877417990925 -0.031205113861354591 0 0.0072453877417990925 -0.031205113861354591 0 0.0071267611020586026 -0.031046270616047134 0 0.0069389466770172492 -0.031104731402050445 0 0.0069389466770172492 -0.031104731402050445 0 0.0064164278862892709 -0.031078339690124083 0 0.0070973056966052968 -0.031369780110524929 0 0.0072453877417990925 -0.031205113861354591 0 0.0069389466770172492 -0.031104731402050445 0 0.0070973056966052968 -0.031369780110524929 0 0.0071267611020586026 -0.031046270616047134 0 0.0069513654654141423 -0.030929305228426806 0 0.0069389466770172492 -0.031104731402050445 0 0.0071267611020586026 -0.031046270616047134 0 0.0069513654654141423 -0.030929305228426806 0 0.0071170164190571036 -0.030753740582331244 0 0.0072964326237941373 -0.03099836873527298 0 0.0071267611020586026 -0.031046270616047134 0 0.0071170164190571036 -0.030753740582331244 0 0.0068040692665458308 -0.030765411217292513 0 0.0069513654654141423 -0.030929305228426806 0 0.0071170164190571036 -0.030753740582331244 0 0.0069513654654141423 -0.030929305228426806 0 0.0067653350293079267 -0.030975202411900733 0 0.0069389466770172492 -0.031104731402050445 0 0.0068040692665458308 -0.030765411217292513 0 0.0069513654654141423 -0.030929305228426806 0 0.0067653350293079267 -0.030975202411900733 0 0.0067653350293079267 -0.030975202411900733 0 0.0069389466770172492 -0.031104731402050445 0 0.0064164278862892709 -0.031078339690124083 0 0.0064164278862892709 -0.031078339690124083 0 0.0062379324926121011 -0.030883420407456737 0 0.0066386255203878504 -0.031627340421397615 0 0.0064164278862892709 -0.031078339690124083 0 0.0062379324926121011 -0.030883420407456737 0 0.0064296479174878315 -0.03081129743477461 0 0.0062379324926121011 -0.030883420407456737 0 0.0064296479174878315 -0.03081129743477461 0 0.0064023794076754417 -0.030619356528420832 0 0.0064164278862892709 -0.031078339690124083 0 0.0064296479174878315 -0.03081129743477461 0 0.0066062947106908364 -0.030858811840034608 0 0.0067653350293079267 -0.030975202411900733 0 0.0064164278862892709 -0.031078339690124083 0 0.0066062947106908364 -0.030858811840034608 0 0.0064296479174878315 -0.03081129743477461 0 0.0066062947106908364 -0.030858811840034608 0 0.0065861009948412503 -0.030645833943301327 0 0.0068040692665458308 -0.030765411217292513 0 0.0067653350293079267 -0.030975202411900733 0 0.0066062947106908364 -0.030858811840034608 0 0.0068040692665458308 -0.030765411217292513 0 0.0065861009948412503 -0.030645833943301327 0 0.0067484644662803989 -0.03054406106636216 0 0.0068040692665458308 -0.030765411217292513 0 0.0066062947106908364 -0.030858811840034608 0 0.0065861009948412503 -0.030645833943301327 0 0.0065861009948412503 -0.030645833943301327 0 0.0064023794076754417 -0.030619356528420832 0 0.0065065570952967814 -0.030372716275734863 0 0.0065861009948412503 -0.030645833943301327 0 0.0065065570952967814 -0.030372716275734863 0 0.0067484644662803989 -0.03054406106636216 0 0.0062379324926121011 -0.030883420407456737 0 0.0064023794076754417 -0.030619356528420832 0 0.0062609182401743933 -0.030382675637090135 0 0.0064296479174878315 -0.03081129743477461 0 0.0065861009948412503 -0.030645833943301327 0 0.0064023794076754417 -0.030619356528420832 0 0.0063205072596639452 -0.030092481504544067 0 0.0062609182401743933 -0.030382675637090135 0 0.0065065570952967814 -0.030372716275734863 0 0.0064023794076754417 -0.030619356528420832 0 0.0062609182401743933 -0.030382675637090135 0 0.0065065570952967814 -0.030372716275734863 0 0.0067255412245385265 -0.030178990819742849 0 0.0065065570952967814 -0.030372716275734863 0 0.0067484644662803989 -0.03054406106636216 0 0.0034691865804443705 -0.032525137302336152 0 0.00369459143223758 -0.032471897042243771 0 0.0067686960640430272 -0.030297338566729736 0 0.0071548853895952768 -0.030340448728793178 0 0.0071170164190571036 -0.030753740582331244 0 0.0067255412245385265 -0.030178990819742849 0 0.0071170164190571036 -0.030753740582331244 0 0.0067484644662803989 -0.03054406106636216 0 0.0068040692665458308 -0.030765411217292513 0 0.0071170164190571036 -0.030753740582331244 0 0.0067484644662803989 -0.03054406106636216 0 0.017899782769826542 -0.032344055714167569 0 0.018100119748602712 -0.032371042549300857 0 0.017922834012045648 -0.032496983551343242 0 0.017899782769826542 -0.032344055714167569 0 0.018017210638618379 -0.032180898735891424 0 0.018100119748602712 -0.032371042549300857 0 0.014527199833768149 -0.032112965716764072 0 0.015621554698396767 -0.031944584413803143 0 0.018149063686912329 -0.031819013688867602 0 0.017785996703949657 -0.031904077771658296 0 0.017884092129086499 -0.031677207272646619 0 0.01802072608668381 -0.032141323169715859 0 0.01825029623353551 -0.031819235841908947 0 0.017785996703949657 -0.031904077771658296 0 0.015462429313013268 -0.031708623873029376 0 0.014527199833768149 -0.032112965716764072 0 0.018017210638618379 -0.032180898735891424 0 0.018100119748602712 -0.032371042549300857 0 0.01816029671189761 -0.032153397461938689 0 0.0053626153257803188 -0.041916143844046884 0 0.0064719550906875605 -0.041538153698350427 0 0.0058192313223475517 -0.043240801590552824 0 0.014527199833768149 -0.032112965716764072 0 0.011687923848879829 -0.033104820029863348 0 0.011785104955110478 -0.03488044046237835 0 0.011687923848879829 -0.033104820029863348 0 0.0047345592003636104 -0.042569403693315244 0 0.0042058742035535031 -0.043546992385476289 0 0.0058192313223475517 -0.043240801590552824 0 0.0047345592003636104 -0.042569403693315244 0 0.0053626153257803188 -0.041916143844046884 0 0.0058192313223475517 -0.043240801590552824 0 0.0043635274392817922 -0.041614175358546585 0 0.0053626153257803188 -0.041916143844046884 0 0.0052772757403601695 -0.040749745112508368 0 0.0043635274392817922 -0.041614175358546585 0 0.0047345592003636104 -0.042569403693315244 0 0.0053626153257803188 -0.041916143844046884 0 0.0053626153257803188 -0.041916143844046884 0 0.0064719550906875605 -0.041538153698350427 0 0.0052772757403601695 -0.040749745112508368 0 0.0064719550906875605 -0.041538153698350427 0 0.0052772757403601695 -0.040749745112508368 0 0.0060150460552130924 -0.039687940402640363 0 0.0041960077777199465 -0.040383277710992128 0 0.0052772757403601695 -0.040749745112508368 0 0.0050067231150590537 -0.039572859217487294 0 0.0041960077777199465 -0.040383277710992128 0 0.0043635274392817922 -0.041614175358546585 0 0.0052772757403601695 -0.040749745112508368 0 0.0050067231150590537 -0.039572859217487294 0 0.0060150460552130924 -0.039687940402640363 0 0.0051818511567274855 -0.038538322429928676 0 0.0052772757403601695 -0.040749745112508368 0 0.0050067231150590537 -0.039572859217487294 0 0.0060150460552130924 -0.039687940402640363 0 0.0044282686629759432 -0.038818020838746525 0 0.0040853748992751874 -0.03953577903407493 0 0.0050067231150590537 -0.039572859217487294 0 0.0060150460552130924 -0.039687940402640363 0 0.0071462186971517922 -0.039830282961969159 0 0.006819644758082331 -0.038783678525744145 0 0.018100119748602712 -0.032371042549300857 0 0.018049753460219697 -0.032638939435419075 0 0.017922834012045648 -0.032496983551343242 0 0.011785104955110478 -0.03488044046237835 0 0.0122158735480464 -0.035078598292436231 0 0.0064719550906875605 -0.041538153698350427 0 0.0060150460552130924 -0.039687940402640363 0 0.0071462186971517922 -0.039830282961969159 0 0.017899782769826542 -0.032344055714167569 0 0.017922834012045648 -0.032496983551343242 0 0.017753119921735908 -0.032500568600192896 0 0.015462429313013268 -0.031708623873029376 0 0.015713022866898445 -0.031642570033813891 0 0.017922834012045648 -0.032496983551343242 0 0.017855239786651961 -0.032626169830826585 0 0.017753119921735908 -0.032500568600192896 0 0.018049753460219697 -0.032638939435419075 0 0.017922834012045648 -0.032496983551343242 0 0.017855239786651961 -0.032626169830826585 0 0.018049753460219697 -0.032638939435419075 0 0.017855239786651961 -0.032626169830826585 0 0.017860891999352448 -0.032791345300842656 0 0.017855239786651961 -0.032626169830826585 0 0.017860891999352448 -0.032791345300842656 0 0.01771097777698195 -0.032727782523482921 0 0.017860891999352448 -0.032791345300842656 0 0.01795570512173443 -0.033004675897247662 0 0.017728702669211213 -0.032945454155701749 0 0.018049753460219697 -0.032638939435419075 0 0.017860891999352448 -0.032791345300842656 0 0.01795570512173443 -0.033004675897247662 0 0.012778155501478941 -0.034431210452954629 0 0.012804567842132342 -0.034417208854588377 0 0.0071462186971517922 -0.039830282961969159 0 0.007654452765843092 -0.038204139215113078 0 0.006819644758082331 -0.038783678525744145 0 0.0071462186971517922 -0.039830282961969159 0 0.007654452765843092 -0.038204139215113078 0 0.0078450513538270896 -0.038117711681211475 0 0.0122158735480464 -0.035078598292436231 0 0.012804567842132342 -0.034417208854588377 0 0.006819644758082331 -0.038783678525744145 0 0.0067221256537404132 -0.038295882966081121 0 0.0071837460451413876 -0.038155590384214524 0 0.006819644758082331 -0.038783678525744145 0 0.0067221256537404132 -0.038295882966081121 0 0.0061996599551275332 -0.038523124084907483 0 0.007654452765843092 -0.038204139215113078 0 0.006819644758082331 -0.038783678525744145 0 0.0071837460451413876 -0.038155590384214524 0 0.007654452765843092 -0.038204139215113078 0 0.0071837460451413876 -0.038155590384214524 0 0.0076438159545314764 -0.037930233493546808 0 0.0071837460451413876 -0.038155590384214524 0 0.0073316407543452819 -0.037642323561224461 0 0.0076438159545314764 -0.037930233493546808 0 0.0071837460451413876 -0.038155590384214524 0 0.0073316407543452819 -0.037642323561224461 0 0.0069435460460844645 -0.037825963635157764 0 0.0073316407543452819 -0.037642323561224461 0 0.0078514696541571172 -0.037469404307153807 0 0.0076438159545314764 -0.037930233493546808 0 0.0069435460460844645 -0.037825963635157764 0 0.0068633672453079679 -0.037209214226077612 0 0.0064329982621770037 -0.037955804262951955 0 0.0067221256537404132 -0.038295882966081121 0 0.0069435460460844645 -0.037825963635157764 0 0.0064329982621770037 -0.037955804262951955 0 0.0067221256537404132 -0.038295882966081121 0 0.0071837460451413876 -0.038155590384214524 0 0.0069435460460844645 -0.037825963635157764 0 0.0073316407543452819 -0.037642323561224461 0 0.0069435460460844645 -0.037825963635157764 0 0.0068633672453079679 -0.037209214226077612 0 0.0073316407543452819 -0.037642323561224461 0 0.0068633672453079679 -0.037209214226077612 0 0.0075086263654534219 -0.037240710280281253 0 0.0073316407543452819 -0.037642323561224461 0 0.0075086263654534219 -0.037240710280281253 0 0.0078514696541571172 -0.037469404307153807 0 0.012804567842132342 -0.034417208854588377 0 0.01332561127591014 -0.034544281646513041 0 0.0078514696541571172 -0.037469404307153807 0 0.0079433756303517629 -0.037930548376212028 0 0.008408900440958253 -0.03706910011353557 0 0.0075086263654534219 -0.037240710280281253 0 0.0078514696541571172 -0.037469404307153807 0 0.0079528870666962462 -0.037005541327052235 0 0.0078514696541571172 -0.037469404307153807 0 0.008408900440958253 -0.03706910011353557 0 0.0079528870666962462 -0.037005541327052235 0 0.0079433756303517629 -0.037930548376212028 0 0.0078631464299835068 -0.038137203710319201 0 0.0094542804186861923 -0.037449343891044998 0 0.0079433756303517629 -0.037930548376212028 0 0.008408900440958253 -0.03706910011353557 0 0.0094542804186861923 -0.037449343891044998 0 0.007654452765843092 -0.038204139215113078 0 0.0076438159545314764 -0.037930233493546808 0 0.007856072317636846 -0.038124460984036421 0 0.0079433756303517629 -0.037930548376212028 0 0.0076438159545314764 -0.037930233493546808 0 0.007856072317636846 -0.038124460984036421 0 0.012791413704659223 -0.034440005203964792 0 0.012804567842132342 -0.034417208854588377 0 0.0078514696541571172 -0.037469404307153807 0 0.0079433756303517629 -0.037930548376212028 0 0.0076438159545314764 -0.037930233493546808 0 0.0044282686629759432 -0.038818020838746525 0 0.0051818511567274855 -0.038538322429928676 0 0.0045859366444165432 -0.037597494697121307 0 0.0044282686629759432 -0.038818020838746525 0 0.0050067231150590537 -0.039572859217487294 0 0.0051818511567274855 -0.038538322429928676 0 0.0060150460552130924 -0.039687940402640363 0 0.006819644758082331 -0.038783678525744145 0 0.0061996599551275332 -0.038523124084907483 0 0.0060150460552130924 -0.039687940402640363 0 0.0051818511567274855 -0.038538322429928676 0 0.0061996599551275332 -0.038523124084907483 0 0.0051818511567274855 -0.038538322429928676 0 0.0061996599551275332 -0.038523124084907483 0 0.005823791698361465 -0.037648221185511865 0 0.0067221256537404132 -0.038295882966081121 0 0.0061996599551275332 -0.038523124084907483 0 0.0064329982621770037 -0.037955804262951955 0 0.0061996599551275332 -0.038523124084907483 0 0.0064329982621770037 -0.037955804262951955 0 0.005823791698361465 -0.037648221185511865 0 0.0068633672453079679 -0.037209214226077612 0 0.0064329982621770037 -0.037955804262951955 0 0.005823791698361465 -0.037648221185511865 0 0.005823791698361465 -0.037648221185511865 0 0.0045859366444165432 -0.037597494697121307 0 0.0058696023624939435 -0.036401080526658851 0 0.0051818511567274855 -0.038538322429928676 0 0.005823791698361465 -0.037648221185511865 0 0.0045859366444165432 -0.037597494697121307 0 0.0044878143523412982 -0.037668365817497586 0 0.004454399725287001 -0.036336216793105565 0 0.0058162074557539384 -0.036440916305446588 0 0.0048959872436628851 -0.037304998098619466 0 0.0054974223735475931 -0.036734084335936362 0 0.0068633672453079679 -0.037209214226077612 0 0.005823791698361465 -0.037648221185511865 0 0.0058696023624939435 -0.036401080526658851 0 0.004454399725287001 -0.036336216793105565 0 0.0058162074557539384 -0.036440916305446588 0 0.0061902709957068662 -0.03499999217047392 0 0.0054974223735475931 -0.036734084335936362 0 0.0058343797967369557 -0.036413864986621872 0 0.0058162074557539384 -0.036440916305446588 0 0.0061902709957068662 -0.03499999217047392 0 0.007155294671104903 -0.035181231274716243 0 0.0042023904632759639 -0.034999998469727317 0 0.004454399725287001 -0.036336216793105565 0 0.0061902709957068662 -0.03499999217047392 0 0.0081568009820907738 -0.036476799615690822 0 0.0078195795151668971 -0.035791221572363467 0 0.0091007546237535861 -0.036074675936759927 0 0.0081568009820907738 -0.036476799615690822 0 0.0075516290288007021 -0.036685494121463789 0 0.0078195795151668971 -0.035791221572363467 0 0.0081568009820907738 -0.036476799615690822 0 0.008408900440958253 -0.03706910011353557 0 0.0091007546237535861 -0.036074675936759927 0 0.0081568009820907738 -0.036476799615690822 0 0.0079528870666962462 -0.037005541327052235 0 0.0075516290288007021 -0.036685494121463789 0 0.0075086263654534219 -0.037240710280281253 0 0.0079528870666962462 -0.037005541327052235 0 0.0075516290288007021 -0.036685494121463789 0 0.0081568009820907738 -0.036476799615690822 0 0.008408900440958253 -0.03706910011353557 0 0.0079528870666962462 -0.037005541327052235 0 0.0068633672453079679 -0.037209214226077612 0 0.0075516290288007021 -0.036685494121463789 0 0.0070466461907286336 -0.036243911360827906 0 0.0068633672453079679 -0.037209214226077612 0 0.0058696023624939435 -0.036401080526658851 0 0.0070466461907286336 -0.036243911360827906 0 0.0068633672453079679 -0.037209214226077612 0 0.0075086263654534219 -0.037240710280281253 0 0.0075516290288007021 -0.036685494121463789 0 0.0075516290288007021 -0.036685494121463789 0 0.0070466461907286336 -0.036243911360827906 0 0.0078195795151668971 -0.035791221572363467 0 0.0070466461907286336 -0.036243911360827906 0 0.007155294671104903 -0.035181231274716243 0 0.0078195795151668971 -0.035791221572363467 0 0.0058696023624939435 -0.036401080526658851 0 0.0070466461907286336 -0.036243911360827906 0 0.007155294671104903 -0.035181231274716243 0 0.0061902709957068662 -0.03499999217047392 0 0.007155294671104903 -0.035181231274716243 0 0.008178170600674585 -0.034999977521951761 0 0.007155294671104903 -0.035181231274716243 0 0.008178170600674585 -0.034999977521951761 0 0.0078195795151668971 -0.035791221572363467 0 0.008178170600674585 -0.034999977521951761 0 0.0078195795151668971 -0.035791221572363467 0 0.0091007546237535861 -0.036074675936759927 0 0.008178170600674585 -0.034999977521951761 0 0.0091007546237535861 -0.036074675936759927 0 0.01016604676191523 -0.03499997340101639 0 0.008408900440958253 -0.03706910011353557 0 0.0091007546237535861 -0.036074675936759927 0 0.0094542804186861923 -0.037449343891044998 0 0.0091007546237535861 -0.036074675936759927 0 0.011041065267041898 -0.036738035162183859 0 0.0094542804186861923 -0.037449343891044998 0 0.013867801548110332 -0.034524590207396719 0 0.01332561127591014 -0.034544281646513041 0 0.0091007546237535861 -0.036074675936759927 0 0.01016604676191523 -0.03499997340101639 0 0.011041065267041898 -0.036738035162183859 0 0.01016604676191523 -0.03499997340101639 0 0.012153948810293478 -0.035000002778251098 0 0.011041065267041898 -0.036738035162183859 0 0.012157595561408982 -0.035000784467602714 0 0.013867801548110332 -0.034524590207396719 0 0.012153996720490012 -0.035000011116692743 0 0.012211405302117177 -0.035541372069155128 0 0.011114610809488763 -0.036692657987273149 0 0.014649531715341236 -0.034736639116521577 0 0.014675093708283293 -0.034916605290486069 0 0.012800018770434338 -0.03543381403685527 0 0.012153996720490012 -0.035000011116692743 0 0.013495105877299303 -0.034999985166963336 0 0.012800018770434338 -0.03543381403685527 0 0.012349313178778581 -0.036143330775301102 0 0.013590084660181549 -0.035576411381223347 0 0.012800018770434338 -0.03543381403685527 0 0.012153996720490012 -0.035000011116692743 0 0.012211405302117177 -0.035541372069155128 0 0.014629457947619598 -0.034758239160489909 0 0.014649531715341236 -0.034736639116521577 0 0.012800018770434338 -0.03543381403685527 0 0.012211405302117177 -0.035541372069155128 0 0.012349313178778581 -0.036143330775301102 0 0.01510013184322421 -0.035413792296730216 0 0.015228654326124785 -0.035516212156223935 0 0.015196026526462136 -0.035466163863297803 0 0.014649531715341236 -0.034736639116521577 0 0.015398505674483774 -0.034207094726535256 0 0.012211405302117177 -0.035541372069155128 0 0.012344640023941216 -0.036114742916451073 0 0.011114610809488763 -0.036692657987273149 0 0.014649531715341236 -0.034736639116521577 0 0.013867801548110332 -0.034524590207396719 0 0.016930261416838194 -0.033655338472258385 0 0.017264692876845348 -0.033498407702123895 0 0.017159340331138338 -0.033179657195528345 0 0.016930261416838194 -0.033655338472258385 0 0.017159340331138338 -0.033179657195528345 0 0.01682167725240916 -0.03315709574053359 0 0.01682167725240916 -0.03315709574053359 0 0.016978377923678949 -0.032870570453249828 0 0.016712240264168472 -0.032665704230957139 0 0.015398505674483774 -0.034207094726535256 0 0.015986314407135535 -0.03350194275994596 0 0.017159340331138338 -0.033179657195528345 0 0.01682167725240916 -0.03315709574053359 0 0.016978377923678949 -0.032870570453249828 0 0.017159340331138338 -0.033179657195528345 0 0.016978377923678949 -0.032870570453249828 0 0.017244756451517216 -0.032851194063503938 0 0.017244756451517216 -0.032851194063503938 0 0.017492385708138304 -0.032828719963243463 0 0.017501194775119043 -0.03311442815453837 0 0.017159340331138338 -0.033179657195528345 0 0.017244756451517216 -0.032851194063503938 0 0.017501194775119043 -0.03311442815453837 0 0.015041917592339761 -0.033445921073928152 0 0.015403106506355011 -0.033121858845008567 0 0.017860891999352448 -0.032791345300842656 0 0.017728702669211213 -0.032945454155701749 0 0.01771097777698195 -0.032727782523482921 0 0.017492385708138304 -0.032828719963243463 0 0.017501194775119043 -0.03311442815453837 0 0.01771097777698195 -0.032727782523482921 0 0.017728702669211213 -0.032945454155701749 0 0.017489669837685233 -0.033015753084445223 0 0.01771097777698195 -0.032727782523482921 0 0.01795570512173443 -0.033004675897247662 0 0.017728702669211213 -0.032945454155701749 0 0.01763674294196637 -0.033177544893112108 0 0.017728702669211213 -0.032945454155701749 0 0.01763674294196637 -0.033177544893112108 0 0.017489669837685233 -0.033015753084445223 0 0.017264692876845348 -0.033498407702123895 0 0.017159340331138338 -0.033179657195528345 0 0.017501194775119043 -0.03311442815453837 0 0.017270261105082382 -0.033355677968033334 0 0.01763674294196637 -0.033177544893112108 0 0.017489669837685233 -0.033015753084445223 0 0.013867801548110332 -0.034524590207396719 0 0.015041917592339761 -0.033445921073928152 0 0.015833315391653269 -0.035482438868275318 0 0.015957108969446514 -0.035554438385595279 0 0.015987707480846072 -0.035304226871355003 0 0.0157703943638621 -0.035609707149383628 0 0.015957108969446514 -0.035554438385595279 0 0.01609411824451068 -0.035752875361391205 0 0.0157703943638621 -0.035609707149383628 0 0.015833315391653269 -0.035482438868275318 0 0.015957108969446514 -0.035554438385595279 0 0.017284889424968107 -0.035523157775803338 0 0.017684669831977941 -0.035546692065205415 0 0.016666181000962513 -0.034999595338807275 0 0.015802092434760388 -0.035449274499918547 0 0.017821101655277002 -0.035754692911995387 0 0.015833315391653269 -0.035482438868275318 0 0.015802092434760388 -0.035449274499918547 0 0.015987707480846072 -0.035304226871355003 0 0.016666181000962513 -0.034999595338807275 0 0.015802092434760388 -0.035449274499918547 0 0.014838016140773564 -0.03500038781334059 0 0.015802092434760388 -0.035449274499918547 0 0.015538516154012538 -0.035539024485182799 0 0.015168409009895238 -0.035389974799966348 0 0.015833315391653269 -0.035482438868275318 0 0.015802092434760388 -0.035449274499918547 0 0.015538516154012538 -0.035539024485182799 0 0.0157703943638621 -0.035609707149383628 0 0.015833315391653269 -0.035482438868275318 0 0.015538516154012538 -0.035539024485182799 0 0.0157703943638621 -0.035609707149383628 0 0.015538516154012538 -0.035539024485182799 0 0.015508367336026315 -0.035626645289228279 0 0.015538516154012538 -0.035539024485182799 0 0.015277904198682734 -0.035514227490370996 0 0.015508367336026315 -0.035626645289228279 0 0.015277904198682734 -0.035514227490370996 0 0.015168409009895238 -0.035389974799966348 0 0.015074742853084751 -0.035343851504344326 0 0.015538516154012538 -0.035539024485182799 0 0.015277904198682734 -0.035514227490370996 0 0.015168409009895238 -0.035389974799966348 0 0.015802092434760388 -0.035449274499918547 0 0.014838016140773564 -0.03500038781334059 0 0.015168409009895238 -0.035389974799966348 0 0.014838016140773564 -0.03500038781334059 0 0.015168409009895238 -0.035389974799966348 0 0.015074742853084751 -0.035343851504344326 0 0.014835803245100638 -0.034999524607752845 0 0.014675093708283293 -0.034916605290486069 0 0.01483627967943927 -0.035000006478720203 0 0.013495105877299303 -0.034999985166963336 0 0.013590084660181549 -0.035576411381223347 0 0.012800018770434338 -0.03543381403685527 0 0.013495105877299303 -0.034999985166963336 0 0.013590084660181549 -0.035576411381223347 0 0.01510013184322421 -0.035413792296730216 0 0.015074742853084751 -0.035343851504344326 0 0.015196026526462136 -0.035466163863297803 0 0.015277904198682734 -0.035514227490370996 0 0.015074742853084751 -0.035343851504344326 0 0.015196026526462136 -0.035466163863297803 0 0.015277904198682734 -0.035514227490370996 0 0.015196026526462136 -0.035466163863297803 0 0.015343399568315853 -0.03552607989683125 0 0.015228654326124785 -0.035516212156223935 0 0.015196026526462136 -0.035466163863297803 0 0.015343399568315853 -0.03552607989683125 0 0.015228654326124785 -0.035516212156223935 0 0.015421318825390773 -0.035519438504094086 0 0.015319972748685309 -0.035573760810589813 0 0.015228654326124785 -0.035516212156223935 0 0.015343399568315853 -0.03552607989683125 0 0.015421318825390773 -0.035519438504094086 0 0.015664989810930161 -0.03385483931621152 0 0.015769870933283393 -0.033758960555396261 0 0.015488776776430381 -0.035488806972584594 0 0.015489631943214618 -0.035177410664303105 0 0.015421318825390773 -0.035519438504094086 0 0.015488776776430381 -0.035488806972584594 0 0.015343399568315853 -0.03552607989683125 0 0.015421318825390773 -0.035519438504094086 0 0.015488776776430381 -0.035488806972584594 0 0.015413241715278414 -0.035611171461339235 0 0.015450358033895835 -0.035743208212671754 0 0.015488776776430381 -0.035488806972584594 0 0.015343399568315853 -0.03552607989683125 0 0.015413241715278414 -0.035611171461339235 0 0.015277904198682734 -0.035514227490370996 0 0.015343399568315853 -0.03552607989683125 0 0.015413241715278414 -0.035611171461339235 0 0.015277904198682734 -0.035514227490370996 0 0.015413241715278414 -0.035611171461339235 0 0.015508367336026315 -0.035626645289228279 0 0.0157703943638621 -0.035609707149383628 0 0.015508367336026315 -0.035626645289228279 0 0.015848891021934281 -0.035831427771441743 0 0.015508367336026315 -0.035626645289228279 0 0.015450358033895835 -0.035743208212671754 0 0.015848891021934281 -0.035831427771441743 0 0.015413241715278414 -0.035611171461339235 0 0.015508367336026315 -0.035626645289228279 0 0.015450358033895835 -0.035743208212671754 0 0.015488776776430381 -0.035488806972584594 0 0.015450358033895835 -0.035743208212671754 0 0.015489631943214618 -0.035177410664303105 0 0.015489631943214618 -0.035177410664303105 0 0.014611575273225628 -0.034934091654302925 0 0.015134393570166823 -0.034438537188593382 0 0.015468262053050796 -0.035097661520177244 0 0.015406248897460157 -0.034995265231996697 0 0.015450358033895835 -0.035743208212671754 0 0.015489631943214618 -0.035177410664303105 0 0.014611575273225628 -0.034934091654302925 0 0.015897905681869228 -0.036283524152277147 0 0.016053684376160015 -0.036073090696738391 0 0.016238798719190761 -0.036202427158846404 0 0.015897905681869228 -0.036283524152277147 0 0.016053684376160015 -0.036073090696738391 0 0.015848891021934281 -0.035831427771441743 0 0.015450358033895835 -0.035743208212671754 0 0.015897905681869228 -0.036283524152277147 0 0.015848891021934281 -0.035831427771441743 0 0.016053684376160015 -0.036073090696738391 0 0.015848891021934281 -0.035831427771441743 0 0.016196426184771632 -0.035952417305490161 0 0.015848891021934281 -0.035831427771441743 0 0.01609411824451068 -0.035752875361391205 0 0.016196426184771632 -0.035952417305490161 0 0.0157703943638621 -0.035609707149383628 0 0.015848891021934281 -0.035831427771441743 0 0.01609411824451068 -0.035752875361391205 0 0.014761620230948415 -0.03370094029066039 0 0.014770291238307903 -0.032680858515731076 0 0.014058529223765661 -0.032883001142293214 0 0.014761620230948415 -0.03370094029066039 0 0.015452940940541681 -0.032936085436666242 0 0.014770291238307903 -0.032680858515731076 0 0.014611575273225628 -0.034934091654302925 0 0.014761620230948415 -0.03370094029066039 0 0.013870330850238413 -0.033900539038612454 0 0.014611575273225628 -0.034934091654302925 0 0.014761620230948415 -0.03370094029066039 0 0.015134393570166823 -0.034438537188593382 0 0.014761620230948415 -0.03370094029066039 0 0.015134393570166823 -0.034438537188593382 0 0.015703993450044789 -0.033955057403831382 0 0.015489631943214618 -0.035177410664303105 0 0.015134393570166823 -0.034438537188593382 0 0.015703993450044789 -0.033955057403831382 0 0.014761620230948415 -0.03370094029066039 0 0.015703993450044789 -0.033955057403831382 0 0.015452940940541681 -0.032936085436666242 0 0.015703993450044789 -0.033955057403831382 0 0.016285914853573162 -0.033019726345975345 0 0.015452940940541681 -0.032936085436666242 0 0.015703993450044789 -0.033955057403831382 0 0.016285914853573162 -0.033019726345975345 0 0.016680262111074824 -0.033813575226905777 0 0.015489631943214618 -0.035177410664303105 0 0.015703993450044789 -0.033955057403831382 0 0.016503389275492743 -0.034638768797195719 0 0.015703993450044789 -0.033955057403831382 0 0.016503389275492743 -0.034638768797195719 0 0.016680262111074824 -0.033813575226905777 0 0.016503389275492743 -0.034638768797195719 0 0.017417981595468344 -0.034224545817270594 0 0.016680262111074824 -0.033813575226905777 0 0.015769870933283393 -0.033758960555396261 0 0.015986314407135535 -0.03350194275994596 0 0.015986314407135535 -0.03350194275994596 0 0.016070983168949678 -0.033260318257325762 0 0.017417981595468344 -0.034224545817270594 0 0.016680262111074824 -0.033813575226905777 0 0.017116390234371576 -0.033142630200499727 0 0.016285914853573162 -0.033019726345975345 0 0.016680262111074824 -0.033813575226905777 0 0.017116390234371576 -0.033142630200499727 0 0.016285914853573162 -0.033019726345975345 0 0.017116390234371576 -0.033142630200499727 0 0.016696766226538061 -0.032092378962739782 0 0.016070983168949678 -0.033260318257325762 0 0.016085982146373429 -0.033136693173623097 0 0.01679631002097361 -0.032362350755829689 0 0.016696766226538061 -0.032092378962739782 0 0.01704867376419264 -0.032142214285740066 0 0.016024070632814306 -0.032230758575738011 0 0.015340910094688695 -0.031917544905876782 0 0.01629491022111058 -0.031163792441223387 0 0.016696766226538061 -0.032092378962739782 0 0.016024070632814306 -0.032230758575738011 0 0.01629491022111058 -0.031163792441223387 0 0.016285914853573162 -0.033019726345975345 0 0.016024070632814306 -0.032230758575738011 0 0.015452940940541681 -0.032936085436666242 0 0.016285914853573162 -0.033019726345975345 0 0.016696766226538061 -0.032092378962739782 0 0.016024070632814306 -0.032230758575738011 0 0.015452940940541681 -0.032936085436666242 0 0.015340910094688695 -0.031917544905876782 0 0.014770291238307903 -0.032680858515731076 0 0.016024070632814306 -0.032230758575738011 0 0.015452940940541681 -0.032936085436666242 0 0.015340910094688695 -0.031917544905876782 0 0.014776382962366746 -0.031517614823033946 0 0.014393766163311467 -0.032028231302472086 0 0.014337409775382807 -0.030983607249062906 0 0.015340910094688695 -0.031917544905876782 0 0.014776382962366746 -0.031517614823033946 0 0.014393766163311467 -0.032028231302472086 0 0.015340910094688695 -0.031917544905876782 0 0.014393766163311467 -0.032028231302472086 0 0.014770291238307903 -0.032680858515731076 0 0.014393766163311467 -0.032028231302472086 0 0.014770291238307903 -0.032680858515731076 0 0.014058529223765661 -0.032883001142293214 0 0.017605780367411433 -0.032337586031679209 0 0.017502731579586029 -0.03262963142911187 0 0.017149870249450302 -0.032496149764779374 0 0.016927837478808255 -0.032991337682954563 0 0.016689159950190675 -0.033118874008256138 0 0.017605780367411433 -0.032337586031679209 0 0.017259143430090836 -0.032495192732855706 0 0.017368843195364119 -0.032194032781557406 0 0.017605780367411433 -0.032337586031679209 0 0.017753119921735908 -0.032500568600192896 0 0.017743812734645807 -0.032183486031525051 0 0.017605780367411433 -0.032337586031679209 0 0.017753119921735908 -0.032500568600192896 0 0.017502731579586029 -0.03262963142911187 0 0.017753119921735908 -0.032500568600192896 0 0.01771097777698195 -0.032727782523482921 0 0.017502731579586029 -0.03262963142911187 0 0.017855239786651961 -0.032626169830826585 0 0.017753119921735908 -0.032500568600192896 0 0.01771097777698195 -0.032727782523482921 0 0.017492385708138304 -0.032828719963243463 0 0.01771097777698195 -0.032727782523482921 0 0.017502731579586029 -0.03262963142911187 0 0.017244756451517216 -0.032851194063503938 0 0.017492385708138304 -0.032828719963243463 0 0.017502731579586029 -0.03262963142911187 0 0.017244756451517216 -0.032851194063503938 0 0.017502731579586029 -0.03262963142911187 0 0.017149870249450302 -0.032496149764779374 0 0.016978377923678949 -0.032870570453249828 0 0.017244756451517216 -0.032851194063503938 0 0.017149870249450302 -0.032496149764779374 0 0.015986314407135535 -0.03350194275994596 0 0.016689159950190675 -0.033118874008256138 0 0.016978377923678949 -0.032870570453249828 0 0.016712240264168472 -0.032665704230957139 0 0.017149870249450302 -0.032496149764779374 0 0.01679631002097361 -0.032362350755829689 0 0.017259143430090836 -0.032495192732855706 0 0.01704867376419264 -0.032142214285740066 0 0.016867994416834609 -0.032661751818664764 0 0.01679631002097361 -0.032362350755829689 0 0.017259143430090836 -0.032495192732855706 0 0.017368843195364119 -0.032194032781557406 0 0.01704867376419264 -0.032142214285740066 0 0.017334834424731028 -0.031914027936965586 0 0.017259143430090836 -0.032495192732855706 0 0.017368843195364119 -0.032194032781557406 0 0.01704867376419264 -0.032142214285740066 0 0.01704867376419264 -0.032142214285740066 0 0.017334834424731028 -0.031914027936965586 0 0.017077076334663644 -0.031468536377314199 0 0.016696766226538061 -0.032092378962739782 0 0.01704867376419264 -0.032142214285740066 0 0.017077076334663644 -0.031468536377314199 0 0.017570539317646891 -0.03205744322307192 0 0.017785996703949657 -0.031904077771658296 0 0.017497869078328541 -0.031617812059354128 0 0.017334834424731028 -0.031914027936965586 0 0.017570539317646891 -0.03205744322307192 0 0.017497869078328541 -0.031617812059354128 0 0.017368843195364119 -0.032194032781557406 0 0.017334834424731028 -0.031914027936965586 0 0.017570539317646891 -0.03205744322307192 0 0.017605780367411433 -0.032337586031679209 0 0.017368843195364119 -0.032194032781557406 0 0.017570539317646891 -0.03205744322307192 0 0.017570539317646891 -0.03205744322307192 0 0.017743812734645807 -0.032183486031525051 0 0.017785996703949657 -0.031904077771658296 0 0.01802072608668381 -0.032141323169715859 0 0.017753119921735908 -0.032500568600192896 0 0.017743812734645807 -0.032183486031525051 0 0.01802072608668381 -0.032141323169715859 0 0.017743812734645807 -0.032183486031525051 0 0.017785996703949657 -0.031904077771658296 0 0.017605780367411433 -0.032337586031679209 0 0.017570539317646891 -0.03205744322307192 0 0.017743812734645807 -0.032183486031525051 0 0.017785996703949657 -0.031904077771658296 0 0.017497869078328541 -0.031617812059354128 0 0.017884092129086499 -0.031677207272646619 0 0.015858466341138445 -0.031408735409800541 0 0.015465024836659499 -0.03169039368998592 0 0.015319903661784807 -0.02985581846842128 0 0.015427537203723401 -0.030002152353339542 0 0.015336849779723173 -0.029864790765973728 0 0.015368388247865001 -0.02976998169503408 0 0.015345370657864009 -0.029731324746365449 0 0.015319903661784807 -0.02985581846842128 0 0.015402765329197741 -0.030001156113956918 0 0.015414840313750115 -0.030139092160120274 0 0.015319903661784807 -0.02985581846842128 0 0.015129677788750299 -0.029448040353068635 0 0.015341828820153135 -0.029580159463940731 0 0.015319903661784807 -0.02985581846842128 0 0.015402765329197741 -0.030001156113956918 0 0.015427537203723401 -0.030002152353339542 0 0.015402765329197741 -0.030001156113956918 0 0.015427537203723401 -0.030002152353339542 0 0.015490223527016133 -0.030146850312346537 0 0.017334834424731028 -0.031914027936965586 0 0.017497869078328541 -0.031617812059354128 0 0.017077076334663644 -0.031468536377314199 0 0.015858466341138445 -0.031408735409800541 0 0.01581914979351131 -0.03123715573459555 0 0.015499445227793372 -0.030220145530745705 0 0.015490223527016133 -0.030146850312346537 0 0.015451691182973275 -0.030259055946142987 0 0.015427537203723401 -0.030002152353339542 0 0.015499445227793372 -0.030220145530745705 0 0.015490223527016133 -0.030146850312346537 0 0.015490223527016133 -0.030146850312346537 0 0.015472186010139376 -0.030170661801699163 0 0.015414840313750115 -0.030139092160120274 0 0.015490223527016133 -0.030146850312346537 0 0.015451691182973275 -0.030259055946142987 0 0.015476928471664474 -0.030148430856744728 0 0.015296606368646177 -0.029639889963745305 0 0.015191677585402337 -0.029772284799419357 0 0.015490223527016133 -0.030146850312346537 0 0.015472186010139376 -0.030170661801699163 0 0.015476928471664474 -0.030148430856744728 0 0.015358380489448532 -0.029553945407881609 0 0.015551382182581111 -0.029579434719304881 0 0.015224791619937459 -0.029702722489746487 0 0.015358380489448532 -0.029553945407881609 0 0.015224791619937459 -0.029702722489746487 0 0.015253614560341007 -0.029523412439439931 0 0.015296606368646177 -0.029639889963745305 0 0.015296089423503948 -0.029638970941484613 0 0.015269034239606984 -0.029219985351285109 0 0.015129677788750299 -0.029448040353068635 0 0.015179792639260834 -0.029203499230683497 0 0.015104772717940274 -0.029198076196898817 0 0.015129677788750299 -0.029448040353068635 0 0.015179792639260834 -0.029203499230683497 0 0.015074192954194938 -0.029208304140635646 0 0.015104772717940274 -0.029198076196898817 0 0.015129677788750299 -0.029448040353068635 0 0.015296606368646177 -0.029639889963745305 0 0.015345370657864009 -0.029731324746365449 0 0.015269034239606984 -0.029219985351285109 0 0.01533090324935962 -0.02940632156974082 0 0.015129677788750299 -0.029448040353068635 0 0.015269034239606984 -0.029219985351285109 0 0.01533090324935962 -0.02940632156974082 0 0.015413937395601764 -0.029317407124612224 0 0.01533090324935962 -0.02940632156974082 0 0.015129677788750299 -0.029448040353068635 0 0.015341828820153135 -0.029580159463940731 0 0.015402765329197741 -0.030001156113956918 0 0.015490223527016133 -0.030146850312346537 0 0.015414840313750115 -0.030139092160120274 0 0.014921628111319314 -0.030905579057357239 0 0.014741529625351069 -0.030251803250830787 0 0.014337409775382807 -0.030983607249062906 0 0.014741529625351069 -0.030251803250830787 0 0.014337409775382807 -0.030983607249062906 0 0.014160613953942075 -0.030254302285154105 0 0.014776382962366746 -0.031517614823033946 0 0.014921628111319314 -0.030905579057357239 0 0.014337409775382807 -0.030983607249062906 0 0.015340910094688695 -0.031917544905876782 0 0.014776382962366746 -0.031517614823033946 0 0.014921628111319314 -0.030905579057357239 0 0.015340910094688695 -0.031917544905876782 0 0.014921628111319314 -0.030905579057357239 0 0.01629491022111058 -0.031163792441223387 0 0.015383092551284889 -0.031112137482922374 0 0.015572105604889749 -0.031142521985876796 0 0.014921628111319314 -0.030905579057357239 0 0.015175043042711431 -0.030449168439545048 0 0.014741529625351069 -0.030251803250830787 0 0.014921628111319314 -0.030905579057357239 0 0.015175043042711431 -0.030449168439545048 0 0.015359781758281194 -0.030498763790649874 0 0.015175043042711431 -0.030449168439545048 0 0.015359781758281194 -0.030498763790649874 0 0.015451691182973275 -0.030259055946142987 0 0.01581914979351131 -0.03123715573459555 0 0.015572105604889749 -0.031142521985876796 0 0.016696766226538061 -0.032092378962739782 0 0.017077076334663644 -0.031468536377314199 0 0.01629491022111058 -0.031163792441223387 0 0.015499445227793372 -0.030220145530745705 0 0.015359781758281194 -0.030498763790649874 0 0.015451691182973275 -0.030259055946142987 0 0.015191677585402337 -0.029772284799419357 0 0.015037050668517196 -0.029883198352701687 0 0.015451691182973275 -0.030259055946142987 0 0.015476928471664474 -0.030148430856744728 0 0.015301053154839168 -0.030152252594120951 0 0.015224791619937459 -0.029702722489746487 0 0.015000231935175828 -0.029897765769585534 0 0.015072563965447381 -0.029541361856863849 0 0.015224791619937459 -0.029702722489746487 0 0.015072563965447381 -0.029541361856863849 0 0.015253614560341007 -0.029523412439439931 0 0.015000231935175828 -0.029897765769585534 0 0.014827647308249269 -0.029701691318894677 0 0.015072563965447381 -0.029541361856863849 0 0.015175043042711431 -0.030449168439545048 0 0.015451691182973275 -0.030259055946142987 0 0.015301053154839168 -0.030152252594120951 0 0.015175043042711431 -0.030449168439545048 0 0.015301053154839168 -0.030152252594120951 0 0.014741529625351069 -0.030251803250830787 0 0.015037050668517196 -0.029883198352701687 0 0.014937463420612879 -0.029939104805834043 0 0.015000231935175828 -0.029897765769585534 0 0.014827647308249269 -0.029701691318894677 0 0.014741529625351069 -0.030251803250830787 0 0.014827647308249269 -0.029701691318894677 0 0.014447361626994348 -0.029778172075372505 0 0.014741529625351069 -0.030251803250830787 0 0.014827647308249269 -0.029701691318894677 0 0.014447361626994348 -0.029778172075372505 0 0.014634541052509491 -0.029500771656547353 0 0.014447361626994348 -0.029778172075372505 0 0.014741529625351069 -0.030251803250830787 0 0.014160613953942075 -0.030254302285154105 0 0.014571260876446201 -0.029248003681667439 0 0.014634541052509491 -0.029500771656547353 0 0.014267921003745666 -0.029465758457767898 0 0.014447361626994348 -0.029778172075372505 0 0.014634541052509491 -0.029500771656547353 0 0.014267921003745666 -0.029465758457767898 0 0.014571260876446201 -0.029248003681667439 0 0.014634541052509491 -0.029500771656547353 0 0.014966676528187482 -0.029359707730546813 0 0.014827647308249269 -0.029701691318894677 0 0.014634541052509491 -0.029500771656547353 0 0.014966676528187482 -0.029359707730546813 0 0.014604904162118926 -0.029229507873995197 0 0.014787895073704925 -0.029258816982318945 0 0.01451420546477045 -0.029167216806351558 0 0.014785121119965602 -0.029201731101222397 0 0.014720613144931829 -0.028952805101293427 0 0.014785121119965602 -0.029201731101222397 0 0.014975915232327171 -0.029128998948386327 0 0.014937754881025854 -0.028970427682163246 0 0.014827647308249269 -0.029701691318894677 0 0.014966676528187482 -0.029359707730546813 0 0.015072563965447381 -0.029541361856863849 0 0.014787895073704925 -0.029258816982318945 0 0.014888780383154531 -0.029274887262871439 0 0.014966676528187482 -0.029359707730546813 0 0.015072563965447381 -0.029541361856863849 0 0.015170963298888675 -0.029333381603280702 0 0.015072563965447381 -0.029541361856863849 0 0.015253614560341007 -0.029523412439439931 0 0.015170963298888675 -0.029333381603280702 0 0.014975915232327171 -0.029128998948386327 0 0.015170963298888675 -0.029333381603280702 0 0.015138022741134913 -0.029119140731949374 0 0.014785121119965602 -0.029201731101222397 0 0.014975915232327171 -0.029128998948386327 0 0.015170963298888675 -0.029333381603280702 0 0.014975915232327171 -0.029128998948386327 0 0.015054972578959734 -0.029014831117504986 0 0.015138022741134913 -0.029119140731949374 0 0.015054972578959734 -0.029014831117504986 0 0.014937754881025854 -0.028970427682163246 0 0.015075024311528615 -0.028875944425866239 0 0.014975915232327171 -0.029128998948386327 0 0.015054972578959734 -0.029014831117504986 0 0.014937754881025854 -0.028970427682163246 0 0.014937754881025854 -0.028970427682163246 0 0.014902932525510983 -0.02876404908030623 0 0.015075024311528615 -0.028875944425866239 0 0.014902932525510983 -0.02876404908030623 0 0.015075024311528615 -0.028875944425866239 0 0.015074757279684816 -0.028635385444191516 0 0.014937754881025854 -0.028970427682163246 0 0.014902932525510983 -0.02876404908030623 0 0.014720613144931829 -0.028952805101293427 0 0.014785121119965602 -0.029201731101222397 0 0.014937754881025854 -0.028970427682163246 0 0.014720613144931829 -0.028952805101293427 0 0.01451420546477045 -0.029167216806351558 0 0.014720613144931829 -0.028952805101293427 0 0.014538136614965695 -0.028902317498045071 0 0.014720613144931829 -0.028952805101293427 0 0.014632849622106509 -0.028725564857357527 0 0.014538136614965695 -0.028902317498045071 0 0.014902932525510983 -0.02876404908030623 0 0.014720613144931829 -0.028952805101293427 0 0.014632849622106509 -0.028725564857357527 0 0.014632849622106509 -0.028725564857357527 0 0.014454541472981936 -0.028758295728361343 0 0.014538136614965695 -0.028902317498045071 0 0.014454541472981936 -0.028758295728361343 0 0.014538136614965695 -0.028902317498045071 0 0.014361547407313735 -0.028908255482885066 0 0.01451420546477045 -0.029167216806351558 0 0.014538136614965695 -0.028902317498045071 0 0.014361547407313735 -0.028908255482885066 0 0.015155672624377541 -0.029071705792591385 0 0.015142632387553718 -0.029024711505033812 0 0.015227656696323342 -0.028977060948321295 0 0.015188750113274746 -0.029117365646040921 0 0.015155672624377541 -0.029071705792591385 0 0.015227656696323342 -0.028977060948321295 0 0.015301935668881697 -0.029073218869860022 0 0.015188750113274746 -0.029117365646040921 0 0.015227656696323342 -0.028977060948321295 0 0.015301935668881697 -0.029073218869860022 0 0.015227656696323342 -0.028977060948321295 0 0.015379127163010917 -0.028972500290538286 0 0.015269034239606984 -0.029219985351285109 0 0.015301935668881697 -0.029073218869860022 0 0.015188750113274746 -0.029117365646040921 0 0.015269034239606984 -0.029219985351285109 0 0.015179792639260834 -0.029203499230683497 0 0.015188750113274746 -0.029117365646040921 0 0.015104772717940274 -0.029198076196898817 0 0.015179792639260834 -0.029203499230683497 0 0.015188750113274746 -0.029117365646040921 0 0.015097101274479345 -0.029193831414817181 0 0.015104772717940274 -0.029198076196898817 0 0.015109676935099724 -0.029135341838309285 0 0.015188750113274746 -0.029117365646040921 0 0.015109676935099724 -0.029135341838309285 0 0.015155672624377541 -0.029071705792591385 0 0.015104772717940274 -0.029198076196898817 0 0.015188750113274746 -0.029117365646040921 0 0.015109676935099724 -0.029135341838309285 0 0.015296606368646177 -0.029639889963745305 0 0.015246580793348832 -0.029551110422128418 0 0.015358380489448532 -0.029553945407881609 0 0.015551382182581111 -0.029579434719304881 0 0.015407948104392539 -0.029393310270975945 0 0.015097101274479345 -0.029193831414817181 0 0.015109676935099724 -0.029135341838309285 0 0.015098949499851135 -0.02910488260284155 0 0.015109676935099724 -0.029135341838309285 0 0.015098949499851135 -0.02910488260284155 0 0.015118079461500919 -0.029090420919279991 0 0.015109676935099724 -0.029135341838309285 0 0.015155672624377541 -0.029071705792591385 0 0.015118079461500919 -0.029090420919279991 0 0.015358380489448532 -0.029553945407881609 0 0.015253614560341007 -0.029523412439439931 0 0.015407948104392539 -0.029393310270975945 0 0.015407948104392539 -0.029393310270975945 0 0.015170963298888675 -0.029333381603280702 0 0.015138022741134913 -0.029119140731949374 0 0.015253614560341007 -0.029523412439439931 0 0.015407948104392539 -0.029393310270975945 0 0.015170963298888675 -0.029333381603280702 0 0.015246580793348832 -0.029551110422128418 0 0.015225062902532047 -0.029516090325045267 0 0.015098949499851135 -0.02910488260284155 0 0.015138022741134913 -0.029119140731949374 0 0.015118791038952471 -0.029081497568008253 0 0.015138022741134913 -0.029119140731949374 0 0.015118791038952471 -0.029081497568008253 0 0.0151131051652877 -0.029007306842589332 0 0.015118791038952471 -0.029081497568008253 0 0.015142632387553718 -0.029024711505033812 0 0.0151131051652877 -0.029007306842589332 0 0.015054972578959734 -0.029014831117504986 0 0.015138022741134913 -0.029119140731949374 0 0.0151131051652877 -0.029007306842589332 0 0.015155672624377541 -0.029071705792591385 0 0.015118079461500919 -0.029090420919279991 0 0.015142632387553718 -0.029024711505033812 0 0.015098949499851135 -0.02910488260284155 0 0.015118791038952471 -0.029081497568008253 0 0.015118079461500919 -0.029090420919279991 0 0.015118791038952471 -0.029081497568008253 0 0.015118079461500919 -0.029090420919279991 0 0.015142632387553718 -0.029024711505033812 0 0.015142632387553718 -0.029024711505033812 0 0.015162626390132659 -0.028908095843219531 0 0.0151131051652877 -0.029007306842589332 0 0.015142632387553718 -0.029024711505033812 0 0.015162626390132659 -0.028908095843219531 0 0.015227656696323342 -0.028977060948321295 0 0.015162626390132659 -0.028908095843219531 0 0.0151131051652877 -0.029007306842589332 0 0.015075024311528615 -0.028875944425866239 0 0.015054972578959734 -0.029014831117504986 0 0.0151131051652877 -0.029007306842589332 0 0.015075024311528615 -0.028875944425866239 0 0.015162626390132659 -0.028908095843219531 0 0.015075024311528615 -0.028875944425866239 0 0.015169278002838984 -0.028746959534773863 0 0.015162626390132659 -0.028908095843219531 0 0.015232938898052358 -0.028829080414225095 0 0.015169278002838984 -0.028746959534773863 0 0.015162626390132659 -0.028908095843219531 0 0.015232938898052358 -0.028829080414225095 0 0.015227656696323342 -0.028977060948321295 0 0.015232938898052358 -0.028829080414225095 0 0.015227656696323342 -0.028977060948321295 0 0.015339526343683461 -0.02882836655791244 0 0.015227656696323342 -0.028977060948321295 0 0.015339526343683461 -0.02882836655791244 0 0.015379127163010917 -0.028972500290538286 0 0.015232938898052358 -0.028829080414225095 0 0.015339526343683461 -0.02882836655791244 0 0.015266179834568053 -0.028675650536201108 0 0.015339526343683461 -0.02882836655791244 0 0.015419902693479832 -0.028777527585123159 0 0.015463449411110216 -0.02887679968880625 0 0.015419902693479832 -0.028777527585123159 0 0.015463449411110216 -0.02887679968880625 0 0.015488986256436929 -0.02873207298788508 0 0.015463449411110216 -0.02887679968880625 0 0.015480270819819873 -0.028985090150551264 0 0.015541931188226787 -0.028933200725863317 0 0.015463449411110216 -0.02887679968880625 0 0.015379127163010917 -0.028972500290538286 0 0.015480270819819873 -0.028985090150551264 0 0.015339526343683461 -0.02882836655791244 0 0.015463449411110216 -0.02887679968880625 0 0.015379127163010917 -0.028972500290538286 0 0.015301935668881697 -0.029073218869860022 0 0.015379127163010917 -0.028972500290538286 0 0.015444844762072234 -0.02910049073499878 0 0.015379127163010917 -0.028972500290538286 0 0.015480270819819873 -0.028985090150551264 0 0.015444844762072234 -0.02910049073499878 0 0.015480270819819873 -0.028985090150551264 0 0.015444844762072234 -0.02910049073499878 0 0.015548458430248798 -0.029000313973823438 0 0.015452065536969898 -0.029089838044482317 0 0.015522168143093491 -0.029054359063613061 0 0.015269034239606984 -0.029219985351285109 0 0.015301935668881697 -0.029073218869860022 0 0.015444844762072234 -0.02910049073499878 0 0.015403678933831428 -0.029110437377551233 0 0.015452065536969898 -0.029089838044482317 0 0.015806937665960554 -0.029047807392438119 0 0.015747583740755588 -0.029160661532970093 0 0.015823167770209076 -0.029210527951484967 0 0.015806937665960554 -0.029047807392438119 0 0.015747583740755588 -0.029160661532970093 0 0.015673383517694268 -0.029057008655378701 0 0.015475896309475842 -0.029171819016799466 0 0.015673383517694268 -0.029057008655378701 0 0.01566723947031427 -0.029213330562985175 0 0.015747583740755588 -0.029160661532970093 0 0.015673383517694268 -0.029057008655378701 0 0.01566723947031427 -0.029213330562985175 0 0.015480270819819873 -0.028985090150551264 0 0.015548458430248798 -0.029000313973823438 0 0.015541931188226787 -0.028933200725863317 0 0.015548458430248798 -0.029000313973823438 0 0.01551470343018836 -0.028979178160229657 0 0.015480195149434125 -0.028959268678728525 0 0.015522168143093491 -0.029054359063613061 0 0.015533866478719715 -0.029035931586271962 0 0.015806937665960554 -0.029047807392438119 0 0.015673383517694268 -0.029057008655378701 0 0.015935924120951541 -0.028953052410809994 0 0.015548458430248798 -0.029000313973823438 0 0.015541931188226787 -0.028933200725863317 0 0.01551470343018836 -0.028979178160229657 0 0.015541931188226787 -0.028933200725863317 0 0.01560542294068731 -0.028869275903318257 0 0.01551470343018836 -0.028979178160229657 0 0.013651125302884117 -0.02633847501988857 0 0.013905479197203925 -0.027070100452947561 0 0.015463449411110216 -0.02887679968880625 0 0.015559394061941453 -0.028797421469654798 0 0.015488986256436929 -0.02873207298788508 0 0.015463449411110216 -0.02887679968880625 0 0.015541931188226787 -0.028933200725863317 0 0.015559394061941453 -0.028797421469654798 0 0.013651125302884117 -0.02633847501988857 0 0.01274845172642162 -0.023566955357322138 0 0.015559394061941453 -0.028797421469654798 0 0.01560542294068731 -0.028869275903318257 0 0.015627844721566222 -0.028693184029871307 0 0.015541931188226787 -0.028933200725863317 0 0.015559394061941453 -0.028797421469654798 0 0.01560542294068731 -0.028869275903318257 0 0.015217529500194522 -0.029420297214813977 0 0.015388193271295631 -0.029184000161233306 0 0.015418917452489562 -0.029393145650730975 0 0.015498897309661966 -0.029290343525100734 0 0.015388193271295631 -0.029184000161233306 0 0.015418917452489562 -0.029393145650730975 0 0.015217529500194522 -0.029420297214813977 0 0.015166659579055511 -0.029248695263175601 0 0.015388193271295631 -0.029184000161233306 0 0.015166659579055511 -0.029248695263175601 0 0.015388193271295631 -0.029184000161233306 0 0.015071994652077095 -0.029053258914626949 0 0.015388193271295631 -0.029184000161233306 0 0.015071994652077095 -0.029053258914626949 0 0.015480195149434125 -0.028959268678728525 0 0.015498897309661966 -0.029290343525100734 0 0.015388193271295631 -0.029184000161233306 0 0.01551470343018836 -0.028979178160229657 0 -0.0066106723004145168 -0.0046225375863834448 0 -0.0065158005571593122 -0.0038579370358593165 0 -0.0058112982279725422 -0.004644001130298195 0 -0.0065158005571593122 -0.0038579370358593165 0 -0.0058112982279725422 -0.004644001130298195 0 -0.0055503133625456318 -0.003640002445315987 0 -0.0042285029353250139 -0.004473471209548806 0 -0.0058112982279725422 -0.004644001130298195 0 -0.0055503133625456318 -0.003640002445315987 0 0.015217529500194522 -0.029420297214813977 0 0.015166659579055511 -0.029248695263175601 0 0.014739109747576695 -0.029299242486037026 0 0.006019966595775964 -0.016923170947411411 0 0.0041130944994843344 -0.017115691085894481 0 0.014739109747576695 -0.029299242486037026 0 0.014616814027201261 -0.02879229884569956 0 0.015071994652077095 -0.029053258914626949 0 0.015166659579055511 -0.029248695263175601 0 0.014739109747576695 -0.029299242486037026 0 0.015071994652077095 -0.029053258914626949 0 -0.0065158005571593122 -0.0038579370358593165 0 -0.0065304252024201053 -0.0029265651119127203 0 -0.0055503133625456318 -0.003640002445315987 0 0.013773733884068533 -0.02869606377474106 0 0.014739109747576695 -0.029299242486037026 0 0.014616814027201261 -0.02879229884569956 0 0.013773733884068533 -0.02869606377474106 0 0.014616814027201261 -0.02879229884569956 0 0.014472436137010722 -0.028340488109480637 0 0.0021817166481755156 -0.017509224274707785 0 0.0041130944994843344 -0.017115691085894481 0 0.014616814027201261 -0.02879229884569956 0 0.014945979024492913 -0.028508074780294348 0 0.014472436137010722 -0.028340488109480637 0 0.014616814027201261 -0.02879229884569956 0 0.015071994652077095 -0.029053258914626949 0 0.014945979024492913 -0.028508074780294348 0 0.015071994652077095 -0.029053258914626949 0 0.014945979024492913 -0.028508074780294348 0 0.015282065873857633 -0.028669359659557369 0 0.014945979024492913 -0.028508074780294348 0 0.01479969948598586 -0.027907823493520167 0 0.015451930470010328 -0.028145524700554141 0 0.01479969948598586 -0.027907823493520167 0 0.015451930470010328 -0.028145524700554141 0 0.015167866323794943 -0.027519678014427368 0 0.014945979024492913 -0.028508074780294348 0 0.01479969948598586 -0.027907823493520167 0 0.014472436137010722 -0.028340488109480637 0 0.01479969948598586 -0.027907823493520167 0 0.014035780577045999 -0.027815062764180751 0 0.014472436137010722 -0.028340488109480637 0 0.013773733884068533 -0.02869606377474106 0 0.014035780577045999 -0.027815062764180751 0 0.014472436137010722 -0.028340488109480637 0 0.015388193271295631 -0.029184000161233306 0 0.01551470343018836 -0.028979178160229657 0 0.015480195149434125 -0.028959268678728525 0 0.015935924120951541 -0.028953052410809994 0 0.015689902643997597 -0.028882227199826603 0 0.015822573318888273 -0.028950881939526378 0 0.015935924120951541 -0.028953052410809994 0 0.015822573318888273 -0.028950881939526378 0 0.015863014966337685 -0.028994968968286582 0 0.015806937665960554 -0.029047807392438119 0 0.015935924120951541 -0.028953052410809994 0 0.015863014966337685 -0.028994968968286582 0 0.015071994652077095 -0.029053258914626949 0 0.015935924120951541 -0.028953052410809994 0 0.015689902643997597 -0.028882227199826603 0 0.0154798519301633 -0.029044502970165153 0 0.015533866478719715 -0.029035931586271962 0 0.015071994652077095 -0.029053258914626949 0 0.015282065873857633 -0.028669359659557369 0 0.015689902643997597 -0.028882227199826603 0 0.015282065873857633 -0.028669359659557369 0 0.015689902643997597 -0.028882227199826603 0 0.015451930470010328 -0.028145524700554141 0 0.015689902643997597 -0.028882227199826603 0 0.015982349099343891 -0.029055210568357956 0 0.015822573318888273 -0.028950881939526378 0 0.011118334870403715 -0.029765360832599057 0 0.010908070620002645 -0.029686149939952122 0 0.014945979024492913 -0.028508074780294348 0 0.015282065873857633 -0.028669359659557369 0 0.015451930470010328 -0.028145524700554141 0 0.015982349099343891 -0.029055210568357956 0 0.015854349319903933 -0.029064064215987211 0 0.015940994769707423 -0.029204525751586989 0 0.015806937665960554 -0.029047807392438119 0 0.015854349319903933 -0.029064064215987211 0 0.015823167770209076 -0.029210527951484967 0 0.015982349099343891 -0.029055210568357956 0 0.015854349319903933 -0.029064064215987211 0 0.015822573318888273 -0.028950881939526378 0 0.015854349319903933 -0.029064064215987211 0 0.015822573318888273 -0.028950881939526378 0 0.015863014966337685 -0.028994968968286582 0 0.015806937665960554 -0.029047807392438119 0 0.015854349319903933 -0.029064064215987211 0 0.015863014966337685 -0.028994968968286582 0 0.015894341424241579 -0.029291817494161376 0 0.015940994769707423 -0.029204525751586989 0 0.015961143567590111 -0.0293761135445995 0 0.015823167770209076 -0.029210527951484967 0 0.015894341424241579 -0.029291817494161376 0 0.015940994769707423 -0.029204525751586989 0 0.015854349319903933 -0.029064064215987211 0 0.015823167770209076 -0.029210527951484967 0 0.015940994769707423 -0.029204525751586989 0 0.015823167770209076 -0.029210527951484967 0 0.015842756181535037 -0.029327002938188459 0 0.015894341424241579 -0.029291817494161376 0 0.015940994769707423 -0.029204525751586989 0 0.016079710198141303 -0.029229684010733968 0 0.015961143567590111 -0.0293761135445995 0 0.015982349099343891 -0.029055210568357956 0 0.015940994769707423 -0.029204525751586989 0 0.016079710198141303 -0.029229684010733968 0 0.010908070620002645 -0.029686149939952122 0 0.010266684138710446 -0.029463080119991072 0 0.010266684138710446 -0.029463080119991072 0 0.01053778148380038 -0.030553757736557784 0 0.007545694204408592 -0.032318852587755208 0 0.0069394450579078806 -0.032150124918823936 0 0.0073442837182056738 -0.031917249031499853 0 0.0072024789490735012 -0.032685518043026988 0 0.007545694204408592 -0.032318852587755208 0 0.0069394450579078806 -0.032150124918823936 0 0.007545694204408592 -0.032318852587755208 0 0.0076062097752287285 -0.031972967782344271 0 0.0073442837182056738 -0.031917249031499853 0 0.007545694204408592 -0.032318852587755208 0 0.0078942790209991214 -0.031948903051406741 0 0.0076062097752287285 -0.031972967782344271 0 0.01053778148380038 -0.030553757736557784 0 0.010581426397291368 -0.031745766631633969 0 0.015961143567590111 -0.0293761135445995 0 0.015877125005145123 -0.029385370334713889 0 0.015858304470353406 -0.029497159442402845 0 0.015834622128672482 -0.029437934895989313 0 0.015877125005145123 -0.029385370334713889 0 0.015825542591509843 -0.029393065685717059 0 0.015834622128672482 -0.029437934895989313 0 0.015877125005145123 -0.029385370334713889 0 0.015858304470353406 -0.029497159442402845 0 0.015842756181535037 -0.029327002938188459 0 0.015877125005145123 -0.029385370334713889 0 0.015825542591509843 -0.029393065685717059 0 0.015842756181535037 -0.029327002938188459 0 0.015894341424241579 -0.029291817494161376 0 0.015877125005145123 -0.029385370334713889 0 0.015894341424241579 -0.029291817494161376 0 0.015961143567590111 -0.0293761135445995 0 0.015877125005145123 -0.029385370334713889 0 0.01479969948598586 -0.027907823493520167 0 0.014035780577045999 -0.027815062764180751 0 0.014419099096685189 -0.02716038361941045 0 0.013550023879386905 -0.027047416734358024 0 0.014035780577045999 -0.027815062764180751 0 0.014419099096685189 -0.02716038361941045 0 0.01479969948598586 -0.027907823493520167 0 0.015236094636270727 -0.027434507969927076 0 0.014419099096685189 -0.02716038361941045 0 0.010564734525322871 -0.029217745541071528 0 0.010266684138710446 -0.029463080119991072 0 0.010266684138710446 -0.029463080119991072 0 0.0085039100536159519 -0.02866999431539843 0 0.015236094636270727 -0.027434507969927076 0 0.014419099096685189 -0.02716038361941045 0 0.01479095147196333 -0.026490917087860083 0 0.014419099096685189 -0.02716038361941045 0 0.01479095147196333 -0.026490917087860083 0 0.014045073431698016 -0.026484687565752597 0 0.013550023879386905 -0.027047416734358024 0 0.014419099096685189 -0.02716038361941045 0 0.014045073431698016 -0.026484687565752597 0 0.01479095147196333 -0.026490917087860083 0 0.014045073431698016 -0.026484687565752597 0 0.014341002253533056 -0.025559067332044383 0 0.013124661841274036 -0.026168170082988516 0 0.014045073431698016 -0.026484687565752597 0 0.014341002253533056 -0.025559067332044383 0 0.0085039100536159519 -0.02866999431539843 0 0.0061672174907046956 -0.027207233502235754 0 0.0069394450579078806 -0.032150124918823936 0 0.0070683794766943876 -0.031709138499291335 0 0.0073442837182056738 -0.031917249031499853 0 0.0069394450579078806 -0.032150124918823936 0 0.0070683794766943876 -0.031709138499291335 0 0.0066656397867191587 -0.031609513915124919 0 0.0070683794766943876 -0.031709138499291335 0 0.0071422658558742596 -0.031582956181448386 0 0.0072968305735128724 -0.031641941187252977 0 0.0064164278862892709 -0.031078339690124083 0 0.0071909350999218545 -0.031497620801126572 0 0.0070973056966052968 -0.031369780110524929 0 0.0064164278862892709 -0.031078339690124083 0 0.0071518430401179235 -0.031423273953070645 0 0.0068652808805004613 -0.031509398266376831 0 0.0081671420029013272 -0.031137854806293479 0 0.0086749052518890965 -0.031321860478621136 0 0.0070525291821961393 -0.031554423791932608 0 0.0071518430401179235 -0.031423273953070645 0 0.0068652808805004613 -0.031509398266376831 0 0.0070683794766943876 -0.031709138499291335 0 0.0071422658558742596 -0.031582956181448386 0 0.0070525291821961393 -0.031554423791932608 0 0.0070683794766943876 -0.031709138499291335 0 0.0070525291821961393 -0.031554423791932608 0 0.0068652808805004613 -0.031509398266376831 0 0.0071422658558742596 -0.031582956181448386 0 0.0070525291821961393 -0.031554423791932608 0 0.0071518430401179235 -0.031423273953070645 0 0.0070683794766943876 -0.031709138499291335 0 0.0068652808805004613 -0.031509398266376831 0 0.0066656397867191587 -0.031609513915124919 0 0.00613943529696783 -0.027263458772654563 0 0.0061672174907046956 -0.027207233502235754 0 0.0064164278862892709 -0.031078339690124083 0 0.0068652808805004613 -0.031509398266376831 0 0.0066386255203878504 -0.031627340421397615 0 0.0041679323647542729 -0.027811972803625736 0 0.0061672174907046956 -0.027207233502235754 0 -0.0035930146327910672 -0.026153356373858901 0 -0.0036999230227043132 -0.026710517395824293 0 -0.0042568556544695692 -0.025502433610168417 0 -0.0035930146327910672 -0.026153356373858901 0 -0.0036602683321806505 -0.025611612215051736 0 -0.0042568556544695692 -0.025502433610168417 0 0.0078081112748020565 -0.031767729869936881 0 0.0076062097752287285 -0.031972967782344271 0 0.0074988325102369018 -0.031736010338830833 0 0.010617243159304865 -0.032677378587789095 0 0.010497790869539461 -0.032614868666086115 0 0.010505473639763275 -0.032817640066163258 0 0.010188266048036155 -0.031854509791828349 0 0.010786151953223902 -0.031890861362105567 0 0.010543951916747254 -0.033008743558333192 0 0.010020188434115554 -0.031901981901815125 0 0.0094978218562648663 -0.032463827992382378 0 0.010188266048036155 -0.031854509791828349 0 0.010581426397291368 -0.031745766631633969 0 0.015848309998668163 -0.029477088362300553 0 0.015832435555762834 -0.029492916789323278 0 0.015818386802626341 -0.029460203898022126 0 0.010581426397291368 -0.031745766631633969 0 0.010786151953223902 -0.031890861362105567 0 0.010625671214384099 -0.03173113318837318 0 0.010581426397291368 -0.031745766631633969 0 0.015834622128672482 -0.029437934895989313 0 0.015848309998668163 -0.029477088362300553 0 0.015818386802626341 -0.029460203898022126 0 0.0078081112748020565 -0.031767729869936881 0 0.0078942790209991214 -0.031948903051406741 0 0.0076062097752287285 -0.031972967782344271 0 0.0076062097752287285 -0.031972967782344271 0 0.0073442837182056738 -0.031917249031499853 0 0.0074988325102369018 -0.031736010338830833 0 0.0071518430401179235 -0.031423273953070645 0 0.0078081112748020565 -0.031767729869936881 0 0.0074988325102369018 -0.031736010338830833 0 0.0070683794766943876 -0.031709138499291335 0 0.0073442837182056738 -0.031917249031499853 0 0.0072968305735128724 -0.031641941187252977 0 0.0073442837182056738 -0.031917249031499853 0 0.0074988325102369018 -0.031736010338830833 0 0.0072968305735128724 -0.031641941187252977 0 0.0071909350999218545 -0.031497620801126572 0 0.0080706303955654351 -0.031953231469050214 0 0.0076032214596155759 -0.031519559300506587 0 0.0089405804142738497 -0.032606586736367939 0 0.009276755038266046 -0.032676055106786277 0 0.0086749052518890965 -0.031321860478621136 0 0.010188266048036155 -0.031854509791828349 0 0.0070973056966052968 -0.031369780110524929 0 0.0076032214596155759 -0.031519559300506587 0 0.0077954402535802469 -0.031387447599993019 0 0.0072453877417990925 -0.031205113861354591 0 0.0070973056966052968 -0.031369780110524929 0 0.0076950147881723633 -0.031388803376307936 0 0.0071422658558742596 -0.031582956181448386 0 0.0071518430401179235 -0.031423273953070645 0 0.0072968305735128724 -0.031641941187252977 0 0.0071518430401179235 -0.031423273953070645 0 0.0074988325102369018 -0.031736010338830833 0 0.0072968305735128724 -0.031641941187252977 0 0.0071909350999218545 -0.031497620801126572 0 0.0070973056966052968 -0.031369780110524929 0 0.0076032214596155759 -0.031519559300506587 0 0.0076032214596155759 -0.031519559300506587 0 0.0077954402535802469 -0.031387447599993019 0 0.0078371178415534964 -0.031474934790249036 0 0.0094255866300738279 -0.032590087756755801 0 0.0094596932558542041 -0.032591356559125942 0 0.009276755038266046 -0.032676055106786277 0 0.0098769361100564407 -0.032714823913132754 0 0.0094596932558542041 -0.032591356559125942 0 0.0098769361100564407 -0.032714823913132754 0 0.0095459080219730923 -0.033016368102822907 0 0.009539870194084147 -0.0330034084984532 0 0.0094855110249738427 -0.033013941567982895 0 0.009276755038266046 -0.032676055106786277 0 0.0094596932558542041 -0.032591356559125942 0 0.010188266048036155 -0.031854509791828349 0 0.0094596932558542041 -0.032591356559125942 0 0.010617243159304865 -0.032677378587789095 0 0.010734222931146708 -0.032926923625515025 0 0.010505473639763275 -0.032817640066163258 0 0.0080706303955654351 -0.031953231469050214 0 0.0076032214596155759 -0.031519559300506587 0 0.007841936229302628 -0.031473862780216015 0 0.010734222931146708 -0.032926923625515025 0 0.010505473639763275 -0.032817640066163258 0 0.010539375391670261 -0.032964416202385868 0 0.010786151953223902 -0.031890861362105567 0 0.011444781097911244 -0.032386673718377952 0 0.010505473639763275 -0.032817640066163258 0 0.010539375391670261 -0.032964416202385868 0 0.010187996645239941 -0.032951013880763887 0 0.010264402535134281 -0.032771119398526082 0 0.011842053375270063 -0.032834362157120801 0 0.011961387349473232 -0.032706431614449291 0 0.01130369010089799 -0.032825767929736883 0 0.011578636905122543 -0.031539938848793594 0 0.011099180744936881 -0.032817791744908197 0 0.010264402535134281 -0.032771119398526082 0 0.011961387349473232 -0.032706431614449291 0 0.012336674824165089 -0.032378757366939889 0 0.010497790869539461 -0.032614868666086115 0 0.010505473639763275 -0.032817640066163258 0 0.010187996645239941 -0.032951013880763887 0 0.0098769361100564407 -0.032714823913132754 0 0.011687923848879829 -0.033104820029863348 0 0.0098769361100564407 -0.032714823913132754 0 0.011444781097911244 -0.032386673718377952 0 0.011444781097911244 -0.032386673718377952 0 0.011445101093311028 -0.0323867986731863 0 0.015852491893713658 -0.029555733326996663 0 0.015714594485346251 -0.029602298839596655 0 0.015672040093216585 -0.030091323337883738 0 0.011427732673333088 -0.031985358719862841 0 0.011948069249329693 -0.032403249651644629 0 0.012197612919215763 -0.031862367726050993 0 0.01130369010089799 -0.032825767929736883 0 0.011578636905122543 -0.031539938848793594 0 0.015782666556732803 -0.029528385911149434 0 0.015714594485346251 -0.029602298839596655 0 0.015709228098328282 -0.029516626095339799 0 0.015782666556732803 -0.029528385911149434 0 0.015852491893713658 -0.029555733326996663 0 0.015714594485346251 -0.029602298839596655 0 0.011441700478683762 -0.031987011518743239 0 0.011427732673333088 -0.031985358719862841 0 0.015832435555762834 -0.029492916789323278 0 0.015782512573594105 -0.029465395281090663 0 0.015818386802626341 -0.029460203898022126 0 0.010786151953223902 -0.031890861362105567 0 0.011427732673333088 -0.031985358719862841 0 0.014521066473841033 -0.031495359010976408 0 0.014071393380957193 -0.032128239393119463 0 0.015714594485346251 -0.029602298839596655 0 0.015597067909824571 -0.029849436372918942 0 0.015595196039985462 -0.029666914565738639 0 0.015653200323939069 -0.02956803521871755 0 0.015714594485346251 -0.029602298839596655 0 0.015595196039985462 -0.029666914565738639 0 0.015653200323939069 -0.02956803521871755 0 0.015595196039985462 -0.029666914565738639 0 0.015596851237471706 -0.029575965540792417 0 0.015653200323939069 -0.02956803521871755 0 0.015714594485346251 -0.029602298839596655 0 0.015709228098328282 -0.029516626095339799 0 0.012726747015464092 -0.032767485101369384 0 0.013357346120002162 -0.032645109398117253 0 0.012967224826884345 -0.032436818834968961 0 0.015714594485346251 -0.029602298839596655 0 0.015672040093216585 -0.030091323337883738 0 0.015359079739846231 -0.030082459927681573 0 0.01184231537203039 -0.032833977983912105 0 0.011961387349473232 -0.032706431614449291 0 0.012159969458211439 -0.032846957447814858 0 0.011444781097911244 -0.032386673718377952 0 0.011948069249329693 -0.032403249651644629 0 0.011948069249329693 -0.032403249651644629 0 0.011687923848879829 -0.033104820029863348 0 0.011961387349473232 -0.032706431614449291 0 0.012159969458211439 -0.032846957447814858 0 0.012336674824165089 -0.032378757366939889 0 0.013428296523475864 -0.03245417421131 0 0.013357346120002162 -0.032645109398117253 0 0.012967224826884345 -0.032436818834968961 0 0.011948069249329693 -0.032403249651644629 0 0.014071393380957193 -0.032128239393119463 0 0.014071393380957193 -0.032128239393119463 0 0.015465024836659499 -0.03169039368998592 0 0.014527199833768149 -0.032112965716764072 0 0.014071393380957193 -0.032128239393119463 0 0.015597067909824571 -0.029849436372918942 0 0.015468578418313421 -0.029786082764336402 0 0.015595196039985462 -0.029666914565738639 0 0.015597067909824571 -0.029849436372918942 0 0.015468578418313421 -0.029786082764336402 0 0.015336849779723173 -0.029864790765973728 0 0.018149063686912329 -0.031819013688867602 0 0.018235796937544985 -0.031697560335596849 0 0.017884092129086499 -0.031677207272646619 0 0.015468578418313421 -0.029786082764336402 0 0.015336849779723173 -0.029864790765973728 0 0.015382065969102807 -0.029808651884148857 0 0.015319903661784807 -0.02985581846842128 0 0.015336849779723173 -0.029864790765973728 0 0.015382065969102807 -0.029808651884148857 0 0.015319903661784807 -0.02985581846842128 0 0.015382065969102807 -0.029808651884148857 0 0.015422841257215889 -0.02970420667904361 0 0.015468578418313421 -0.029786082764336402 0 0.015382065969102807 -0.029808651884148857 0 0.015422841257215889 -0.02970420667904361 0 0.015422841257215889 -0.02970420667904361 0 0.015515210761711898 -0.029609427245858171 0 0.015451016029134772 -0.029492317921599401 0 0.015319903661784807 -0.02985581846842128 0 0.015422841257215889 -0.02970420667904361 0 0.015341828820153135 -0.029580159463940731 0 0.015468578418313421 -0.029786082764336402 0 0.015595196039985462 -0.029666914565738639 0 0.015515210761711898 -0.029609427245858171 0 0.015468578418313421 -0.029786082764336402 0 0.015422841257215889 -0.02970420667904361 0 0.015515210761711898 -0.029609427245858171 0 0.015595196039985462 -0.029666914565738639 0 0.015515210761711898 -0.029609427245858171 0 0.015596851237471706 -0.029575965540792417 0 0.015515210761711898 -0.029609427245858171 0 0.015596851237471706 -0.029575965540792417 0 0.015568246814035881 -0.029471458772207894 0 0.015515210761711898 -0.029609427245858171 0 0.015568246814035881 -0.029471458772207894 0 0.015451016029134772 -0.029492317921599401 0 0.015568246814035881 -0.029471458772207894 0 0.015451016029134772 -0.029492317921599401 0 0.015506799141549624 -0.029351466233678708 0 0.015422841257215889 -0.02970420667904361 0 0.015341828820153135 -0.029580159463940731 0 0.015451016029134772 -0.029492317921599401 0 0.01533090324935962 -0.02940632156974082 0 0.015451016029134772 -0.029492317921599401 0 0.015413937395601764 -0.029317407124612224 0 0.01533090324935962 -0.02940632156974082 0 0.015341828820153135 -0.029580159463940731 0 0.015451016029134772 -0.029492317921599401 0 0.015269034239606984 -0.029219985351285109 0 0.015475896309475842 -0.029171819016799466 0 0.015413937395601764 -0.029317407124612224 0 0.015475896309475842 -0.029171819016799466 0 0.015413937395601764 -0.029317407124612224 0 0.015506799141549624 -0.029351466233678708 0 0.015451016029134772 -0.029492317921599401 0 0.015413937395601764 -0.029317407124612224 0 0.015506799141549624 -0.029351466233678708 0 0.015475896309475842 -0.029171819016799466 0 0.015506799141549624 -0.029351466233678708 0 0.015619892254187511 -0.029336488087907057 0 0.015475896309475842 -0.029171819016799466 0 0.015619892254187511 -0.029336488087907057 0 0.01566723947031427 -0.029213330562985175 0 0.015568246814035881 -0.029471458772207894 0 0.015506799141549624 -0.029351466233678708 0 0.015619892254187511 -0.029336488087907057 0 0.015619892254187511 -0.029336488087907057 0 0.015703672415066396 -0.029353630729292951 0 0.01566723947031427 -0.029213330562985175 0 0.015703672415066396 -0.029353630729292951 0 0.01566723947031427 -0.029213330562985175 0 0.015750749816764338 -0.029262149854505128 0 0.015747583740755588 -0.029160661532970093 0 0.01566723947031427 -0.029213330562985175 0 0.015750749816764338 -0.029262149854505128 0 0.015747583740755588 -0.029160661532970093 0 0.015823167770209076 -0.029210527951484967 0 0.015750749816764338 -0.029262149854505128 0 0.015823167770209076 -0.029210527951484967 0 0.015750749816764338 -0.029262149854505128 0 0.015785247346434356 -0.029349303393158832 0 0.015823167770209076 -0.029210527951484967 0 0.015842756181535037 -0.029327002938188459 0 0.015785247346434356 -0.029349303393158832 0 0.015703672415066396 -0.029353630729292951 0 0.015750749816764338 -0.029262149854505128 0 0.015785247346434356 -0.029349303393158832 0 0.015785247346434356 -0.029349303393158832 0 0.015798736601673954 -0.029434830727758474 0 0.01574185561046831 -0.029440731793433126 0 0.015703672415066396 -0.029353630729292951 0 0.015785247346434356 -0.029349303393158832 0 0.01574185561046831 -0.029440731793433126 0 0.015825542591509843 -0.029393065685717059 0 0.015785247346434356 -0.029349303393158832 0 0.015798736601673954 -0.029434830727758474 0 0.015842756181535037 -0.029327002938188459 0 0.015825542591509843 -0.029393065685717059 0 0.015785247346434356 -0.029349303393158832 0 0.015834622128672482 -0.029437934895989313 0 0.015825542591509843 -0.029393065685717059 0 0.015798736601673954 -0.029434830727758474 0 0.015834622128672482 -0.029437934895989313 0 0.015818386802626341 -0.029460203898022126 0 0.015798736601673954 -0.029434830727758474 0 0.015782512573594105 -0.029465395281090663 0 0.015818386802626341 -0.029460203898022126 0 0.015798736601673954 -0.029434830727758474 0 0.015782666556732803 -0.029528385911149434 0 0.015798736601673954 -0.029434830727758474 0 0.01574185561046831 -0.029440731793433126 0 0.015782666556732803 -0.029528385911149434 0 0.015804549038040773 -0.029539201027098044 0 0.015798736601673954 -0.029434830727758474 0 0.011427732673333088 -0.031985358719862841 0 0.011498767998519954 -0.031874148197620411 0 0.015782666556732803 -0.029528385911149434 0 0.01574185561046831 -0.029440731793433126 0 0.015709228098328282 -0.029516626095339799 0 0.01574185561046831 -0.029440731793433126 0 0.015709228098328282 -0.029516626095339799 0 0.01565975952370513 -0.029471519453756118 0 0.015653200323939069 -0.02956803521871755 0 0.015709228098328282 -0.029516626095339799 0 0.01565975952370513 -0.029471519453756118 0 0.015653200323939069 -0.02956803521871755 0 0.015596851237471706 -0.029575965540792417 0 0.01565975952370513 -0.029471519453756118 0 0.015596851237471706 -0.029575965540792417 0 0.015568246814035881 -0.029471458772207894 0 0.01565975952370513 -0.029471519453756118 0 0.015568246814035881 -0.029471458772207894 0 0.015619892254187511 -0.029336488087907057 0 0.01565975952370513 -0.029471519453756118 0 0.015619892254187511 -0.029336488087907057 0 0.015703672415066396 -0.029353630729292951 0 0.01565975952370513 -0.029471519453756118 0 0.015703672415066396 -0.029353630729292951 0 0.01574185561046831 -0.029440731793433126 0 0.01565975952370513 -0.029471519453756118 0 0.036171320659855892 -0.027332087697515377 0 0.034998612578929382 -0.029523480153743557 0 0.034999638800469392 -0.025481901243792869 0 0.036171320659855892 -0.027332087697515377 0 0.037619839484475538 -0.025935202288415907 0 0.036468910173582267 -0.025873873864913056 0 0.034370238221565715 -0.028996772290514849 0 0.034575420408465264 -0.028338306611295352 0 0.036171320659855892 -0.027332087697515377 0 0.03761829117668767 -0.027923049907946081 0 0.037619839484475538 -0.025935202288415907 0 0.038234989948239088 -0.02641674394058656 0 0.03785916301097772 -0.026969271385232498 0 0.037619839484475538 -0.025935202288415907 0 0.038234989948239088 -0.02641674394058656 0 0.03785916301097772 -0.026969271385232498 0 0.038559829222485575 -0.027227958650617508 0 0.036171320659855892 -0.027332087697515377 0 0.03761829117668767 -0.027923049907946081 0 0.036153211868217176 -0.029368488756631204 0 0.03761829117668767 -0.027923049907946081 0 0.037461412984298115 -0.029879279199771711 0 0.036153211868217176 -0.029368488756631204 0 0.038033218506134475 -0.027813829395536008 0 0.038490795477033685 -0.027868262122712123 0 0.038559829222485575 -0.027227958650617508 0 0.034370238221565715 -0.028996772290514849 0 0.033684488806388496 -0.03072288399232706 0 0.03785916301097772 -0.026969271385232498 0 0.038033218506134475 -0.027813829395536008 0 0.038559829222485575 -0.027227958650617508 0 0.037461412984298115 -0.029879279199771711 0 0.036275392406133221 -0.031041094604164925 0 0.037491030384572667 -0.032481326668148451 0 0.033684488806388496 -0.03072288399232706 0 0.032405626188770909 -0.033672347549203549 0 0.038033218506134475 -0.027813829395536008 0 0.038346304226250932 -0.028141538928276918 0 0.038208047634916538 -0.028446309171768949 0 0.038033218506134475 -0.027813829395536008 0 0.038346304226250932 -0.028141538928276918 0 0.038490795477033685 -0.027868262122712123 0 0.037461412984298115 -0.029879279199771711 0 0.036275392406133221 -0.031041094604164925 0 0.036153211868217176 -0.029368488756631204 0 0.036153211868217176 -0.029368488756631204 0 0.034998612578929382 -0.029523480153743557 0 0.035403995060457737 -0.031364521163324874 0 0.036275392406133221 -0.031041094604164925 0 0.036153211868217176 -0.029368488756631204 0 0.035403995060457737 -0.031364521163324874 0 0.036171320659855892 -0.027332087697515377 0 0.036153211868217176 -0.029368488756631204 0 0.034998612578929382 -0.029523480153743557 0 0.034998612578929382 -0.029523480153743557 0 0.035403995060457737 -0.031364521163324874 0 0.034489353557096807 -0.03416842114919668 0 0.034998612578929382 -0.029523480153743557 0 0.034996262379903012 -0.034999217732717677 0 0.034489353557096807 -0.03416842114919668 0 0.035403995060457737 -0.031364521163324874 0 0.034489353557096807 -0.03416842114919668 0 0.035521268582732676 -0.032559836886773157 0 0.034996262379903012 -0.034999217732717677 0 0.034489353557096807 -0.03416842114919668 0 0.030864586590623258 -0.034996648594784234 0 0.034489353557096807 -0.03416842114919668 0 0.033589960297971441 -0.034046514154385255 0 0.034621097954482906 -0.033491047190529477 0 0.034489353557096807 -0.03416842114919668 0 0.030864586590623258 -0.034996648594784234 0 0.033589960297971441 -0.034046514154385255 0 0.030853937058039523 -0.0349999975148413 0 0.031056178412124574 -0.036760931395315874 0 0.029950727929980527 -0.036255364255293375 0 0.030856919350679354 -0.034998210100012785 0 0.03167174847003499 -0.03437249681772768 0 0.033589960297971441 -0.034046514154385255 0 0.034621097954482906 -0.033491047190529477 0 0.035116327018821024 -0.033090636312240684 0 0.03167174847003499 -0.03437249681772768 0 0.032405626188770909 -0.033672347549203549 0 0.031056178412124574 -0.036760931395315874 0 0.031269906872236894 -0.038496819222802209 0 0.030494894999317908 -0.037542491755450373 0 0.031269906872236894 -0.038496819222802209 0 0.030474919436039746 -0.038497046310601836 0 0.030494894999317908 -0.037542491755450373 0 0.034489353557096807 -0.03416842114919668 0 0.034621097954482906 -0.033491047190529477 0 0.035521268582732676 -0.032559836886773157 0 0.034621097954482906 -0.033491047190529477 0 0.035521268582732676 -0.032559836886773157 0 0.035116327018821024 -0.033090636312240684 0 0.032692879630369959 -0.033645607118275529 0 0.032405626188770909 -0.033672347549203549 0 0.036275392406133221 -0.031041094604164925 0 0.035521268582732676 -0.032559836886773157 0 0.037491030384572667 -0.032481326668148451 0 0.036275392406133221 -0.031041094604164925 0 0.035403995060457737 -0.031364521163324874 0 0.035521268582732676 -0.032559836886773157 0 0.038208047634916538 -0.028446309171768949 0 0.038443053874366952 -0.028333310539963286 0 0.038520315811832413 -0.028434162326942829 0 0.032405626188770909 -0.033672347549203549 0 0.03187436355082595 -0.033992639607578229 0 0.038346304226250932 -0.028141538928276918 0 0.038208047634916538 -0.028446309171768949 0 0.038443053874366952 -0.028333310539963286 0 0.038508311811557769 -0.028340760380180886 0 0.038576765703602196 -0.028367578530718054 0 0.038264459596958345 -0.028220845936691167 0 0.03187436355082595 -0.033992639607578229 0 0.032241859819173366 -0.033536567915427348 0 0.038517398465534682 -0.028209827637382719 0 0.038508311811557769 -0.028340760380180886 0 0.038576765703602196 -0.028367578530718054 0 0.038346304226250932 -0.028141538928276918 0 0.038443053874366952 -0.028333310539963286 0 0.038517398465534682 -0.028209827637382719 0 0.038443053874366952 -0.028333310539963286 0 0.038517398465534682 -0.028209827637382719 0 0.038576765703602196 -0.028367578530718054 0 0.031889395770581828 -0.033973341210932401 0 0.03187436355082595 -0.033992639607578229 0 0.038508311811557769 -0.028340760380180886 0 0.038264459596958345 -0.028220845936691167 0 0.038297869301772092 -0.029072446501775446 0 0.028947838908416883 -0.038488940387731777 0 0.029484830963763756 -0.037326989763801305 0 0.028044153364220857 -0.037448623049248841 0 0.03187436355082595 -0.033992639607578229 0 0.030600078022910589 -0.034871461031228138 0 0.030405730198301607 -0.038485785268931226 0 0.028947838908416883 -0.038488940387731777 0 0.029484830963763756 -0.037326989763801305 0 0.030474919436039746 -0.038497046310601836 0 0.029549933911159371 -0.037344598741088177 0 0.030494894999317908 -0.037542491755450373 0 0.031056178412124574 -0.036760931395315874 0 0.030494894999317908 -0.037542491755450373 0 0.029950727929980527 -0.036255364255293375 0 0.029549933911159371 -0.037344598741088177 0 0.030494894999317908 -0.037542491755450373 0 0.029950727929980527 -0.036255364255293375 0 0.029484830963763756 -0.037326989763801305 0 0.028564540044769566 -0.036165526912409658 0 0.028044153364220857 -0.037448623049248841 0 0.030600078022910589 -0.034871461031228138 0 0.029153955957391703 -0.035075580682089567 0 0.029549933911159371 -0.037344598741088177 0 0.029950727929980527 -0.036255364255293375 0 0.028606094372015663 -0.036181068772400633 0 0.028606094372015663 -0.036181068772400633 0 0.029253026899445669 -0.034999989804626708 0 0.027652046020994105 -0.034999998049936913 0 0.029950727929980527 -0.036255364255293375 0 0.028606094372015663 -0.036181068772400633 0 0.029253026899445669 -0.034999989804626708 0 0.030853937058039523 -0.0349999975148413 0 0.029950727929980527 -0.036255364255293375 0 0.029253026899445669 -0.034999989804626708 0 0.026368319533689948 -0.035786844147111418 0 0.02765199418636579 -0.035000005108838689 0 0.027025619695798819 -0.03648321704260428 0 0.026368319533689948 -0.035786844147111418 0 0.02765199418636579 -0.035000005108838689 0 0.025821206013381101 -0.034999947982146604 0 0.028564540044769566 -0.036165526912409658 0 0.02765199418636579 -0.035000005108838689 0 0.027025619695798819 -0.03648321704260428 0 0.029153955957391703 -0.035075580682089567 0 0.027656937534355847 -0.034998829543776727 0 0.028564540044769566 -0.036165526912409658 0 0.027025619695798819 -0.03648321704260428 0 0.028044153364220857 -0.037448623049248841 0 0.026368319533689948 -0.035786844147111418 0 0.027025619695798819 -0.03648321704260428 0 0.025496963171228387 -0.036188984877319037 0 0.027025619695798819 -0.03648321704260428 0 0.026811296893948566 -0.037691749473986076 0 0.028044153364220857 -0.037448623049248841 0 0.027025619695798819 -0.03648321704260428 0 0.026811296893948566 -0.037691749473986076 0 0.025764424360992952 -0.037342847871800783 0 0.028947838908416883 -0.038488940387731777 0 0.028044153364220857 -0.037448623049248841 0 0.02748571645490876 -0.038491668703882702 0 0.026811296893948566 -0.037691749473986076 0 0.028044153364220857 -0.037448623049248841 0 0.02748571645490876 -0.038491668703882702 0 0.038264459596958345 -0.028220845936691167 0 0.037375177067721879 -0.028177867180819841 0 0.03779956771496943 -0.028633800046424903 0 0.032241859819173366 -0.033536567915427348 0 0.031992748093737582 -0.033099859596578553 0 0.037375177067721879 -0.028177867180819841 0 0.037335291414685681 -0.028522304455079053 0 0.03779956771496943 -0.028633800046424903 0 0.037375177067721879 -0.028177867180819841 0 0.037335291414685681 -0.028522304455079053 0 0.036770228741702334 -0.028228271154601598 0 0.031992748093737582 -0.033099859596578553 0 0.031527546442888014 -0.032635279284240329 0 0.037375177067721879 -0.028177867180819841 0 0.036770228741702334 -0.028228271154601598 0 0.036594926194478392 -0.028208995951885734 0 0.037335291414685681 -0.028522304455079053 0 0.036770228741702334 -0.028228271154601598 0 0.037415367681958758 -0.029048191387521714 0 0.026811296893948566 -0.037691749473986076 0 0.02748571645490876 -0.038491668703882702 0 0.02602177817953975 -0.038490762590325252 0 0.036770228741702334 -0.028228271154601598 0 0.036710179457025996 -0.028585642443331404 0 0.036862281289327559 -0.028584512558730037 0 0.036500397868293476 -0.027685866710769808 0 0.036313333411253972 -0.0274059868320203 0 0.036710179457025996 -0.028585642443331404 0 0.0367848101670811 -0.028667305973442053 0 0.036751699203318437 -0.028751610167115551 0 0.032298106436308087 -0.031157379872189733 0 0.032557104964516276 -0.030750609628511803 0 0.036710179457025996 -0.028585642443331404 0 0.0367848101670811 -0.028667305973442053 0 0.036862281289327559 -0.028584512558730037 0 0.036721681590238607 -0.028884179053898749 0 0.036751699203318437 -0.028751610167115551 0 0.036758315506738262 -0.028751742484208344 0 0.0367848101670811 -0.028667305973442053 0 0.036827336667866417 -0.02869973536841473 0 0.03679309543494716 -0.028716789923730092 0 0.0367848101670811 -0.028667305973442053 0 0.036751699203318437 -0.028751610167115551 0 0.03679309543494716 -0.028716789923730092 0 0.036827336667866417 -0.02869973536841473 0 0.036862281289327559 -0.028584512558730037 0 0.036888239639660418 -0.028730715754032823 0 0.036313333411253972 -0.0274059868320203 0 0.035345279074935447 -0.025986472070885346 0 0.0367848101670811 -0.028667305973442053 0 0.036827336667866417 -0.02869973536841473 0 0.036862281289327559 -0.028584512558730037 0 0.037415367681958758 -0.029048191387521714 0 0.03779956771496943 -0.028633800046424903 0 0.038297869301772092 -0.029072446501775446 0 0.037335291414685681 -0.028522304455079053 0 0.037415367681958758 -0.029048191387521714 0 0.03779956771496943 -0.028633800046424903 0 0.038264459596958345 -0.028220845936691167 0 0.03779956771496943 -0.028633800046424903 0 0.038297869301772092 -0.029072446501775446 0 0.035922833087576267 -0.026819920507979145 0 0.035778312284274694 -0.026639718032359004 0 0.038517398465534682 -0.028209827637382719 0 0.038508311811557769 -0.028340760380180886 0 0.039012660368220507 -0.027855112814261097 0 0.038517398465534682 -0.028209827637382719 0 0.039012660368220507 -0.027855112814261097 0 0.038490795477033685 -0.027868262122712123 0 0.038346304226250932 -0.028141538928276918 0 0.038517398465534682 -0.028209827637382719 0 0.038490795477033685 -0.027868262122712123 0 0.039012660368220507 -0.027855112814261097 0 0.038490795477033685 -0.027868262122712123 0 0.038559829222485575 -0.027227958650617508 0 0.037415367681958758 -0.029048191387521714 0 0.038297869301772092 -0.029072446501775446 0 0.038003253992815678 -0.029844235358349284 0 0.039012660368220507 -0.027855112814261097 0 0.039380897263290846 -0.027142457307056781 0 0.038559829222485575 -0.027227958650617508 0 0.035778312284274694 -0.026639718032359004 0 0.035345279074935447 -0.025986472070885346 0 0.035345279074935447 -0.025986472070885346 0 0.03521687929058654 -0.023776732429744766 0 0.039380897263290846 -0.027142457307056781 0 0.038559829222485575 -0.027227958650617508 0 0.038923906949385724 -0.02625947040584738 0 0.038234989948239088 -0.02641674394058656 0 0.038559829222485575 -0.027227958650617508 0 0.038923906949385724 -0.02625947040584738 0 0.032551242614143425 -0.015592298871274635 0 0.033594075403764988 -0.017013382016134719 0 0.031972365295662032 -0.017087724459502192 0 0.036818860068998434 -0.028811310744149842 0 0.036804476217542792 -0.028777306002490812 0 0.036765697028409615 -0.028810739788525514 0 0.036888239639660418 -0.028730715754032823 0 0.036818860068998434 -0.028811310744149842 0 0.036804476217542792 -0.028777306002490812 0 0.035345279074935447 -0.025986472070885346 0 0.033854664726438902 -0.024790558636118783 0 0.036765697028409615 -0.028810739788525514 0 0.036772498400395703 -0.028767649536549044 0 0.036758315506738262 -0.028751742484208344 0 0.036804476217542792 -0.028777306002490812 0 0.036765697028409615 -0.028810739788525514 0 0.036772498400395703 -0.028767649536549044 0 0.031697333737767751 -0.028384932567039473 0 0.031450189948678341 -0.030344765555731484 0 0.023695764408673242 -0.033199336577074468 0 0.024193066031224095 -0.034705677849805598 0 0.024453570892180667 -0.034071933634768133 0 0.036772498400395703 -0.028767649536549044 0 0.036751699203318437 -0.028751610167115551 0 0.036804461458669953 -0.028743985368003048 0 0.036804476217542792 -0.028777306002490812 0 0.036772498400395703 -0.028767649536549044 0 0.036804461458669953 -0.028743985368003048 0 0.036772498400395703 -0.028767649536549044 0 0.036751699203318437 -0.028751610167115551 0 0.036758315506738262 -0.028751742484208344 0 0.036751699203318437 -0.028751610167115551 0 0.03679309543494716 -0.028716789923730092 0 0.036804461458669953 -0.028743985368003048 0 0.036827336667866417 -0.02869973536841473 0 0.03679309543494716 -0.028716789923730092 0 0.036804461458669953 -0.028743985368003048 0 0.036888239639660418 -0.028730715754032823 0 0.036804476217542792 -0.028777306002490812 0 0.036804461458669953 -0.028743985368003048 0 0.036827336667866417 -0.02869973536841473 0 0.036888239639660418 -0.028730715754032823 0 0.036804461458669953 -0.028743985368003048 0 0.025164108606852 -0.034280666992746969 0 0.025515078295692589 -0.034701979337756816 0 0.02581206411993681 -0.034950723130361329 0 0.025958623710321607 -0.03448266670636381 0 0.026943279444793005 -0.034585591641851259 0 0.027323785044949603 -0.035599078126638026 0 0.022270756489287006 -0.035525683725635547 0 0.021267919204665017 -0.035328342388532608 0 0.025164108606852 -0.034280666992746969 0 0.02503649525474954 -0.034625192757386458 0 0.024753749506065494 -0.034276023328591733 0 0.025164108606852 -0.034280666992746969 0 0.025515078295692589 -0.034701979337756816 0 0.02503649525474954 -0.034625192757386458 0 0.025958623710321607 -0.03448266670636381 0 0.026943279444793005 -0.034585591641851259 0 0.02656134291624716 -0.033848655609816765 0 0.025515078295692589 -0.034701979337756816 0 0.025158677566204997 -0.034906652481101766 0 0.025367157851247428 -0.035087485973929779 0 0.025515078295692589 -0.034701979337756816 0 0.025641718494466278 -0.03504440541441927 0 0.025367157851247428 -0.035087485973929779 0 0.025515078295692589 -0.034701979337756816 0 0.025158677566204997 -0.034906652481101766 0 0.02503649525474954 -0.034625192757386458 0 0.025158677566204997 -0.034906652481101766 0 0.02503649525474954 -0.034625192757386458 0 0.024875677723239967 -0.034924706690710641 0 0.024875677723239967 -0.034924706690710641 0 0.024598566812087941 -0.034925409415173893 0 0.024712785775045334 -0.03464916256983764 0 0.024598566812087941 -0.034925409415173893 0 0.024712785775045334 -0.03464916256983764 0 0.024528209085272715 -0.034515066226459327 0 0.02503649525474954 -0.034625192757386458 0 0.024875677723239967 -0.034924706690710641 0 0.024712785775045334 -0.03464916256983764 0 0.024598566812087941 -0.034925409415173893 0 0.024193066031224095 -0.034705677849805598 0 0.024528209085272715 -0.034515066226459327 0 0.024193066031224095 -0.034705677849805598 0 0.024528209085272715 -0.034515066226459327 0 0.024453570892180667 -0.034071933634768133 0 0.024528209085272715 -0.034515066226459327 0 0.024753749506065494 -0.034276023328591733 0 0.024453570892180667 -0.034071933634768133 0 0.02503649525474954 -0.034625192757386458 0 0.024712785775045334 -0.03464916256983764 0 0.024753749506065494 -0.034276023328591733 0 0.024712785775045334 -0.03464916256983764 0 0.024528209085272715 -0.034515066226459327 0 0.024753749506065494 -0.034276023328591733 0 0.025164108606852 -0.034280666992746969 0 0.024753749506065494 -0.034276023328591733 0 0.024515978556535024 -0.033373392374625867 0 0.024515978556535024 -0.033373392374625867 0 0.025964288473602132 -0.033235166319785736 0 0.025139014422719222 -0.032550970141988871 0 0.025958623710321607 -0.03448266670636381 0 0.024515978556535024 -0.033373392374625867 0 0.025964288473602132 -0.033235166319785736 0 0.022270756489287006 -0.035525683725635547 0 0.022467640054487818 -0.035483234914220986 0 0.024753749506065494 -0.034276023328591733 0 0.024453570892180667 -0.034071933634768133 0 0.024515978556535024 -0.033373392374625867 0 0.023695764408673242 -0.033199336577074468 0 0.024453570892180667 -0.034071933634768133 0 0.024515978556535024 -0.033373392374625867 0 0.025964288473602132 -0.033235166319785736 0 0.02656134291624716 -0.033848655609816765 0 0.027353116147071362 -0.033270403223825205 0 0.025958623710321607 -0.03448266670636381 0 0.025964288473602132 -0.033235166319785736 0 0.02656134291624716 -0.033848655609816765 0 0.012178404331509721 -0.032088646890020348 0 0.01275168714610812 -0.032084718861485416 0 0.012914052262610881 -0.032957141559521973 0 0.026943279444793005 -0.034585591641851259 0 0.02656134291624716 -0.033848655609816765 0 0.027353116147071362 -0.033270403223825205 0 0.019703973368077363 -0.035094568463724649 0 0.019446977696966426 -0.034948983692328024 0 0.01275168714610812 -0.032084718861485416 0 0.012914052262610881 -0.032957141559521973 0 0.013413123303870053 -0.03184271297371849 0 0.013755449201741687 -0.032629525614442052 0 0.013040155747663977 -0.032996246881609112 0 0.013413123303870053 -0.03184271297371849 0 0.013755449201741687 -0.032629525614442052 0 0.013413123303870053 -0.03184271297371849 0 0.013900567402296502 -0.031793649686159782 0 0.013040155747663977 -0.032996246881609112 0 0.013539240450369524 -0.033845771707083867 0 0.012545492318929636 -0.034218359985234106 0 0.013755449201741687 -0.032629525614442052 0 0.014090136655791093 -0.033461084916403393 0 0.013040155747663977 -0.032996246881609112 0 0.014090136655791093 -0.033461084916403393 0 0.013040155747663977 -0.032996246881609112 0 0.013539240450369524 -0.033845771707083867 0 0.014090136655791093 -0.033461084916403393 0 0.013539240450369524 -0.033845771707083867 0 0.014117787817216539 -0.034146512620104832 0 0.02107237758050674 -0.032835499673364819 0 0.020933034190570628 -0.035211056012603784 0 0.019703973368077363 -0.035094568463724649 0 0.02065325167342931 -0.03526667198011417 0 0.012914052262610881 -0.032957141559521973 0 0.012310164349843836 -0.034032895108267451 0 0.012431615049013732 -0.034131732558305372 0 0.012178404331509721 -0.032088646890020348 0 0.012914052262610881 -0.032957141559521973 0 0.012310164349843836 -0.034032895108267451 0 0.026943279444793005 -0.034585591641851259 0 0.027353116147071362 -0.033270403223825205 0 0.027520857695138297 -0.03576224929910967 0 0.026943279444793005 -0.034585591641851259 0 0.027323785044949603 -0.035599078126638026 0 0.027520857695138297 -0.03576224929910967 0 0.021387247262264864 -0.035374717442584483 0 0.021267919204665017 -0.035328342388532608 0 0.025515078295692589 -0.034701979337756816 0 0.025855239390275776 -0.034936193331957403 0 0.025641718494466278 -0.03504440541441927 0 0.025641718494466278 -0.03504440541441927 0 0.025750208481482847 -0.035203929647187146 0 0.025842762532660487 -0.035087165194863774 0 0.025855239390275776 -0.034936193331957403 0 0.025641718494466278 -0.03504440541441927 0 0.025842762532660487 -0.035087165194863774 0 0.025641718494466278 -0.03504440541441927 0 0.025750208481482847 -0.035203929647187146 0 0.025524149761466285 -0.035328633674158116 0 0.025750208481482847 -0.035203929647187146 0 0.026001736470605344 -0.035278164446354045 0 0.025732270394177248 -0.035361687378432226 0 0.025750208481482847 -0.035203929647187146 0 0.025732270394177248 -0.035361687378432226 0 0.025524149761466285 -0.035328633674158116 0 0.025750208481482847 -0.035203929647187146 0 0.026001736470605344 -0.035278164446354045 0 0.025842762532660487 -0.035087165194863774 0 0.020904641250742453 -0.035513228801072702 0 0.020933034190570628 -0.035211056012603784 0 0.026001736470605344 -0.035278164446354045 0 0.025842762532660487 -0.035087165194863774 0 0.025973657162065615 -0.035027477358019761 0 0.021824563873514981 -0.035207765564213442 0 0.021778947239432099 -0.034555992620617336 0 0.022017451186134674 -0.034751344680949633 0 0.020933034190570628 -0.035211056012603784 0 0.02065325167342931 -0.03526667198011417 0 0.025855239390275776 -0.034936193331957403 0 0.025842762532660487 -0.035087165194863774 0 0.025973657162065615 -0.035027477358019761 0 0.021267919204665017 -0.035328342388532608 0 0.020933034190570628 -0.035211056012603784 0 0.020904641250742453 -0.035513228801072702 0 0.02065325167342931 -0.03526667198011417 0 0.02065325167342931 -0.03526667198011417 0 0.020312397886201154 -0.035875174444381291 0 0.023810884197380762 -0.043367776089619038 0 0.023441212731483866 -0.042261576420392175 0 0.022508642833828557 -0.042311773483112235 0 0.023952420713034845 -0.043032913488494084 0 0.023810884197380762 -0.043367776089619038 0 0.023441212731483866 -0.042261576420392175 0 0.026001736470605344 -0.035278164446354045 0 0.025625175134312887 -0.035651034182156795 0 0.025732270394177248 -0.035361687378432226 0 0.025625175134312887 -0.035651034182156795 0 0.025732270394177248 -0.035361687378432226 0 0.025524149761466285 -0.035328633674158116 0 0.012545492318929636 -0.034218359985234106 0 0.013791138147668415 -0.034892107700823162 0 0.013923589640863033 -0.035066514485672981 0 0.012545492318929636 -0.034218359985234106 0 0.013640959952587378 -0.034355553639852071 0 0.013791138147668415 -0.034892107700823162 0 0.02065325167342931 -0.03526667198011417 0 0.019041836628400328 -0.035366135211810597 0 0.020153763842370429 -0.035651975452713473 0 0.01988986236744476 -0.035448254787246385 0 0.019771543608596752 -0.035427861252098278 0 0.013640959952587378 -0.034355553639852071 0 0.014117787817216539 -0.034146512620104832 0 0.014217853165945531 -0.034711135099943995 0 0.013539240450369524 -0.033845771707083867 0 0.013640959952587378 -0.034355553639852071 0 0.014117787817216539 -0.034146512620104832 0 0.013539240450369524 -0.033845771707083867 0 0.012545492318929636 -0.034218359985234106 0 0.013640959952587378 -0.034355553639852071 0 0.013640959952587378 -0.034355553639852071 0 0.013791138147668415 -0.034892107700823162 0 0.014217853165945531 -0.034711135099943995 0 0.019028174169804932 -0.035355706191366902 0 0.019041836628400328 -0.035366135211810597 0 0.013791138147668415 -0.034892107700823162 0 0.013932673282772107 -0.035069803414354103 0 0.014217853165945531 -0.034711135099943995 0 0.022508642833828557 -0.042311773483112235 0 0.022414431236095368 -0.040595071152658951 0 0.021184975005056648 -0.041254620106036602 0 0.022508642833828557 -0.042311773483112235 0 0.023045097293770106 -0.041422093961441663 0 0.022414431236095368 -0.040595071152658951 0 0.01988986236744476 -0.035448254787246385 0 0.019771543608596752 -0.035427861252098278 0 0.019626154343526436 -0.035244504902153702 0 0.020312397886201154 -0.035875174444381291 0 0.019430445340268967 -0.035869461168887617 0 0.023441212731483866 -0.042261576420392175 0 0.022508642833828557 -0.042311773483112235 0 0.023045097293770106 -0.041422093961441663 0 0.023045097293770106 -0.041422093961441663 0 0.023809853617464499 -0.040703601705811089 0 0.022414431236095368 -0.040595071152658951 0 0.022414431236095368 -0.040595071152658951 0 0.021616129316924103 -0.040379869296930819 0 0.021184975005056648 -0.041254620106036602 0 0.020904641250742453 -0.035513228801072702 0 0.021649075315658427 -0.037071142382575036 0 0.023441212731483866 -0.042261576420392175 0 0.023045097293770106 -0.041422093961441663 0 0.023809853617464499 -0.040703601705811089 0 0.026001736470605344 -0.035278164446354045 0 0.025625175134312887 -0.035651034182156795 0 0.025431335264723368 -0.036379563017501941 0 0.023952420713034845 -0.043032913488494084 0 0.023441212731483866 -0.042261576420392175 0 0.023809853617464499 -0.040703601705811089 0 0.020904641250742453 -0.035513228801072702 0 0.021573544733638424 -0.035682640771131729 0 0.023860643585318475 -0.038780607270079218 0 0.023800281333162348 -0.037805043897534814 0 0.024233219932290044 -0.037933663483628852 0 0.025431335264723368 -0.036379563017501941 0 0.025102466872077941 -0.036162081488656489 0 0.025297038506784646 -0.035945925607611895 0 0.025431335264723368 -0.036379563017501941 0 0.024854867304142821 -0.036376388331870776 0 0.024814384277190696 -0.03662078643131729 0 0.024854867304142821 -0.036376388331870776 0 0.025102466872077941 -0.036162081488656489 0 0.024852344660408462 -0.036024604189637904 0 0.025431335264723368 -0.036379563017501941 0 0.024854867304142821 -0.036376388331870776 0 0.025102466872077941 -0.036162081488656489 0 0.025102466872077941 -0.036162081488656489 0 0.025036080840332538 -0.035894008003282192 0 0.025297038506784646 -0.035945925607611895 0 0.025102466872077941 -0.036162081488656489 0 0.024852344660408462 -0.036024604189637904 0 0.025036080840332538 -0.035894008003282192 0 0.024852344660408462 -0.036024604189637904 0 0.025036080840332538 -0.035894008003282192 0 0.024796833178019187 -0.035754000552269183 0 0.025625175134312887 -0.035651034182156795 0 0.025431335264723368 -0.036379563017501941 0 0.025297038506784646 -0.035945925607611895 0 0.025036080840332538 -0.035894008003282192 0 0.025297038506784646 -0.035945925607611895 0 0.025310207250135993 -0.03564559980769505 0 0.025625175134312887 -0.035651034182156795 0 0.025297038506784646 -0.035945925607611895 0 0.025310207250135993 -0.03564559980769505 0 0.025625175134312887 -0.035651034182156795 0 0.025310207250135993 -0.03564559980769505 0 0.025524149761466285 -0.035328633674158116 0 0.025310207250135993 -0.03564559980769505 0 0.025524149761466285 -0.035328633674158116 0 0.02528340886341874 -0.035350622794752568 0 0.025036080840332538 -0.035894008003282192 0 0.025310207250135993 -0.03564559980769505 0 0.024981250683532616 -0.035532701573583514 0 0.025036080840332538 -0.035894008003282192 0 0.024981250683532616 -0.035532701573583514 0 0.024796833178019187 -0.035754000552269183 0 0.025310207250135993 -0.03564559980769505 0 0.024981250683532616 -0.035532701573583514 0 0.02528340886341874 -0.035350622794752568 0 0.024981250683532616 -0.035532701573583514 0 0.025078566198723069 -0.035211892034319063 0 0.02528340886341874 -0.035350622794752568 0 0.025078566198723069 -0.035211892034319063 0 0.025367157851247428 -0.035087485973929779 0 0.02528340886341874 -0.035350622794752568 0 0.024981250683532616 -0.035532701573583514 0 0.025078566198723069 -0.035211892034319063 0 0.024782482291742708 -0.035226040469468749 0 0.024875677723239967 -0.034924706690710641 0 0.025078566198723069 -0.035211892034319063 0 0.024782482291742708 -0.035226040469468749 0 0.025158677566204997 -0.034906652481101766 0 0.024875677723239967 -0.034924706690710641 0 0.025078566198723069 -0.035211892034319063 0 0.025158677566204997 -0.034906652481101766 0 0.025078566198723069 -0.035211892034319063 0 0.025367157851247428 -0.035087485973929779 0 0.025641718494466278 -0.03504440541441927 0 0.025367157851247428 -0.035087485973929779 0 0.025524149761466285 -0.035328633674158116 0 0.025367157851247428 -0.035087485973929779 0 0.025524149761466285 -0.035328633674158116 0 0.02528340886341874 -0.035350622794752568 0 0.036721681590238607 -0.028884179053898749 0 0.036758315506738262 -0.028751742484208344 0 0.036774970069598067 -0.028885072513486449 0 0.031450189948678341 -0.030344765555731484 0 0.031191096881928157 -0.031559645268007377 0 0.024193066031224095 -0.034705677849805598 0 0.024645229564072651 -0.035347257728066322 0 0.024508521883677511 -0.035900693370394095 0 0.024598566812087941 -0.034925409415173893 0 0.024193066031224095 -0.034705677849805598 0 0.024645229564072651 -0.035347257728066322 0 0.024598566812087941 -0.034925409415173893 0 0.024782482291742708 -0.035226040469468749 0 0.024645229564072651 -0.035347257728066322 0 0.024875677723239967 -0.034924706690710641 0 0.024598566812087941 -0.034925409415173893 0 0.024782482291742708 -0.035226040469468749 0 0.024981250683532616 -0.035532701573583514 0 0.024645229564072651 -0.035347257728066322 0 0.024796833178019187 -0.035754000552269183 0 0.024645229564072651 -0.035347257728066322 0 0.024508521883677511 -0.035900693370394095 0 0.024796833178019187 -0.035754000552269183 0 0.024981250683532616 -0.035532701573583514 0 0.024782482291742708 -0.035226040469468749 0 0.024645229564072651 -0.035347257728066322 0 0.032298106436308087 -0.031157379872189733 0 0.031527546442888014 -0.032635279284240329 0 0.036721681590238607 -0.028884179053898749 0 0.036774970069598067 -0.028885072513486449 0 0.036736175137941585 -0.029043493184699194 0 0.031191096881928157 -0.031559645268007377 0 0.030911078735585063 -0.032303863171509885 0 0.024854867304142821 -0.036376388331870776 0 0.024508521883677511 -0.035900693370394095 0 0.024814384277190696 -0.03662078643131729 0 0.024854867304142821 -0.036376388331870776 0 0.024852344660408462 -0.036024604189637904 0 0.024508521883677511 -0.035900693370394095 0 0.024852344660408462 -0.036024604189637904 0 0.024508521883677511 -0.035900693370394095 0 0.024796833178019187 -0.035754000552269183 0 0.036774970069598067 -0.028885072513486449 0 0.036736175137941585 -0.029043493184699194 0 0.036813804964223144 -0.029045214628039592 0 0.036770228741702334 -0.028228271154601598 0 0.036710179457025996 -0.028585642443331404 0 0.036594926194478392 -0.028208995951885734 0 0.024508521883677511 -0.035900693370394095 0 0.024814384277190696 -0.03662078643131729 0 0.024718540816569424 -0.036943958166559737 0 0.031527546442888014 -0.032635279284240329 0 0.030911078735585063 -0.032303863171509885 0 0.025975480156558081 -0.038409402983637354 0 0.025157362906629861 -0.038409999472692156 0 0.025564625462817101 -0.037922008287839551 0 0.024233219932290044 -0.037933663483628852 0 0.024645590736374793 -0.036983161463957595 0 0.02410435604163691 -0.037305527409244733 0 0.021573544733638424 -0.035682640771131729 0 0.021787552587601899 -0.035721814019967761 0 0.025431335264723368 -0.036379563017501941 0 0.024771301908769146 -0.036930412172650022 0 0.024645590736374793 -0.036983161463957595 0 0.025431335264723368 -0.036379563017501941 0 0.024814384277190696 -0.03662078643131729 0 0.024771301908769146 -0.036930412172650022 0 0.024814384277190696 -0.03662078643131729 0 0.024771301908769146 -0.036930412172650022 0 0.024718540816569424 -0.036943958166559737 0 0.030899406487554102 -0.032306323743560565 0 0.030911078735585063 -0.032303863171509885 0 0.024771301908769146 -0.036930412172650022 0 0.024793607515892747 -0.037062259459033228 0 0.024645590736374793 -0.036983161463957595 0 0.024793607515892747 -0.037062259459033228 0 0.024645590736374793 -0.036983161463957595 0 0.02444762110242165 -0.036532862444351014 0 0.030911078735585063 -0.032303863171509885 0 0.029930533198926645 -0.033564862392361609 0 0.025157362906629861 -0.038409999472692156 0 0.025564625462817101 -0.037922008287839551 0 0.024636306012354489 -0.036909164611064194 0 0.024231942143630177 -0.036908043929868253 0 0.024645590736374793 -0.036983161463957595 0 0.02444762110242165 -0.036532862444351014 0 0.024231942143630177 -0.036908043929868253 0 0.024645590736374793 -0.036983161463957595 0 0.02410435604163691 -0.037305527409244733 0 0.025734520674023369 -0.037307649269317643 0 0.025564625462817101 -0.037922008287839551 0 0.024636306012354489 -0.036909164611064194 0 0.026811296893948566 -0.037691749473986076 0 0.02602177817953975 -0.038490762590325252 0 0.025764424360992952 -0.037342847871800783 0 0.031527546442888014 -0.032635279284240329 0 0.031084690190519966 -0.033711544076911709 0 0.025975480156558081 -0.038409402983637354 0 0.025734520674023369 -0.037307649269317643 0 0.025564625462817101 -0.037922008287839551 0 0.027025619695798819 -0.03648321704260428 0 0.025764424360992952 -0.037342847871800783 0 0.025496963171228387 -0.036188984877319037 0 0.025734520674023369 -0.037307649269317643 0 0.025496963171228387 -0.036188984877319037 0 0.024636306012354489 -0.036909164611064194 0 0.031084690190519966 -0.033711544076911709 0 0.03092057490314459 -0.033968857923419818 0 0.029930533198926645 -0.033564862392361609 0 0.029553318506649537 -0.03376940972350239 0 0.024636306012354489 -0.036909164611064194 0 0.024755815686097849 -0.035994647921676753 0 0.024067773238447537 -0.035344481419699016 0 0.025496963171228387 -0.036188984877319037 0 0.024636306012354489 -0.036909164611064194 0 0.024755815686097849 -0.035994647921676753 0 0.025496963171228387 -0.036188984877319037 0 0.024816916657866606 -0.035534195210983069 0 0.024755815686097849 -0.035994647921676753 0 0.024816916657866606 -0.035534195210983069 0 0.025821206013381101 -0.034999947982146604 0 0.023990529899944407 -0.035000080529729666 0 0.024816916657866606 -0.035534195210983069 0 0.024755815686097849 -0.035994647921676753 0 0.024067773238447537 -0.035344481419699016 0 0.024816916657866606 -0.035534195210983069 0 0.024067773238447537 -0.035344481419699016 0 0.023990529899944407 -0.035000080529729666 0 0.026368319533689948 -0.035786844147111418 0 0.025496963171228387 -0.036188984877319037 0 0.025821206013381101 -0.034999947982146604 0 0.025496963171228387 -0.036188984877319037 0 0.024816916657866606 -0.035534195210983069 0 0.025821206013381101 -0.034999947982146604 0 0.022324261058440258 -0.03593259663631964 0 0.022159436674178131 -0.034999720032590054 0 0.023371298528546351 -0.035967024644936223 0 0.022324261058440258 -0.03593259663631964 0 0.022159436674178131 -0.034999720032590054 0 0.021445439885667113 -0.035843734392985799 0 0.022159436674178131 -0.034999720032590054 0 0.023990529899944407 -0.035000080529729666 0 0.023371298528546351 -0.035967024644936223 0 0.024067773238447537 -0.035344481419699016 0 0.023990529899944407 -0.035000080529729666 0 0.023371298528546351 -0.035967024644936223 0 0.022091815024254221 -0.037026867050452938 0 0.021999309649759741 -0.037190075690537339 0 0.02444762110242165 -0.036532862444351014 0 0.024067773238447537 -0.035344481419699016 0 0.023371298528546351 -0.035967024644936223 0 0.02444762110242165 -0.036532862444351014 0 0.023371298528546351 -0.035967024644936223 0 0.023711515010840494 -0.036878416100431438 0 0.023371298528546351 -0.035967024644936223 0 0.022321582232287654 -0.03715276486595092 0 0.023655113795780325 -0.038293407921428962 0 0.022324261058440258 -0.03593259663631964 0 0.023371298528546351 -0.035967024644936223 0 0.022321582232287654 -0.03715276486595092 0 0.022324261058440258 -0.03593259663631964 0 0.022321582232287654 -0.03715276486595092 0 0.021445439885667113 -0.035843734392985799 0 0.022321582232287654 -0.03715276486595092 0 0.021710707614247649 -0.038131425781560736 0 0.023655113795780325 -0.038293407921428962 0 0.021710707614247649 -0.038131425781560736 0 0.023655113795780325 -0.038293407921428962 0 0.021906397062123342 -0.03928777112665343 0 0.024231942143630177 -0.036908043929868253 0 0.02444762110242165 -0.036532862444351014 0 0.023711515010840494 -0.036878416100431438 0 0.024231942143630177 -0.036908043929868253 0 0.023711515010840494 -0.036878416100431438 0 0.02410435604163691 -0.037305527409244733 0 0.021649075315658427 -0.037071142382575036 0 0.021999309649759741 -0.037190075690537339 0 0.023800281333162348 -0.037805043897534814 0 0.023711515010840494 -0.036878416100431438 0 0.02410435604163691 -0.037305527409244733 0 0.023809853617464499 -0.040703601705811089 0 0.023655113795780325 -0.038293407921428962 0 0.022414431236095368 -0.040595071152658951 0 0.023800281333162348 -0.037805043897534814 0 0.024233219932290044 -0.037933663483628852 0 0.02410435604163691 -0.037305527409244733 0 0.023655113795780325 -0.038293407921428962 0 0.021906397062123342 -0.03928777112665343 0 0.022414431236095368 -0.040595071152658951 0 0.021906397062123342 -0.03928777112665343 0 0.022414431236095368 -0.040595071152658951 0 0.021616129316924103 -0.040379869296930819 0 0.019116620443275303 -0.035741969823937486 0 0.019430445340268967 -0.035869461168887617 0 0.019164735177903111 -0.036215649050135156 0 0.019430445340268967 -0.035869461168887617 0 0.020988416723937846 -0.040047609836117951 0 0.019883671750079875 -0.039645652532991585 0 0.021184975005056648 -0.041254620106036602 0 0.021616129316924103 -0.040379869296930819 0 0.020988416723937846 -0.040047609836117951 0 0.021184975005056648 -0.041254620106036602 0 0.016848019120603568 -0.036249182357858289 0 0.016842626485585512 -0.036243622337713492 0 0.016870096965460244 -0.036257469915689712 0 0.021906397062123342 -0.03928777112665343 0 0.021616129316924103 -0.040379869296930819 0 0.020988416723937846 -0.040047609836117951 0 0.020988416723937846 -0.040047609836117951 0 0.020488504821539955 -0.039436591122358776 0 0.020829238990519729 -0.038900536065931052 0 0.020988416723937846 -0.040047609836117951 0 0.020488504821539955 -0.039436591122358776 0 0.019883671750079875 -0.039645652532991585 0 0.020255477184002342 -0.039145786914401515 0 0.020488504821539955 -0.039436591122358776 0 0.019883671750079875 -0.039645652532991585 0 0.020255477184002342 -0.039145786914401515 0 0.020488504821539955 -0.039436591122358776 0 0.020829238990519729 -0.038900536065931052 0 0.021906397062123342 -0.03928777112665343 0 0.020988416723937846 -0.040047609836117951 0 0.020829238990519729 -0.038900536065931052 0 0.017828824936631869 -0.035126881627648342 0 0.018062168997550115 -0.03515036937255514 0 0.016848019120603568 -0.036249182357858289 0 0.016723594541658966 -0.036204820900786056 0 0.016887546995307555 -0.036343439091524668 0 0.016723594541658966 -0.036204820900786056 0 0.016151515021711117 -0.035715474598174188 0 0.015420416440062187 -0.035871242211809949 0 0.016842626485585512 -0.036243622337713492 0 0.016835859022920768 -0.036232002033044268 0 0.016838060244740976 -0.036229704820204343 0 0.016848019120603568 -0.036249182357858289 0 0.016842626485585512 -0.036243622337713492 0 0.016835859022920768 -0.036232002033044268 0 0.016848019120603568 -0.036249182357858289 0 0.016835859022920768 -0.036232002033044268 0 0.016723594541658966 -0.036204820900786056 0 0.016835859022920768 -0.036232002033044268 0 0.016838060244740976 -0.036229704820204343 0 0.016723594541658966 -0.036204820900786056 0 0.016842626485585512 -0.036243622337713492 0 0.016838060244740976 -0.036229704820204343 0 0.016912789710055193 -0.03619715926315966 0 0.019883671750079875 -0.039645652532991585 0 0.019746648831997109 -0.03847966272559393 0 0.018368277726677304 -0.037906245813363937 0 0.019164735177903111 -0.036215649050135156 0 0.0188210825849442 -0.036144763182272839 0 0.020255477184002342 -0.039145786914401515 0 0.019883671750079875 -0.039645652532991585 0 0.019746648831997109 -0.03847966272559393 0 0.019746648831997109 -0.03847966272559393 0 0.019661202694305931 -0.037553171520300674 0 0.018368277726677304 -0.037906245813363937 0 0.021710707614247649 -0.038131425781560736 0 0.021906397062123342 -0.03928777112665343 0 0.020829238990519729 -0.038900536065931052 0 0.020255477184002342 -0.039145786914401515 0 0.019746648831997109 -0.03847966272559393 0 0.020829238990519729 -0.038900536065931052 0 0.019746648831997109 -0.03847966272559393 0 0.020829238990519729 -0.038900536065931052 0 0.020748346579007221 -0.037764946469591928 0 0.019746648831997109 -0.03847966272559393 0 0.019661202694305931 -0.037553171520300674 0 0.020748346579007221 -0.037764946469591928 0 0.022321582232287654 -0.03715276486595092 0 0.021710707614247649 -0.038131425781560736 0 0.020748346579007221 -0.037764946469591928 0 0.021710707614247649 -0.038131425781560736 0 0.020829238990519729 -0.038900536065931052 0 0.020748346579007221 -0.037764946469591928 0 0.020724191079932806 -0.036830551944665932 0 0.019393004978211788 -0.036591953137309265 0 0.021445439885667113 -0.035843734392985799 0 0.022321582232287654 -0.03715276486595092 0 0.020748346579007221 -0.037764946469591928 0 0.020724191079932806 -0.036830551944665932 0 0.022321582232287654 -0.03715276486595092 0 0.020724191079932806 -0.036830551944665932 0 0.021445439885667113 -0.035843734392985799 0 0.019661202694305931 -0.037553171520300674 0 0.020748346579007221 -0.037764946469591928 0 0.020724191079932806 -0.036830551944665932 0 0.019661202694305931 -0.037553171520300674 0 0.018368277726677304 -0.037906245813363937 0 0.019393004978211788 -0.036591953137309265 0 0.019393004978211788 -0.036591953137309265 0 0.017998676423926958 -0.035255437974231967 0 0.021445439885667113 -0.035843734392985799 0 0.019661202694305931 -0.037553171520300674 0 0.020724191079932806 -0.036830551944665932 0 0.019393004978211788 -0.036591953137309265 0 0.018368277726677304 -0.037906245813363937 0 0.018157980696846144 -0.036368340794383475 0 0.019393004978211788 -0.036591953137309265 0 0.018157980696846144 -0.036368340794383475 0 0.019393004978211788 -0.036591953137309265 0 0.017998676423926958 -0.035255437974231967 0 0.020328641737084024 -0.035000007005367754 0 0.01972132620036491 -0.035834574376819819 0 0.021445439885667113 -0.035843734392985799 0 0.018526943805199841 -0.035596379928836963 0 0.019068227381518719 -0.035632639263418496 0 0.022159436674178131 -0.034999720032590054 0 0.020328641737084024 -0.035000007005367754 0 0.021445439885667113 -0.035843734392985799 0 0.016666181000962513 -0.034999595338807275 0 0.018498216880549201 -0.035000083886960839 0 0.017821101655277002 -0.035754692911995387 0 0.017998676423926958 -0.035255437974231967 0 0.015987707480846072 -0.035304226871355003 0 0.016780605928565999 -0.035633600880778563 0 0.01972132620036491 -0.035834574376819819 0 0.018498216880549201 -0.035000083886960839 0 0.017821101655277002 -0.035754692911995387 0 0.018526943805199841 -0.035596379928836963 0 0.017684669831977941 -0.035546692065205415 0 0.020328641737084024 -0.035000007005367754 0 0.01972132620036491 -0.035834574376819819 0 0.018498216880549201 -0.035000083886960839 0 0.0188210825849442 -0.036144763182272839 0 0.018646186165340889 -0.036029527788657797 0 0.018368277726677304 -0.037906245813363937 0 0.018157980696846144 -0.036368340794383475 0 0.016952099573391072 -0.035747208136884721 0 0.015797849736365558 -0.035619427276046528 0 0.015721109553735915 -0.035574347019774091 0 0.017998676423926958 -0.035255437974231967 0 0.016780605928565999 -0.035633600880778563 0 0.016952099573391072 -0.035747208136884721 0 0.016780605928565999 -0.035633600880778563 0 0.016952099573391072 -0.035747208136884721 0 0.016888616510859409 -0.035990851369518351 0 0.016912789710055193 -0.03619715926315966 0 0.016952099573391072 -0.035747208136884721 0 0.016888616510859409 -0.035990851369518351 0 0.016780605928565999 -0.035633600880778563 0 0.016340028256243432 -0.035813597487323753 0 0.016451592177275914 -0.035962380080796566 0 0.016780605928565999 -0.035633600880778563 0 0.016888616510859409 -0.035990851369518351 0 0.016801665324413167 -0.036344793174079612 0 0.018157980696846144 -0.036368340794383475 0 0.017998676423926958 -0.035255437974231967 0 0.016952099573391072 -0.035747208136884721 0 0.015987707480846072 -0.035304226871355003 0 0.016780605928565999 -0.035633600880778563 0 0.016207711373928808 -0.035648326571696566 0 0.016780605928565999 -0.035633600880778563 0 0.016340028256243432 -0.035813597487323753 0 0.016207711373928808 -0.035648326571696566 0 0.015957108969446514 -0.035554438385595279 0 0.015987707480846072 -0.035304226871355003 0 0.016207711373928808 -0.035648326571696566 0 0.015957108969446514 -0.035554438385595279 0 0.016207711373928808 -0.035648326571696566 0 0.01609411824451068 -0.035752875361391205 0 0.016340028256243432 -0.035813597487323753 0 0.016207711373928808 -0.035648326571696566 0 0.01609411824451068 -0.035752875361391205 0 0.016340028256243432 -0.035813597487323753 0 0.01609411824451068 -0.035752875361391205 0 0.016196426184771632 -0.035952417305490161 0 0.016340028256243432 -0.035813597487323753 0 0.016196426184771632 -0.035952417305490161 0 0.016451592177275914 -0.035962380080796566 0 0.016196426184771632 -0.035952417305490161 0 0.016451592177275914 -0.035962380080796566 0 0.016238798719190761 -0.036202427158846404 0 0.016838060244740976 -0.036229704820204343 0 0.016912789710055193 -0.03619715926315966 0 0.016801665324413167 -0.036344793174079612 0 0.016838060244740976 -0.036229704820204343 0 0.016801665324413167 -0.036344793174079612 0 0.016723594541658966 -0.036204820900786056 0 0.016912789710055193 -0.03619715926315966 0 0.016888616510859409 -0.035990851369518351 0 0.016801665324413167 -0.036344793174079612 0 0.015721109553735915 -0.035574347019774091 0 0.015467887785644188 -0.035201279904141763 0 0.016451592177275914 -0.035962380080796566 0 0.016238798719190761 -0.036202427158846404 0 0.016497936448213724 -0.036390873497157507 0 0.016801665324413167 -0.036344793174079612 0 0.016723594541658966 -0.036204820900786056 0 0.016811540067948362 -0.035846638813137537 0 0.016723594541658966 -0.036204820900786056 0 0.016811540067948362 -0.035846638813137537 0 0.016151515021711117 -0.035715474598174188 0 0.016053684376160015 -0.036073090696738391 0 0.016196426184771632 -0.035952417305490161 0 0.016238798719190761 -0.036202427158846404 0 0.015897905681869228 -0.036283524152277147 0 0.016238798719190761 -0.036202427158846404 0 0.016243349663135953 -0.036563758322753513 0 0.015406248897460157 -0.034995265231996697 0 0.015240305508252663 -0.034701881080294247 0 0.016238798719190761 -0.036202427158846404 0 0.016243349663135953 -0.036563758322753513 0 0.016497936448213724 -0.036390873497157507 0 0.013870330850238413 -0.033900539038612454 0 0.013251272486367498 -0.032993079585946133 0 0.014058529223765661 -0.032883001142293214 0 0.014761620230948415 -0.03370094029066039 0 0.013870330850238413 -0.033900539038612454 0 0.014058529223765661 -0.032883001142293214 0 0.014973972414718022 -0.034222087326242039 0 0.015467887785644188 -0.035201279904141763 0 0.015240305508252663 -0.034701881080294247 0 0.014973972414718022 -0.034222087326242039 0 0.016243349663135953 -0.036563758322753513 0 0.016547059821910105 -0.03683888847104843 0 0.016497936448213724 -0.036390873497157507 0 0.016704478065937629 -0.034244474795077362 0 0.016811540067948362 -0.035846638813137537 0 0.016149360557412375 -0.035130346480235997 0 0.016811540067948362 -0.035846638813137537 0 0.016151515021711117 -0.035715474598174188 0 0.016149360557412375 -0.035130346480235997 0 0.016151515021711117 -0.035715474598174188 0 0.015420416440062187 -0.035871242211809949 0 0.015592122087285804 -0.035276440335573041 0 0.016151515021711117 -0.035715474598174188 0 0.015592122087285804 -0.035276440335573041 0 0.016149360557412375 -0.035130346480235997 0 0.019041836628400328 -0.035366135211810597 0 0.018062168997550115 -0.03515036937255514 0 0.013932673282772107 -0.035069803414354103 0 0.015420416440062187 -0.035871242211809949 0 0.014916690805729181 -0.035100059111686135 0 0.016848019120603568 -0.036249182357858289 0 0.016887546995307555 -0.036343439091524668 0 0.017011020546808607 -0.036368862717497799 0 0.01708844693242164 -0.036461827148248034 0 0.016887546995307555 -0.036343439091524668 0 0.017011020546808607 -0.036368862717497799 0 0.015420416440062187 -0.035871242211809949 0 0.015592122087285804 -0.035276440335573041 0 0.014916690805729181 -0.035100059111686135 0 0.019041836628400328 -0.035366135211810597 0 0.019430445340268967 -0.035869461168887617 0 0.014916690805729181 -0.035100059111686135 0 0.014217853165945531 -0.034711135099943995 0 0.014797267568364024 -0.034137895461498001 0 0.013932673282772107 -0.035069803414354103 0 0.014916690805729181 -0.035100059111686135 0 0.014217853165945531 -0.034711135099943995 0 0.014916690805729181 -0.035100059111686135 0 0.014797267568364024 -0.034137895461498001 0 0.015652094437802543 -0.034442210732778394 0 0.014117787817216539 -0.034146512620104832 0 0.014217853165945531 -0.034711135099943995 0 0.014797267568364024 -0.034137895461498001 0 0.016704478065937629 -0.034244474795077362 0 0.016149360557412375 -0.035130346480235997 0 0.015652094437802543 -0.034442210732778394 0 0.015592122087285804 -0.035276440335573041 0 0.016149360557412375 -0.035130346480235997 0 0.015652094437802543 -0.034442210732778394 0 0.015592122087285804 -0.035276440335573041 0 0.014916690805729181 -0.035100059111686135 0 0.015652094437802543 -0.034442210732778394 0 0.013388078495483529 -0.0325530689302563 0 0.012948636996129354 -0.032009715541297896 0 0.013343638814814153 -0.032153444489983904 0 0.014973972414718022 -0.034222087326242039 0 0.014197953164694287 -0.033235390897458132 0 0.014797267568364024 -0.034137895461498001 0 0.015652094437802543 -0.034442210732778394 0 0.015374327900919872 -0.033007465721854333 0 0.016704478065937629 -0.034244474795077362 0 0.015652094437802543 -0.034442210732778394 0 0.015374327900919872 -0.033007465721854333 0 0.013755449201741687 -0.032629525614442052 0 0.014090136655791093 -0.033461084916403393 0 0.015374327900919872 -0.033007465721854333 0 0.014090136655791093 -0.033461084916403393 0 0.014797267568364024 -0.034137895461498001 0 0.015374327900919872 -0.033007465721854333 0 0.014090136655791093 -0.033461084916403393 0 0.014117787817216539 -0.034146512620104832 0 0.014797267568364024 -0.034137895461498001 0 0.012948636996129354 -0.032009715541297896 0 0.012884626264309378 -0.031524378755162785 0 0.012559441509592215 -0.031309016840309033 0 0.013755449201741687 -0.032629525614442052 0 0.015374327900919872 -0.033007465721854333 0 0.013900567402296502 -0.031793649686159782 0 0.014197953164694287 -0.033235390897458132 0 0.013602006047833801 -0.032534904973754393 0 0.012948636996129354 -0.032009715541297896 0 0.012884626264309378 -0.031524378755162785 0 0.013323555107752592 -0.03159756751222953 0 0.012948636996129354 -0.032009715541297896 0 0.013323555107752592 -0.03159756751222953 0 0.013343638814814153 -0.032153444489983904 0 0.013323555107752592 -0.03159756751222953 0 0.01380061657323123 -0.031526597471322193 0 0.013343638814814153 -0.032153444489983904 0 0.01380061657323123 -0.031526597471322193 0 0.013837374481600094 -0.032230979158642939 0 0.013343638814814153 -0.032153444489983904 0 0.014393766163311467 -0.032028231302472086 0 0.01380061657323123 -0.031526597471322193 0 0.013837374481600094 -0.032230979158642939 0 0.014393766163311467 -0.032028231302472086 0 0.01380061657323123 -0.031526597471322193 0 0.014337409775382807 -0.030983607249062906 0 0.013251272486367498 -0.032993079585946133 0 0.014058529223765661 -0.032883001142293214 0 0.013837374481600094 -0.032230979158642939 0 0.014393766163311467 -0.032028231302472086 0 0.014058529223765661 -0.032883001142293214 0 0.013837374481600094 -0.032230979158642939 0 0.013251272486367498 -0.032993079585946133 0 0.013837374481600094 -0.032230979158642939 0 0.013343638814814153 -0.032153444489983904 0 0.014973972414718022 -0.034222087326242039 0 0.014904266033329833 -0.034004658304562833 0 0.013619691851298387 -0.030813468869040784 0 0.014337409775382807 -0.030983607249062906 0 0.014160613953942075 -0.030254302285154105 0 0.01380061657323123 -0.031526597471322193 0 0.013619691851298387 -0.030813468869040784 0 0.014337409775382807 -0.030983607249062906 0 0.013323555107752592 -0.03159756751222953 0 0.01380061657323123 -0.031526597471322193 0 0.013619691851298387 -0.030813468869040784 0 0.012884626264309378 -0.031524378755162785 0 0.013323555107752592 -0.03159756751222953 0 0.01307450286743303 -0.0312131157205532 0 0.013323555107752592 -0.03159756751222953 0 0.013619691851298387 -0.030813468869040784 0 0.01307450286743303 -0.0312131157205532 0 0.012884626264309378 -0.031524378755162785 0 0.01277883728369481 -0.031217043080469888 0 0.012559441509592215 -0.031309016840309033 0 0.01277883728369481 -0.031217043080469888 0 0.012594726362856277 -0.031032817386601651 0 0.012559441509592215 -0.031309016840309033 0 0.012884626264309378 -0.031524378755162785 0 0.01307450286743303 -0.0312131157205532 0 0.01277883728369481 -0.031217043080469888 0 0.01307450286743303 -0.0312131157205532 0 0.01277883728369481 -0.031217043080469888 0 0.01280519807028806 -0.030949569224627105 0 0.01307450286743303 -0.0312131157205532 0 0.01280519807028806 -0.030949569224627105 0 0.013099065837099154 -0.030751298052529855 0 0.01277883728369481 -0.031217043080469888 0 0.01280519807028806 -0.030949569224627105 0 0.012594726362856277 -0.031032817386601651 0 0.01280519807028806 -0.030949569224627105 0 0.013099065837099154 -0.030751298052529855 0 0.012763190852813456 -0.030518086840743662 0 0.01280519807028806 -0.030949569224627105 0 0.012763190852813456 -0.030518086840743662 0 0.012571585754736648 -0.030827052166369662 0 0.01280519807028806 -0.030949569224627105 0 0.012571585754736648 -0.030827052166369662 0 0.012594726362856277 -0.031032817386601651 0 0.013619691851298387 -0.030813468869040784 0 0.01307450286743303 -0.0312131157205532 0 0.013099065837099154 -0.030751298052529855 0 0.013619691851298387 -0.030813468869040784 0 0.013099065837099154 -0.030751298052529855 0 0.013271448284407657 -0.030270934450857764 0 0.013099065837099154 -0.030751298052529855 0 0.013271448284407657 -0.030270934450857764 0 0.012763190852813456 -0.030518086840743662 0 0.013271448284407657 -0.030270934450857764 0 0.013487587785117787 -0.02975995923744967 0 0.013754116420050604 -0.030139673027779795 0 0.015820278278886196 -0.029282525073527889 0 0.016089955822859738 -0.028913138504684664 0 0.012763190852813456 -0.030518086840743662 0 0.012806933822661199 -0.029964056774472243 0 0.012494607026027593 -0.03033186220134516 0 0.013271448284407657 -0.030270934450857764 0 0.012763190852813456 -0.030518086840743662 0 0.012721346402402038 -0.02965305685595359 0 0.013271448284407657 -0.030270934450857764 0 0.012721346402402038 -0.02965305685595359 0 0.013487587785117787 -0.02975995923744967 0 0.012721346402402038 -0.02965305685595359 0 0.013487587785117787 -0.02975995923744967 0 0.013360739118834111 -0.029264157569448158 0 0.013487587785117787 -0.02975995923744967 0 0.014044347375994456 -0.02970420740542792 0 0.013754116420050604 -0.030139673027779795 0 0.013487587785117787 -0.02975995923744967 0 0.014044347375994456 -0.02970420740542792 0 0.013360739118834111 -0.029264157569448158 0 0.013619691851298387 -0.030813468869040784 0 0.013271448284407657 -0.030270934450857764 0 0.013754116420050604 -0.030139673027779795 0 0.013619691851298387 -0.030813468869040784 0 0.013754116420050604 -0.030139673027779795 0 0.014160613953942075 -0.030254302285154105 0 0.014044347375994456 -0.02970420740542792 0 0.013754116420050604 -0.030139673027779795 0 0.014160613953942075 -0.030254302285154105 0 0.014447361626994348 -0.029778172075372505 0 0.014044347375994456 -0.02970420740542792 0 0.014160613953942075 -0.030254302285154105 0 0.014447361626994348 -0.029778172075372505 0 0.014044347375994456 -0.02970420740542792 0 0.014267921003745666 -0.029465758457767898 0 0.014044347375994456 -0.02970420740542792 0 0.014267921003745666 -0.029465758457767898 0 0.014042182816262077 -0.029372465997059265 0 0.014044347375994456 -0.02970420740542792 0 0.014042182816262077 -0.029372465997059265 0 0.013875250994951552 -0.029401634231215331 0 0.015666834255947226 -0.027944981537076967 0 0.015902843163882008 -0.027876944841246101 0 0.014042182816262077 -0.029372465997059265 0 0.013963941064673449 -0.02924528361406099 0 0.013875250994951552 -0.029401634231215331 0 0.014042182816262077 -0.029372465997059265 0 0.013963941064673449 -0.02924528361406099 0 0.014081681933114206 -0.029076033845694581 0 0.014267921003745666 -0.029465758457767898 0 0.014042182816262077 -0.029372465997059265 0 0.014081681933114206 -0.029076033845694581 0 0.014267921003745666 -0.029465758457767898 0 0.014121770632098119 -0.029062100427575521 0 0.014169535574412549 -0.029155190231695823 0 0.014121770632098119 -0.029062100427575521 0 0.014169535574412549 -0.029155190231695823 0 0.014268517436930805 -0.029030321826049681 0 0.013963941064673449 -0.02924528361406099 0 0.014081681933114206 -0.029076033845694581 0 0.013955051237004433 -0.029111487625117838 0 0.014136240290389745 -0.02911341008508294 0 0.01408284168547012 -0.029011462819949704 0 0.014571260876446201 -0.029248003681667439 0 0.014267921003745666 -0.029465758457767898 0 0.014169535574412549 -0.029155190231695823 0 0.01451420546477045 -0.029167216806351558 0 0.014169535574412549 -0.029155190231695823 0 0.014268517436930805 -0.029030321826049681 0 0.014604904162118926 -0.029229507873995197 0 0.0145033840078687 -0.029213694179264959 0 0.01451420546477045 -0.029167216806351558 0 0.014361547407313735 -0.028908255482885066 0 0.014268517436930805 -0.029030321826049681 0 0.014361547407313735 -0.028908255482885066 0 0.014268517436930805 -0.029030321826049681 0 0.014174522332218532 -0.028860148393539498 0 0.01408284168547012 -0.029011462819949704 0 0.013994223961310134 -0.028842202420337869 0 0.014121770632098119 -0.029062100427575521 0 0.014174522332218532 -0.028860148393539498 0 0.013991044169426963 -0.028761202592946299 0 0.014121770632098119 -0.029062100427575521 0 0.014268517436930805 -0.029030321826049681 0 0.014174522332218532 -0.028860148393539498 0 0.014081681933114206 -0.029076033845694581 0 0.013919954690827152 -0.028983283873496572 0 0.013955051237004433 -0.029111487625117838 0 0.014174522332218532 -0.028860148393539498 0 0.014283092125457071 -0.028712036206909569 0 0.013991044169426963 -0.028761202592946299 0 0.014361547407313735 -0.028908255482885066 0 0.014174522332218532 -0.028860148393539498 0 0.014283092125457071 -0.028712036206909569 0 0.014454541472981936 -0.028758295728361343 0 0.014361547407313735 -0.028908255482885066 0 0.014283092125457071 -0.028712036206909569 0 0.013769477297972647 -0.028724790019716524 0 0.013831635656865109 -0.028869824858144547 0 0.013705936846871818 -0.028861253594502454 0 0.013769477297972647 -0.028724790019716524 0 0.013705936846871818 -0.028861253594502454 0 0.013669211269207565 -0.028766292712642742 0 0.013705936846871818 -0.028861253594502454 0 0.013669211269207565 -0.028766292712642742 0 0.01365775185809865 -0.028832840992307533 0 0.013769477297972647 -0.028724790019716524 0 0.013669211269207565 -0.028766292712642742 0 0.013645001208941469 -0.028644858636580083 0 0.013769477297972647 -0.028724790019716524 0 0.013946011044049396 -0.028751489523984784 0 0.013831635656865109 -0.028869824858144547 0 0.013831635656865109 -0.028869824858144547 0 0.013834329941564449 -0.028992247188503219 0 0.013773268633643667 -0.028954357960273895 0 0.014081681933114206 -0.029076033845694581 0 0.013946011044049396 -0.028751489523984784 0 0.013919954690827152 -0.028983283873496572 0 0.013831635656865109 -0.028869824858144547 0 0.013919954690827152 -0.028983283873496572 0 0.013834329941564449 -0.028992247188503219 0 0.013946011044049396 -0.028751489523984784 0 0.013831635656865109 -0.028869824858144547 0 0.013919954690827152 -0.028983283873496572 0 0.013919954690827152 -0.028983283873496572 0 0.013955051237004433 -0.029111487625117838 0 0.0138634324903183 -0.029096362489878669 0 0.013919954690827152 -0.028983283873496572 0 0.013834329941564449 -0.028992247188503219 0 0.0138634324903183 -0.029096362489878669 0 0.013834329941564449 -0.028992247188503219 0 0.013783080018325353 -0.029061715067474781 0 0.0138634324903183 -0.029096362489878669 0 0.013783080018325353 -0.029061715067474781 0 0.013727705514143918 -0.029013855543174597 0 0.013724774531977783 -0.029085594105893772 0 0.013727705514143918 -0.029013855543174597 0 0.013672426682316887 -0.028981486438540968 0 0.013724774531977783 -0.029085594105893772 0 0.013727705514143918 -0.029013855543174597 0 0.013773268633643667 -0.028954357960273895 0 0.013697235478273687 -0.028954408851088707 0 0.013783080018325353 -0.029061715067474781 0 0.013727705514143918 -0.029013855543174597 0 0.013773268633643667 -0.028954357960273895 0 0.013834329941564449 -0.028992247188503219 0 0.013783080018325353 -0.029061715067474781 0 0.013773268633643667 -0.028954357960273895 0 0.013831635656865109 -0.028869824858144547 0 0.013773268633643667 -0.028954357960273895 0 0.013705936846871818 -0.028861253594502454 0 0.013705936846871818 -0.028861253594502454 0 0.013710727158780529 -0.028915251634056019 0 0.013649599228091794 -0.028883925766658675 0 0.013705936846871818 -0.028861253594502454 0 0.013697235478273687 -0.028954408851088707 0 0.013674155502965447 -0.028978715485936703 0 0.017193593256202077 -0.028150012114390187 0 0.01722067959471579 -0.028125707311625912 0 0.013773268633643667 -0.028954357960273895 0 0.013705936846871818 -0.028861253594502454 0 0.013697235478273687 -0.028954408851088707 0 0.01722067959471579 -0.028125707311625912 0 0.017830161758969922 -0.027688831555193711 0 0.013727705514143918 -0.029013855543174597 0 0.013697235478273687 -0.028954408851088707 0 0.013672426682316887 -0.028981486438540968 0 0.017216007124007792 -0.028129780564923726 0 0.01722067959471579 -0.028125707311625912 0 0.01722067959471579 -0.028125707311625912 0 0.016947014761960186 -0.027874971714178198 0 0.016951515608291098 -0.02687084584654701 0 0.016966683310740853 -0.028979851929240859 0 0.015904100423861669 -0.028244769560173816 0 0.013781656565381585 -0.029182624582900937 0 0.013657077101027856 -0.029187268484489409 0 0.013875250994951552 -0.029401634231215331 0 0.013672426682316887 -0.028981486438540968 0 0.013724774531977783 -0.029085594105893772 0 0.013657077101027856 -0.029187268484489409 0 0.016947014761960186 -0.027874971714178198 0 0.017830161758969922 -0.027688831555193711 0 0.013724774531977783 -0.029085594105893772 0 0.013781656565381585 -0.029182624582900937 0 0.013657077101027856 -0.029187268484489409 0 0.013783080018325353 -0.029061715067474781 0 0.013724774531977783 -0.029085594105893772 0 0.013781656565381585 -0.029182624582900937 0 0.013955051237004433 -0.029111487625117838 0 0.0138634324903183 -0.029096362489878669 0 0.013887373216762802 -0.029208624760510903 0 0.013783080018325353 -0.029061715067474781 0 0.013781656565381585 -0.029182624582900937 0 0.0138634324903183 -0.029096362489878669 0 0.013781656565381585 -0.029182624582900937 0 0.0138634324903183 -0.029096362489878669 0 0.013887373216762802 -0.029208624760510903 0 0.013781656565381585 -0.029182624582900937 0 0.013887373216762802 -0.029208624760510903 0 0.013875250994951552 -0.029401634231215331 0 0.013963941064673449 -0.02924528361406099 0 0.013887373216762802 -0.029208624760510903 0 0.013875250994951552 -0.029401634231215331 0 0.013963941064673449 -0.02924528361406099 0 0.013955051237004433 -0.029111487625117838 0 0.013887373216762802 -0.029208624760510903 0 0.012806933822661199 -0.029964056774472243 0 0.012821860553475966 -0.02938932611904076 0 0.012597112279356669 -0.029717837120614082 0 0.016089955822859738 -0.028913138504684664 0 0.016947014761960186 -0.027874971714178198 0 0.016947014761960186 -0.027874971714178198 0 0.015902843163882008 -0.027876944841246101 0 0.012721346402402038 -0.02965305685595359 0 0.012719724844542509 -0.028818499130425754 0 0.013360739118834111 -0.029264157569448158 0 0.020446558891164243 -0.027806014418722678 0 0.01850579223448345 -0.027391212231537721 0 0.012597112279356669 -0.029717837120614082 0 0.012320943827954768 -0.029713535398959299 0 0.01244386657809768 -0.029984172797658821 0 0.012597112279356669 -0.029717837120614082 0 0.012320943827954768 -0.029713535398959299 0 0.01263235105909424 -0.029459569978064093 0 0.028105293306471078 -0.024359200225271181 0 0.027596117805877025 -0.024218687253538481 0 0.027638377893160104 -0.024976997687782256 0 0.028105293306471078 -0.024359200225271181 0 0.027893785133037162 -0.023813959085883782 0 0.027596117805877025 -0.024218687253538481 0 0.028105293306471078 -0.024359200225271181 0 0.027893785133037162 -0.023813959085883782 0 0.028199895399831473 -0.023731807848732963 0 0.027893785133037162 -0.023813959085883782 0 0.027605629882554578 -0.023501477905510128 0 0.027596117805877025 -0.024218687253538481 0 0.028199895399831473 -0.023731807848732963 0 0.027948264187676257 -0.023466334560312243 0 0.028357153745491054 -0.023368730139956388 0 0.027893785133037162 -0.023813959085883782 0 0.028199895399831473 -0.023731807848732963 0 0.027948264187676257 -0.023466334560312243 0 0.027893785133037162 -0.023813959085883782 0 0.027948264187676257 -0.023466334560312243 0 0.027605629882554578 -0.023501477905510128 0 0.028105293306471078 -0.024359200225271181 0 0.028199895399831473 -0.023731807848732963 0 0.028556675956952118 -0.023765348073882132 0 0.012320943827954768 -0.029713535398959299 0 0.012582295466832993 -0.029364501388374976 0 0.01263235105909424 -0.029459569978064093 0 0.012581328405528147 -0.029362727860685913 0 0.01263235105909424 -0.029459569978064093 0 0.012653158821014565 -0.029269080911275242 0 0.012821860553475966 -0.02938932611904076 0 0.012597112279356669 -0.029717837120614082 0 0.01263235105909424 -0.029459569978064093 0 0.012821860553475966 -0.02938932611904076 0 0.01263235105909424 -0.029459569978064093 0 0.012653158821014565 -0.029269080911275242 0 0.01850579223448345 -0.027391212231537721 0 0.018483570946847893 -0.027389263665860267 0 0.028199895399831473 -0.023731807848732963 0 0.028556675956952118 -0.023765348073882132 0 0.028357153745491054 -0.023368730139956388 0 0.01850579223448345 -0.027391212231537721 0 0.01905962482738199 -0.0273614222230378 0 0.017830161758969922 -0.027688831555193711 0 0.01905962482738199 -0.0273614222230378 0 0.019873052622184296 -0.028604490471770227 0 0.020712078380029465 -0.027503885545418525 0 0.018408038802534513 -0.025909717335799241 0 0.01850579223448345 -0.027391212231537721 0 0.017830161758969922 -0.027688831555193711 0 0.013710727158780529 -0.028915251634056019 0 0.013654325628483163 -0.02899586920110462 0 0.013645072355680372 -0.028930637028640977 0 0.013654325628483163 -0.02899586920110462 0 0.013645072355680372 -0.028930637028640977 0 0.013580783091518894 -0.028948005881737706 0 0.013710727158780529 -0.028915251634056019 0 0.013645072355680372 -0.028930637028640977 0 0.013649599228091794 -0.028883925766658675 0 0.013591739784721007 -0.028872681531385832 0 0.013580783091518894 -0.028948005881737706 0 0.013472549925814961 -0.028785911269490878 0 0.013705936846871818 -0.028861253594502454 0 0.013649599228091794 -0.028883925766658675 0 0.01365775185809865 -0.028832840992307533 0 0.013645072355680372 -0.028930637028640977 0 0.013649599228091794 -0.028883925766658675 0 0.013591739784721007 -0.028872681531385832 0 0.013649599228091794 -0.028883925766658675 0 0.01365775185809865 -0.028832840992307533 0 0.01360398285232488 -0.028814509287546086 0 0.013649599228091794 -0.028883925766658675 0 0.013591739784721007 -0.028872681531385832 0 0.01360398285232488 -0.028814509287546086 0 0.013645072355680372 -0.028930637028640977 0 0.013591739784721007 -0.028872681531385832 0 0.013580783091518894 -0.028948005881737706 0 0.01905962482738199 -0.0273614222230378 0 0.020187290195804682 -0.02636696929400385 0 0.01905962482738199 -0.0273614222230378 0 0.019891028595444872 -0.027487030577214182 0 0.027948264187676257 -0.023466334560312243 0 0.028357153745491054 -0.023368730139956388 0 0.027665159513186627 -0.022924554715857005 0 0.027787480230346325 -0.023027853869804389 0 0.027665159513186627 -0.022924554715857005 0 0.027644478427663318 -0.022810741632619688 0 0.027948264187676257 -0.023466334560312243 0 0.027665159513186627 -0.022924554715857005 0 0.027605629882554578 -0.023501477905510128 0 0.027644478427663318 -0.022810741632619688 0 0.027464772706965297 -0.022787547169266512 0 0.027433750716865733 -0.022842761895103848 0 0.027644478427663318 -0.022810741632619688 0 0.027464772706965297 -0.022787547169266512 0 0.027519462396248816 -0.022809144537513801 0 0.027665159513186627 -0.022924554715857005 0 0.027644478427663318 -0.022810741632619688 0 0.027519462396248816 -0.022809144537513801 0 0.013472549925814961 -0.028785911269490878 0 0.013568746876180766 -0.028710335718925131 0 0.01344004892005672 -0.028591898725165352 0 0.013568746876180766 -0.028710335718925131 0 0.013669211269207565 -0.028766292712642742 0 0.013645001208941469 -0.028644858636580083 0 0.013568746876180766 -0.028710335718925131 0 0.013669211269207565 -0.028766292712642742 0 0.01360398285232488 -0.028814509287546086 0 0.013669211269207565 -0.028766292712642742 0 0.01365775185809865 -0.028832840992307533 0 0.01360398285232488 -0.028814509287546086 0 0.013591739784721007 -0.028872681531385832 0 0.013472549925814961 -0.028785911269490878 0 0.01360398285232488 -0.028814509287546086 0 0.013472549925814961 -0.028785911269490878 0 0.013568746876180766 -0.028710335718925131 0 0.01360398285232488 -0.028814509287546086 0 0.027615707371893294 -0.022679683136584597 0 0.027463449510037877 -0.022794028791667899 0 0.027262040214441337 -0.022729295727404019 0 0.027615707371893294 -0.022679683136584597 0 0.027665843228947731 -0.022803484295991487 0 0.027463449510037877 -0.022794028791667899 0 0.027665843228947731 -0.022803484295991487 0 0.027463449510037877 -0.022794028791667899 0 0.027519425659508445 -0.022859076804936949 0 0.027463449510037877 -0.022794028791667899 0 0.027464772706965297 -0.022787547169266512 0 0.027519425659508445 -0.022859076804936949 0 0.027464772706965297 -0.022787547169266512 0 0.027519462396248816 -0.022809144537513801 0 0.027262040214441337 -0.022729295727404019 0 0.027463449510037877 -0.022794028791667899 0 0.027464772706965297 -0.022787547169266512 0 0.027262040214441337 -0.022729295727404019 0 0.027262040214441337 -0.022729295727404019 0 0.02735446241589699 -0.023192504940712746 0 0.026018363429228485 -0.023963216003463066 0 0.027519462396248816 -0.022809144537513801 0 0.027262040214441337 -0.022729295727404019 0 0.02735446241589699 -0.023192504940712746 0 0.027665159513186627 -0.022924554715857005 0 0.027519462396248816 -0.022809144537513801 0 0.02735446241589699 -0.023192504940712746 0 0.027665159513186627 -0.022924554715857005 0 0.02735446241589699 -0.023192504940712746 0 0.027605629882554578 -0.023501477905510128 0 0.028945147738633308 -0.024129977804562611 0 0.029064935483492323 -0.024224360581124909 0 0.027262040214441337 -0.022729295727404019 0 0.027454934337710141 -0.022293717158617506 0 0.027722191424643369 -0.022452057731996284 0 0.027615707371893294 -0.022679683136584597 0 0.027262040214441337 -0.022729295727404019 0 0.027722191424643369 -0.022452057731996284 0 0.027454934337710141 -0.022293717158617506 0 0.027784168583736734 -0.022225731477382462 0 0.027722191424643369 -0.022452057731996284 0 0.026018363429228485 -0.023963216003463066 0 0.027100402564133159 -0.02410497427890259 0 0.026408100926177024 -0.025361670762716004 0 0.027454934337710141 -0.022293717158617506 0 0.02796161870884661 -0.021765134727738701 0 0.027784168583736734 -0.022225731477382462 0 0.023130901702398319 -0.026661547754047159 0 0.022936670042590392 -0.027135643360537958 0 0.027605629882554578 -0.023501477905510128 0 0.027100402564133159 -0.02410497427890259 0 0.027945914614951446 -0.025229678071132695 0 0.02735446241589699 -0.023192504940712746 0 0.027605629882554578 -0.023501477905510128 0 0.027100402564133159 -0.02410497427890259 0 0.02735446241589699 -0.023192504940712746 0 0.026018363429228485 -0.023963216003463066 0 0.027100402564133159 -0.02410497427890259 0 0.027945914614951446 -0.025229678071132695 0 0.027035680769009737 -0.02630234633017604 0 0.026408100926177024 -0.025361670762716004 0 0.027100402564133159 -0.02410497427890259 0 0.027945914614951446 -0.025229678071132695 0 0.026408100926177024 -0.025361670762716004 0 0.022936670042590392 -0.027135643360537958 0 0.022317913709459691 -0.028420571631898608 0 0.027945914614951446 -0.025229678071132695 0 0.027035680769009737 -0.02630234633017604 0 0.028182759079760984 -0.027330088780099075 0 0.027035680769009737 -0.02630234633017604 0 0.026408100926177024 -0.025361670762716004 0 0.025952105930223481 -0.026469628002354299 0 0.026018363429228485 -0.023963216003463066 0 0.026408100926177024 -0.025361670762716004 0 0.024814792106089986 -0.026067478149844558 0 0.029064935483492323 -0.024224360581124909 0 0.029507134227968666 -0.024423794506665552 0 0.027454934337710141 -0.022293717158617506 0 0.027894385348239459 -0.02082641405820387 0 0.02796161870884661 -0.021765134727738701 0 0.026408100926177024 -0.025361670762716004 0 0.024814792106089986 -0.026067478149844558 0 0.025952105930223481 -0.026469628002354299 0 0.024814792106089986 -0.026067478149844558 0 0.025952105930223481 -0.026469628002354299 0 0.025241096578772909 -0.027391967432174973 0 0.025952105930223481 -0.026469628002354299 0 0.02636844374025886 -0.027465540890846466 0 0.025241096578772909 -0.027391967432174973 0 0.02636844374025886 -0.027465540890846466 0 0.025241096578772909 -0.027391967432174973 0 0.025311623811934802 -0.028478519714881242 0 0.025241096578772909 -0.027391967432174973 0 0.025311623811934802 -0.028478519714881242 0 0.023723044313632792 -0.028500062434334603 0 0.02636844374025886 -0.027465540890846466 0 0.025311623811934802 -0.028478519714881242 0 0.026586223001995462 -0.029454451844084434 0 0.025311623811934802 -0.028478519714881242 0 0.024796379806592397 -0.02981990700880665 0 0.023723044313632792 -0.028500062434334603 0 0.025311623811934802 -0.028478519714881242 0 0.024796379806592397 -0.02981990700880665 0 0.026586223001995462 -0.029454451844084434 0 0.023090879183970122 -0.028482142463351727 0 0.022317913709459691 -0.028420571631898608 0 0.025853830318436324 -0.030072854513025021 0 0.026973322046677951 -0.028591354244255001 0 0.027154366437661993 -0.030871843396562237 0 0.02636844374025886 -0.027465540890846466 0 0.026586223001995462 -0.029454451844084434 0 0.028182759079760984 -0.027330088780099075 0 0.027035680769009737 -0.02630234633017604 0 0.02636844374025886 -0.027465540890846466 0 0.028182759079760984 -0.027330088780099075 0 0.027035680769009737 -0.02630234633017604 0 0.025952105930223481 -0.026469628002354299 0 0.02636844374025886 -0.027465540890846466 0 0.020446558891164243 -0.027806014418722678 0 0.022317913709459691 -0.028420571631898608 0 0.012320943827954768 -0.029713535398959299 0 0.012074634500835469 -0.030048347955087405 0 0.01244386657809768 -0.029984172797658821 0 0.012074634500835469 -0.030048347955087405 0 0.01244386657809768 -0.029984172797658821 0 0.012494607026027593 -0.03033186220134516 0 0.012806933822661199 -0.029964056774472243 0 0.012597112279356669 -0.029717837120614082 0 0.01244386657809768 -0.029984172797658821 0 0.012806933822661199 -0.029964056774472243 0 0.01244386657809768 -0.029984172797658821 0 0.012494607026027593 -0.03033186220134516 0 0.012074634500835469 -0.030048347955087405 0 0.012319596012829311 -0.030513611339662367 0 0.0120650166719038 -0.030615648144719301 0 0.012074634500835469 -0.030048347955087405 0 0.012494607026027593 -0.03033186220134516 0 0.012319596012829311 -0.030513611339662367 0 0.022317913709459691 -0.028420571631898608 0 0.021498283365141736 -0.030665173085848541 0 0.0120650166719038 -0.030615648144719301 0 0.012386753278236989 -0.030874882335881881 0 0.01253059912356432 -0.031492020724656553 0 0.012319596012829311 -0.030513611339662367 0 0.0120650166719038 -0.030615648144719301 0 0.012386753278236989 -0.030874882335881881 0 0.012494607026027593 -0.03033186220134516 0 0.012319596012829311 -0.030513611339662367 0 0.012571585754736648 -0.030827052166369662 0 0.012763190852813456 -0.030518086840743662 0 0.012494607026027593 -0.03033186220134516 0 0.012571585754736648 -0.030827052166369662 0 0.012386753278236989 -0.030874882335881881 0 0.012571585754736648 -0.030827052166369662 0 0.012594726362856277 -0.031032817386601651 0 0.012319596012829311 -0.030513611339662367 0 0.012386753278236989 -0.030874882335881881 0 0.012571585754736648 -0.030827052166369662 0 0.012386753278236989 -0.030874882335881881 0 0.012594726362856277 -0.031032817386601651 0 0.012559441509592215 -0.031309016840309033 0 0.013340106434849786 -0.032247517645501531 0 0.013602006047833801 -0.032534904973754393 0 0.012386753278236989 -0.030874882335881881 0 0.013413123303870053 -0.03184271297371849 0 0.013900567402296502 -0.031793649686159782 0 0.01275168714610812 -0.032084718861485416 0 0.013413123303870053 -0.03184271297371849 0 0.01253059912356432 -0.031492020724656553 0 0.012178404331509721 -0.032088646890020348 0 0.0120650166719038 -0.030615648144719301 0 0.01253059912356432 -0.031492020724656553 0 0.012386753278236989 -0.030874882335881881 0 0.013413123303870053 -0.03184271297371849 0 0.01253059912356432 -0.031492020724656553 0 0.02107237758050674 -0.032835499673364819 0 0.021498283365141736 -0.030665173085848541 0 0.012178404331509721 -0.032088646890020348 0 0.01275168714610812 -0.032084718861485416 0 0.01253059912356432 -0.031492020724656553 0 0.027353116147071362 -0.033270403223825205 0 0.027154366437661993 -0.030871843396562237 0 0.026126544339235062 -0.03210606192324595 0 0.025964288473602132 -0.033235166319785736 0 0.027353116147071362 -0.033270403223825205 0 0.026126544339235062 -0.03210606192324595 0 0.025964288473602132 -0.033235166319785736 0 0.026126544339235062 -0.03210606192324595 0 0.025139014422719222 -0.032550970141988871 0 0.026126544339235062 -0.03210606192324595 0 0.025139014422719222 -0.032550970141988871 0 0.024756163668940633 -0.031519637361967986 0 0.024515978556535024 -0.033373392374625867 0 0.025139014422719222 -0.032550970141988871 0 0.024241025809122931 -0.032353674789568694 0 0.025139014422719222 -0.032550970141988871 0 0.024756163668940633 -0.031519637361967986 0 0.024241025809122931 -0.032353674789568694 0 0.026126544339235062 -0.03210606192324595 0 0.024756163668940633 -0.031519637361967986 0 0.025963967878220608 -0.031142228721922773 0 0.024796379806592397 -0.02981990700880665 0 0.026586223001995462 -0.029454451844084434 0 0.024756163668940633 -0.031519637361967986 0 0.025853830318436324 -0.030072854513025021 0 0.024756163668940633 -0.031519637361967986 0 0.025963967878220608 -0.031142228721922773 0 0.023090879183970122 -0.028482142463351727 0 0.023179235353731995 -0.028705599019368911 0 0.025853830318436324 -0.030072854513025021 0 0.027154366437661993 -0.030871843396562237 0 0.025963967878220608 -0.031142228721922773 0 0.027154366437661993 -0.030871843396562237 0 0.026126544339235062 -0.03210606192324595 0 0.025963967878220608 -0.031142228721922773 0 0.031373541911387227 -0.018607145697965094 0 0.032526442134860042 -0.018148770904244927 0 0.032421951430300494 -0.019227503659189151 0 0.024796379806592397 -0.02981990700880665 0 0.024756163668940633 -0.031519637361967986 0 0.022836925183299762 -0.030920048595570751 0 0.031697333737767751 -0.028384932567039473 0 0.031858588763637292 -0.025013629850692689 0 0.023695764408673242 -0.033199336577074468 0 0.022836925183299762 -0.030920048595570751 0 0.024241025809122931 -0.032353674789568694 0 0.024756163668940633 -0.031519637361967986 0 0.022836925183299762 -0.030920048595570751 0 0.024241025809122931 -0.032353674789568694 0 0.023695764408673242 -0.033199336577074468 0 0.024515978556535024 -0.033373392374625867 0 0.024241025809122931 -0.032353674789568694 0 0.033854664726438902 -0.024790558636118783 0 0.031858588763637292 -0.025013629850692689 0 0.036818860068998434 -0.028811310744149842 0 0.036765697028409615 -0.028810739788525514 0 0.036776276535791831 -0.028866753052572299 0 0.031972365295662032 -0.017087724459502192 0 0.031373541911387227 -0.018607145697965094 0 0.032526442134860042 -0.018148770904244927 0 0.033594075403764988 -0.017013382016134719 0 0.031972365295662032 -0.017087724459502192 0 0.032526442134860042 -0.018148770904244927 0 0.033594075403764988 -0.017013382016134719 0 0.032526442134860042 -0.018148770904244927 0 0.033562380752246039 -0.018138742472349829 0 0.033594075403764988 -0.017013382016134719 0 0.033562380752246039 -0.018138742472349829 0 0.034702961493453255 -0.018485010230077526 0 0.03521687929058654 -0.023776732429744766 0 0.035417214944313498 -0.022817876295405489 0 0.033319530220342147 -0.018969329908489624 0 0.034325771369520669 -0.019904360961641551 0 0.034702961493453255 -0.018485010230077526 0 0.033562380752246039 -0.018138742472349829 0 0.033319530220342147 -0.018969329908489624 0 0.034702961493453255 -0.018485010230077526 0 0.032526442134860042 -0.018148770904244927 0 0.033319530220342147 -0.018969329908489624 0 0.032421951430300494 -0.019227503659189151 0 0.032526442134860042 -0.018148770904244927 0 0.033562380752246039 -0.018138742472349829 0 0.033319530220342147 -0.018969329908489624 0 0.032421951430300494 -0.019227503659189151 0 0.033049318267425222 -0.020117061931653905 0 0.031862368155350901 -0.020318699032518046 0 0.033319530220342147 -0.018969329908489624 0 0.032421951430300494 -0.019227503659189151 0 0.033049318267425222 -0.020117061931653905 0 0.033319530220342147 -0.018969329908489624 0 0.033049318267425222 -0.020117061931653905 0 0.034325771369520669 -0.019904360961641551 0 0.033049318267425222 -0.020117061931653905 0 0.034325771369520669 -0.019904360961641551 0 0.034072748373803231 -0.021197499181906231 0 0.033049318267425222 -0.020117061931653905 0 0.032744206334715024 -0.021028880238635212 0 0.031862368155350901 -0.020318699032518046 0 0.033049318267425222 -0.020117061931653905 0 0.032744206334715024 -0.021028880238635212 0 0.034072748373803231 -0.021197499181906231 0 0.030990449973358671 -0.018839009381008277 0 0.030037711963057032 -0.020400203362010993 0 0.030732648455683392 -0.021130648265703631 0 0.030990449973358671 -0.018839009381008277 0 0.029243610128593993 -0.019768396080667883 0 0.030037711963057032 -0.020400203362010993 0 0.029875469218410711 -0.015503341174036692 0 0.030990449973358671 -0.018839009381008277 0 0.028895307765403978 -0.018079939100388857 0 0.031373541911387227 -0.018607145697965094 0 0.032421951430300494 -0.019227503659189151 0 0.031862368155350901 -0.020318699032518046 0 0.031858588763637292 -0.025013629850692689 0 0.031307815663758856 -0.022375114201955964 0 0.031858588763637292 -0.025013629850692689 0 0.030397094158789495 -0.024667830789434023 0 0.024796379806592397 -0.02981990700880665 0 0.022836925183299762 -0.030920048595570751 0 0.023723044313632792 -0.028500062434334603 0 0.024814792106089986 -0.026067478149844558 0 0.025241096578772909 -0.027391967432174973 0 0.023723044313632792 -0.028500062434334603 0 0.029507134227968666 -0.024423794506665552 0 0.030397094158789495 -0.024667830789434023 0 0.030990449973358671 -0.018839009381008277 0 0.028895307765403978 -0.018079939100388857 0 0.029243610128593993 -0.019768396080667883 0 0.027894385348239459 -0.02082641405820387 0 0.028895307765403978 -0.018079939100388857 0 0.029243610128593993 -0.019768396080667883 0 0.027894385348239459 -0.02082641405820387 0 0.029243610128593993 -0.019768396080667883 0 0.029357289129552801 -0.021133673112110264 0 0.027894385348239459 -0.02082641405820387 0 0.029357289129552801 -0.021133673112110264 0 0.02796161870884661 -0.021765134727738701 0 0.029357289129552801 -0.021133673112110264 0 0.02796161870884661 -0.021765134727738701 0 0.031536520199079147 -0.022879508125249134 0 0.029243610128593993 -0.019768396080667883 0 0.029357289129552801 -0.021133673112110264 0 0.030037711963057032 -0.020400203362010993 0 0.030990449973358671 -0.018839009381008277 0 0.030732648455683392 -0.021130648265703631 0 0.032170872324485053 -0.022259257186577373 0 0.031307815663758856 -0.022375114201955964 0 0.031327679021553 -0.022151161635560763 0 0.029357289129552801 -0.021133673112110264 0 0.030732648455683392 -0.021130648265703631 0 0.031536520199079147 -0.022879508125249134 0 0.029357289129552801 -0.021133673112110264 0 0.030037711963057032 -0.020400203362010993 0 0.030732648455683392 -0.021130648265703631 0 0.030732648455683392 -0.021130648265703631 0 0.031536520199079147 -0.022879508125249134 0 0.032170872324485053 -0.022259257186577373 0 0.028225309811811122 -0.022202896877625795 0 0.028080586866728725 -0.022174554899560502 0 0.028148639401915827 -0.022361727726628328 0 0.027969284489211311 -0.022284636099524094 0 0.028080586866728725 -0.022174554899560502 0 0.028148639401915827 -0.022361727726628328 0 0.028225309811811122 -0.022202896877625795 0 0.028148639401915827 -0.022361727726628328 0 0.028323320332046192 -0.022362665904287721 0 0.030256990831195846 -0.02076242324751118 0 0.03090946605828206 -0.020757631493863688 0 0.02796161870884661 -0.021765134727738701 0 0.028225309811811122 -0.022202896877625795 0 0.028080586866728725 -0.022174554899560502 0 0.02796161870884661 -0.021765134727738701 0 0.027969284489211311 -0.022284636099524094 0 0.027784168583736734 -0.022225731477382462 0 0.02796161870884661 -0.021765134727738701 0 0.027969284489211311 -0.022284636099524094 0 0.028080586866728725 -0.022174554899560502 0 0.027969284489211311 -0.022284636099524094 0 0.027784168583736734 -0.022225731477382462 0 0.027722191424643369 -0.022452057731996284 0 0.027969284489211311 -0.022284636099524094 0 0.027722191424643369 -0.022452057731996284 0 0.027887041206930772 -0.02258128248311015 0 0.027969284489211311 -0.022284636099524094 0 0.027887041206930772 -0.02258128248311015 0 0.028148639401915827 -0.022361727726628328 0 0.027615707371893294 -0.022679683136584597 0 0.027722191424643369 -0.022452057731996284 0 0.027887041206930772 -0.02258128248311015 0 0.028148639401915827 -0.022361727726628328 0 0.028088244828781552 -0.022611041121041446 0 0.028266769128346903 -0.02252472976977328 0 0.027887041206930772 -0.02258128248311015 0 0.028148639401915827 -0.022361727726628328 0 0.028088244828781552 -0.022611041121041446 0 0.028088244828781552 -0.022611041121041446 0 0.027933158833924058 -0.02277459196005437 0 0.028203903115550249 -0.022778071524698826 0 0.028088244828781552 -0.022611041121041446 0 0.028266769128346903 -0.02252472976977328 0 0.028203903115550249 -0.022778071524698826 0 0.027665843228947731 -0.022803484295991487 0 0.027887041206930772 -0.02258128248311015 0 0.027933158833924058 -0.02277459196005437 0 0.027887041206930772 -0.02258128248311015 0 0.028088244828781552 -0.022611041121041446 0 0.027933158833924058 -0.02277459196005437 0 0.027615707371893294 -0.022679683136584597 0 0.027665843228947731 -0.022803484295991487 0 0.027887041206930772 -0.02258128248311015 0 0.028422052447051305 -0.022657223210027833 0 0.028660319110934206 -0.02257482703164421 0 0.02856552527173966 -0.02286222420020546 0 0.028422052447051305 -0.022657223210027833 0 0.02843849528037783 -0.022467747209953069 0 0.028660319110934206 -0.02257482703164421 0 0.028422052447051305 -0.022657223210027833 0 0.028266769128346903 -0.02252472976977328 0 0.028203903115550249 -0.022778071524698826 0 0.028422052447051305 -0.022657223210027833 0 0.028266769128346903 -0.02252472976977328 0 0.02843849528037783 -0.022467747209953069 0 0.028323320332046192 -0.022362665904287721 0 0.02843849528037783 -0.022467747209953069 0 0.02854552547706599 -0.022309352326242118 0 0.028266769128346903 -0.02252472976977328 0 0.028323320332046192 -0.022362665904287721 0 0.02843849528037783 -0.022467747209953069 0 0.028148639401915827 -0.022361727726628328 0 0.028266769128346903 -0.02252472976977328 0 0.028323320332046192 -0.022362665904287721 0 0.02843849528037783 -0.022467747209953069 0 0.02854552547706599 -0.022309352326242118 0 0.028660319110934206 -0.02257482703164421 0 0.034016569640739326 -0.023325001608734561 0 0.033603874646998357 -0.022111589973599365 0 0.034999953229548075 -0.022867678788114198 0 0.03090946605828206 -0.020757631493863688 0 0.032317287186068314 -0.020536622411339547 0 0.028225309811811122 -0.022202896877625795 0 0.028323320332046192 -0.022362665904287721 0 0.02854552547706599 -0.022309352326242118 0 0.034016569640739326 -0.023325001608734561 0 0.032170872324485053 -0.022259257186577373 0 0.033603874646998357 -0.022111589973599365 0 0.031536520199079147 -0.022879508125249134 0 0.034016569640739326 -0.023325001608734561 0 0.032170872324485053 -0.022259257186577373 0 0.032744206334715024 -0.021028880238635212 0 0.031862368155350901 -0.020318699032518046 0 0.032170872324485053 -0.022259257186577373 0 0.032744206334715024 -0.021028880238635212 0 0.032170872324485053 -0.022259257186577373 0 0.033603874646998357 -0.022111589973599365 0 0.032744206334715024 -0.021028880238635212 0 0.033603874646998357 -0.022111589973599365 0 0.034072748373803231 -0.021197499181906231 0 0.033603874646998357 -0.022111589973599365 0 0.034072748373803231 -0.021197499181906231 0 0.034999953229548075 -0.022867678788114198 0 0.034072748373803231 -0.021197499181906231 0 0.035504469175508598 -0.021470380673488467 0 0.035274368085871151 -0.020809006212282814 0 0.035317954603712183 -0.020616638436848474 0 0.035484044751327722 -0.020623852432956453 0 0.034072748373803231 -0.021197499181906231 0 0.035650390596024796 -0.022012865108153222 0 0.034999953229548075 -0.022867678788114198 0 0.035504469175508598 -0.021470380673488467 0 0.036212566557962185 -0.021008199516335667 0 0.036295855451926373 -0.021431907878346999 0 0.035504469175508598 -0.021470380673488467 0 0.036295855451926373 -0.021431907878346999 0 0.035274368085871151 -0.020809006212282814 0 0.035999294620843503 -0.023172686524129064 0 0.036579575376289315 -0.0233991611862998 0 0.037089675670316548 -0.022772372454535211 0 0.035484044751327722 -0.020623852432956453 0 0.03560357015183184 -0.02046866210933982 0 0.035650390596024796 -0.022012865108153222 0 0.035999294620843503 -0.023172686524129064 0 0.037089675670316548 -0.022772372454535211 0 0.035999294620843503 -0.023172686524129064 0 0.036579575376289315 -0.0233991611862998 0 0.036061944859354239 -0.023738025755019643 0 0.034016569640739326 -0.023325001608734561 0 0.034999953229548075 -0.022867678788114198 0 0.036062456935353489 -0.023786900402506254 0 0.035650390596024796 -0.022012865108153222 0 0.035999294620843503 -0.023172686524129064 0 0.034999953229548075 -0.022867678788114198 0 0.035999294620843503 -0.023172686524129064 0 0.034999953229548075 -0.022867678788114198 0 0.036062456935353489 -0.023786900402506254 0 0.032317287186068314 -0.020536622411339547 0 0.034316215135180704 -0.019937701210637405 0 0.02854552547706599 -0.022309352326242118 0 0.028898952961468227 -0.022399707457486335 0 0.028660319110934206 -0.02257482703164421 0 0.034339838879737412 -0.020058591177868804 0 0.034316215135180704 -0.019937701210637405 0 0.036579575376289315 -0.0233991611862998 0 0.036061944859354239 -0.023738025755019643 0 0.037126209407224942 -0.023632003155341936 0 0.034316215135180704 -0.019937701210637405 0 0.033993334867701952 -0.019514966014869742 0 0.037908394707307509 -0.019383191761700069 0 0.037753750488366572 -0.017744454857226432 0 0.037040256786354607 -0.018614221117721489 0 0.037753750488366572 -0.017744454857226432 0 0.036731745974093975 -0.017722132336211793 0 0.037040256786354607 -0.018614221117721489 0 0.028922174719398595 -0.022698441102205234 0 0.028660319110934206 -0.02257482703164421 0 0.028778669297003723 -0.022854161178086703 0 0.028898952961468227 -0.022399707457486335 0 0.028922174719398595 -0.022698441102205234 0 0.028660319110934206 -0.02257482703164421 0 0.035625051236683358 -0.018317581230928182 0 0.034999995736554726 -0.017778472302997908 0 0.035498762478662516 -0.01897869974145908 0 0.035625051236683358 -0.018317581230928182 0 0.035908664370347301 -0.017832751146378497 0 0.036092452875222378 -0.018680742439803399 0 0.035625051236683358 -0.018317581230928182 0 0.034999995736554726 -0.017778472302997908 0 0.035908664370347301 -0.017832751146378497 0 0.035435114384671784 -0.019365229604411751 0 0.035296038786213221 -0.019561965061571547 0 0.036731745974093975 -0.017722132336211793 0 0.036080499223701774 -0.018684497231913511 0 0.037040256786354607 -0.018614221117721489 0 0.035908664370347301 -0.017832751146378497 0 0.036731745974093975 -0.017722132336211793 0 0.036092452875222378 -0.018680742439803399 0 0.037908394707307509 -0.019383191761700069 0 0.037040256786354607 -0.018614221117721489 0 0.035959595611305642 -0.018864015459013759 0 0.034316215135180704 -0.019937701210637405 0 0.03524525353961705 -0.019633347925281378 0 0.036061944859354239 -0.023738025755019643 0 0.037126209407224942 -0.023632003155341936 0 0.037968770047861797 -0.024229843893164436 0 0.036080499223701774 -0.018684497231913511 0 0.037040256786354607 -0.018614221117721489 0 0.035959595611305642 -0.018864015459013759 0 0.036579575376289315 -0.0233991611862998 0 0.037126209407224942 -0.023632003155341936 0 0.037178142898574872 -0.023316184641544571 0 0.037126209407224942 -0.023632003155341936 0 0.03775320633314936 -0.023524195486093635 0 0.037178142898574872 -0.023316184641544571 0 0.037126209407224942 -0.023632003155341936 0 0.03775320633314936 -0.023524195486093635 0 0.037968770047861797 -0.024229843893164436 0 0.03524525353961705 -0.019633347925281378 0 0.035196596323224097 -0.01992739927472641 0 0.035972376268087337 -0.018860799364518004 0 0.035498762478662516 -0.01897869974145908 0 0.035448469965422079 -0.019642743905931834 0 0.03775320633314936 -0.023524195486093635 0 0.037968770047861797 -0.024229843893164436 0 0.038474976288534322 -0.02347320033062732 0 0.034999995736554726 -0.017778472302997908 0 0.035498762478662516 -0.01897869974145908 0 0.03499999669475904 -0.019419703407756957 0 0.036092452875222378 -0.018680742439803399 0 0.035972376268087337 -0.018860799364518004 0 0.035498762478662516 -0.01897869974145908 0 0.035625051236683358 -0.018317581230928182 0 0.036092452875222378 -0.018680742439803399 0 0.035498762478662516 -0.01897869974145908 0 0.035296038786213221 -0.019561965061571547 0 0.03524525353961705 -0.019633347925281378 0 0.035498762478662516 -0.01897869974145908 0 0.035448469965422079 -0.019642743905931834 0 0.03499999669475904 -0.019419703407756957 0 0.035196596323224097 -0.01992739927472641 0 0.035000225680564691 -0.019424875529006076 0 0.035449682380625819 -0.0196448215373215 0 0.034999999193251183 -0.019419715031980003 0 0.034999999566575811 -0.020313078273250972 0 0.035288732731610872 -0.020030530032792034 0 0.034999883601237 -0.020314257949978591 0 0.036212566557962185 -0.021008199516335667 0 0.035196596323224097 -0.01992739927472641 0 0.035000597029520186 -0.020311472818964896 0 0.034999883601237 -0.020314257949978591 0 0.036212566557962185 -0.021008199516335667 0 0.036295855451926373 -0.021431907878346999 0 0.035196596323224097 -0.01992739927472641 0 0.03560357015183184 -0.02046866210933982 0 0.03775320633314936 -0.023524195486093635 0 0.038474976288534322 -0.02347320033062732 0 0.037089675670316548 -0.022772372454535211 0 0.036579575376289315 -0.0233991611862998 0 0.037178142898574872 -0.023316184641544571 0 0.037089675670316548 -0.022772372454535211 0 0.03775320633314936 -0.023524195486093635 0 0.037178142898574872 -0.023316184641544571 0 0.037089675670316548 -0.022772372454535211 0 0.034999883601237 -0.020314257949978591 0 0.036295855451926373 -0.021431907878346999 0 0.034999638800469392 -0.025481901243792869 0 0.036295855451926373 -0.021431907878346999 0 0.03746359120383165 -0.023235711956833334 0 0.034999638800469392 -0.025481901243792869 0 0.03558085592214405 -0.022185213234605601 0 0.035559651642520673 -0.022355413730063903 0 0.036295855451926373 -0.021431907878346999 0 0.035274368085871151 -0.020809006212282814 0 0.035754981854000258 -0.020053913878002271 0 0.034325771369520669 -0.019904360961641551 0 0.034072748373803231 -0.021197499181906231 0 0.035274368085871151 -0.020809006212282814 0 0.034325771369520669 -0.019904360961641551 0 0.035274368085871151 -0.020809006212282814 0 0.035754981854000258 -0.020053913878002271 0 0.035559651642520673 -0.022355413730063903 0 0.035417214944313498 -0.022817876295405489 0 0.034325771369520669 -0.019904360961641551 0 0.035754981854000258 -0.020053913878002271 0 0.034702961493453255 -0.018485010230077526 0 0.03746359120383165 -0.023235711956833334 0 0.037130975158438086 -0.024811490282310569 0 0.038401699785767233 -0.025002995451801853 0 0.038234989948239088 -0.02641674394058656 0 0.038401699785767233 -0.025002995451801853 0 0.037619839484475538 -0.025935202288415907 0 0.038234989948239088 -0.02641674394058656 0 0.038923906949385724 -0.02625947040584738 0 0.038401699785767233 -0.025002995451801853 0 0.037130975158438086 -0.024811490282310569 0 0.038401699785767233 -0.025002995451801853 0 0.037619839484475538 -0.025935202288415907 0 0.037130975158438086 -0.024811490282310569 0 0.037619839484475538 -0.025935202288415907 0 0.036468910173582267 -0.025873873864913056 0 0.03746359120383165 -0.023235711956833334 0 0.037130975158438086 -0.024811490282310569 0 0.034999638800469392 -0.025481901243792869 0 0.036171320659855892 -0.027332087697515377 0 0.036468910173582267 -0.025873873864913056 0 0.034999638800469392 -0.025481901243792869 0 0.037130975158438086 -0.024811490282310569 0 0.036468910173582267 -0.025873873864913056 0 0.034999638800469392 -0.025481901243792869 0 0.037121996937869321 -0.0096287448701263666 0 0.036809316390053401 -0.010430199474814312 0 0.037189929559875441 -0.011011493724689464 0 0.033739008535341321 -0.013354987130042828 0 0.033648500803872494 -0.013782188694066186 0 0.036627604032449551 -0.01000472730687638 0 0.036287282616120478 -0.010376635093678997 0 0.036299884427288862 -0.0095564056331654511 0 0.036287282616120478 -0.010376635093678997 0 0.035623627032197298 -0.0099515698127630343 0 0.036299884427288862 -0.0095564056331654511 0 0.036627604032449551 -0.01000472730687638 0 0.037121996937869321 -0.0096287448701263666 0 0.036809316390053401 -0.010430199474814312 0 0.036627604032449551 -0.01000472730687638 0 0.037121996937869321 -0.0096287448701263666 0 0.036299884427288862 -0.0095564056331654511 0 0.036809316390053401 -0.010430199474814312 0 0.036572971391417082 -0.010930535323848774 0 0.037189929559875441 -0.011011493724689464 0 0.036809316390053401 -0.010430199474814312 0 0.036287282616120478 -0.010376635093678997 0 0.036572971391417082 -0.010930535323848774 0 0.036627604032449551 -0.01000472730687638 0 0.036809316390053401 -0.010430199474814312 0 0.036287282616120478 -0.010376635093678997 0 0.036287282616120478 -0.010376635093678997 0 0.036142144671928597 -0.01085782313912932 0 0.036572971391417082 -0.010930535323848774 0 0.036287282616120478 -0.010376635093678997 0 0.036142144671928597 -0.01085782313912932 0 0.03585600616779152 -0.010517413564093036 0 0.036142144671928597 -0.01085782313912932 0 0.03585600616779152 -0.010517413564093036 0 0.035465099769048734 -0.010851817992862082 0 0.036287282616120478 -0.010376635093678997 0 0.03585600616779152 -0.010517413564093036 0 0.035623627032197298 -0.0099515698127630343 0 0.03585600616779152 -0.010517413564093036 0 0.035465099769048734 -0.010851817992862082 0 0.035623627032197298 -0.0099515698127630343 0 0.034999915378503554 -0.010817693647264082 0 0.035623627032197298 -0.0099515698127630343 0 0.034999658462324876 -0.0087794224250233293 0 0.034999915378503554 -0.010817693647264082 0 0.035465099769048734 -0.010851817992862082 0 0.035623627032197298 -0.0099515698127630343 0 0.035623627032197298 -0.0099515698127630343 0 0.034999658462324876 -0.0087794224250233293 0 0.035819143780068161 -0.0088602525665501825 0 0.035623627032197298 -0.0099515698127630343 0 0.035819143780068161 -0.0088602525665501825 0 0.036299884427288862 -0.0095564056331654511 0 0.035819143780068161 -0.0088602525665501825 0 0.036523905533870554 -0.0085357713474611997 0 0.035921393051611378 -0.0073968987190751534 0 0.036523905533870554 -0.0085357713474611997 0 0.037849812421012902 -0.009613305214421131 0 0.037087286716855662 -0.0068297114302103435 0 0.035819143780068161 -0.0088602525665501825 0 0.036299884427288862 -0.0095564056331654511 0 0.036523905533870554 -0.0085357713474611997 0 0.037121996937869321 -0.0096287448701263666 0 0.036299884427288862 -0.0095564056331654511 0 0.036523905533870554 -0.0085357713474611997 0 0.037121996937869321 -0.0096287448701263666 0 0.036523905533870554 -0.0085357713474611997 0 0.037849812421012902 -0.009613305214421131 0 0.03688939989968474 -0.0060274056490225072 0 0.037441154129336282 -0.004914925455030395 0 0.037087286716855662 -0.0068297114302103435 0 0.033926604104708165 -0.010264504527852556 0 0.034035512998369988 -0.0097085425062172562 0 0.03688939989968474 -0.0060274056490225072 0 0.036988774872976297 -0.0052277825987471476 0 0.036768119834729884 -0.0052413388115851809 0 0.036988774872976297 -0.0052277825987471476 0 0.036768119834729884 -0.0052413388115851809 0 0.036917657613136812 -0.0047901125722383539 0 0.036988774872976297 -0.0052277825987471476 0 0.037441154129336282 -0.004914925455030395 0 0.036917657613136812 -0.0047901125722383539 0 0.03688939989968474 -0.0060274056490225072 0 0.036988774872976297 -0.0052277825987471476 0 0.037441154129336282 -0.004914925455030395 0 0.03688939989968474 -0.0060274056490225072 0 0.036768119834729884 -0.0052413388115851809 0 0.036647421242686808 -0.0053837310818484517 0 0.036768119834729884 -0.0052413388115851809 0 0.036490292638897963 -0.0047510690996699261 0 0.036692482505589964 -0.004807620599806473 0 0.036768119834729884 -0.0052413388115851809 0 0.036692482505589964 -0.004807620599806473 0 0.036917657613136812 -0.0047901125722383539 0 0.036490292638897963 -0.0047510690996699261 0 0.036271590977844076 -0.0046781618472443547 0 0.036647421242686808 -0.0053837310818484517 0 0.036768119834729884 -0.0052413388115851809 0 0.036490292638897963 -0.0047510690996699261 0 0.036647421242686808 -0.0053837310818484517 0 0.036490292638897963 -0.0047510690996699261 0 0.03664439317248519 -0.0044756024505649408 0 0.036390827950184092 -0.0043418466857658329 0 0.03664439317248519 -0.0044756024505649408 0 0.036917657613136812 -0.0047901125722383539 0 0.036922010579635817 -0.0043584752096475828 0 0.036490292638897963 -0.0047510690996699261 0 0.036692482505589964 -0.004807620599806473 0 0.03664439317248519 -0.0044756024505649408 0 0.036692482505589964 -0.004807620599806473 0 0.03664439317248519 -0.0044756024505649408 0 0.036917657613136812 -0.0047901125722383539 0 0.03664439317248519 -0.0044756024505649408 0 0.036922010579635817 -0.0043584752096475828 0 0.03660962467298888 -0.0041164209307986083 0 0.036390827950184092 -0.0043418466857658329 0 0.03660962467298888 -0.0041164209307986083 0 0.036243413638714979 -0.0040161532770588938 0 0.03664439317248519 -0.0044756024505649408 0 0.036390827950184092 -0.0043418466857658329 0 0.03660962467298888 -0.0041164209307986083 0 0.037849812421012902 -0.009613305214421131 0 0.038182534732594892 -0.012049578473031725 0 0.037294152285944147 -0.011651096607696622 0 0.037121996937869321 -0.0096287448701263666 0 0.037849812421012902 -0.009613305214421131 0 0.037294152285944147 -0.011651096607696622 0 0.033926604104708165 -0.010264504527852556 0 0.033558633037790109 -0.011957907297668772 0 0.037441154129336282 -0.004914925455030395 0 0.036922010579635817 -0.0043584752096475828 0 0.037173562426745001 -0.0040018476123705243 0 0.037441154129336282 -0.004914925455030395 0 0.036917657613136812 -0.0047901125722383539 0 0.036922010579635817 -0.0043584752096475828 0 0.037173562426745001 -0.0040018476123705243 0 0.036652563378890349 -0.0037514379092566555 0 0.036999717306442199 -0.0033789873560988283 0 0.033558633037790109 -0.011957907297668772 0 0.03291743486424991 -0.015143726355879813 0 0.038182534732594892 -0.012049578473031725 0 0.037476201690455513 -0.013635516046782165 0 0.037294152285944147 -0.011651096607696622 0 0.036922010579635817 -0.0043584752096475828 0 0.037173562426745001 -0.0040018476123705243 0 0.036835141830344947 -0.0040485342310332796 0 0.037173562426745001 -0.0040018476123705243 0 0.036835141830344947 -0.0040485342310332796 0 0.036652563378890349 -0.0037514379092566555 0 0.03660962467298888 -0.0041164209307986083 0 0.036652563378890349 -0.0037514379092566555 0 0.036243413638714979 -0.0040161532770588938 0 0.036922010579635817 -0.0043584752096475828 0 0.036835141830344947 -0.0040485342310332796 0 0.03660962467298888 -0.0041164209307986083 0 0.036835141830344947 -0.0040485342310332796 0 0.03660962467298888 -0.0041164209307986083 0 0.036652563378890349 -0.0037514379092566555 0 0.032864860127372317 -0.015406352323873667 0 0.032328543071076944 -0.015102128893154673 0 0.028968979579568243 -0.023623727255342633 0 0.028710848208657852 -0.023444268557253015 0 0.028576459447791528 -0.023643220701250443 0 0.036652563378890349 -0.0037514379092566555 0 0.036933449926217811 -0.0033346531665200772 0 0.036133066485984057 -0.0034228236611324879 0 0.038182534732594892 -0.012049578473031725 0 0.037476201690455513 -0.013635516046782165 0 0.038531583408669967 -0.014452335749897035 0 0.033349104448066338 -0.014853543829605027 0 0.03291743486424991 -0.015143726355879813 0 0.033349104448066338 -0.014853543829605027 0 0.03326068653826128 -0.01527321673576172 0 0.036652563378890349 -0.0037514379092566555 0 0.036999717306442199 -0.0033789873560988283 0 0.036933449926217811 -0.0033346531665200772 0 0.03291743486424991 -0.015143726355879813 0 0.032864860127372317 -0.015406352323873667 0 0.034664951130437473 -0.016847458410756719 0 0.03438508905498705 -0.015013724153509937 0 0.032318821317895097 -0.015046562179290729 0 0.03291743486424991 -0.015143726355879813 0 0.032913799929660051 -0.015389701240186767 0 0.032913799929660051 -0.015389701240186767 0 0.032864860127372317 -0.015406352323873667 0 0.033601294764008381 -0.01559123349177142 0 0.033069060138900139 -0.01518382976192841 0 0.033552227636114255 -0.015084647263580988 0 0.032913799929660051 -0.015389701240186767 0 0.03326068653826128 -0.01527321673576172 0 0.033069060138900139 -0.01518382976192841 0 0.033055088167917399 -0.015092714338312949 0 0.033552227636114255 -0.015084647263580988 0 0.037279632374983114 -0.012830960100779875 0 0.036140553860727814 -0.012845401544097818 0 0.036661934858769459 -0.013664598317882462 0 0.03326068653826128 -0.01527321673576172 0 0.034376775723686727 -0.014024192185243067 0 0.0372808151543296 -0.012815933039799028 0 0.03613581572480018 -0.012832958066438494 0 0.03651894447715584 -0.012236584723962473 0 0.037224214945430156 -0.012215925231631248 0 0.0372808151543296 -0.012815933039799028 0 0.03651894447715584 -0.012236584723962473 0 0.033349104448066338 -0.014853543829605027 0 0.033648500803872494 -0.013782188694066186 0 0.033349104448066338 -0.014853543829605027 0 0.033606516489211966 -0.014582974718352652 0 0.03730321059844123 -0.012294009075768908 0 0.036346718543572014 -0.011550203684473051 0 0.037189929559875441 -0.011011493724689464 0 0.037224214945430156 -0.012215925231631248 0 0.03651894447715584 -0.012236584723962473 0 0.036360031417031924 -0.011542557923285301 0 0.03651894447715584 -0.012236584723962473 0 0.036360031417031924 -0.011542557923285301 0 0.035483779338922744 -0.011891096520434985 0 0.036142144671928597 -0.01085782313912932 0 0.036346718543572014 -0.011550203684473051 0 0.036572971391417082 -0.010930535323848774 0 0.036346718543572014 -0.011550203684473051 0 0.036572971391417082 -0.010930535323848774 0 0.037189929559875441 -0.011011493724689464 0 0.034999915378503554 -0.010817693647264082 0 0.035483779338922744 -0.011891096520434985 0 0.034999998089240043 -0.012854710642761348 0 0.034999915378503554 -0.010817693647264082 0 0.035465099769048734 -0.010851817992862082 0 0.035483779338922744 -0.011891096520434985 0 0.035465099769048734 -0.010851817992862082 0 0.036360031417031924 -0.011542557923285301 0 0.035483779338922744 -0.011891096520434985 0 0.033643819080521838 -0.014458510942855598 0 0.033606516489211966 -0.014582974718352652 0 0.036142144671928597 -0.01085782313912932 0 0.035465099769048734 -0.010851817992862082 0 0.036346718543572014 -0.011550203684473051 0 0.034376775723686727 -0.014024192185243067 0 0.034998560067054478 -0.012861016363465181 0 0.03613581572480018 -0.012832958066438494 0 0.035483779338922744 -0.011891096520434985 0 0.034999998089240043 -0.012854710642761348 0 0.03613581572480018 -0.012832958066438494 0 0.03651894447715584 -0.012236584723962473 0 0.035483779338922744 -0.011891096520434985 0 0.036140553860727814 -0.012845401544097818 0 0.034999995361965137 -0.012854768292397392 0 0.035913758839319194 -0.013897606435297168 0 0.034999995361965137 -0.012854768292397392 0 0.035913758839319194 -0.013897606435297168 0 0.034999994538695872 -0.014495990649528988 0 0.037279632374983114 -0.012830960100779875 0 0.036661934858769459 -0.013664598317882462 0 0.037440435539359898 -0.014465238367059517 0 0.036140553860727814 -0.012845401544097818 0 0.035913758839319194 -0.013897606435297168 0 0.036661934858769459 -0.013664598317882462 0 0.035913758839319194 -0.013897606435297168 0 0.036661934858769459 -0.013664598317882462 0 0.03659782553122376 -0.014476472842941819 0 0.036661934858769459 -0.013664598317882462 0 0.03659782553122376 -0.014476472842941819 0 0.037440435539359898 -0.014465238367059517 0 0.035913758839319194 -0.013897606435297168 0 0.03659782553122376 -0.014476472842941819 0 0.035939315220727255 -0.015112025830143995 0 0.03659782553122376 -0.014476472842941819 0 0.036886843586542657 -0.015300333341153393 0 0.037440435539359898 -0.014465238367059517 0 0.03659782553122376 -0.014476472842941819 0 0.036886843586542657 -0.015300333341153393 0 0.035939315220727255 -0.015112025830143995 0 0.034999994538695872 -0.014495990649528988 0 0.035939315220727255 -0.015112025830143995 0 0.03499999375387465 -0.016137234586804435 0 0.035913758839319194 -0.013897606435297168 0 0.034999994538695872 -0.014495990649528988 0 0.035939315220727255 -0.015112025830143995 0 0.035939315220727255 -0.015112025830143995 0 0.03499999375387465 -0.016137234586804435 0 0.036151959549402646 -0.016614195281041303 0 0.036886843586542657 -0.015300333341153393 0 0.036151959549402646 -0.016614195281041303 0 0.037598869854212437 -0.016105126675002367 0 0.036886843586542657 -0.015300333341153393 0 0.035939315220727255 -0.015112025830143995 0 0.036151959549402646 -0.016614195281041303 0 0.035908664370347301 -0.017832751146378497 0 0.036731745974093975 -0.017722132336211793 0 0.036151959549402646 -0.016614195281041303 0 0.036731745974093975 -0.017722132336211793 0 0.036151959549402646 -0.016614195281041303 0 0.037598869854212437 -0.016105126675002367 0 0.034999995736554726 -0.017778472302997908 0 0.03499999375387465 -0.016137234586804435 0 0.036151959549402646 -0.016614195281041303 0 0.034999995736554726 -0.017778472302997908 0 0.035908664370347301 -0.017832751146378497 0 0.036151959549402646 -0.016614195281041303 0 0.028660319110934206 -0.02257482703164421 0 0.028778669297003723 -0.022854161178086703 0 0.02856552527173966 -0.02286222420020546 0 0.028778669297003723 -0.022854161178086703 0 0.028689456216158343 -0.02306365699956963 0 0.02856552527173966 -0.02286222420020546 0 0.033993334867701952 -0.019514966014869742 0 0.033734361049961248 -0.018701780919290593 0 0.028922174719398595 -0.022698441102205234 0 0.028778669297003723 -0.022854161178086703 0 0.028938372317014446 -0.022992975490568279 0 0.037753750488366572 -0.017744454857226432 0 0.036731745974093975 -0.017722132336211793 0 0.037598869854212437 -0.016105126675002367 0 0.028778669297003723 -0.022854161178086703 0 0.028938372317014446 -0.022992975490568279 0 0.028689456216158343 -0.02306365699956963 0 0.028938372317014446 -0.022992975490568279 0 0.028689456216158343 -0.02306365699956963 0 0.028829591604763307 -0.023171384007983662 0 0.028689456216158343 -0.02306365699956963 0 0.028704865912085431 -0.023241118382838311 0 0.028829591604763307 -0.023171384007983662 0 0.028704865912085431 -0.023241118382838311 0 0.028829591604763307 -0.023171384007983662 0 0.028856569347474794 -0.02327569504857362 0 0.028938372317014446 -0.022992975490568279 0 0.028829591604763307 -0.023171384007983662 0 0.028936404549644548 -0.023252498656380679 0 0.036886843586542657 -0.015300333341153393 0 0.037598869854212437 -0.016105126675002367 0 0.037440435539359898 -0.014465238367059517 0 0.033734361049961248 -0.018701780919290593 0 0.033506220754628044 -0.017409596140794934 0 0.028829591604763307 -0.023171384007983662 0 0.028856569347474794 -0.02327569504857362 0 0.028936404549644548 -0.023252498656380679 0 0.028898658429603756 -0.023523950458842657 0 0.028877629384648704 -0.023524902214627323 0 0.028856569347474794 -0.02327569504857362 0 0.032913799929660051 -0.015389701240186767 0 0.03284830645253884 -0.016840283183106035 0 0.028946568187994959 -0.023387592854670829 0 0.028856569347474794 -0.02327569504857362 0 0.028936404549644548 -0.023252498656380679 0 0.028895520038784935 -0.023386927444381755 0 0.028946568187994959 -0.023387592854670829 0 0.028856569347474794 -0.02327569504857362 0 0.03326068653826128 -0.01527321673576172 0 0.033506220754628044 -0.017409596140794934 0 0.032864860127372317 -0.015406352323873667 0 0.032588451038826981 -0.016734460403316807 0 0.028877629384648704 -0.023524902214627323 0 0.028856569347474794 -0.02327569504857362 0 0.028673347565579977 -0.023389385112752452 0 0.028704865912085431 -0.023241118382838311 0 0.028856569347474794 -0.02327569504857362 0 0.028673347565579977 -0.023389385112752452 0 0.032588451038826981 -0.016734460403316807 0 0.032464151943750304 -0.017135418398821683 0 0.028710848208657852 -0.023444268557253015 0 0.028422727178471406 -0.023477771166009784 0 0.028576459447791528 -0.023643220701250443 0 0.028710848208657852 -0.023444268557253015 0 0.028422727178471406 -0.023477771166009784 0 0.028455254740169515 -0.023272750347694229 0 0.028422727178471406 -0.023477771166009784 0 0.028455254740169515 -0.023272750347694229 0 0.028184374183368673 -0.023372161087178333 0 0.028422727178471406 -0.023477771166009784 0 0.028184374183368673 -0.023372161087178333 0 0.028196747829195793 -0.023656244931715871 0 0.028455254740169515 -0.023272750347694229 0 0.028193061403473326 -0.023086783670586551 0 0.028184374183368673 -0.023372161087178333 0 0.028704865912085431 -0.023241118382838311 0 0.028673347565579977 -0.023389385112752452 0 0.028455254740169515 -0.023272750347694229 0 0.028689456216158343 -0.02306365699956963 0 0.028704865912085431 -0.023241118382838311 0 0.028455254740169515 -0.023272750347694229 0 0.028689456216158343 -0.02306365699956963 0 0.028455254740169515 -0.023272750347694229 0 0.028462090602533251 -0.02305155523701588 0 0.028689456216158343 -0.02306365699956963 0 0.028462090602533251 -0.02305155523701588 0 0.02856552527173966 -0.02286222420020546 0 0.028455254740169515 -0.023272750347694229 0 0.028462090602533251 -0.02305155523701588 0 0.028193061403473326 -0.023086783670586551 0 0.028462090602533251 -0.02305155523701588 0 0.028193061403473326 -0.023086783670586551 0 0.028359215432935299 -0.022903348519176879 0 0.028422052447051305 -0.022657223210027833 0 0.028359215432935299 -0.022903348519176879 0 0.028203903115550249 -0.022778071524698826 0 0.028193061403473326 -0.023086783670586551 0 0.028359215432935299 -0.022903348519176879 0 0.028203903115550249 -0.022778071524698826 0 0.028422052447051305 -0.022657223210027833 0 0.028359215432935299 -0.022903348519176879 0 0.02856552527173966 -0.02286222420020546 0 0.028462090602533251 -0.02305155523701588 0 0.028359215432935299 -0.022903348519176879 0 0.02856552527173966 -0.02286222420020546 0 0.027754799644642329 -0.022908723906569201 0 0.028006060866717239 -0.022924160728681253 0 0.02788405355810597 -0.023072548963474063 0 0.027933158833924058 -0.02277459196005437 0 0.027754799644642329 -0.022908723906569201 0 0.028006060866717239 -0.022924160728681253 0 0.027665843228947731 -0.022803484295991487 0 0.027933158833924058 -0.02277459196005437 0 0.027754799644642329 -0.022908723906569201 0 0.027933158833924058 -0.02277459196005437 0 0.028203903115550249 -0.022778071524698826 0 0.028006060866717239 -0.022924160728681253 0 0.028193061403473326 -0.023086783670586551 0 0.028203903115550249 -0.022778071524698826 0 0.028006060866717239 -0.022924160728681253 0 0.028193061403473326 -0.023086783670586551 0 0.02788405355810597 -0.023072548963474063 0 0.027930187565175835 -0.023273602164040112 0 0.028193061403473326 -0.023086783670586551 0 0.028006060866717239 -0.022924160728681253 0 0.02788405355810597 -0.023072548963474063 0 0.02788405355810597 -0.023072548963474063 0 0.027749588498965205 -0.023172753511966199 0 0.027625287689810717 -0.02299546571821218 0 0.027754799644642329 -0.022908723906569201 0 0.02788405355810597 -0.023072548963474063 0 0.027625287689810717 -0.02299546571821218 0 0.02788405355810597 -0.023072548963474063 0 0.027749588498965205 -0.023172753511966199 0 0.027930187565175835 -0.023273602164040112 0 0.027749588498965205 -0.023172753511966199 0 0.027930187565175835 -0.023273602164040112 0 0.027663427856480204 -0.023293562508540967 0 0.027930187565175835 -0.023273602164040112 0 0.027711502978453137 -0.023469663565017097 0 0.027663427856480204 -0.023293562508540967 0 0.028193061403473326 -0.023086783670586551 0 0.027930187565175835 -0.023273602164040112 0 0.028184374183368673 -0.023372161087178333 0 0.028184374183368673 -0.023372161087178333 0 0.027969373110809589 -0.023487062868596063 0 0.028196747829195793 -0.023656244931715871 0 0.027930187565175835 -0.023273602164040112 0 0.028184374183368673 -0.023372161087178333 0 0.027969373110809589 -0.023487062868596063 0 0.027930187565175835 -0.023273602164040112 0 0.027969373110809589 -0.023487062868596063 0 0.027711502978453137 -0.023469663565017097 0 0.027969373110809589 -0.023487062868596063 0 0.027825885138029079 -0.023667020315405209 0 0.027711502978453137 -0.023469663565017097 0 0.035642368963818609 -0.0039323779883369079 0 0.035565243527979851 -0.0038167902806901166 0 0.035796114354068272 -0.0038375290441947174 0 0.035565243527979851 -0.0038167902806901166 0 0.035736572746161245 -0.0037165366191948788 0 0.035536154709064627 -0.0037557163370091884 0 0.035565243527979851 -0.0038167902806901166 0 0.035736572746161245 -0.0037165366191948788 0 0.035796114354068272 -0.0038375290441947174 0 0.035565243527979851 -0.0038167902806901166 0 0.035650624726297951 -0.0037875104200592031 0 0.035545712248458775 -0.0038262252022603438 0 0.035565243527979851 -0.0038167902806901166 0 0.035604271752858692 -0.003663932568547136 0 0.035650624726297951 -0.0037875104200592031 0 0.035565243527979851 -0.0038167902806901166 0 0.035536154709064627 -0.0037557163370091884 0 0.035545712248458775 -0.0038262252022603438 0 0.035642368963818609 -0.0039323779883369079 0 0.035565243527979851 -0.0038167902806901166 0 0.035604271752858692 -0.003663932568547136 0 0.030803888050362219 -0.015228651255602682 0 0.031698570562180478 -0.015051219260899982 0 0.027969373110809589 -0.023487062868596063 0 0.027825885138029079 -0.023667020315405209 0 0.028196747829195793 -0.023656244931715871 0 0.031698570562180478 -0.015051219260899982 0 0.032328543071076944 -0.015102128893154673 0 0.035604271752858692 -0.003663932568547136 0 0.035956427429323153 -0.0037383042164103541 0 0.035650624726297951 -0.0037875104200592031 0 0.028422727178471406 -0.023477771166009784 0 0.028196747829195793 -0.023656244931715871 0 0.028576459447791528 -0.023643220701250443 0 0.035604271752858692 -0.003663932568547136 0 0.036133066485984057 -0.0034228236611324879 0 0.035956427429323153 -0.0037383042164103541 0 0.036652563378890349 -0.0037514379092566555 0 0.036133066485984057 -0.0034228236611324879 0 0.035956427429323153 -0.0037383042164103541 0 0.036652563378890349 -0.0037514379092566555 0 0.035956427429323153 -0.0037383042164103541 0 0.036243413638714979 -0.0040161532770588938 0 0.035956427429323153 -0.0037383042164103541 0 0.036243413638714979 -0.0040161532770588938 0 0.035806050133008097 -0.0039388220838410789 0 0.035956427429323153 -0.0037383042164103541 0 0.035650624726297951 -0.0037875104200592031 0 0.035806050133008097 -0.0039388220838410789 0 0.035650624726297951 -0.0037875104200592031 0 0.035806050133008097 -0.0039388220838410789 0 0.035545712248458775 -0.0038262252022603438 0 0.035806050133008097 -0.0039388220838410789 0 0.035626594418315762 -0.0039169075305234592 0 0.035545712248458775 -0.0038262252022603438 0 0.035806050133008097 -0.0039388220838410789 0 0.035823007333126954 -0.0040833548408079857 0 0.036117283503874824 -0.0042988447699124892 0 0.035806050133008097 -0.0039388220838410789 0 0.035823007333126954 -0.0040833548408079857 0 0.035626594418315762 -0.0039169075305234592 0 0.035823007333126954 -0.0040833548408079857 0 0.035626594418315762 -0.0039169075305234592 0 0.035639975211034715 -0.0039974294709330359 0 0.036243413638714979 -0.0040161532770588938 0 0.035806050133008097 -0.0039388220838410789 0 0.036117283503874824 -0.0042988447699124892 0 0.036390827950184092 -0.0043418466857658329 0 0.036243413638714979 -0.0040161532770588938 0 0.036117283503874824 -0.0042988447699124892 0 0.035823007333126954 -0.0040833548408079857 0 0.036117283503874824 -0.0042988447699124892 0 0.035984445413466563 -0.0043682704283511476 0 0.036490292638897963 -0.0047510690996699261 0 0.036390827950184092 -0.0043418466857658329 0 0.036117283503874824 -0.0042988447699124892 0 0.036271590977844076 -0.0046781618472443547 0 0.036288651875519141 -0.0048699250689590422 0 0.036647421242686808 -0.0053837310818484517 0 0.036490292638897963 -0.0047510690996699261 0 0.036117283503874824 -0.0042988447699124892 0 0.036271590977844076 -0.0046781618472443547 0 0.036117283503874824 -0.0042988447699124892 0 0.036271590977844076 -0.0046781618472443547 0 0.035984445413466563 -0.0043682704283511476 0 0.036271590977844076 -0.0046781618472443547 0 0.035984445413466563 -0.0043682704283511476 0 0.036288651875519141 -0.0048699250689590422 0 0.035639975211034715 -0.0039974294709330359 0 0.035984445413466563 -0.0043682704283511476 0 0.03576868865568552 -0.0043377909026890227 0 0.035823007333126954 -0.0040833548408079857 0 0.035639975211034715 -0.0039974294709330359 0 0.035984445413466563 -0.0043682704283511476 0 0.035984445413466563 -0.0043682704283511476 0 0.03576868865568552 -0.0043377909026890227 0 0.036288651875519141 -0.0048699250689590422 0 0.035639975211034715 -0.0039974294709330359 0 0.03576868865568552 -0.0043377909026890227 0 0.035420727106574165 -0.003770752328734112 0 0.035066847345016167 -0.0032633647229966816 0 0.035610250918227324 -0.0035707724080535977 0 0.035370995318300152 -0.0037353323947905046 0 0.03576868865568552 -0.0043377909026890227 0 0.035420727106574165 -0.003770752328734112 0 0.035066847345016167 -0.0032633647229966816 0 0.035420727106574165 -0.003770752328734112 0 0.035066847345016167 -0.0032633647229966816 0 0.035370995318300152 -0.0037353323947905046 0 0.035639975211034715 -0.0039974294709330359 0 0.035420727106574165 -0.003770752328734112 0 0.035370995318300152 -0.0037353323947905046 0 0.035066847345016167 -0.0032633647229966816 0 0.035610250918227324 -0.0035707724080535977 0 0.036017982696527888 -0.0030661263206818654 0 0.035066847345016167 -0.0032633647229966816 0 0.036017982696527888 -0.0030661263206818654 0 0.035081052487471703 -0.002207146100605498 0 0.035610250918227324 -0.0035707724080535977 0 0.035536154709064627 -0.0037557163370091884 0 0.035370995318300152 -0.0037353323947905046 0 0.035610250918227324 -0.0035707724080535977 0 0.035736572746161245 -0.0037165366191948788 0 0.035536154709064627 -0.0037557163370091884 0 0.035536154709064627 -0.0037557163370091884 0 0.035545712248458775 -0.0038262252022603438 0 0.035370995318300152 -0.0037353323947905046 0 0.035626594418315762 -0.0039169075305234592 0 0.035545712248458775 -0.0038262252022603438 0 0.035370995318300152 -0.0037353323947905046 0 0.035626594418315762 -0.0039169075305234592 0 0.035639975211034715 -0.0039974294709330359 0 0.035370995318300152 -0.0037353323947905046 0 0.036248387543135925 -0.0035097791281982582 0 0.036083566196985301 -0.003676755216996576 0 0.036029200183849697 -0.0034707019719126325 0 0.036248387543135925 -0.0035097791281982582 0 0.036083566196985301 -0.003676755216996576 0 0.036277478674143472 -0.0036701278892828362 0 0.035610250918227324 -0.0035707724080535977 0 0.035736572746161245 -0.0037165366191948788 0 0.036029200183849697 -0.0034707019719126325 0 0.035736572746161245 -0.0037165366191948788 0 0.036083566196985301 -0.003676755216996576 0 0.036029200183849697 -0.0034707019719126325 0 0.036029200183849697 -0.0034707019719126325 0 0.036017982696527888 -0.0030661263206818654 0 0.036217004060496404 -0.0032972964041483475 0 0.033411777555625834 -0.0039382009975910707 0 0.032881421465844898 -0.0042878094421489122 0 0.035610250918227324 -0.0035707724080535977 0 0.036029200183849697 -0.0034707019719126325 0 0.036017982696527888 -0.0030661263206818654 0 0.036248387543135925 -0.0035097791281982582 0 0.036029200183849697 -0.0034707019719126325 0 0.036217004060496404 -0.0032972964041483475 0 0.032881421465844898 -0.0042878094421489122 0 0.031496460457610821 -0.0048703006067470451 0 0.036248387543135925 -0.0035097791281982582 0 0.036217004060496404 -0.0032972964041483475 0 0.03648290352985447 -0.0033721418579621544 0 0.033636780413292038 -1.3011897009184471e-05 0 0.033233516264529001 6.7611841907274311e-05 0 0.033367902897893639 -0.00024692311818341978 0 0.033577334519345907 -0.0004752805648994418 0 0.033080001253575186 -0.00089301808800363366 0 0.033854276399078016 -0.0011198688155419634 0 0.033577334519345907 -0.0004752805648994418 0 0.033854276399078016 -0.0011198688155419634 0 0.034119712560872574 -0.00010106070588789565 0 0.033577334519345907 -0.0004752805648994418 0 0.033080001253575186 -0.00089301808800363366 0 0.033250846244882698 -6.289711573513181e-05 0 0.031496460457610821 -0.0048703006067470451 0 0.031553570768097089 -0.0045348967387787579 0 0.03292839904670649 -0.0011012551140231136 0 0.033854276399078016 -0.0011198688155419634 0 0.033249291080596613 -0.0016633340300797261 0 0.031496460457610821 -0.0048703006067470451 0 0.03163268128405243 -0.0048092250626878951 0 0.033249291080596613 -0.0016633340300797261 0 0.033114150383210479 -0.0023363143672254375 0 0.034886575304381634 -0.0018645923256783437 0 0.03292839904670649 -0.0011012551140231136 0 0.033249291080596613 -0.0016633340300797261 0 0.032977958886920615 -0.0024629459872654875 0 0.031496460457610821 -0.0048703006067470451 0 0.029140482703712212 -0.0086884898687008914 0 0.033249291080596613 -0.0016633340300797261 0 0.033114150383210479 -0.0023363143672254375 0 0.032977958886920615 -0.0024629459872654875 0 0.033114150383210479 -0.0023363143672254375 0 0.032678529172334575 -0.0022550514450413342 0 0.03230516206292261 -0.0025291934978634665 0 0.036248387543135925 -0.0035097791281982582 0 0.03648290352985447 -0.0033721418579621544 0 0.036364646370997095 -0.0035618271896191789 0 0.03648290352985447 -0.0033721418579621544 0 0.036364646370997095 -0.0035618271896191789 0 0.036446071230240303 -0.0037023408625936854 0 0.036364646370997095 -0.0035618271896191789 0 0.036277478674143472 -0.0036701278892828362 0 0.036446071230240303 -0.0037023408625936854 0 0.036248387543135925 -0.0035097791281982582 0 0.036364646370997095 -0.0035618271896191789 0 0.036277478674143472 -0.0036701278892828362 0 0.029140482703712212 -0.0086884898687008914 0 0.025673688112827556 -0.016381998338662548 0 0.036277478674143472 -0.0036701278892828362 0 0.036446071230240303 -0.0037023408625936854 0 0.036233303290475673 -0.0038581730277151456 0 0.036446071230240303 -0.0037023408625936854 0 0.036233303290475673 -0.0038581730277151456 0 0.03639835431501072 -0.0040664667001007624 0 0.032977958886920615 -0.0024629459872654875 0 0.032874914439113764 -0.0018331300910529647 0 0.033284414738907316 -0.0013481152056464862 0 0.032678529172334575 -0.0022550514450413342 0 0.032673298071026716 -0.0020324670557638419 0 0.032320323651428638 -0.0020682843958815546 0 0.033114150383210479 -0.0023363143672254375 0 0.032678529172334575 -0.0022550514450413342 0 0.032880900800440614 -0.0022519869661729625 0 0.032678529172334575 -0.0022550514450413342 0 0.032880900800440614 -0.0022519869661729625 0 0.032673298071026716 -0.0020324670557638419 0 0.032977958886920615 -0.0024629459872654875 0 0.032880900800440614 -0.0022519869661729625 0 0.032874914439113764 -0.0018331300910529647 0 0.033114150383210479 -0.0023363143672254375 0 0.032977958886920615 -0.0024629459872654875 0 0.032880900800440614 -0.0022519869661729625 0 0.032673298071026716 -0.0020324670557638419 0 0.032375148127643145 -0.0016171376493610209 0 0.032320323651428638 -0.0020682843958815546 0 0.032874914439113764 -0.0018331300910529647 0 0.032673298071026716 -0.0020324670557638419 0 0.032375148127643145 -0.0016171376493610209 0 0.032880900800440614 -0.0022519869661729625 0 0.032874914439113764 -0.0018331300910529647 0 0.032673298071026716 -0.0020324670557638419 0 0.024208842902157111 -0.01745983628726067 0 0.024863712946531034 -0.016684632448777721 0 0.032874914439113764 -0.0018331300910529647 0 0.032711400218542172 -0.0013400926694934095 0 0.032375148127643145 -0.0016171376493610209 0 0.032874914439113764 -0.0018331300910529647 0 0.032711400218542172 -0.0013400926694934095 0 0.033284414738907316 -0.0013481152056464862 0 0.024208842902157111 -0.01745983628726067 0 0.022484056541531301 -0.021408903909034421 0 0.024208842902157111 -0.01745983628726067 0 0.025673688112827556 -0.016381998338662548 0 0.023512105307828501 -0.01759766175778955 0 0.026234179107045952 -0.017557695829907082 0 0.026476911739045268 -0.014620665072049866 0 0.025673688112827556 -0.016381998338662548 0 0.029162169773720322 -0.015648767628022964 0 0.027052356521005495 -0.023678630120646395 0 0.027449042832569017 -0.023675042019476705 0 0.027142279809295462 -0.023504999637838721 0 0.036233303290475673 -0.0038581730277151456 0 0.03639835431501072 -0.0040664667001007624 0 0.036011717817132159 -0.0040504068975121517 0 0.025673688112827556 -0.016381998338662548 0 0.022484056541531301 -0.021408903909034421 0 0.036083566196985301 -0.003676755216996576 0 0.036233303290475673 -0.0038581730277151456 0 0.036011717817132159 -0.0040504068975121517 0 0.036083566196985301 -0.003676755216996576 0 0.036277478674143472 -0.0036701278892828362 0 0.036233303290475673 -0.0038581730277151456 0 0.035736572746161245 -0.0037165366191948788 0 0.036083566196985301 -0.003676755216996576 0 0.035796114354068272 -0.0038375290441947174 0 0.036083566196985301 -0.003676755216996576 0 0.036011717817132159 -0.0040504068975121517 0 0.035796114354068272 -0.0038375290441947174 0 0.030803888050362219 -0.015228651255602682 0 0.029162169773720322 -0.015648767628022964 0 0.027825885138029079 -0.023667020315405209 0 0.027449042832569017 -0.023675042019476705 0 0.027711502978453137 -0.023469663565017097 0 0.035642368963818609 -0.0039323779883369079 0 0.036011717817132159 -0.0040504068975121517 0 0.035796114354068272 -0.0038375290441947174 0 0.027449042832569017 -0.023675042019476705 0 0.027711502978453137 -0.023469663565017097 0 0.027487590892695327 -0.023404449931268424 0 0.027711502978453137 -0.023469663565017097 0 0.027487590892695327 -0.023404449931268424 0 0.027663427856480204 -0.023293562508540967 0 0.027449042832569017 -0.023675042019476705 0 0.027337802404231677 -0.023471616874390772 0 0.027142279809295462 -0.023504999637838721 0 0.027449042832569017 -0.023675042019476705 0 0.027337802404231677 -0.023471616874390772 0 0.027487590892695327 -0.023404449931268424 0 0.027337802404231677 -0.023471616874390772 0 0.027487590892695327 -0.023404449931268424 0 0.0272719080147301 -0.023303434122596799 0 0.0272719080147301 -0.023303434122596799 0 0.027523348091920134 -0.023236365654276631 0 0.027461634630400213 -0.023126978348384453 0 0.027487590892695327 -0.023404449931268424 0 0.0272719080147301 -0.023303434122596799 0 0.027523348091920134 -0.023236365654276631 0 0.022685545934934891 -0.024820054440714282 0 0.022634740102695162 -0.024813871948693816 0 0.013339804344569236 -0.027427181290754721 0 0.012981148386752753 -0.027813760402168923 0 0.013305538281974234 -0.027884424446975552 0 0.022240404242355762 -0.023451672956987094 0 0.022634740102695162 -0.024813871948693816 0 0.027487590892695327 -0.023404449931268424 0 0.027663427856480204 -0.023293562508540967 0 0.027523348091920134 -0.023236365654276631 0 0.027523348091920134 -0.023236365654276631 0 0.027611039032601342 -0.023135773726405628 0 0.027473743292476486 -0.023145240517116576 0 0.027663427856480204 -0.023293562508540967 0 0.027523348091920134 -0.023236365654276631 0 0.027611039032601342 -0.023135773726405628 0 0.027749588498965205 -0.023172753511966199 0 0.027663427856480204 -0.023293562508540967 0 0.027611039032601342 -0.023135773726405628 0 0.027749588498965205 -0.023172753511966199 0 0.027625287689810717 -0.02299546571821218 0 0.027611039032601342 -0.023135773726405628 0 0.027625287689810717 -0.02299546571821218 0 0.027491261298090916 -0.023094613109372997 0 0.02751364988981567 -0.022942646122595209 0 0.027625287689810717 -0.02299546571821218 0 0.027611039032601342 -0.023135773726405628 0 0.027473743292476486 -0.023145240517116576 0 0.023073069861200696 -0.024470915976440535 0 0.022634740102695162 -0.024813871948693816 0 0.012981148386752753 -0.027813760402168923 0 0.013305538281974234 -0.027884424446975552 0 0.013281545951941569 -0.028380458157631416 0 0.022634740102695162 -0.024813871948693816 0 0.021319875911858459 -0.025541168835946496 0 0.027491261298090916 -0.023094613109372997 0 0.02751364988981567 -0.022942646122595209 0 0.027433750716865733 -0.022842761895103848 0 0.02751364988981567 -0.022942646122595209 0 0.027433750716865733 -0.022842761895103848 0 0.027519425659508445 -0.022859076804936949 0 0.027464772706965297 -0.022787547169266512 0 0.027433750716865733 -0.022842761895103848 0 0.027519425659508445 -0.022859076804936949 0 0.027665843228947731 -0.022803484295991487 0 0.027754799644642329 -0.022908723906569201 0 0.027519425659508445 -0.022859076804936949 0 0.027754799644642329 -0.022908723906569201 0 0.027625287689810717 -0.02299546571821218 0 0.027519425659508445 -0.022859076804936949 0 0.027625287689810717 -0.02299546571821218 0 0.02751364988981567 -0.022942646122595209 0 0.027519425659508445 -0.022859076804936949 0 0.013546616525688192 -0.028481841380053923 0 0.013645001208941469 -0.028644858636580083 0 0.013828287553289154 -0.028455662923867777 0 0.013546616525688192 -0.028481841380053923 0 0.013645001208941469 -0.028644858636580083 0 0.0135448994590907 -0.028597129532709806 0 0.013568746876180766 -0.028710335718925131 0 0.013645001208941469 -0.028644858636580083 0 0.0135448994590907 -0.028597129532709806 0 0.019589587575916906 -0.026344157583695255 0 0.020256298856068465 -0.025295614005399265 0 0.013568746876180766 -0.028710335718925131 0 0.0135448994590907 -0.028597129532709806 0 0.01344004892005672 -0.028591898725165352 0 0.020187290195804682 -0.02636696929400385 0 0.021319875911858459 -0.025541168835946496 0 0.013546616525688192 -0.028481841380053923 0 0.0135448994590907 -0.028597129532709806 0 0.01344004892005672 -0.028591898725165352 0 0.013472549925814961 -0.028785911269490878 0 0.013281545951941569 -0.028380458157631416 0 0.01344004892005672 -0.028591898725165352 0 0.013546616525688192 -0.028481841380053923 0 0.01344004892005672 -0.028591898725165352 0 0.013466310165675935 -0.028326081028358655 0 0.013281545951941569 -0.028380458157631416 0 0.01344004892005672 -0.028591898725165352 0 0.013621550692750442 -0.027886453672552575 0 0.013305538281974234 -0.027884424446975552 0 0.013281545951941569 -0.028380458157631416 0 0.013621550692750442 -0.027886453672552575 0 0.013546616525688192 -0.028481841380053923 0 0.013643426507980703 -0.028305025578256857 0 0.013828287553289154 -0.028455662923867777 0 0.013546616525688192 -0.028481841380053923 0 0.013466310165675935 -0.028326081028358655 0 0.013643426507980703 -0.028305025578256857 0 0.013643426507980703 -0.028305025578256857 0 0.013599999408266667 -0.028132733590082157 0 0.013767473757286836 -0.02808041293112291 0 0.013466310165675935 -0.028326081028358655 0 0.013643426507980703 -0.028305025578256857 0 0.013599999408266667 -0.028132733590082157 0 0.013466310165675935 -0.028326081028358655 0 0.013599999408266667 -0.028132733590082157 0 0.013505010902827987 -0.028002136213144641 0 0.020256298856068465 -0.025295614005399265 0 0.022484056541531301 -0.021408903909034421 0 0.013339804344569236 -0.027427181290754721 0 0.013621550692750442 -0.027886453672552575 0 0.013753627889575674 -0.02701360148963252 0 0.013339804344569236 -0.027427181290754721 0 0.013305538281974234 -0.027884424446975552 0 0.013621550692750442 -0.027886453672552575 0 0.0272719080147301 -0.023303434122596799 0 0.027071768722375385 -0.023484710822783118 0 0.027142279809295462 -0.023504999637838721 0 0.022240404242355762 -0.023451672956987094 0 0.022484056541531301 -0.021408903909034421 0 0.027337802404231677 -0.023471616874390772 0 0.0272719080147301 -0.023303434122596799 0 0.027142279809295462 -0.023504999637838721 0 0.027052356521005495 -0.023678630120646395 0 0.027067666465790997 -0.023483273214568959 0 0.027142279809295462 -0.023504999637838721 0 0.022484056541531301 -0.021408903909034421 0 0.022537037014372392 -0.021425915074704212 0 0.015152043145612285 -0.028451293652491043 0 0.01535300267246539 -0.028259493342738036 0 0.014976839906840839 -0.028179671097539199 0 0.013599999408266667 -0.028132733590082157 0 0.013505010902827987 -0.028002136213144641 0 0.013767473757286836 -0.02808041293112291 0 0.022484056541531301 -0.021408903909034421 0 0.018773142378221752 -0.022698543041179187 0 0.013767473757286836 -0.02808041293112291 0 0.014044363750547984 -0.028152701092785198 0 0.013828287553289154 -0.028455662923867777 0 0.013643426507980703 -0.028305025578256857 0 0.013767473757286836 -0.02808041293112291 0 0.013828287553289154 -0.028455662923867777 0 0.014976839906840839 -0.028179671097539199 0 0.014641620176569944 -0.028143983957717097 0 0.014754572712492841 -0.028441419720055535 0 0.014641620176569944 -0.028143983957717097 0 0.014536864645533193 -0.028291916811433452 0 0.014754572712492841 -0.028441419720055535 0 0.018773142378221752 -0.022698543041179187 0 0.017169976804922521 -0.023517336092718801 0 0.014044363750547984 -0.028152701092785198 0 0.013828287553289154 -0.028455662923867777 0 0.014148653899229459 -0.028366265260753264 0 0.013828287553289154 -0.028455662923867777 0 0.014031875237877993 -0.028532300045235548 0 0.014148653899229459 -0.028366265260753264 0 0.013991044169426963 -0.028761202592946299 0 0.013828287553289154 -0.028455662923867777 0 0.014031875237877993 -0.028532300045235548 0 0.013994223961310134 -0.028842202420337869 0 0.013946344751773237 -0.028751507206178764 0 0.013769477297972647 -0.028724790019716524 0 0.013946011044049396 -0.028751489523984784 0 0.013828287553289154 -0.028455662923867777 0 0.013769477297972647 -0.028724790019716524 0 0.013645001208941469 -0.028644858636580083 0 0.013828287553289154 -0.028455662923867777 0 0.014283092125457071 -0.028712036206909569 0 0.014215562252450646 -0.028547102250858099 0 0.014447056828235137 -0.028554969166965854 0 0.014215562252450646 -0.028547102250858099 0 0.014350371036123953 -0.028415462311889995 0 0.014447056828235137 -0.028554969166965854 0 0.014454541472981936 -0.028758295728361343 0 0.014283092125457071 -0.028712036206909569 0 0.014447056828235137 -0.028554969166965854 0 0.013991044169426963 -0.028761202592946299 0 0.014031875237877993 -0.028532300045235548 0 0.014215562252450646 -0.028547102250858099 0 0.014283092125457071 -0.028712036206909569 0 0.013991044169426963 -0.028761202592946299 0 0.014215562252450646 -0.028547102250858099 0 0.014215562252450646 -0.028547102250858099 0 0.014148653899229459 -0.028366265260753264 0 0.014350371036123953 -0.028415462311889995 0 0.014031875237877993 -0.028532300045235548 0 0.014215562252450646 -0.028547102250858099 0 0.014148653899229459 -0.028366265260753264 0 0.014350371036123953 -0.028415462311889995 0 0.014461933217438661 -0.028367326246058019 0 0.014447056828235137 -0.028554969166965854 0 0.014148653899229459 -0.028366265260753264 0 0.014350371036123953 -0.028415462311889995 0 0.014384106711494376 -0.028238129959564946 0 0.014350371036123953 -0.028415462311889995 0 0.014384106711494376 -0.028238129959564946 0 0.014461933217438661 -0.028367326246058019 0 0.014384106711494376 -0.028238129959564946 0 0.014441754339878751 -0.028261543095147671 0 0.014462587464222618 -0.028219093769757387 0 0.014384106711494376 -0.028238129959564946 0 0.014467964190514597 -0.028250426935835859 0 0.014441754339878751 -0.028261543095147671 0 0.017169976804922521 -0.023517336092718801 0 0.01672954264179 -0.023797450896302579 0 0.014044363750547984 -0.028152701092785198 0 0.014148653899229459 -0.028366265260753264 0 0.014384106711494376 -0.028238129959564946 0 0.014641620176569944 -0.028143983957717097 0 0.014384106711494376 -0.028238129959564946 0 0.014467964190514597 -0.028250426935835859 0 0.014641620176569944 -0.028143983957717097 0 0.014467964190514597 -0.028250426935835859 0 0.014536864645533193 -0.028291916811433452 0 0.014467964190514597 -0.028250426935835859 0 0.014536864645533193 -0.028291916811433452 0 0.014464863317223868 -0.028302270776277293 0 0.014536864645533193 -0.028291916811433452 0 0.014464863317223868 -0.028302270776277293 0 0.014464765075214964 -0.028391943421241725 0 0.014441754339878751 -0.028261543095147671 0 0.014430270709463686 -0.028352235095482334 0 0.014462587464222618 -0.028219093769757387 0 0.018538888929391945 -0.021398490556788358 0 0.017684857127820797 -0.02325878040653577 0 0.014441754339878751 -0.028261543095147671 0 0.014464863317223868 -0.028302270776277293 0 0.014430270709463686 -0.028352235095482334 0 0.018538888929391945 -0.021398490556788358 0 0.017840002952706956 -0.024449045450008918 0 0.014467964190514597 -0.028250426935835859 0 0.014441754339878751 -0.028261543095147671 0 0.014464863317223868 -0.028302270776277293 0 0.019000397521796469 -0.020282569214758094 0 0.019845662332099806 -0.017827596155643517 0 0.029356387455597908 -0.0010104668013446172 0 0.029090635361013792 -0.0016586310636925792 0 0.027563004606052207 -0.0010264835945032655 0 0.014724960243464282 -0.028282386085045668 0 0.014714540077942347 -0.028272629608985432 0 0.014782363083232034 -0.028281676408523422 0 0.014464863317223868 -0.028302270776277293 0 0.014430270709463686 -0.028352235095482334 0 0.014464765075214964 -0.028391943421241725 0 0.018538888929391945 -0.021398490556788358 0 0.019000397521796469 -0.020282569214758094 0 0.029356387455597908 -0.0010104668013446172 0 0.029090635361013792 -0.0016586310636925792 0 0.029663225747473033 -0.0012116907018793084 0 0.029090635361013792 -0.0016586310636925792 0 0.029697393174138585 -0.0021789981441834036 0 0.028617504893474876 -0.002834193113679398 0 0.029090635361013792 -0.0016586310636925792 0 0.028617504893474876 -0.002834193113679398 0 0.027563004606052207 -0.0010264835945032655 0 0.029697393174138585 -0.0021789981441834036 0 0.03058708898292764 -0.0022152706303673921 0 0.03002741475459254 -0.0028462841525776737 0 0.029090635361013792 -0.0016586310636925792 0 0.029697393174138585 -0.0021789981441834036 0 0.029639741480496709 -0.0016928823339585916 0 0.029697393174138585 -0.0021789981441834036 0 0.029639741480496709 -0.0016928823339585916 0 0.030087835567250885 -0.0017880345267673738 0 0.029697393174138585 -0.0021789981441834036 0 0.030087835567250885 -0.0017880345267673738 0 0.03058708898292764 -0.0022152706303673921 0 0.030087835567250885 -0.0017880345267673738 0 0.030689651496829663 -0.001656517542848453 0 0.03058708898292764 -0.0022152706303673921 0 0.019000397521796469 -0.020282569214758094 0 0.022006066675581096 -0.018518040104150525 0 0.029371196785203047 -0.0010195910324101453 0 0.029663225747473033 -0.0012116907018793084 0 0.03119146278583694 -0.0010688821985379311 0 0.030087835567250885 -0.0017880345267673738 0 0.029663225747473033 -0.0012116907018793084 0 0.030689651496829663 -0.001656517542848453 0 0.014536864645533193 -0.028291916811433452 0 0.014464765075214964 -0.028391943421241725 0 0.014754572712492841 -0.028441419720055535 0 0.029090635361013792 -0.0016586310636925792 0 0.029639741480496709 -0.0016928823339585916 0 0.029663225747473033 -0.0012116907018793084 0 0.029639741480496709 -0.0016928823339585916 0 0.030087835567250885 -0.0017880345267673738 0 0.029663225747473033 -0.0012116907018793084 0 0.019000397521796469 -0.020282569214758094 0 0.019023034177256586 -0.020213644553570664 0 0.029663225747473033 -0.0012116907018793084 0 0.03119146278583694 -0.0010688821985379311 0 0.030689651496829663 -0.001656517542848453 0 0.03119146278583694 -0.0010688821985379311 0 0.03158799198095677 -0.0020140415462329606 0 0.030689651496829663 -0.001656517542848453 0 0.024208842902157111 -0.01745983628726067 0 0.022006066675581096 -0.018518040104150525 0 0.032855569081691162 -0.0011519100978167628 0 0.03119146278583694 -0.0010688821985379311 0 0.032375148127643145 -0.0016171376493610209 0 0.03119146278583694 -0.0010688821985379311 0 0.032375148127643145 -0.0016171376493610209 0 0.03158799198095677 -0.0020140415462329606 0 0.015152043145612285 -0.028451293652491043 0 0.014976839906840839 -0.028179671097539199 0 0.014754572712492841 -0.028441419720055535 0 0.03158799198095677 -0.0020140415462329606 0 0.031045268873973127 -0.0027682225364409441 0 0.03230516206292261 -0.0025291934978634665 0 0.032375148127643145 -0.0016171376493610209 0 0.03158799198095677 -0.0020140415462329606 0 0.032320323651428638 -0.0020682843958815546 0 0.03158799198095677 -0.0020140415462329606 0 0.032320323651428638 -0.0020682843958815546 0 0.03230516206292261 -0.0025291934978634665 0 0.032678529172334575 -0.0022550514450413342 0 0.032320323651428638 -0.0020682843958815546 0 0.03230516206292261 -0.0025291934978634665 0 0.03158799198095677 -0.0020140415462329606 0 0.030689651496829663 -0.001656517542848453 0 0.03058708898292764 -0.0022152706303673921 0 0.03158799198095677 -0.0020140415462329606 0 0.03058708898292764 -0.0022152706303673921 0 0.031045268873973127 -0.0027682225364409441 0 0.032183027694993455 7.5571591815233062e-05 0 0.031841507876317822 0.00065126140573497392 0 0.03058708898292764 -0.0022152706303673921 0 0.031045268873973127 -0.0027682225364409441 0 0.03002741475459254 -0.0028462841525776737 0 0.031045268873973127 -0.0027682225364409441 0 0.031638442169962179 -0.0031967825347922062 0 0.030000005477921289 -0.0037482545228966209 0 0.031045268873973127 -0.0027682225364409441 0 0.031638442169962179 -0.0031967825347922062 0 0.03230516206292261 -0.0025291934978634665 0 0.032260379687401829 -0.00010879882622470902 0 0.032183027694993455 7.5571591815233062e-05 0 0.033854276399078016 -0.0011198688155419634 0 0.033249291080596613 -0.0016633340300797261 0 0.034886575304381634 -0.0018645923256783437 0 0.033114150383210479 -0.0023363143672254375 0 0.031638442169962179 -0.0031967825347922062 0 0.03230516206292261 -0.0025291934978634665 0 0.033854276399078016 -0.0011198688155419634 0 0.03510391053709179 -0.00043733469793425943 0 0.034119712560872574 -0.00010106070588789565 0 0.033854276399078016 -0.0011198688155419634 0 0.034886575304381634 -0.0018645923256783437 0 0.03510391053709179 -0.00043733469793425943 0 0.034886575304381634 -0.0018645923256783437 0 0.03510391053709179 -0.00043733469793425943 0 0.036624473302540275 -0.0013455862695861745 0 0.03510391053709179 -0.00043733469793425943 0 0.036624473302540275 -0.0013455862695861745 0 0.036320105819489877 0.00015081869214475491 0 0.031841507876317822 0.00065126140573497392 0 0.031008183855985687 0.0016722211146139628 0 0.036624473302540275 -0.0013455862695861745 0 0.037827908458643401 0.00032363263905440642 0 0.038348708926822676 -0.00079372659569235484 0 0.030000005477921289 -0.0037482545228966209 0 0.028617504893474876 -0.002834193113679398 0 0.028303571954651732 -0.0042521071605903689 0 0.029697393174138585 -0.0021789981441834036 0 0.028617504893474876 -0.002834193113679398 0 0.03002741475459254 -0.0028462841525776737 0 0.030000005477921289 -0.0037482545228966209 0 0.028617504893474876 -0.002834193113679398 0 0.03002741475459254 -0.0028462841525776737 0 0.031045268873973127 -0.0027682225364409441 0 0.030000005477921289 -0.0037482545228966209 0 0.03002741475459254 -0.0028462841525776737 0 0.037107325409613312 0.0010661498609364601 0 0.036237956169834468 0.0014838349777394038 0 0.036320105819489877 0.00015081869214475491 0 0.037107325409613312 0.0010661498609364601 0 0.036237956169834468 0.0014838349777394038 0 0.037128710168449555 0.0020633399275054119 0 0.037107325409613312 0.0010661498609364601 0 0.037914959526365324 0.0015157628260854981 0 0.037827908458643401 0.00032363263905440642 0 0.037107325409613312 0.0010661498609364601 0 0.037914959526365324 0.0015157628260854981 0 0.037128710168449555 0.0020633399275054119 0 0.037914959526365324 0.0015157628260854981 0 0.037827908458643401 0.00032363263905440642 0 0.038722173190684592 0.0011990429578314589 0 0.036624473302540275 -0.0013455862695861745 0 0.037827908458643401 0.00032363263905440642 0 0.036320105819489877 0.00015081869214475491 0 0.037107325409613312 0.0010661498609364601 0 0.037827908458643401 0.00032363263905440642 0 0.036320105819489877 0.00015081869214475491 0 0.03510391053709179 -0.00043733469793425943 0 0.034627337892324583 0.00048959873708691857 0 0.035381489911997403 0.00078681632851926135 0 0.03510391053709179 -0.00043733469793425943 0 0.036320105819489877 0.00015081869214475491 0 0.035381489911997403 0.00078681632851926135 0 0.03510391053709179 -0.00043733469793425943 0 0.034119712560872574 -0.00010106070588789565 0 0.034627337892324583 0.00048959873708691857 0 0.034119712560872574 -0.00010106070588789565 0 0.034627337892324583 0.00048959873708691857 0 0.033934715998527785 0.00085737599843741842 0 0.034627337892324583 0.00048959873708691857 0 0.033934715998527785 0.00085737599843741842 0 0.034644407764391497 0.0013794399861454334 0 0.034627337892324583 0.00048959873708691857 0 0.034644407764391497 0.0013794399861454334 0 0.035381489911997403 0.00078681632851926135 0 0.034644407764391497 0.0013794399861454334 0 0.035341554803140565 0.0018976169546591742 0 0.034610406279444339 0.0023208514712733282 0 0.033934715998527785 0.00085737599843741842 0 0.034644407764391497 0.0013794399861454334 0 0.033921235786704571 0.0020982566085103859 0 0.036237956169834468 0.0014838349777394038 0 0.036320105819489877 0.00015081869214475491 0 0.035381489911997403 0.00078681632851926135 0 0.034644407764391497 0.0013794399861454334 0 0.035381489911997403 0.00078681632851926135 0 0.035341554803140565 0.0018976169546591742 0 0.036237956169834468 0.0014838349777394038 0 0.035381489911997403 0.00078681632851926135 0 0.035341554803140565 0.0018976169546591742 0 0.036237956169834468 0.0014838349777394038 0 0.035341554803140565 0.0018976169546591742 0 0.036110637146086783 0.002580318457450834 0 0.035341554803140565 0.0018976169546591742 0 0.036110637146086783 0.002580318457450834 0 0.03502396603688198 0.0030016138153023441 0 0.035341554803140565 0.0018976169546591742 0 0.03502396603688198 0.0030016138153023441 0 0.034610406279444339 0.0023208514712733282 0 0.036110637146086783 0.002580318457450834 0 0.03502396603688198 0.0030016138153023441 0 0.035292206345476092 0.0040188350333202685 0 0.033921235786704571 0.0020982566085103859 0 0.034147202982203584 0.0032437328812213568 0 0.033342788667427355 0.0036622039428766931 0 0.033921235786704571 0.0020982566085103859 0 0.034610406279444339 0.0023208514712733282 0 0.034147202982203584 0.0032437328812213568 0 0.034644407764391497 0.0013794399861454334 0 0.033921235786704571 0.0020982566085103859 0 0.034610406279444339 0.0023208514712733282 0 0.03502396603688198 0.0030016138153023441 0 0.034610406279444339 0.0023208514712733282 0 0.034147202982203584 0.0032437328812213568 0 0.033814392237947417 0.0024169230332451623 0 0.033655381242445673 0.0019538959093551044 0 0.034147202982203584 0.0032437328812213568 0 0.034309424323859451 0.0044062373894185342 0 0.033342788667427355 0.0036622039428766931 0 0.034309424323859451 0.0044062373894185342 0 0.03410608512809641 0.0050174326122401991 0 0.033342788667427355 0.0036622039428766931 0 0.03502396603688198 0.0030016138153023441 0 0.034147202982203584 0.0032437328812213568 0 0.034309424323859451 0.0044062373894185342 0 0.034051021637904376 0.0049859098966909222 0 0.033465932142305158 0.0055235108928778972 0 0.033805727255875849 0.0050272972020006515 0 0.03502396603688198 0.0030016138153023441 0 0.034309424323859451 0.0044062373894185342 0 0.035292206345476092 0.0040188350333202685 0 0.033024903765034301 0.0056771999839619284 0 0.032993903175360571 0.0056936690041840864 0 0.034309424323859451 0.0044062373894185342 0 0.034051021637904376 0.0049859098966909222 0 0.034066201119658253 0.0049041003152676451 0 0.036110637146086783 0.002580318457450834 0 0.035292206345476092 0.0040188350333202685 0 0.037234696742395351 0.0032153531898898259 0 0.032993903175360571 0.0056936690041840864 0 0.032249313244663444 0.0058985722608732912 0 0.032993903175360571 0.0056936690041840864 0 0.033211837228640552 0.0054933677245990568 0 0.032793802139354913 0.005864876960462285 0 0.032247820268775443 0.0057784518604255906 0 0.032158543666135062 0.0060233194229426384 0 0.036110637146086783 0.002580318457450834 0 0.037234696742395351 0.0032153531898898259 0 0.037128710168449555 0.0020633399275054119 0 0.036237956169834468 0.0014838349777394038 0 0.036110637146086783 0.002580318457450834 0 0.037128710168449555 0.0020633399275054119 0 0.037234696742395351 0.0032153531898898259 0 0.038059161741731164 0.002506627776656006 0 0.038958085946613923 0.0026584281203391835 0 0.033211837228640552 0.0054933677245990568 0 0.032318692218809827 0.005658310966121188 0 0.037914959526365324 0.0015157628260854981 0 0.038059161741731164 0.002506627776656006 0 0.038613402184881927 0.0018920387753349507 0 0.037914959526365324 0.0015157628260854981 0 0.037128710168449555 0.0020633399275054119 0 0.038059161741731164 0.002506627776656006 0 0.037234696742395351 0.0032153531898898259 0 0.037128710168449555 0.0020633399275054119 0 0.038059161741731164 0.002506627776656006 0 0.032158543666135062 0.0060233194229426384 0 0.031703489654352962 0.0056941655642020923 0 0.031526138564125027 0.00618054661574618 0 0.032247820268775443 0.0057784518604255906 0 0.032158543666135062 0.0060233194229426384 0 0.031703489654352962 0.0056941655642020923 0 0.032249313244663444 0.0058985722608732912 0 0.031351282110947433 0.0061231094324830197 0 0.033465932142305158 0.0055235108928778972 0 0.033318416576498866 0.0052500491200712512 0 0.032858264475965564 0.0058734884315279588 0 0.033318416576498866 0.0052500491200712512 0 0.032858264475965564 0.0058734884315279588 0 0.03272112315121279 0.0056546648369542691 0 0.033465932142305158 0.0055235108928778972 0 0.033318416576498866 0.0052500491200712512 0 0.033805727255875849 0.0050272972020006515 0 0.033318416576498866 0.0052500491200712512 0 0.033847305508538442 0.0045292116129892609 0 0.033805727255875849 0.0050272972020006515 0 0.033318416576498866 0.0052500491200712512 0 0.033372528398361849 0.0050049015021875207 0 0.033847305508538442 0.0045292116129892609 0 0.033318416576498866 0.0052500491200712512 0 0.033017971601002179 0.0053258426977969365 0 0.033372528398361849 0.0050049015021875207 0 0.033318416576498866 0.0052500491200712512 0 0.033017971601002179 0.0053258426977969365 0 0.03272112315121279 0.0056546648369542691 0 0.033017971601002179 0.0053258426977969365 0 0.033372528398361849 0.0050049015021875207 0 0.033123516488841848 0.0051856182432976029 0 0.033372528398361849 0.0050049015021875207 0 0.033442806570615664 0.0049678022233007072 0 0.033161857676968463 0.0052510885451180541 0 0.033372528398361849 0.0050049015021875207 0 0.033123516488841848 0.0051856182432976029 0 0.033161857676968463 0.0052510885451180541 0 0.033123516488841848 0.0051856182432976029 0 0.033127856423068841 0.0053334018902912268 0 0.033161857676968463 0.0052510885451180541 0 0.033006862253668445 0.0050858917780193628 0 0.033442806570615664 0.0049678022233007072 0 0.033027813966594245 0.0054417319034689915 0 0.033442806570615664 0.0049678022233007072 0 0.033027813966594245 0.0054417319034689915 0 0.033161857676968463 0.0052510885451180541 0 0.033372528398361849 0.0050049015021875207 0 0.033442806570615664 0.0049678022233007072 0 0.033847305508538442 0.0045292116129892609 0 0.033006862253668445 0.0050858917780193628 0 0.033442806570615664 0.0049678022233007072 0 0.033350259572859225 0.0039938608909962647 0 0.033442806570615664 0.0049678022233007072 0 0.033847305508538442 0.0045292116129892609 0 0.033350259572859225 0.0039938608909962647 0 0.033874939568597696 0.0026210267505886119 0 0.033814392237947417 0.0024169230332451623 0 0.033847305508538442 0.0045292116129892609 0 0.034292119577807617 0.0022658820173128654 0 0.033350259572859225 0.0039938608909962647 0 0.033847305508538442 0.0045292116129892609 0 0.033805727255875849 0.0050272972020006515 0 0.03410608512809641 0.0050174326122401991 0 0.033805727255875849 0.0050272972020006515 0 0.034066201119658253 0.0049041003152676451 0 0.03410608512809641 0.0050174326122401991 0 0.034051021637904376 0.0049859098966909222 0 0.033805727255875849 0.0050272972020006515 0 0.034066201119658253 0.0049041003152676451 0 0.034309424323859451 0.0044062373894185342 0 0.034066201119658253 0.0049041003152676451 0 0.03410608512809641 0.0050174326122401991 0 0.033446259681817296 0.0015405595594260831 0 0.032219555446160432 0.0029312303662179309 0 0.033495312181058896 -0.00030833087560350387 0 0.034292119577807617 0.0022658820173128654 0 0.033446259681817296 0.0015405595594260831 0 0.033350259572859225 0.0039938608909962647 0 0.034984066427909237 -0.00074034855562470157 0 0.034137371549375906 -0.00080753486823341675 0 0.033495312181058896 -0.00030833087560350387 0 0.033842426036647666 0.0026331905048072981 0 0.03381274182098435 0.0022443442901471976 0 0.033842426036647666 0.0026331905048072981 0 0.033903564481113715 0.0035588666863564968 0 0.032219555446160432 0.0029312303662179309 0 0.033350259572859225 0.0039938608909962647 0 0.032340480900764225 0.0047766227079279666 0 0.033446259681817296 0.0015405595594260831 0 0.032219555446160432 0.0029312303662179309 0 0.033350259572859225 0.0039938608909962647 0 0.033006862253668445 0.0050858917780193628 0 0.033350259572859225 0.0039938608909962647 0 0.032340480900764225 0.0047766227079279666 0 0.036228044367049114 0.0012826920423783278 0 0.03504429620067142 0.0030426138040021023 0 0.03449882182307934 0.00018093044373346449 0 0.034984066427909237 -0.00074034855562470157 0 0.036228044367049114 0.0012826920423783278 0 0.03449882182307934 0.00018093044373346449 0 0.036228044367049114 0.0012826920423783278 0 0.03504429620067142 0.0030426138040021023 0 0.035886043517382525 0.0045303477750262052 0 0.033903564481113715 0.0035588666863564968 0 0.033909948972537733 0.004702795164783175 0 0.036228044367049114 0.0012826920423783278 0 0.035886043517382525 0.0045303477750262052 0 0.036445119708563144 0.0048219203895091744 0 0.032340480900764225 0.0047766227079279666 0 0.032672371028589456 0.0052030173917347235 0 0.032497179006776379 0.0054830451079533171 0 0.033006862253668445 0.0050858917780193628 0 0.032340480900764225 0.0047766227079279666 0 0.032672371028589456 0.0052030173917347235 0 0.033006862253668445 0.0050858917780193628 0 0.032672371028589456 0.0052030173917347235 0 0.032819660292284725 0.0053883678978929386 0 0.035072543790149485 0.001814094066298068 0 0.035464848632465157 0.0016980840205073366 0 0.03407237946286705 0.0030229758126654187 0 0.033348206647950643 -0.00024488904775658924 0 0.030980559659404317 0.0028197998010992598 0 0.03407237946286705 0.0030229758126654187 0 0.032824337994451801 0.0041499149485785345 0 0.033444437072888321 0.004766558138834559 0 0.03407237946286705 0.0030229758126654187 0 0.03504429620067142 0.0030426138040021023 0 0.034441145972076967 0.0044451603373951093 0 0.03407237946286705 0.0030229758126654187 0 0.03504429620067142 0.0030426138040021023 0 0.03449882182307934 0.00018093044373346449 0 0.03449882182307934 0.00018093044373346449 0 0.033348206647950643 -0.00024488904775658924 0 0.033921939410840526 -0.00076220622351931523 0 0.03407237946286705 0.0030229758126654187 0 0.03449882182307934 0.00018093044373346449 0 0.033348206647950643 -0.00024488904775658924 0 0.03449882182307934 0.00018093044373346449 0 0.033921939410840526 -0.00076220622351931523 0 0.034245029334947913 -0.00086781572608243438 0 0.034984066427909237 -0.00074034855562470157 0 0.03449882182307934 0.00018093044373346449 0 0.034245029334947913 -0.00086781572608243438 0 0.034984066427909237 -0.00074034855562470157 0 0.034245029334947913 -0.00086781572608243438 0 0.034137371549375906 -0.00080753486823341675 0 0.033921939410840526 -0.00076220622351931523 0 0.034245029334947913 -0.00086781572608243438 0 0.034215608430118054 -0.001033539116929339 0 0.034245029334947913 -0.00086781572608243438 0 0.034252128548729825 -0.00099843420851416977 0 0.034215608430118054 -0.001033539116929339 0 0.034252128548729825 -0.00099843420851416977 0 0.034392868572688862 -0.0010644640905084852 0 0.034404019106419312 -0.0011292451490734841 0 0.034252128548729825 -0.00099843420851416977 0 0.034404019106419312 -0.0011292451490734841 0 0.034215608430118054 -0.001033539116929339 0 0.034252128548729825 -0.00099843420851416977 0 0.034392868572688862 -0.0010644640905084852 0 0.034095916257982632 -0.00087229235625164731 0 0.034392868572688862 -0.0010644640905084852 0 0.034095916257982632 -0.00087229235625164731 0 0.034189318446478198 -0.00089847775375374893 0 0.034095916257982632 -0.00087229235625164731 0 0.034137371549375906 -0.00080753486823341675 0 0.033733651148714051 -0.00062912361005962607 0 0.034095916257982632 -0.00087229235625164731 0 0.033733651148714051 -0.00062912361005962607 0 0.033791795288283182 -0.00072572258636772005 0 0.034252128548729825 -0.00099843420851416977 0 0.034095916257982632 -0.00087229235625164731 0 0.034137371549375906 -0.00080753486823341675 0 0.034245029334947913 -0.00086781572608243438 0 0.034252128548729825 -0.00099843420851416977 0 0.034137371549375906 -0.00080753486823341675 0 0.034137371549375906 -0.00080753486823341675 0 0.033495312181058896 -0.00030833087560350387 0 0.033733651148714051 -0.00062912361005962607 0 0.033446259681817296 0.0015405595594260831 0 0.033495312181058896 -0.00030833087560350387 0 0.033962850761889374 -7.9801248685371711e-05 0 0.034292119577807617 0.0022658820173128654 0 0.033446259681817296 0.0015405595594260831 0 0.033962850761889374 -7.9801248685371711e-05 0 0.033495312181058896 -0.00030833087560350387 0 0.033962850761889374 -7.9801248685371711e-05 0 0.03362683829084178 -0.00071213059332320106 0 0.033921235786704571 0.0020982566085103859 0 0.033342788667427355 0.0036622039428766931 0 0.032816249386678438 0.0014640326494220106 0 0.033655381242445673 0.0019538959093551044 0 0.033528363036350206 0.0015607151600786238 0 0.033495312181058896 -0.00030833087560350387 0 0.033733651148714051 -0.00062912361005962607 0 0.03362683829084178 -0.00071213059332320106 0 0.033733651148714051 -0.00062912361005962607 0 0.03362683829084178 -0.00071213059332320106 0 0.033791795288283182 -0.00072572258636772005 0 0.033528363036350206 0.0015607151600786238 0 0.033490927617088946 0.0014158129187025819 0 0.032816249386678438 0.0014640326494220106 0 0.033287092275863968 0.00043712782396219035 0 0.033367902897893639 -0.00024692311818341978 0 0.03362683829084178 -0.00071213059332320106 0 0.033367902897893639 -0.00024692311818341978 0 0.033791795288283182 -0.00072572258636772005 0 0.033934715998527785 0.00085737599843741842 0 0.033921235786704571 0.0020982566085103859 0 0.032816249386678438 0.0014640326494220106 0 0.033934715998527785 0.00085737599843741842 0 0.032816249386678438 0.0014640326494220106 0 0.033287092275863968 0.00043712782396219035 0 0.033934715998527785 0.00085737599843741842 0 0.033640899749024504 0.00025195324016135968 0 0.033287092275863968 0.00043712782396219035 0 0.034119712560872574 -0.00010106070588789565 0 0.033934715998527785 0.00085737599843741842 0 0.033640899749024504 0.00025195324016135968 0 0.033640899749024504 0.00025195324016135968 0 0.033287092275863968 0.00043712782396219035 0 0.033250846244882698 -6.289711573513181e-05 0 0.033577334519345907 -0.0004752805648994418 0 0.033640899749024504 0.00025195324016135968 0 0.033250846244882698 -6.289711573513181e-05 0 0.033577334519345907 -0.0004752805648994418 0 0.034119712560872574 -0.00010106070588789565 0 0.033640899749024504 0.00025195324016135968 0 0.033287092275863968 0.00043712782396219035 0 0.033250846244882698 -6.289711573513181e-05 0 0.033367902897893639 -0.00024692311818341978 0 0.033233516264529001 6.7611841907274311e-05 0 0.033250846244882698 -6.289711573513181e-05 0 0.033367902897893639 -0.00024692311818341978 0 0.034552477051861083 -0.00062241067363679988 0 0.033636780413292038 -1.3011897009184471e-05 0 0.033967049286498366 -0.0005561528293729312 0 0.033367902897893639 -0.00024692311818341978 0 0.033967049286498366 -0.0005561528293729312 0 0.033791795288283182 -0.00072572258636772005 0 0.033636780413292038 -1.3011897009184471e-05 0 0.033367902897893639 -0.00024692311818341978 0 0.033967049286498366 -0.0005561528293729312 0 0.034552477051861083 -0.00062241067363679988 0 0.033967049286498366 -0.0005561528293729312 0 0.034440808627252732 -0.00095716920184513686 0 0.034552477051861083 -0.00062241067363679988 0 0.034440808627252732 -0.00095716920184513686 0 0.034828057772030359 -0.0013344758287774055 0 0.034440808627252732 -0.00095716920184513686 0 0.034189318446478198 -0.00089847775375374893 0 0.034602977069373368 -0.0011329249389593883 0 0.033967049286498366 -0.0005561528293729312 0 0.034440808627252732 -0.00095716920184513686 0 0.034189318446478198 -0.00089847775375374893 0 0.034392868572688862 -0.0010644640905084852 0 0.034189318446478198 -0.00089847775375374893 0 0.034602977069373368 -0.0011329249389593883 0 0.034095916257982632 -0.00087229235625164731 0 0.034189318446478198 -0.00089847775375374893 0 0.033791795288283182 -0.00072572258636772005 0 0.033967049286498366 -0.0005561528293729312 0 0.034189318446478198 -0.00089847775375374893 0 0.033791795288283182 -0.00072572258636772005 0 0.03478162909862384 -0.0012838065399873263 0 0.03452739842482562 -0.001264109051874135 0 0.034774180266133943 -0.0013057099184650321 0 0.03478162909862384 -0.0012838065399873263 0 0.034602977069373368 -0.0011329249389593883 0 0.034828057772030359 -0.0013344758287774055 0 0.03478162909862384 -0.0012838065399873263 0 0.034602977069373368 -0.0011329249389593883 0 0.034613936559460164 -0.0012216341504533669 0 0.034440808627252732 -0.00095716920184513686 0 0.034602977069373368 -0.0011329249389593883 0 0.034828057772030359 -0.0013344758287774055 0 0.034552477051861083 -0.00062241067363679988 0 0.034828057772030359 -0.0013344758287774055 0 0.035081052487471703 -0.002207146100605498 0 0.03478162909862384 -0.0012838065399873263 0 0.034828057772030359 -0.0013344758287774055 0 0.035081052487471703 -0.002207146100605498 0 0.033411777555625834 -0.0039382009975910707 0 0.033503970864567648 -0.0038213468225694997 0 0.03478162909862384 -0.0012838065399873263 0 0.035081052487471703 -0.002207146100605498 0 0.03452739842482562 -0.001264109051874135 0 0.035812640533531878 -0.0034597431487612719 0 0.035791536261781089 -0.0033881791380253813 0 0.035066847345016167 -0.0032633647229966816 0 0.035081052487471703 -0.002207146100605498 0 0.03452739842482562 -0.001264109051874135 0 0.03576868865568552 -0.0043377909026890227 0 0.036001965833702528 -0.0053948311453568612 0 0.036288651875519141 -0.0048699250689590422 0 0.03576868865568552 -0.0043377909026890227 0 0.035066847345016167 -0.0032633647229966816 0 0.036001965833702528 -0.0053948311453568612 0 0.036001965833702528 -0.0053948311453568612 0 0.036699294960026566 -0.0054521000609941582 0 0.036288651875519141 -0.0048699250689590422 0 0.036699294960026566 -0.0054521000609941582 0 0.036288651875519141 -0.0048699250689590422 0 0.036647421242686808 -0.0053837310818484517 0 0.035791536261781089 -0.0033881791380253813 0 0.035803139480308908 -0.0032868346189709771 0 0.036001965833702528 -0.0053948311453568612 0 0.036699294960026566 -0.0054521000609941582 0 0.037165723905507556 -0.005292206462327192 0 0.03452739842482562 -0.001264109051874135 0 0.034774180266133943 -0.0013057099184650321 0 0.035508094295853887 -0.0014336763981320426 0 0.034774180266133943 -0.0013057099184650321 0 0.035508094295853887 -0.0014336763981320426 0 0.034970747993564345 -0.0016189426827320271 0 0.035508094295853887 -0.0014336763981320426 0 0.035626237452034082 -0.0022380310823444764 0 0.034970747993564345 -0.0016189426827320271 0 0.035626237452034082 -0.0022380310823444764 0 0.034970747993564345 -0.0016189426827320271 0 0.035145703062201723 -0.0016623717613948946 0 0.034970747993564345 -0.0016189426827320271 0 0.034611905342560076 -0.0013036158551522977 0 0.034613936559460164 -0.0012216341504533669 0 0.034774180266133943 -0.0013057099184650321 0 0.034970747993564345 -0.0016189426827320271 0 0.034613936559460164 -0.0012216341504533669 0 0.03478162909862384 -0.0012838065399873263 0 0.034774180266133943 -0.0013057099184650321 0 0.034613936559460164 -0.0012216341504533669 0 0.034392868572688862 -0.0010644640905084852 0 0.034602977069373368 -0.0011329249389593883 0 0.034613936559460164 -0.0012216341504533669 0 0.034392868572688862 -0.0010644640905084852 0 0.034613936559460164 -0.0012216341504533669 0 0.034404019106419312 -0.0011292451490734841 0 0.034611905342560076 -0.0013036158551522977 0 0.034613936559460164 -0.0012216341504533669 0 0.034404019106419312 -0.0011292451490734841 0 0.034611905342560076 -0.0013036158551522977 0 0.034404019106419312 -0.0011292451490734841 0 0.034215608430118054 -0.001033539116929339 0 0.033921939410840526 -0.00076220622351931523 0 0.034215608430118054 -0.001033539116929339 0 0.034304860675571099 -0.0010654153717801038 0 0.034611905342560076 -0.0013036158551522977 0 0.034215608430118054 -0.001033539116929339 0 0.034304860675571099 -0.0010654153717801038 0 0.034611905342560076 -0.0013036158551522977 0 0.034304860675571099 -0.0010654153717801038 0 0.035145703062201723 -0.0016623717613948946 0 0.034304860675571099 -0.0010654153717801038 0 0.03477061618621529 -0.0014081073238511493 0 0.035145703062201723 -0.0016623717613948946 0 0.033348206647950643 -0.00024488904775658924 0 0.033921939410840526 -0.00076220622351931523 0 0.034304860675571099 -0.0010654153717801038 0 0.033348206647950643 -0.00024488904775658924 0 0.034304860675571099 -0.0010654153717801038 0 0.03477061618621529 -0.0014081073238511493 0 0.033348206647950643 -0.00024488904775658924 0 0.03477061618621529 -0.0014081073238511493 0 0.034159687999416266 -0.0020763022865004938 0 0.03477061618621529 -0.0014081073238511493 0 0.034159687999416266 -0.0020763022865004938 0 0.035279896195931075 -0.0022201095040505696 0 0.035464848632465157 0.0016980840205073366 0 0.036130350556104786 0.00089198804240907823 0 0.035323023659071286 0.0015534705242736362 0 0.035464848632465157 0.0016980840205073366 0 0.035955177971667251 -0.0021179839300522552 0 0.035279896195931075 -0.0022201095040505696 0 0.035760948518164137 -0.0019004082833172355 0 0.036267877311749498 0.00042420219274085923 0 0.036130350556104786 0.00089198804240907823 0 0.03477061618621529 -0.0014081073238511493 0 0.035279896195931075 -0.0022201095040505696 0 0.035760948518164137 -0.0019004082833172355 0 0.035760948518164137 -0.0019004082833172355 0 0.035145703062201723 -0.0016623717613948946 0 0.035902799492853403 -0.0022282204500334107 0 0.03477061618621529 -0.0014081073238511493 0 0.035760948518164137 -0.0019004082833172355 0 0.035145703062201723 -0.0016623717613948946 0 0.034970747993564345 -0.0016189426827320271 0 0.034611905342560076 -0.0013036158551522977 0 0.035145703062201723 -0.0016623717613948946 0 0.035626237452034082 -0.0022380310823444764 0 0.035145703062201723 -0.0016623717613948946 0 0.035902799492853403 -0.0022282204500334107 0 0.035626237452034082 -0.0022380310823444764 0 0.035902799492853403 -0.0022282204500334107 0 0.036544682691773911 -0.0034069113852408456 0 0.036204815097108836 -0.0022898907645500935 0 0.036017362327098047 -0.0031788933425477058 0 0.036544682691773911 -0.0034069113852408456 0 0.035902799492853403 -0.0022282204500334107 0 0.036204815097108836 -0.0022898907645500935 0 0.036544682691773911 -0.0034069113852408456 0 0.036204815097108836 -0.0022898907645500935 0 0.036080858023325571 -0.0020605788307815594 0 0.036017362327098047 -0.0031788933425477058 0 0.035760948518164137 -0.0019004082833172355 0 0.035902799492853403 -0.0022282204500334107 0 0.036204815097108836 -0.0022898907645500935 0 0.035955177971667251 -0.0021179839300522552 0 0.035760948518164137 -0.0019004082833172355 0 0.036208064646589211 -0.0018752300810132828 0 0.035760948518164137 -0.0019004082833172355 0 0.036204815097108836 -0.0022898907645500935 0 0.036208064646589211 -0.0018752300810132828 0 0.036204815097108836 -0.0022898907645500935 0 0.036208064646589211 -0.0018752300810132828 0 0.036080858023325571 -0.0020605788307815594 0 0.036208064646589211 -0.0018752300810132828 0 0.036125915730538895 -0.0015044321939209615 0 0.036080858023325571 -0.0020605788307815594 0 0.036208064646589211 -0.0018752300810132828 0 0.036240436363951661 -0.0015833505078914709 0 0.036125915730538895 -0.0015044321939209615 0 0.035955177971667251 -0.0021179839300522552 0 0.036208064646589211 -0.0018752300810132828 0 0.036240436363951661 -0.0015833505078914709 0 0.036267877311749498 0.00042420219274085923 0 0.036107670446236022 0.0002051842118703342 0 0.034999768367844158 -0.00063326030266010257 0 0.035813470700387845 -0.00040437852998218108 0 0.035658143591493247 -0.001404138207266904 0 0.035813470700387845 -0.00040437852998218108 0 0.036125915730538895 -0.0015044321939209615 0 0.035658143591493247 -0.001404138207266904 0 0.036240436363951661 -0.0015833505078914709 0 0.035813470700387845 -0.00040437852998218108 0 0.036125915730538895 -0.0015044321939209615 0 0.036107670446236022 0.0002051842118703342 0 0.035947202224535534 0.00015286371664132483 0 0.03702176698341629 -0.00022404895220453649 0 0.035813470700387845 -0.00040437852998218108 0 0.036449664949158848 -2.2232704630463481e-05 0 0.036125915730538895 -0.0015044321939209615 0 0.036080858023325571 -0.0020605788307815594 0 0.035658143591493247 -0.001404138207266904 0 0.036080858023325571 -0.0020605788307815594 0 0.035658143591493247 -0.001404138207266904 0 0.034999857773524871 -0.002669296489866958 0 0.034999768367844158 -0.00063326030266010257 0 0.035658143591493247 -0.001404138207266904 0 0.034999857773524871 -0.002669296489866958 0 0.036080858023325571 -0.0020605788307815594 0 0.034999857773524871 -0.002669296489866958 0 0.036017362327098047 -0.0031788933425477058 0 0.034999857773524871 -0.002669296489866958 0 0.036017362327098047 -0.0031788933425477058 0 0.034999546335302084 -0.0047056675133830481 0 0.036017362327098047 -0.0031788933425477058 0 0.034999546335302084 -0.0047056675133830481 0 0.035862617005297345 -0.004490105235520226 0 0.034999546335302084 -0.0047056675133830481 0 0.035862617005297345 -0.004490105235520226 0 0.034999874543472177 -0.0067424239685766243 0 0.035862617005297345 -0.004490105235520226 0 0.034999874543472177 -0.0067424239685766243 0 0.036244019812755456 -0.0056665199124418045 0 0.036017362327098047 -0.0031788933425477058 0 0.035862617005297345 -0.004490105235520226 0 0.036544682691773911 -0.0034069113852408456 0 0.036544682691773911 -0.0034069113852408456 0 0.03685725540322031 -0.0059430759221440407 0 0.036244019812755456 -0.0056665199124418045 0 0.037165723905507556 -0.005292206462327192 0 0.036544682691773911 -0.0034069113852408456 0 0.03685725540322031 -0.0059430759221440407 0 0.035508094295853887 -0.0014336763981320426 0 0.035626237452034082 -0.0022380310823444764 0 0.036544682691773911 -0.0034069113852408456 0 0.035803139480308908 -0.0032868346189709771 0 0.035812720478967927 -0.0032453285031736746 0 0.035862617005297345 -0.004490105235520226 0 0.036544682691773911 -0.0034069113852408456 0 0.036244019812755456 -0.0056665199124418045 0 0.03685725540322031 -0.0059430759221440407 0 0.037087286716855662 -0.0068297114302103435 0 0.036244019812755456 -0.0056665199124418045 0 0.036699294960026566 -0.0054521000609941582 0 0.037165723905507556 -0.005292206462327192 0 0.03685725540322031 -0.0059430759221440407 0 0.03688939989968474 -0.0060274056490225072 0 0.03685725540322031 -0.0059430759221440407 0 0.036647421242686808 -0.0053837310818484517 0 0.036699294960026566 -0.0054521000609941582 0 0.03685725540322031 -0.0059430759221440407 0 0.036647421242686808 -0.0053837310818484517 0 0.03688939989968474 -0.0060274056490225072 0 0.03685725540322031 -0.0059430759221440407 0 0.037087286716855662 -0.0068297114302103435 0 0.036523905533870554 -0.0085357713474611997 0 0.037087286716855662 -0.0068297114302103435 0 0.035921393051611378 -0.0073968987190751534 0 0.037087286716855662 -0.0068297114302103435 0 0.035921393051611378 -0.0073968987190751534 0 0.036244019812755456 -0.0056665199124418045 0 0.034999658462324876 -0.0087794224250233293 0 0.035921393051611378 -0.0073968987190751534 0 0.034999874543472177 -0.0067424239685766243 0 0.034999658462324876 -0.0087794224250233293 0 0.035819143780068161 -0.0088602525665501825 0 0.035921393051611378 -0.0073968987190751534 0 0.035921393051611378 -0.0073968987190751534 0 0.034999874543472177 -0.0067424239685766243 0 0.036244019812755456 -0.0056665199124418045 0 0.020395339254581021 0.012664527179826232 0 0.020592740197013688 0.012680715941144104 0 0.020397929401201637 0.012521628653988554 0 0.020592740197013688 0.012680715941144104 0 0.020397929401201637 0.012521628653988554 0 0.020706762102940052 0.01253599219936229 0 0.020397929401201637 0.012521628653988554 0 0.020706762102940052 0.01253599219936229 0 0.020497300311503763 0.012255456451490964 0 0.020397929401201637 0.012521628653988554 0 0.020235421289598682 0.012598362960964003 0 0.020192271531597781 0.012390047315945148 0 0.020235421289598682 0.012598362960964003 0 0.020192271531597781 0.012390047315945148 0 0.020050240311358453 0.012551365469305062 0 0.020235421289598682 0.012598362960964003 0 0.02009227037542979 0.012723959055843862 0 0.020050240311358453 0.012551365469305062 0 0.020290381496687208 0.012699758716110194 0 0.020235421289598682 0.012598362960964003 0 0.02009227037542979 0.012723959055843862 0 0.020395339254581021 0.012664527179826232 0 0.020290381496687208 0.012699758716110194 0 0.020235421289598682 0.012598362960964003 0 0.020395339254581021 0.012664527179826232 0 0.020397929401201637 0.012521628653988554 0 0.020235421289598682 0.012598362960964003 0 0.02009227037542979 0.012723959055843862 0 0.020438200184986873 0.012812533203184128 0 0.019876404023570632 0.012767371273624425 0 -0.00093213501974182315 -0.01130202432595368 0 0.00076474523835934132 -0.011875655882737361 0 -0.0025927216493171344 -0.011885682816114082 0 0.010858518046232071 -0.0032166289967048385 0 0.0067671341162199644 0.00015634991464851902 0 0.020290381496687208 0.012699758716110194 0 0.02009227037542979 0.012723959055843862 0 0.020438200184986873 0.012812533203184128 0 -0.00093213501974182315 -0.01130202432595368 0 -0.0018894739015330926 -0.010904009806791282 0 -0.0012287180601577368 -0.010500364652489127 0 -0.00093213501974182315 -0.01130202432595368 0 -0.0003699992471122388 -0.010326280762055509 0 -0.0012287180601577368 -0.010500364652489127 0 -0.00093213501974182315 -0.01130202432595368 0 -1.8937800577504245e-05 -0.011362339813121602 0 0.00076474523835934132 -0.011875655882737361 0 -0.00093213501974182315 -0.01130202432595368 0 -1.8937800577504245e-05 -0.011362339813121602 0 -0.0003699992471122388 -0.010326280762055509 0 -1.8937800577504245e-05 -0.011362339813121602 0 0.00025612646575019207 -0.010759033209926685 0 -0.0003699992471122388 -0.010326280762055509 0 -1.8937800577504245e-05 -0.011362339813121602 0 0.00025612646575019207 -0.010759033209926685 0 0.0004649434895154309 -0.011308462408943148 0 0.00085830219526783296 -0.011239864805540123 0 0.00076474523835934132 -0.011875655882737361 0 0.0042233492418440434 -0.011827099337838176 0 0.00025612646575019207 -0.010759033209926685 0 0.00085830219526783296 -0.011239864805540123 0 0.0004649434895154309 -0.011308462408943148 0 -1.8937800577504245e-05 -0.011362339813121602 0 0.0004649434895154309 -0.011308462408943148 0 0.00076474523835934132 -0.011875655882737361 0 0.00085830219526783296 -0.011239864805540123 0 0.0004649434895154309 -0.011308462408943148 0 0.00076474523835934132 -0.011875655882737361 0 0.020395339254581021 0.012664527179826232 0 0.020592740197013688 0.012680715941144104 0 0.020438200184986873 0.012812533203184128 0 0.020395339254581021 0.012664527179826232 0 0.020290381496687208 0.012699758716110194 0 0.020438200184986873 0.012812533203184128 0 0.010858518046232071 -0.0032166289967048385 0 0.015119251508437985 -0.0073981899284472482 0 0.020592740197013688 0.012680715941144104 0 0.020438200184986873 0.012812533203184128 0 0.021043181154769296 0.012882355911254254 0 0.015119251508437985 -0.0073981899284472482 0 0.012894273216853453 -0.012847373201247627 0 0.00085830219526783296 -0.011239864805540123 0 0.0042233492418440434 -0.011827099337838176 0 0.0021548411118624908 -0.009780402800662712 0 0.015419788987926971 -0.028271545469503261 0 0.015346321153177037 -0.028366506883483734 0 0.015278508669275197 -0.028276898915495542 0 0.015119251508437985 -0.0073981899284472482 0 0.016960479256659403 -0.010280679730639567 0 0.015119251508437985 -0.0073981899284472482 0 0.017147965476124405 -0.0024689127783337852 0 0.021043181154769296 0.012882355911254254 0 0.021014897001564448 0.01233649270938012 0 0.021442813077803699 0.012592363162634772 0 0.021043181154769296 0.012882355911254254 0 0.020706762102940052 0.01253599219936229 0 0.021014897001564448 0.01233649270938012 0 0.020592740197013688 0.012680715941144104 0 0.021043181154769296 0.012882355911254254 0 0.020706762102940052 0.01253599219936229 0 0.020706762102940052 0.01253599219936229 0 0.021014897001564448 0.01233649270938012 0 0.020497300311503763 0.012255456451490964 0 0.021014897001564448 0.01233649270938012 0 0.020732605113520212 0.012003995797281975 0 0.020497300311503763 0.012255456451490964 0 0.021014897001564448 0.01233649270938012 0 0.021044172753945319 0.01188921828460871 0 0.021412262143315444 0.012167690769828312 0 0.021014897001564448 0.01233649270938012 0 0.021442813077803699 0.012592363162634772 0 0.021412262143315444 0.012167690769828312 0 0.021044172753945319 0.01188921828460871 0 0.021412262143315444 0.012167690769828312 0 0.021650153821261373 0.011685571097973631 0 0.021044172753945319 0.01188921828460871 0 0.020732605113520212 0.012003995797281975 0 0.020687957357648092 0.011765398976063044 0 0.021014897001564448 0.01233649270938012 0 0.021044172753945319 0.01188921828460871 0 0.020732605113520212 0.012003995797281975 0 0.020732605113520212 0.012003995797281975 0 0.020389751585754925 0.011866836188434012 0 0.020687957357648092 0.011765398976063044 0 0.020732605113520212 0.012003995797281975 0 0.020389751585754925 0.011866836188434012 0 0.020497300311503763 0.012255456451490964 0 0.020397929401201637 0.012521628653988554 0 0.020497300311503763 0.012255456451490964 0 0.020192271531597781 0.012390047315945148 0 0.020497300311503763 0.012255456451490964 0 0.020192271531597781 0.012390047315945148 0 0.020129938258040828 0.012121948540543456 0 0.020389751585754925 0.011866836188434012 0 0.020497300311503763 0.012255456451490964 0 0.020129938258040828 0.012121948540543456 0 0.020389751585754925 0.011866836188434012 0 0.020129938258040828 0.012121948540543456 0 0.020076812556241642 0.011868960247615155 0 0.020129938258040828 0.012121948540543456 0 0.019766215592169845 0.012054672724466831 0 0.020076812556241642 0.011868960247615155 0 0.01973791233835474 0.011805849590016279 0 0.01952473195321508 0.011769040490017445 0 0.019664464026344926 0.011680112086438908 0 0.01973791233835474 0.011805849590016279 0 0.01952473195321508 0.011769040490017445 0 0.019666201288851434 0.012024282041612861 0 0.019766215592169845 0.012054672724466831 0 0.019938183151987452 0.01235574984284149 0 0.019645018796284778 0.012457959001002735 0 0.011512283546511719 0.0080352994389255774 0 0.0091461793042066052 0.0054410661486112679 0 0.020129938258040828 0.012121948540543456 0 0.019766215592169845 0.012054672724466831 0 0.019938183151987452 0.01235574984284149 0 0.020192271531597781 0.012390047315945148 0 0.020129938258040828 0.012121948540543456 0 0.019938183151987452 0.01235574984284149 0 0.0041047520183659361 0.0052007762068733933 0 0.0042999903088535869 0.0036996308622888889 0 0.019466522441124328 0.011766429927103887 0 0.01952473195321508 0.011769040490017445 0 0.019535791154393599 0.011625538064948492 0 0.019466522441124328 0.011766429927103887 0 0.01952473195321508 0.011769040490017445 0 0.019535827996223342 0.011695706273368457 0 0.01952473195321508 0.011769040490017445 0 0.019535791154393599 0.011625538064948492 0 0.019269885432636635 0.011511516800713705 0 0.011514223462478124 0.0082869274763437226 0 0.0091461793042066052 0.0054410661486112679 0 -0.011048500161203189 -0.00063832997810343687 0 -0.011524469851487834 -0.0016434378969115179 0 -0.010990048339710999 -0.0014858907532262237 0 -0.011524469851487834 -0.0016434378969115179 0 -0.010990048339710999 -0.0014858907532262237 0 -0.011109834425487268 -0.0020706794206060458 0 -0.010686084747081706 -0.001896777809913298 0 -0.010990048339710999 -0.0014858907532262237 0 -0.011109834425487268 -0.0020706794206060458 0 -0.011524469851487834 -0.0016434378969115179 0 -0.011109834425487268 -0.0020706794206060458 0 -0.011491322528775251 -0.0023182665247013651 0 -0.010660608233908997 -0.0022980269268255168 0 -0.011109834425487268 -0.0020706794206060458 0 -0.011133348934299635 -0.0026849285741973729 0 -0.011109834425487268 -0.0020706794206060458 0 -0.011491322528775251 -0.0023182665247013651 0 -0.011133348934299635 -0.0026849285741973729 0 0.0042999903088535869 0.0036996308622888889 0 0.0042652230832828731 0.0013897848749847555 0 0.019535791154393599 0.011625538064948492 0 0.019367950656565932 0.011270659883487466 0 0.019269885432636635 0.011511516800713705 0 -0.011524469851487834 -0.0016434378969115179 0 -0.011491322528775251 -0.0023182665247013651 0 -0.012032939781802188 -0.0026780329830655095 0 -0.012894610842133685 -0.0025904682455990605 0 -0.011661097078720194 -0.0034006395021438369 0 -0.01088118199037387 -0.0026332625141468656 0 0.0042652230832828731 0.0013897848749847555 0 -0.002147459973997214 0.00070563333629531733 0 -0.011491322528775251 -0.0023182665247013651 0 -0.012032939781802188 -0.0026780329830655095 0 -0.011133348934299635 -0.0026849285741973729 0 -0.012894610842133685 -0.0025904682455990605 0 -0.013806730115216322 -0.0043420878081296931 0 -0.012453885576704618 -0.0038564709403622948 0 -0.012894610842133685 -0.0025904682455990605 0 -0.011661097078720194 -0.0034006395021438369 0 -0.012453885576704618 -0.0038564709403622948 0 -0.011661097078720194 -0.0034006395021438369 0 -0.010930404128777365 -0.0035250889368344416 0 -0.01088118199037387 -0.0026332625141468656 0 -0.010292999482768898 -0.0029431662080745048 0 -0.010930404128777365 -0.0035250889368344416 0 -0.01088118199037387 -0.0026332625141468656 0 0.019938183151987452 0.01235574984284149 0 0.019863562302039197 0.012567109657721825 0 0.019645018796284778 0.012457959001002735 0 0.019863562302039197 0.012567109657721825 0 0.020050240311358453 0.012551365469305062 0 0.019896566408286867 0.012741765544658534 0 0.02009227037542979 0.012723959055843862 0 0.020050240311358453 0.012551365469305062 0 0.019876404023570632 0.012767371273624425 0 0.0070034184455382287 0.00064180618214914839 0 0.0067671341162199644 0.00015634991464851902 0 0.019938183151987452 0.01235574984284149 0 0.019863562302039197 0.012567109657721825 0 0.020050240311358453 0.012551365469305062 0 0.020192271531597781 0.012390047315945148 0 0.019938183151987452 0.01235574984284149 0 0.020050240311358453 0.012551365469305062 0 0.0091461793042066052 0.0054410661486112679 0 0.0061755069992087928 0.0015087766811031759 0 0.019863562302039197 0.012567109657721825 0 0.019645018796284778 0.012457959001002735 0 0.019808855859768982 0.012740969035632288 0 0.019367950656565932 0.011270659883487466 0 0.019269885432636635 0.011511516800713705 0 0.019302769222213356 0.011268296186430854 0 0.0091461793042066052 0.0054410661486112679 0 0.0069426026680411432 0.0007499029130376432 0 0.0080488438512270836 -0.0007996669809860504 0 0.0075222023959435509 0.0015289780111310196 0 0.009448700714247504 0.0015577770806972757 0 0.0042652230832828731 0.0013897848749847555 0 0.0029239755990979289 -0.0018445729192297325 0 0.0040174920398939398 0.0011113192564506658 0 0.0043514739395818904 0.0010823110519674987 0 0.0042641737454900642 0.00093463296835649397 0 0.0035921167548741977 0.00092852637517064167 0 0.003761982280320601 0.00093036581722165791 0 0.0039580913237163163 0.0016366797660758378 0 0.003761982280320601 0.00093036581722165791 0 0.0040174920398939398 0.0011113192564506658 0 0.0039580913237163163 0.0016366797660758378 0 0.003761982280320601 0.00093036581722165791 0 0.0040174920398939398 0.0011113192564506658 0 0.0042641737454900642 0.00093463296835649397 0 0.0061755069992087928 0.0015087766811031759 0 0.0069426026680411432 0.0007499029130376432 0 0.0042652230832828731 0.0013897848749847555 0 0.0061755069992087928 0.0015087766811031759 0 0.0040174920398939398 0.0011113192564506658 0 0.0043514739395818904 0.0010823110519674987 0 0.0039580913237163163 0.0016366797660758378 0 -0.002899227050292095 -0.011438030840493073 0 -0.0025927216493171344 -0.011885682816114082 0 -0.0018894739015330926 -0.010904009806791282 0 0.0060284834687123383 -0.00049600104043272003 0 0.0069426026680411432 0.0007499029130376432 0 0.0069426026680411432 0.0007499029130376432 0 0.0067671341162199644 0.00015634991464851902 0 0.019863562302039197 0.012567109657721825 0 0.019808855859768982 0.012740969035632288 0 0.019896566408286867 0.012741765544658534 0 0.0040321097766089142 0.0049960240615053927 0 0.00096777824889837541 -0.00017336496781709967 0 0.0075762859050059342 -6.9515792208784549e-05 0 0.0060284834687123383 -0.00049600104043272003 0 0.0067671341162199644 0.00015634991464851902 0 -0.00093213501974182315 -0.01130202432595368 0 -0.0025927216493171344 -0.011885682816114082 0 -0.0018894739015330926 -0.010904009806791282 0 -0.0018894739015330926 -0.010904009806791282 0 -0.0017229244212071506 -0.0094789954076135267 0 -0.0012287180601577368 -0.010500364652489127 0 -0.0028887739237249423 -0.011119119465064697 0 -0.0018472529009401744 -0.0093824566022877413 0 -0.0028821010447786736 -0.0093950581092216139 0 -0.002899227050292095 -0.011438030840493073 0 -0.0018894739015330926 -0.010904009806791282 0 -0.0017229244212071506 -0.0094789954076135267 0 0.0060284834687123383 -0.00049600104043272003 0 0.0035945361871135631 -0.0040365814395331816 0 -0.0018472529009401744 -0.0093824566022877413 0 -0.0028821010447786736 -0.0093950581092216139 0 -0.0024025646845009492 -0.0084995723930210432 0 -0.0028887739237249423 -0.011119119465064697 0 -0.0028821010447786736 -0.0093950581092216139 0 -0.0039708534986084357 -0.0095970249705103448 0 0.0060284834687123383 -0.00049600104043272003 0 0.0029239755990979289 -0.0018445729192297325 0 0.0029239755990979289 -0.0018445729192297325 0 -0.0005282021491070368 -0.0025351584129159523 0 -0.0028821010447786736 -0.0093950581092216139 0 -0.0039708534986084357 -0.0095970249705103448 0 -0.0033842389923815358 -0.0084119180160115072 0 0.0029239755990979289 -0.0018445729192297325 0 0.0025421303604999503 -0.002467628463339879 0 -0.0033842389923815358 -0.0084119180160115072 0 -0.0040396053862475339 -0.0074343548834514541 0 -0.0049614569662782011 -0.0081489972835155737 0 -0.0039738702675206038 -0.0095515541722428956 0 -0.0033842389923815358 -0.0084119180160115072 0 -0.0049614569662782011 -0.0081489972835155737 0 -0.0040396053862475339 -0.0074343548834514541 0 -0.0049614569662782011 -0.0081489972835155737 0 -0.0043942105783958945 -0.0063103209532167229 0 -0.0033842389923815358 -0.0084119180160115072 0 -0.0040396053862475339 -0.0074343548834514541 0 -0.0034091915651021315 -0.0068828962046514385 0 -0.0033842389923815358 -0.0084119180160115072 0 -0.002319294107607007 -0.0073724421318430676 0 -0.0034091915651021315 -0.0068828962046514385 0 -0.002319294107607007 -0.0073724421318430676 0 -0.0018142986581076216 -0.0082137628938156754 0 -0.0024025646845009492 -0.0084995723930210432 0 -0.002319294107607007 -0.0073724421318430676 0 -0.0018142986581076216 -0.0082137628938156754 0 -0.00068359495187581313 -0.007591325800683362 0 -0.0018472529009401744 -0.0093824566022877413 0 -0.0018142986581076216 -0.0082137628938156754 0 -0.0024025646845009492 -0.0084995723930210432 0 -0.0028821010447786736 -0.0093950581092216139 0 -0.0033842389923815358 -0.0084119180160115072 0 -0.0024025646845009492 -0.0084995723930210432 0 -0.0033842389923815358 -0.0084119180160115072 0 -0.002319294107607007 -0.0073724421318430676 0 -0.0024025646845009492 -0.0084995723930210432 0 -0.0096082585185136554 -0.0046410360521126981 0 -0.011232098925059612 -0.0043894410598125542 0 -0.010331198548067333 -0.0053971434736004489 0 -0.010072545266442228 -0.003850448202758803 0 -0.010930404128777365 -0.0035250889368344416 0 -0.011232098925059612 -0.0043894410598125542 0 -0.011661097078720194 -0.0034006395021438369 0 -0.010930404128777365 -0.0035250889368344416 0 -0.011232098925059612 -0.0043894410598125542 0 -0.011232098925059612 -0.0043894410598125542 0 -0.012315006760233721 -0.0048243618356567783 0 -0.011358513813945129 -0.0057182154646623793 0 -0.013806730115216322 -0.0043420878081296931 0 -0.012315006760233721 -0.0048243618356567783 0 -0.012952688010383146 -0.0056103392128092856 0 -0.013806730115216322 -0.0043420878081296931 0 -0.012315006760233721 -0.0048243618356567783 0 -0.012453885576704618 -0.0038564709403622948 0 -0.011232098925059612 -0.0043894410598125542 0 -0.012315006760233721 -0.0048243618356567783 0 -0.012453885576704618 -0.0038564709403622948 0 -0.011661097078720194 -0.0034006395021438369 0 -0.011232098925059612 -0.0043894410598125542 0 -0.012453885576704618 -0.0038564709403622948 0 -0.012952688010383146 -0.0056103392128092856 0 -0.011358513813945129 -0.0057182154646623793 0 -0.012085702576183079 -0.0068951259124642623 0 -0.012315006760233721 -0.0048243618356567783 0 -0.012952688010383146 -0.0056103392128092856 0 -0.011358513813945129 -0.0057182154646623793 0 -0.0005282021491070368 -0.0025351584129159523 0 -0.0031906390443558587 -0.0031424444421965059 0 -0.0099164927104700151 -0.0063546132512448446 0 -0.011358513813945129 -0.0057182154646623793 0 -0.010331198548067333 -0.0053971434736004489 0 -0.0099164927104700151 -0.0063546132512448446 0 -0.011358513813945129 -0.0057182154646623793 0 -0.012085702576183079 -0.0068951259124642623 0 -0.011232098925059612 -0.0043894410598125542 0 -0.011358513813945129 -0.0057182154646623793 0 -0.010331198548067333 -0.0053971434736004489 0 -0.00632990366703951 -0.0057337039897556149 0 -0.0056579002061315619 -0.0059679180608925341 0 -0.005914807771656508 -0.0055689567481741198 0 -0.0055924654290008501 -0.0041165409120571504 0 -0.0031906390443558587 -0.0031424444421965059 0 -0.0067380187795587961 -0.0060788616854592853 0 -0.00632990366703951 -0.0057337039897556149 0 -0.0056579002061315619 -0.0059679180608925341 0 -0.0054030033180609083 -0.006401845021930302 0 -0.0050063190613430283 -0.0052777463664056331 0 -0.005914807771656508 -0.0055689567481741198 0 -0.0049614569662782011 -0.0081489972835155737 0 -0.0059332073739687781 -0.0067514302480549109 0 -0.0043942105783958945 -0.0063103209532167229 0 -0.0054030033180609083 -0.006401845021930302 0 -0.0050063190613430283 -0.0052777463664056331 0 -0.004268285120818515 -0.0061762228606906605 0 -0.0031906390443558587 -0.0031424444421965059 0 -0.0032194500323920947 -0.0032291279365062632 0 -0.0031906390443558587 -0.0031424444421965059 0 -0.0035514263644050182 -0.0034931879528949726 0 -0.0042285029353250139 -0.004473471209548806 0 -0.0058112982279725422 -0.004644001130298195 0 -0.0050063190613430283 -0.0052777463664056331 0 -0.0058112982279725422 -0.004644001130298195 0 -0.0050063190613430283 -0.0052777463664056331 0 -0.005914807771656508 -0.0055689567481741198 0 -0.0066106723004145168 -0.0046225375863834448 0 -0.0058112982279725422 -0.004644001130298195 0 -0.0064512729643362177 -0.0052301072436369131 0 -0.0058112982279725422 -0.004644001130298195 0 -0.005914807771656508 -0.0055689567481741198 0 -0.0064512729643362177 -0.0052301072436369131 0 -0.00632990366703951 -0.0057337039897556149 0 -0.005914807771656508 -0.0055689567481741198 0 -0.0064512729643362177 -0.0052301072436369131 0 -0.002319294107607007 -0.0073724421318430676 0 -0.0023274311765453526 -0.0058629589205141915 0 -0.00068359495187581313 -0.007591325800683362 0 -0.0029083109719726112 -0.0058753108627267406 0 -0.0027447548511783638 -0.0064940387786318141 0 -0.0034091915651021315 -0.0068828962046514385 0 -0.0029083109719726112 -0.0058753108627267406 0 -0.0023274311765453526 -0.0058629589205141915 0 -0.0027447548511783638 -0.0064940387786318141 0 -0.002319294107607007 -0.0073724421318430676 0 -0.0023274311765453526 -0.0058629589205141915 0 -0.0027447548511783638 -0.0064940387786318141 0 -0.002319294107607007 -0.0073724421318430676 0 -0.0027447548511783638 -0.0064940387786318141 0 -0.0034091915651021315 -0.0068828962046514385 0 -0.0040396053862475339 -0.0074343548834514541 0 -0.0034091915651021315 -0.0068828962046514385 0 -0.0043942105783958945 -0.0063103209532167229 0 -0.0029083109719726112 -0.0058753108627267406 0 -0.0034091915651021315 -0.0068828962046514385 0 -0.0043942105783958945 -0.0063103209532167229 0 -0.0035833301156349231 -0.0035835311855685259 0 -0.0035514263644050182 -0.0034931879528949726 0 -0.0042285029353250139 -0.004473471209548806 0 -0.0050063190613430283 -0.0052777463664056331 0 -0.004268285120818515 -0.0061762228606906605 0 -0.0042285029353250139 -0.004473471209548806 0 -0.0029083109719726112 -0.0058753108627267406 0 -0.004268285120818515 -0.0061762228606906605 0 -0.0042285029353250139 -0.004473471209548806 0 -0.0029083109719726112 -0.0058753108627267406 0 -0.0023274311765453526 -0.0058629589205141915 0 0.006019966595775964 -0.016923170947411411 0 0.0081274632921135744 -0.01682199358696879 0 0.015217529500194522 -0.029420297214813977 0 0.01541988598058661 -0.029448726351356293 0 0.015418917452489562 -0.029393145650730975 0 0.01541988598058661 -0.029448726351356293 0 0.015418917452489562 -0.029393145650730975 0 0.015448176514517279 -0.029436401064842216 0 0.015498897309661966 -0.029290343525100734 0 0.015418917452489562 -0.029393145650730975 0 0.015448176514517279 -0.029436401064842216 0 0.015559394061941453 -0.028797421469654798 0 0.015627844721566222 -0.028693184029871307 0 0.015550681423091314 -0.028648451099032336 0 0.015559394061941453 -0.028797421469654798 0 0.015550681423091314 -0.028648451099032336 0 0.015488986256436929 -0.02873207298788508 0 0.015550681423091314 -0.028648451099032336 0 0.015610415810169698 -0.028513743859081998 0 0.015487452616440035 -0.028574823681304175 0 0.015550681423091314 -0.028648451099032336 0 0.015487452616440035 -0.028574823681304175 0 0.015488986256436929 -0.02873207298788508 0 0.0081274632921135744 -0.01682199358696879 0 0.010715329398325263 -0.016723707039686501 0 0.015627844721566222 -0.028693184029871307 0 0.015550681423091314 -0.028648451099032336 0 0.015610415810169698 -0.028513743859081998 0 0.01541988598058661 -0.029448726351356293 0 0.015448176514517279 -0.029436401064842216 0 0.01543591095684599 -0.029396858118047691 0 -0.0023274311765453526 -0.0058629589205141915 0 -3.9270037339413146e-05 -0.0078641019088166696 0 -0.00068359495187581313 -0.007591325800683362 0 0.01274845172642162 -0.023566955357322138 0 0.010715329398325263 -0.016723707039686501 0 -0.0018472529009401744 -0.0093824566022877413 0 -0.0018142986581076216 -0.0082137628938156754 0 -0.00068359495187581313 -0.007591325800683362 0 -0.0017229244212071506 -0.0094789954076135267 0 -0.00061667548057071204 -0.0089075981976680201 0 -0.00068359495187581313 -0.007591325800683362 0 0.0035945361871135631 -0.0040365814395331816 0 0.0029755061805604292 -0.0048991676342294791 0 0.010715329398325263 -0.016723707039686501 0 0.0095562599805121395 -0.0146222914909209 0 -0.00061667548057071204 -0.0089075981976680201 0 -3.9270037339413146e-05 -0.0078641019088166696 0 0.00040365750797534064 -0.009529297067426586 0 -0.00061667548057071204 -0.0089075981976680201 0 -3.9270037339413146e-05 -0.0078641019088166696 0 -0.00068359495187581313 -0.007591325800683362 0 0.015610415810169698 -0.028513743859081998 0 0.015515381885246144 -0.028391410580317519 0 0.015487452616440035 -0.028574823681304175 0 0.010715329398325263 -0.016723707039686501 0 0.012894273216853453 -0.012847373201247627 0 0.00018789520533258082 -0.0078326042985248246 0 0.00054125411445007021 -0.0095144284941417051 0 0.0021548411118624908 -0.009780402800662712 0 0.00085830219526783296 -0.011239864805540123 0 0.00054125411445007021 -0.0095144284941417051 0 0.0021548411118624908 -0.009780402800662712 0 0.00025612646575019207 -0.010759033209926685 0 0.00085830219526783296 -0.011239864805540123 0 0.00040365750797534064 -0.009529297067426586 0 0.0092055354773450775 -0.014066134479906201 0 0.0095562599805121395 -0.0146222914909209 0 0.00025612646575019207 -0.010759033209926685 0 0.00040365750797534064 -0.009529297067426586 0 -0.0003699992471122388 -0.010326280762055509 0 -0.0017229244212071506 -0.0094789954076135267 0 -0.0003699992471122388 -0.010326280762055509 0 -0.0012287180601577368 -0.010500364652489127 0 -0.0017229244212071506 -0.0094789954076135267 0 -0.00061667548057071204 -0.0089075981976680201 0 -0.0003699992471122388 -0.010326280762055509 0 -0.00061667548057071204 -0.0089075981976680201 0 0.00040365750797534064 -0.009529297067426586 0 -0.0003699992471122388 -0.010326280762055509 0 0.015419788987926971 -0.028271545469503261 0 0.015346321153177037 -0.028366506883483734 0 0.015515381885246144 -0.028391410580317519 0 0.015346321153177037 -0.028366506883483734 0 0.015515381885246144 -0.028391410580317519 0 0.015379570069898502 -0.028492888490613256 0 0.015515381885246144 -0.028391410580317519 0 0.015379570069898502 -0.028492888490613256 0 0.015487452616440035 -0.028574823681304175 0 0.015379570069898502 -0.028492888490613256 0 0.015388260805454796 -0.028665325601086627 0 0.015319955073186828 -0.028584550264430953 0 0.015379570069898502 -0.028492888490613256 0 0.015487452616440035 -0.028574823681304175 0 0.015388260805454796 -0.028665325601086627 0 0.015487452616440035 -0.028574823681304175 0 0.015488986256436929 -0.02873207298788508 0 0.015388260805454796 -0.028665325601086627 0 0.015419902693479832 -0.028777527585123159 0 0.015488986256436929 -0.02873207298788508 0 0.015388260805454796 -0.028665325601086627 0 0.015339526343683461 -0.02882836655791244 0 0.015419902693479832 -0.028777527585123159 0 0.015388260805454796 -0.028665325601086627 0 0.015339526343683461 -0.02882836655791244 0 0.015388260805454796 -0.028665325601086627 0 0.015266179834568053 -0.028675650536201108 0 0.015266179834568053 -0.028675650536201108 0 0.015319955073186828 -0.028584550264430953 0 0.015244436577437721 -0.028502368156356157 0 0.015388260805454796 -0.028665325601086627 0 0.015266179834568053 -0.028675650536201108 0 0.015319955073186828 -0.028584550264430953 0 0.015266179834568053 -0.028675650536201108 0 0.015152722414322695 -0.02859148968537922 0 0.015244436577437721 -0.028502368156356157 0 0.015266179834568053 -0.028675650536201108 0 0.015169278002838984 -0.028746959534773863 0 0.015152722414322695 -0.02859148968537922 0 0.015232938898052358 -0.028829080414225095 0 0.015266179834568053 -0.028675650536201108 0 0.015169278002838984 -0.028746959534773863 0 0.016276083896204198 -0.0266080623818459 0 0.016330960740919647 -0.026420577398587632 0 0.015169278002838984 -0.028746959534773863 0 0.015029911964331769 -0.028620394675332832 0 0.015152722414322695 -0.02859148968537922 0 0.015075024311528615 -0.028875944425866239 0 0.015169278002838984 -0.028746959534773863 0 0.015074757279684816 -0.028635385444191516 0 0.015029911964331769 -0.028620394675332832 0 0.015075008518780629 -0.028439317788338633 0 0.014923298316536835 -0.028511980875375244 0 0.015029911964331769 -0.028620394675332832 0 0.015152722414322695 -0.02859148968537922 0 0.015075008518780629 -0.028439317788338633 0 0.015152722414322695 -0.02859148968537922 0 0.015075008518780629 -0.028439317788338633 0 0.015244436577437721 -0.028502368156356157 0 0.015075008518780629 -0.028439317788338633 0 0.015217164960727312 -0.028370368406012637 0 0.015140049676067267 -0.028277580666067337 0 0.015346321153177037 -0.028366506883483734 0 0.015217164960727312 -0.028370368406012637 0 0.015244436577437721 -0.028502368156356157 0 0.015379570069898502 -0.028492888490613256 0 0.015319955073186828 -0.028584550264430953 0 0.015244436577437721 -0.028502368156356157 0 0.015346321153177037 -0.028366506883483734 0 0.015379570069898502 -0.028492888490613256 0 0.015244436577437721 -0.028502368156356157 0 0.015075008518780629 -0.028439317788338633 0 0.015217164960727312 -0.028370368406012637 0 0.015244436577437721 -0.028502368156356157 0 0.014461933217438661 -0.028367326246058019 0 0.014702010697128369 -0.028450882876953222 0 0.014462587464222618 -0.028219093769757387 0 0.014461933217438661 -0.028367326246058019 0 0.014447056828235137 -0.028554969166965854 0 0.014702010697128369 -0.028450882876953222 0 0.014632849622106509 -0.028725564857357527 0 0.014454541472981936 -0.028758295728361343 0 0.014447056828235137 -0.028554969166965854 0 0.014902932525510983 -0.02876404908030623 0 0.014632849622106509 -0.028725564857357527 0 0.014702010697128369 -0.028450882876953222 0 0.014632849622106509 -0.028725564857357527 0 0.014447056828235137 -0.028554969166965854 0 0.014702010697128369 -0.028450882876953222 0 0.014902932525510983 -0.02876404908030623 0 0.015074757279684816 -0.028635385444191516 0 0.014935265483838615 -0.028512503648707724 0 0.014902932525510983 -0.02876404908030623 0 0.014770498276024526 -0.028581339994596212 0 0.014935265483838615 -0.028512503648707724 0 0.014770498276024526 -0.028581339994596212 0 0.014935265483838615 -0.028512503648707724 0 0.014782743981622822 -0.028377213146560238 0 0.017183211763524036 -0.026242612705572516 0 0.017339037281735751 -0.025818560620979713 0 0.016330960740919647 -0.026420577398587632 0 0.016538404430682507 -0.025854964220144085 0 0.015075008518780629 -0.028439317788338633 0 0.014923298316536835 -0.028511980875375244 0 0.014918193835149651 -0.028374479950075481 0 0.015075008518780629 -0.028439317788338633 0 0.014918193835149651 -0.028374479950075481 0 0.01500339484508361 -0.028276632823732457 0 0.014918193835149651 -0.028374479950075481 0 0.014834521265179245 -0.028412645272424583 0 0.014827564811564015 -0.028334712274974048 0 0.014918193835149651 -0.028374479950075481 0 0.014827564811564015 -0.028334712274974048 0 0.01488000594355807 -0.028279818652999854 0 0.014923298316536835 -0.028511980875375244 0 0.014918193835149651 -0.028374479950075481 0 0.014834521265179245 -0.028412645272424583 0 0.016538404430682507 -0.025854964220144085 0 0.016963714568206136 -0.024849305861509328 0 0.017339037281735751 -0.025818560620979713 0 0.017840002952706956 -0.024449045450008918 0 0.014770498276024526 -0.028581339994596212 0 0.014782743981622822 -0.028377213146560238 0 0.014617192207722521 -0.028364297318493617 0 0.016963714568206136 -0.024849305861509328 0 0.017684857127820797 -0.02325878040653577 0 0.014834521265179245 -0.028412645272424583 0 0.014827564811564015 -0.028334712274974048 0 0.014765854554649545 -0.028329642321175574 0 0.014827564811564015 -0.028334712274974048 0 0.014765854554649545 -0.028329642321175574 0 0.014782363083232034 -0.028281676408523422 0 0.014782743981622822 -0.028377213146560238 0 0.014608881767714514 -0.028230597458086787 0 0.014617192207722521 -0.028364297318493617 0 0.014458744570685595 -0.028111945640381279 0 0.014608881767714514 -0.028230597458086787 0 0.014617192207722521 -0.028364297318493617 0 0.014384106711494376 -0.028238129959564946 0 0.014461933217438661 -0.028367326246058019 0 0.014462587464222618 -0.028219093769757387 0 0.028617504893474876 -0.002834193113679398 0 0.027563004606052207 -0.0010264835945032655 0 0.026836085929734868 -0.0029890419679202717 0 0.014724960243464282 -0.028282386085045668 0 0.014765854554649545 -0.028329642321175574 0 0.014782363083232034 -0.028281676408523422 0 0.027563004606052207 -0.0010264835945032655 0 0.025952180145164684 -0.0022421055767172788 0 0.025768330539795426 -0.0010567851439164824 0 0.014827564811564015 -0.028334712274974048 0 0.014782363083232034 -0.028281676408523422 0 0.01488000594355807 -0.028279818652999854 0 0.019845662332099806 -0.017827596155643517 0 0.019701683584087432 -0.015912519994488724 0 0.027563004606052207 -0.0010264835945032655 0 0.025952180145164684 -0.0022421055767172788 0 0.026836085929734868 -0.0029890419679202717 0 0.025952180145164684 -0.0022421055767172788 0 0.025768330539795426 -0.0010567851439164824 0 0.023981907406345763 -0.0010919530019067418 0 0.014918193835149651 -0.028374479950075481 0 0.01488000594355807 -0.028279818652999854 0 0.01500339484508361 -0.028276632823732457 0 0.019701683584087432 -0.015912519994488724 0 0.019091416178812475 -0.014210053558409586 0 0.025952180145164684 -0.0022421055767172788 0 0.023981907406345763 -0.0010919530019067418 0 0.023932199019485293 -0.0025381668323428805 0 0.025229507732857957 -0.0032054178127756913 0 0.023932199019485293 -0.0025381668323428805 0 0.023583472385786244 -0.0038485601610479515 0 0.025952180145164684 -0.0022421055767172788 0 0.025229507732857957 -0.0032054178127756913 0 0.023932199019485293 -0.0025381668323428805 0 0.023583472385786244 -0.0038485601610479515 0 0.023407108048849167 -0.0048259260134089852 0 0.024868582048048905 -0.0052110888487462001 0 0.025229507732857957 -0.0032054178127756913 0 0.023583472385786244 -0.0038485601610479515 0 0.024868582048048905 -0.0052110888487462001 0 0.025229507732857957 -0.0032054178127756913 0 0.02614493041738182 -0.0041203043124659611 0 0.024868582048048905 -0.0052110888487462001 0 0.02614493041738182 -0.0041203043124659611 0 0.026596618105811855 -0.004733875533456236 0 0.024868582048048905 -0.0052110888487462001 0 0.025952180145164684 -0.0022421055767172788 0 0.025229507732857957 -0.0032054178127756913 0 0.026836085929734868 -0.0029890419679202717 0 0.025229507732857957 -0.0032054178127756913 0 0.026836085929734868 -0.0029890419679202717 0 0.02614493041738182 -0.0041203043124659611 0 0.026836085929734868 -0.0029890419679202717 0 0.02614493041738182 -0.0041203043124659611 0 0.026758261653084967 -0.0039064117789537811 0 0.026836085929734868 -0.0029890419679202717 0 0.026758261653084967 -0.0039064117789537811 0 0.027358713823563002 -0.0038751396180858101 0 0.02614493041738182 -0.0041203043124659611 0 0.026596618105811855 -0.004733875533456236 0 0.026758261653084967 -0.0039064117789537811 0 0.026596618105811855 -0.004733875533456236 0 0.026758261653084967 -0.0039064117789537811 0 0.027358713823563002 -0.0038751396180858101 0 0.026596618105811855 -0.004733875533456236 0 0.027358713823563002 -0.0038751396180858101 0 0.028303571954651732 -0.0042521071605903689 0 0.029256731996629294 0.0032195677291544703 0 0.031008183855985687 0.0016722211146139628 0 0.028617504893474876 -0.002834193113679398 0 0.026836085929734868 -0.0029890419679202717 0 0.027358713823563002 -0.0038751396180858101 0 0.028617504893474876 -0.002834193113679398 0 0.027358713823563002 -0.0038751396180858101 0 0.028303571954651732 -0.0042521071605903689 0 0.021269622218731542 -0.002173536507842173 0 0.019773994140634008 -0.0023204545405246741 0 0.020900729715478288 -0.0034384646409605798 0 0.021269622218731542 -0.002173536507842173 0 0.019773994140634008 -0.0023204545405246741 0 0.020425479443144691 -0.0011633317319767026 0 0.018647613597410535 -0.0012015916393631526 0 0.019773994140634008 -0.0023204545405246741 0 0.020425479443144691 -0.0011633317319767026 0 0.015346321153177037 -0.028366506883483734 0 0.015217164960727312 -0.028370368406012637 0 0.015278508669275197 -0.028276898915495542 0 0.021269622218731542 -0.002173536507842173 0 0.020425479443144691 -0.0011633317319767026 0 0.022202304056909282 -0.0011277127569363525 0 0.016960479256659403 -0.010280679730639567 0 0.018191041330661257 -0.012432178457901791 0 0.015217164960727312 -0.028370368406012637 0 0.015278508669275197 -0.028276898915495542 0 0.015140049676067267 -0.028277580666067337 0 0.015075008518780629 -0.028439317788338633 0 0.01500339484508361 -0.028276632823732457 0 0.015140049676067267 -0.028277580666067337 0 0.019091416178812475 -0.014210053558409586 0 0.018191041330661257 -0.012432178457901791 0 0.023981907406345763 -0.0010919530019067418 0 0.022202304056909282 -0.0011277127569363525 0 0.023932199019485293 -0.0025381668323428805 0 0.022202304056909282 -0.0011277127569363525 0 0.023932199019485293 -0.0025381668323428805 0 0.022376169212514042 -0.0029081131353701686 0 0.021269622218731542 -0.002173536507842173 0 0.022202304056909282 -0.0011277127569363525 0 0.022376169212514042 -0.0029081131353701686 0 0.023932199019485293 -0.0025381668323428805 0 0.022376169212514042 -0.0029081131353701686 0 0.023583472385786244 -0.0038485601610479515 0 0.023583472385786244 -0.0038485601610479515 0 0.02202690610621539 -0.0045599729375788989 0 0.023407108048849167 -0.0048259260134089852 0 0.022376169212514042 -0.0029081131353701686 0 0.023583472385786244 -0.0038485601610479515 0 0.02202690610621539 -0.0045599729375788989 0 0.022242617546508327 0.0026117273912349003 0 0.019607253450055269 0.00054162685820890034 0 0.022625421527154677 0.011715684866626618 0 0.021995320082729558 0.012235315221546821 0 0.022154446521040788 0.011452598977182144 0 0.021269622218731542 -0.002173536507842173 0 0.022376169212514042 -0.0029081131353701686 0 0.020900729715478288 -0.0034384646409605798 0 0.022376169212514042 -0.0029081131353701686 0 0.02202690610621539 -0.0045599729375788989 0 0.020900729715478288 -0.0034384646409605798 0 0.021442813077803699 0.012592363162634772 0 0.021995320082729558 0.012235315221546821 0 0.021412262143315444 0.012167690769828312 0 0.017147965476124405 -0.0024689127783337852 0 0.019607253450055269 0.00054162685820890034 0 0.021995320082729558 0.012235315221546821 0 0.021650153821261373 0.011685571097973631 0 0.022154446521040788 0.011452598977182144 0 0.021995320082729558 0.012235315221546821 0 0.021412262143315444 0.012167690769828312 0 0.021650153821261373 0.011685571097973631 0 0.021650153821261373 0.011685571097973631 0 0.021853097997402714 0.011203706246633921 0 0.021456389639929178 0.010985759515630326 0 0.021650153821261373 0.011685571097973631 0 0.021853097997402714 0.011203706246633921 0 0.022154446521040788 0.011452598977182144 0 0.021149018562033654 0.011572345137189896 0 0.021346470384403269 0.011205821635865199 0 0.021123287910794514 0.011425550317479296 0 0.021456389639929178 0.010985759515630326 0 0.021917279179987984 0.01077240626321801 0 0.021931222486456899 0.010083688032042185 0 0.021858469093411197 0.011233871085481096 0 0.022185278783437849 0.010875015073861882 0 0.021853097997402714 0.011203706246633921 0 0.021456389639929178 0.010985759515630326 0 0.021917279179987984 0.01077240626321801 0 0.021853097997402714 0.011203706246633921 0 0.021917279179987984 0.01077240626321801 0 0.022169599756643024 0.011025864598618254 0 0.022586772990569316 0.010536606631397759 0 0.022169552635192973 0.010544549211942349 0 0.022169599756643024 0.011025864598618254 0 0.021917279179987984 0.01077240626321801 0 0.022169552635192973 0.010544549211942349 0 0.022169599756643024 0.011025864598618254 0 0.022625421527154677 0.011715684866626618 0 0.022154446521040788 0.011452598977182144 0 0.022628592699988286 0.010981608234635724 0 0.022169599756643024 0.011025864598618254 0 0.022154446521040788 0.011452598977182144 0 0.022628592699988286 0.010981608234635724 0 0.021853097997402714 0.011203706246633921 0 0.022169599756643024 0.011025864598618254 0 0.022154446521040788 0.011452598977182144 0 0.02202690610621539 -0.0045599729375788989 0 0.023407108048849167 -0.0048259260134089852 0 0.023151607169612731 -0.0056848315365448749 0 0.025053226951725485 0.0043655350599622464 0 0.024937916665570718 0.00460667621176096 0 0.022242617546508327 0.0026117273912349003 0 0.025053226951725485 0.0043655350599622464 0 0.022625421527154677 0.011715684866626618 0 0.02321538389858779 0.011139926838309829 0 0.022628592699988286 0.010981608234635724 0 0.023407108048849167 -0.0048259260134089852 0 0.023151607169612731 -0.0056848315365448749 0 0.024868582048048905 -0.0052110888487462001 0 0.02327505859626031 0.011165710960260906 0 0.022985742344821942 0.010773563648554097 0 0.023965843170649013 0.010474879140079925 0 0.024998923506655717 0.0070538567742131995 0 0.027459653832562513 0.0056472642572046013 0 0.025053226951725485 0.0043655350599622464 0 0.027459653832562513 0.0056472642572046013 0 0.023102066811578444 0.010832939965821145 0 0.023529583109693115 0.010492883453479478 0 0.024017041641870653 0.010558519417534485 0 0.023102066811578444 0.010832939965821145 0 0.023082212966766526 0.010368578236675724 0 0.023529583109693115 0.010492883453479478 0 0.022586772990569316 0.010536606631397759 0 0.022169599756643024 0.011025864598618254 0 0.023102066811578444 0.010832939965821145 0 0.022169599756643024 0.011025864598618254 0 0.022628592699988286 0.010981608234635724 0 0.022985742344821942 0.010773563648554097 0 0.02327505859626031 0.011165710960260906 0 0.022628592699988286 0.010981608234635724 0 0.022985742344821942 0.010773563648554097 0 0.024290350155784842 0.0074470228971192801 0 0.024998923506655717 0.0070538567742131995 0 0.022586772990569316 0.010536606631397759 0 0.023102066811578444 0.010832939965821145 0 0.023082212966766526 0.010368578236675724 0 0.022586772990569316 0.010536606631397759 0 0.023082212966766526 0.010368578236675724 0 0.022743540137205965 0.010178685986010636 0 0.023082212966766526 0.010368578236675724 0 0.023005541473424731 0.010001960922770977 0 0.022743540137205965 0.010178685986010636 0 0.023082212966766526 0.010368578236675724 0 0.023005541473424731 0.010001960922770977 0 0.023452655812686973 0.010043829406649543 0 0.023005541473424731 0.010001960922770977 0 0.022743540137205965 0.010178685986010636 0 0.022762355082258663 0.0098166110228489339 0 0.02377787738862849 0.010327415115722691 0 0.024638701331609773 0.011129467460221492 0 0.024523500314133608 0.0098698532050931452 0 0.026962904775560799 0.0062503669826923687 0 0.027459653832562513 0.0056472642572046013 0 0.023529583109693115 0.010492883453479478 0 0.023452655812686973 0.010043829406649543 0 0.024017041641870653 0.010558519417534485 0 0.023082212966766526 0.010368578236675724 0 0.023529583109693115 0.010492883453479478 0 0.023452655812686973 0.010043829406649543 0 0.023871746541293044 0.0094837252279546726 0 0.023391655824226271 0.0096708855331031681 0 0.024234395848112524 0.0097767960234221244 0 0.02377787738862849 0.010327415115722691 0 0.023391655824226271 0.0096708855331031681 0 0.024523500314133608 0.0098698532050931452 0 0.026928761750069544 0.0066149360461295846 0 0.027486253552943558 0.0065412559583158695 0 0.023871746541293044 0.0094837252279546726 0 0.023391655824226271 0.0096708855331031681 0 0.023422015163538465 0.0093298112917216576 0 0.022743540137205965 0.010178685986010636 0 0.022762355082258663 0.0098166110228489339 0 0.022424979895366449 0.0098001712742158166 0 0.023005541473424731 0.010001960922770977 0 0.022762355082258663 0.0098166110228489339 0 0.02295124408589189 0.0095477103604290469 0 0.02377787738862849 0.010327415115722691 0 0.023391655824226271 0.0096708855331031681 0 0.02295124408589189 0.0095477103604290469 0 0.023005541473424731 0.010001960922770977 0 0.023452655812686973 0.010043829406649543 0 0.02295124408589189 0.0095477103604290469 0 0.026962904775560799 0.0062503669826923687 0 0.026744125904739877 0.006389332634237908 0 0.023391655824226271 0.0096708855331031681 0 0.02302623566879209 0.0093075371366244681 0 0.023422015163538465 0.0093298112917216576 0 0.023391655824226271 0.0096708855331031681 0 0.02295124408589189 0.0095477103604290469 0 0.02302623566879209 0.0093075371366244681 0 0.02295124408589189 0.0095477103604290469 0 0.022714071232720782 0.0095240015872299008 0 0.02302623566879209 0.0093075371366244681 0 0.022762355082258663 0.0098166110228489339 0 0.02295124408589189 0.0095477103604290469 0 0.022714071232720782 0.0095240015872299008 0 0.022185278783437849 0.010875015073861882 0 0.022628394036297624 0.010542526069311999 0 0.022714071232720782 0.0095240015872299008 0 0.022424979895366449 0.0098001712742158166 0 0.022421709263205251 0.0091070877451215632 0 0.022424979895366449 0.0098001712742158166 0 0.021931222486456899 0.010083688032042185 0 0.022421709263205251 0.0091070877451215632 0 0.021346470384403269 0.011205821635865199 0 0.021288463302627566 0.01087706342380791 0 0.021542639867038596 0.010823595936520285 0 0.022762355082258663 0.0098166110228489339 0 0.022714071232720782 0.0095240015872299008 0 0.022424979895366449 0.0098001712742158166 0 0.021188280891755427 0.011048282866923127 0 0.021346470384403269 0.011205821635865199 0 0.021081289758077961 0.011179542455261378 0 0.021188280891755427 0.011048282866923127 0 0.021346470384403269 0.011205821635865199 0 0.021288463302627566 0.01087706342380791 0 0.021188280891755427 0.011048282866923127 0 0.021288463302627566 0.01087706342380791 0 0.02103732314233998 0.010930455566782724 0 0.021346470384403269 0.011205821635865199 0 0.021081289758077961 0.011179542455261378 0 0.021123287910794514 0.011425550317479296 0 0.021917279179987984 0.01077240626321801 0 0.022169552635192973 0.010544549211942349 0 0.021931222486456899 0.010083688032042185 0 0.022169552635192973 0.010544549211942349 0 0.021931222486456899 0.010083688032042185 0 0.022335705871238287 0.010208433983472039 0 0.022586772990569316 0.010536606631397759 0 0.022743540137205965 0.010178685986010636 0 0.022335705871238287 0.010208433983472039 0 0.022586772990569316 0.010536606631397759 0 0.022169552635192973 0.010544549211942349 0 0.022335705871238287 0.010208433983472039 0 0.022743540137205965 0.010178685986010636 0 0.022424979895366449 0.0098001712742158166 0 0.022335705871238287 0.010208433983472039 0 0.022424979895366449 0.0098001712742158166 0 0.021931222486456899 0.010083688032042185 0 0.022335705871238287 0.010208433983472039 0 0.038722173190684592 0.0011990429578314589 0 0.039264239552411012 0.00050755015327679843 0 0.039419209772442336 0.0015899218239274644 0 0.037914959526365324 0.0015157628260854981 0 0.038613402184881927 0.0018920387753349507 0 0.038722173190684592 0.0011990429578314589 0 0.038613402184881927 0.0018920387753349507 0 0.038722173190684592 0.0011990429578314589 0 0.039419209772442336 0.0015899218239274644 0 0.037827908458643401 0.00032363263905440642 0 0.038722173190684592 0.0011990429578314589 0 0.039264239552411012 0.00050755015327679843 0 0.037827908458643401 0.00032363263905440642 0 0.038348708926822676 -0.00079372659569235484 0 0.039264239552411012 0.00050755015327679843 0 0.03999375745369723 -0.00024841637319231077 0 0.038348708926822676 -0.00079372659569235484 0 0.039264239552411012 0.00050755015327679843 0 0.039264239552411012 0.00050755015327679843 0 0.040121139824458182 0.00052558845893618442 0 0.040213061575107706 0.0010622331717579363 0 0.03999375745369723 -0.00024841637319231077 0 0.040121139824458182 0.00052558845893618442 0 0.04097182218288975 0.00078410385566184311 0 0.03999375745369723 -0.00024841637319231077 0 0.039264239552411012 0.00050755015327679843 0 0.040121139824458182 0.00052558845893618442 0 0.039264239552411012 0.00050755015327679843 0 0.040213061575107706 0.0010622331717579363 0 0.039419209772442336 0.0015899218239274644 0 0.040213061575107706 0.0010622331717579363 0 0.039419209772442336 0.0015899218239274644 0 0.040579226638415775 0.0021891921103531207 0 0.030811018658693283 0.005397901753886861 0 0.030487183169785048 0.0056419909402566325 0 0.040834342258309383 0.0014075805125643188 0 0.041921981420873403 0.0017303411166880482 0 0.04052770455220199 0.0020345286920586516 0 0.040213061575107706 0.0010622331717579363 0 0.040834342258309383 0.0014075805125643188 0 0.04052770455220199 0.0020345286920586516 0 0.040834342258309383 0.0014075805125643188 0 0.04097182218288975 0.00078410385566184311 0 0.041921981420873403 0.0017303411166880482 0 0.040213061575107706 0.0010622331717579363 0 0.040834342258309383 0.0014075805125643188 0 0.04097182218288975 0.00078410385566184311 0 0.029256731996629294 0.0032195677291544703 0 0.026724252779645071 0.003334420350545059 0 0.028312191510595431 0.0037277578990338039 0 0.028000964379778118 0.0034433851415848677 0 0.02783212087634597 0.0035996829836781995 0 0.029256731996629294 0.0032195677291544703 0 0.029059476144717628 0.0045665018356887419 0 0.040121139824458182 0.00052558845893618442 0 0.040213061575107706 0.0010622331717579363 0 0.04097182218288975 0.00078410385566184311 0 0.025053226951725485 0.0043655350599622464 0 0.026724252779645071 0.003334420350545059 0 0.028000964379778118 0.0034433851415848677 0 0.02783212087634597 0.0035996829836781995 0 0.027707290479672617 0.0033673290273694857 0 0.02735486978922325 0.0034691209356501706 0 0.02783212087634597 0.0035996829836781995 0 0.027707290479672617 0.0033673290273694857 0 0.029059476144717628 0.0045665018356887419 0 0.027459653832562513 0.0056472642572046013 0 0.028000964379778118 0.0034433851415848677 0 0.027707290479672617 0.0033673290273694857 0 0.027678342121875435 0.0031449409694585379 0 0.02735486978922325 0.0034691209356501706 0 0.027707290479672617 0.0033673290273694857 0 0.027678342121875435 0.0031449409694585379 0 0.027459653832562513 0.0056472642572046013 0 0.029135238599153859 0.0063003868737562651 0 0.024638701331609773 0.011129467460221492 0 0.024523500314133608 0.0098698532050931452 0 0.025666991590382781 0.010093126836438739 0 0.029114933422914317 0.0047261402703189037 0 0.028645918878371118 0.0052053424977272353 0 0.0287827608452151 0.0049396514301430321 0 0.027486253552943558 0.0065412559583158695 0 0.029135238599153859 0.0063003868737562651 0 0.024234395848112524 0.0097767960234221244 0 0.024512240532023225 0.009714535284663187 0 0.024421978663364378 0.0096280027163123567 0 0.023871746541293044 0.0094837252279546726 0 0.024234395848112524 0.0097767960234221244 0 0.024373948759340069 0.0095160854716739348 0 0.024234395848112524 0.0097767960234221244 0 0.024373948759340069 0.0095160854716739348 0 0.024421978663364378 0.0096280027163123567 0 0.024373948759340069 0.0095160854716739348 0 0.024421978663364378 0.0096280027163123567 0 0.024363399351433571 0.0095514269788412737 0 0.024421978663364378 0.0096280027163123567 0 0.024528199172034762 0.0096899170183517708 0 0.024363399351433571 0.0095514269788412737 0 0.029155853865600392 0.0066379016349678308 0 0.028805905608118399 0.0069928770514535426 0 0.029295480541169181 0.0070695665420251914 0 0.029346642990234036 0.0063162420931316228 0 0.028853180087701331 0.0068850154199785931 0 0.024512240532023225 0.009714535284663187 0 0.024421978663364378 0.0096280027163123567 0 0.024528199172034762 0.0096899170183517708 0 0.030792753358811074 0.0059816737490305675 0 0.030810489943381373 0.0060361656563131172 0 0.031161667415088294 0.0056104603185850544 0 0.029346642990234036 0.0063162420931316228 0 0.029487093354427226 0.0062377729491097239 0 0.031705308559588447 0.0048176013367072848 0 0.029682327842116527 0.0068627057103752059 0 0.028830879015958034 0.0042384785542978354 0 0.029135238599153859 0.0063003868737562651 0 0.029487093354427226 0.0062377729491097239 0 0.029135238599153859 0.0063003868737562651 0 0.029346642990234036 0.0063162420931316228 0 0.029487093354427226 0.0062377729491097239 0 0.030487183169785048 0.0056419909402566325 0 0.028581100444972335 0.0051922340059657093 0 0.0287827608452151 0.0049396514301430321 0 0.028475889547300872 0.0048666659567150918 0 0.029114933422914317 0.0047261402703189037 0 0.0287827608452151 0.0049396514301430321 0 0.028475889547300872 0.0048666659567150918 0 0.027459653832562513 0.0056472642572046013 0 0.030487183169785048 0.0056419909402566325 0 0.028645918878371118 0.0052053424977272353 0 0.028581100444972335 0.0051922340059657093 0 0.0287827608452151 0.0049396514301430321 0 0.029487093354427226 0.0062377729491097239 0 0.032318692218809827 0.005658310966121188 0 0.030487183169785048 0.0056419909402566325 0 0.032318692218809827 0.005658310966121188 0 0.03023213531493588 0.0061933115252696446 0 0.030327234752638058 0.0064834756064742205 0 0.030927901652755437 0.0063318195189488152 0 0.039419209772442336 0.0015899218239274644 0 0.040579226638415775 0.0021891921103531207 0 0.038922519336462888 0.0026356081069165587 0 0.030810489943381373 0.0060361656563131172 0 0.031526138564125027 0.00618054661574618 0 0.031161667415088294 0.0056104603185850544 0 0.029346642990234036 0.0063162420931316228 0 0.030095879869649754 0.0063525112993979317 0 0.031703489654352962 0.0056941655642020923 0 0.031526138564125027 0.00618054661574618 0 0.031161667415088294 0.0056104603185850544 0 0.032767687547613618 0.0056551150162383376 0 0.032318692218809827 0.005658310966121188 0 0.038613402184881927 0.0018920387753349507 0 0.039419209772442336 0.0015899218239274644 0 0.038922519336462888 0.0026356081069165587 0 0.038059161741731164 0.002506627776656006 0 0.038613402184881927 0.0018920387753349507 0 0.038922519336462888 0.0026356081069165587 0 0.033017971601002179 0.0053258426977969365 0 0.032473219722126669 0.0056737537853958561 0 0.03272112315121279 0.0056546648369542691 0 0.032473219722126669 0.0056737537853958561 0 0.03272112315121279 0.0056546648369542691 0 0.032282898730567819 0.0058393467865108482 0 0.032858264475965564 0.0058734884315279588 0 0.03272112315121279 0.0056546648369542691 0 0.032383787159458069 0.005944469264405618 0 0.032858264475965564 0.0058734884315279588 0 0.032383787159458069 0.005944469264405618 0 0.032267211110909536 0.0060756523758585968 0 0.031351282110947433 0.0061231094324830197 0 0.030095879869649754 0.0063525112993979317 0 0.03272112315121279 0.0056546648369542691 0 0.032383787159458069 0.005944469264405618 0 0.032282898730567819 0.0058393467865108482 0 0.032383787159458069 0.005944469264405618 0 0.032124639358317823 0.0059811053486774138 0 0.032282898730567819 0.0058393467865108482 0 0.032383787159458069 0.005944469264405618 0 0.032219346141680406 0.0061002954346376431 0 0.032124639358317823 0.0059811053486774138 0 0.030131633375274299 0.0063274950659215909 0 0.030095879869649754 0.0063525112993979317 0 0.032124639358317823 0.0059811053486774138 0 0.032282898730567819 0.0058393467865108482 0 0.032006600810050551 0.0059243820107401429 0 0.032282898730567819 0.0058393467865108482 0 0.032001923877476787 0.0058382291092852617 0 0.032006600810050551 0.0059243820107401429 0 0.032473219722126669 0.0056737537853958561 0 0.032282898730567819 0.0058393467865108482 0 0.032001923877476787 0.0058382291092852617 0 0.032473219722126669 0.0056737537853958561 0 0.032001923877476787 0.0058382291092852617 0 0.031809068764576724 0.005843896555106429 0 0.032001923877476787 0.0058382291092852617 0 0.032006600810050551 0.0059243820107401429 0 0.031765104823464389 0.005991919684703393 0 0.032006600810050551 0.0059243820107401429 0 0.03189368158852058 0.0060320420076820074 0 0.031765104823464389 0.005991919684703393 0 0.032219346141680406 0.0061002954346376431 0 0.032124639358317823 0.0059811053486774138 0 0.03189368158852058 0.0060320420076820074 0 0.030095879869649754 0.0063525112993979317 0 0.028853180087701331 0.0068850154199785931 0 0.032124639358317823 0.0059811053486774138 0 0.032006600810050551 0.0059243820107401429 0 0.03189368158852058 0.0060320420076820074 0 0.024373948759340069 0.0095160854716739348 0 0.024363399351433571 0.0095514269788412737 0 0.024501202148771654 0.0097566771789090213 0 0.025468645931469365 0.010054729346392371 0 0.025258069267804717 0.010025127857700168 0 0.025366416119836536 0.0097339821058599306 0 0.028853180087701331 0.0068850154199785931 0 0.027862381534046878 0.0070623642427922037 0 0.025258069267804717 0.010025127857700168 0 0.025366416119836536 0.0097339821058599306 0 0.025185011282430666 0.0098361020592172711 0 0.028853180087701331 0.0068850154199785931 0 0.028549820470424439 0.0072595789558943004 0 0.028549820470424439 0.0072595789558943004 0 0.028162812591110635 0.0072490526719217411 0 0.025366416119836536 0.0097339821058599306 0 0.025310252293911532 0.0094094968357599871 0 0.025104573863006886 0.0096617489002779194 0 0.031765104823464389 0.005991919684703393 0 0.031352981717588824 0.0067006281548763228 0 0.031546493357842126 0.0064328569408712375 0 0.031352981717588824 0.0067006281548763228 0 0.031546493357842126 0.0064328569408712375 0 0.031249799544048624 0.0068525743948876228 0 0.031546493357842126 0.0064328569408712375 0 0.03128756298062367 0.0067804876003888523 0 0.031249799544048624 0.0068525743948876228 0 0.032001923877476787 0.0058382291092852617 0 0.031765104823464389 0.005991919684703393 0 0.031809068764576724 0.005843896555106429 0 0.031765104823464389 0.005991919684703393 0 0.031546493357842126 0.0064328569408712375 0 0.031809068764576724 0.005843896555106429 0 0.032473219722126669 0.0056737537853958561 0 0.031809068764576724 0.005843896555106429 0 0.032759210012358875 0.0054152485385438164 0 0.032183866160823166 0.0062438390057651958 0 0.032235442913631125 0.006235765451410611 0 0.031809068764576724 0.005843896555106429 0 0.032759210012358875 0.0054152485385438164 0 0.032938130876907772 0.0050826444051808748 0 0.031546493357842126 0.0064328569408712375 0 0.031809068764576724 0.005843896555106429 0 0.03128756298062367 0.0067804876003888523 0 0.033123516488841848 0.0051856182432976029 0 0.032938130876907772 0.0050826444051808748 0 0.033127856423068841 0.0053334018902912268 0 0.033123516488841848 0.0051856182432976029 0 0.032759210012358875 0.0054152485385438164 0 0.032938130876907772 0.0050826444051808748 0 0.033017971601002179 0.0053258426977969365 0 0.032473219722126669 0.0056737537853958561 0 0.032759210012358875 0.0054152485385438164 0 0.033017971601002179 0.0053258426977969365 0 0.033123516488841848 0.0051856182432976029 0 0.032759210012358875 0.0054152485385438164 0 0.024716159070629608 0.0099483401867617605 0 0.024856757726101159 0.009870839464898579 0 0.024667392363534831 0.0097652863250148048 0 0.024716159070629608 0.0099483401867617605 0 0.024470608547820256 0.0098667285439613239 0 0.024667392363534831 0.0097652863250148048 0 0.023060589616703077 0.010336874186796661 0 0.023325807023445642 0.010216978404795888 0 0.023239614414327123 0.010388630529906571 0 0.023060589616703077 0.010336874186796661 0 0.022794535293609062 0.010454995403236578 0 0.022813864693624328 0.010463697149730776 0 0.022805610181206019 0.010451645551759375 0 0.022813864693624328 0.010463697149730776 0 0.022805610181206019 0.010451645551759375 0 0.022814659821531431 0.01045054835394448 0 0.022805610181206019 0.010451645551759375 0 0.022806472103097778 0.010441486272193486 0 0.02279669299829442 0.010448999428330573 0 0.022814659821531431 0.01045054835394448 0 0.022806472103097778 0.010441486272193486 0 0.022821778963586441 0.010438294274083234 0 0.022346290107921857 0.010665916210905371 0 0.022147182021845142 0.010776757645065341 0 0.022805610181206019 0.010451645551759375 0 0.022814659821531431 0.01045054835394448 0 0.022806472103097778 0.010441486272193486 0 0.022806472103097778 0.010441486272193486 0 0.02279669299829442 0.010448999428330573 0 0.022792141509436151 0.010444476073133093 0 0.022346290107921857 0.010665916210905371 0 0.022628394036297624 0.010542526069311999 0 0.022794535293609062 0.010454995403236578 0 0.022805610181206019 0.010451645551759375 0 0.02279669299829442 0.010448999428330573 0 0.022794535293609062 0.010454995403236578 0 0.02279669299829442 0.010448999428330573 0 0.022790692474188363 0.010447713470885044 0 0.02279669299829442 0.010448999428330573 0 0.022790692474188363 0.010447713470885044 0 0.022792141509436151 0.010444476073133093 0 0.022629251313145079 0.010541341473550901 0 0.022628394036297624 0.010542526069311999 0 0.022421709263205251 0.0091070877451215632 0 0.02302623566879209 0.0093075371366244681 0 0.02327457320771106 0.0089168711557395704 0 0.022790692474188363 0.010447713470885044 0 0.02279222377807729 0.010444481381459769 0 0.022777441005334315 0.010446744803625891 0 0.022794535293609062 0.010454995403236578 0 0.022790692474188363 0.010447713470885044 0 0.022777441005334315 0.010446744803625891 0 0.023239614414327123 0.010388630529906571 0 0.023198335570138208 0.01040701065079206 0 0.022628394036297624 0.010542526069311999 0 0.023198335570138208 0.01040701065079206 0 0.022714071232720782 0.0095240015872299008 0 0.022421709263205251 0.0091070877451215632 0 0.02302623566879209 0.0093075371366244681 0 0.02302623566879209 0.0093075371366244681 0 0.02327457320771106 0.0089168711557395704 0 0.023422015163538465 0.0093298112917216576 0 0.025014043939036192 0.0099785269583246173 0 0.025020271778113549 0.009928820075991926 0 0.024856757726101159 0.009870839464898579 0 0.025055632937407563 0.0099557282242817603 0 0.025014043939036192 0.0099785269583246173 0 0.025020271778113549 0.009928820075991926 0 0.023202706486198384 0.010406061249846204 0 0.023198335570138208 0.01040701065079206 0 0.025258069267804717 0.010025127857700168 0 0.025001604015975291 0.0099588303462852419 0 0.02509126910226234 0.0099128432652677394 0 0.024373948759340069 0.0095160854716739348 0 0.024501202148771654 0.0097566771789090213 0 0.025001604015975291 0.0099588303462852419 0 0.024373948759340069 0.0095160854716739348 0 0.025055632937407563 0.0099557282242817603 0 0.025001604015975291 0.0099588303462852419 0 0.023871746541293044 0.0094837252279546726 0 0.024373948759340069 0.0095160854716739348 0 0.02327457320771106 0.0089168711557395704 0 0.024373948759340069 0.0095160854716739348 0 0.025055632937407563 0.0099557282242817603 0 0.025119974465185709 0.0099502791106440523 0 0.027862381534046878 0.0070623642427922037 0 0.027563510153315509 0.0071248067144466893 0 0.023396187736420652 0.010367669495817355 0 0.023198335570138208 0.01040701065079206 0 0.023871746541293044 0.0094837252279546726 0 0.02327457320771106 0.0089168711557395704 0 0.023422015163538465 0.0093298112917216576 0 0.025055632937407563 0.0099557282242817603 0 0.025020271778113549 0.009928820075991926 0 0.025001604015975291 0.0099588303462852419 0 0.025020271778113549 0.009928820075991926 0 0.025001604015975291 0.0099588303462852419 0 0.02509126910226234 0.0099128432652677394 0 0.025258069267804717 0.010025127857700168 0 0.02509126910226234 0.0099128432652677394 0 0.025185011282430666 0.0098361020592172711 0 0.025366416119836536 0.0097339821058599306 0 0.025185011282430666 0.0098361020592172711 0 0.025104573863006886 0.0096617489002779194 0 0.02509126910226234 0.0099128432652677394 0 0.025185011282430666 0.0098361020592172711 0 0.025050041584554927 0.0098412346183243526 0 0.025020271778113549 0.009928820075991926 0 0.02509126910226234 0.0099128432652677394 0 0.025050041584554927 0.0098412346183243526 0 0.025050041584554927 0.0098412346183243526 0 0.024975409634967798 0.0097621515548419729 0 0.025104573863006886 0.0096617489002779194 0 0.025185011282430666 0.0098361020592172711 0 0.025050041584554927 0.0098412346183243526 0 0.025104573863006886 0.0096617489002779194 0 0.024716159070629608 0.0099483401867617605 0 0.025014043939036192 0.0099785269583246173 0 0.024856757726101159 0.009870839464898579 0 0.024856757726101159 0.009870839464898579 0 0.024975409634967798 0.0097621515548419729 0 0.024869233163111987 0.0096607565251312887 0 0.025020271778113549 0.009928820075991926 0 0.025050041584554927 0.0098412346183243526 0 0.024856757726101159 0.009870839464898579 0 0.025050041584554927 0.0098412346183243526 0 0.024856757726101159 0.009870839464898579 0 0.024975409634967798 0.0097621515548419729 0 0.024975409634967798 0.0097621515548419729 0 0.024869233163111987 0.0096607565251312887 0 0.025104573863006886 0.0096617489002779194 0 0.024869233163111987 0.0096607565251312887 0 0.025104573863006886 0.0096617489002779194 0 0.024924205410271391 0.009375784107880732 0 0.025310252293911532 0.0094094968357599871 0 0.025104573863006886 0.0096617489002779194 0 0.024924205410271391 0.009375784107880732 0 0.024924205410271391 0.009375784107880732 0 0.024590154011154112 0.0094258723975510442 0 0.024470835677019756 0.0090514765014676757 0 0.024869233163111987 0.0096607565251312887 0 0.024924205410271391 0.009375784107880732 0 0.024590154011154112 0.0094258723975510442 0 0.024856757726101159 0.009870839464898579 0 0.024869233163111987 0.0096607565251312887 0 0.024667392363534831 0.0097652863250148048 0 0.024869233163111987 0.0096607565251312887 0 0.024590154011154112 0.0094258723975510442 0 0.024667392363534831 0.0097652863250148048 0 0.024128130450305964 0.010133621218861386 0 0.024249471827826989 0.0095762299392504139 0 0.023884300352060753 0.0097417072071653028 0 0.024590154011154112 0.0094258723975510442 0 0.024667392363534831 0.0097652863250148048 0 0.024249471827826989 0.0095762299392504139 0 0.024128130450305964 0.010133621218861386 0 0.024667392363534831 0.0097652863250148048 0 0.024249471827826989 0.0095762299392504139 0 0.024290992327452434 0.0093056000053578884 0 0.023809666208516808 0.0092092152980152216 0 0.024470835677019756 0.0090514765014676757 0 0.024590154011154112 0.0094258723975510442 0 0.024290992327452434 0.0093056000053578884 0 0.024470835677019756 0.0090514765014676757 0 0.024249471827826989 0.0095762299392504139 0 0.024290992327452434 0.0093056000053578884 0 0.023809666208516808 0.0092092152980152216 0 0.024590154011154112 0.0094258723975510442 0 0.024249471827826989 0.0095762299392504139 0 0.024290992327452434 0.0093056000053578884 0 0.023801508333548306 0.010074827659956006 0 0.023290835628223188 0.0099889035935948195 0 0.023211504136096583 0.010253805637801941 0 0.023801508333548306 0.010074827659956006 0 0.023290835628223188 0.0099889035935948195 0 0.023551330098367674 0.0098079102021202298 0 0.023801508333548306 0.010074827659956006 0 0.023211504136096583 0.010253805637801941 0 0.023270172589935963 0.010578196660026963 0 0.023000781068379651 0.009884391434383159 0 0.023502277772235482 0.0096098064337175899 0 0.023001970450641999 0.010252088442487052 0 0.023236732874855306 0.0096510901588877773 0 0.022586268888394743 0.010010928468481308 0 0.023809666208516808 0.0092092152980152216 0 0.022835616708521536 0.0096724204404508348 0 0.023094419250397093 0.0096613595867020875 0 0.022748396180675472 0.0096672558432038726 0 0.023000781068379651 0.009884391434383159 0 0.022659712133879024 0.01010505940657991 0 0.022748396180675472 0.0096672558432038726 0 0.023000781068379651 0.009884391434383159 0 0.023094419250397093 0.0096613595867020875 0 0.022586268888394743 0.010010928468481308 0 0.022593152585140573 0.010008286748320766 0 0.023000781068379651 0.009884391434383159 0 0.023094419250397093 0.0096613595867020875 0 0.023502277772235482 0.0096098064337175899 0 0.023884300352060753 0.0097417072071653028 0 0.023502277772235482 0.0096098064337175899 0 0.023648995399516481 0.010015147724076075 0 0.023809666208516808 0.0092092152980152216 0 0.023094419250397093 0.0096613595867020875 0 0.023502277772235482 0.0096098064337175899 0 0.024249471827826989 0.0095762299392504139 0 0.023809666208516808 0.0092092152980152216 0 0.023884300352060753 0.0097417072071653028 0 0.023809666208516808 0.0092092152980152216 0 0.023884300352060753 0.0097417072071653028 0 0.023502277772235482 0.0096098064337175899 0 0.01969822370119062 0.010595642090275942 0 0.019634096083786679 0.010588232473876399 0 0.019648640797396054 0.010566687348437336 0 0.019665386527538433 0.010555509727692862 0 0.01969822370119062 0.010595642090275942 0 0.019682882665948385 0.010524764589948686 0 0.019665386527538433 0.010555509727692862 0 0.019648640797396054 0.010566687348437336 0 0.019634468893573665 0.010534550005639538 0 0.019665386527538433 0.010555509727692862 0 0.01969822370119062 0.010595642090275942 0 0.019648640797396054 0.010566687348437336 0 0.023290835628223188 0.0099889035935948195 0 0.022707148211252814 0.010182914571437019 0 0.023180359274178535 0.0095599055984732957 0 0.023290835628223188 0.0099889035935948195 0 0.023211504136096583 0.010253805637801941 0 0.022707148211252814 0.010182914571437019 0 0.023211504136096583 0.010253805637801941 0 0.022707148211252814 0.010182914571437019 0 0.022985478892031633 0.010443472554339923 0 0.023270172589935963 0.010578196660026963 0 0.022985478892031633 0.010443472554339923 0 0.022752759130665583 0.010694037529964052 0 0.022679567517743186 0.0095231161432388391 0 0.021659214690554752 0.0097524497048253056 0 0.022037168339926541 0.010130951342229454 0 0.022707148211252814 0.010182914571437019 0 0.022985478892031633 0.010443472554339923 0 0.022752759130665583 0.010694037529964052 0 0.022586268888394743 0.010010928468481308 0 0.021965649038145373 0.010227879683973031 0 0.023211504136096583 0.010253805637801941 0 0.023270172589935963 0.010578196660026963 0 0.022985478892031633 0.010443472554339923 0 0.022586268888394743 0.010010928468481308 0 0.022554207139328451 0.010029612319600523 0 0.021431128173643926 0.01025607672465983 0 0.021247902572535272 0.010461745786285994 0 0.022707148211252814 0.010182914571437019 0 0.022752759130665583 0.010694037529964052 0 0.022233901059840539 0.010809161607840376 0 0.01969822370119062 0.010595642090275942 0 0.019634787514706792 0.010616089267888226 0 0.019634096083786679 0.010588232473876399 0 0.021965649038145373 0.010227879683973031 0 0.021247902572535272 0.010461745786285994 0 0.021659214690554752 0.0097524497048253056 0 0.02111125607989655 0.010128387615076256 0 0.020725995715273442 0.010003517181562149 0 0.02095263233228916 0.010418188918273369 0 0.02111125607989655 0.010128387615076256 0 0.021405460520649983 0.010195697118877758 0 0.02095263233228916 0.010418188918273369 0 0.021405460520649983 0.010195697118877758 0 0.021273910267125131 0.010551035041070932 0 0.02095263233228916 0.010418188918273369 0 0.02111125607989655 0.010128387615076256 0 0.020820906235285989 0.01024902290522592 0 0.021659214690554752 0.0097524497048253056 0 0.02111125607989655 0.010128387615076256 0 0.021405460520649983 0.010195697118877758 0 0.021405460520649983 0.010195697118877758 0 0.021273910267125131 0.010551035041070932 0 0.02164831483339693 0.01045015590917325 0 0.021405460520649983 0.010195697118877758 0 0.02164831483339693 0.01045015590917325 0 0.022037168339926541 0.010130951342229454 0 0.02164831483339693 0.01045015590917325 0 0.022037168339926541 0.010130951342229454 0 0.021995777285852215 0.010626654955916286 0 0.021659214690554752 0.0097524497048253056 0 0.021405460520649983 0.010195697118877758 0 0.022037168339926541 0.010130951342229454 0 0.022748396180675472 0.0096672558432038726 0 0.022037168339926541 0.010130951342229454 0 0.022659712133879024 0.01010505940657991 0 0.022037168339926541 0.010130951342229454 0 0.022526872984163303 0.010520314088911411 0 0.022659712133879024 0.01010505940657991 0 0.022037168339926541 0.010130951342229454 0 0.022526872984163303 0.010520314088911411 0 0.021995777285852215 0.010626654955916286 0 0.022526872984163303 0.010520314088911411 0 0.022190441826051673 0.011132416116515586 0 0.021995777285852215 0.010626654955916286 0 0.022190441826051673 0.011132416116515586 0 0.021995777285852215 0.010626654955916286 0 0.021598718161828394 0.010887640073042092 0 0.02164831483339693 0.01045015590917325 0 0.021995777285852215 0.010626654955916286 0 0.021598718161828394 0.010887640073042092 0 0.021598718161828394 0.010887640073042092 0 0.020774634762346051 0.011421692939071771 0 0.020825358944994557 0.011047927968736375 0 0.022190441826051673 0.011132416116515586 0 0.021598718161828394 0.010887640073042092 0 0.020774634762346051 0.011421692939071771 0 0.021273910267125131 0.010551035041070932 0 0.02164831483339693 0.01045015590917325 0 0.021598718161828394 0.010887640073042092 0 0.021273910267125131 0.010551035041070932 0 0.021598718161828394 0.010887640073042092 0 0.021194915481765848 0.010813291158163763 0 0.021598718161828394 0.010887640073042092 0 0.021194915481765848 0.010813291158163763 0 0.020825358944994557 0.011047927968736375 0 0.021194915481765848 0.010813291158163763 0 0.020874157975467031 0.010780489800016583 0 0.020825358944994557 0.011047927968736375 0 0.021273910267125131 0.010551035041070932 0 0.021194915481765848 0.010813291158163763 0 0.020874157975467031 0.010780489800016583 0 0.02095263233228916 0.010418188918273369 0 0.021273910267125131 0.010551035041070932 0 0.020874157975467031 0.010780489800016583 0 0.022600641610030617 0.010424456965216955 0 0.022554970038650281 0.010546498070817017 0 0.023502277772235482 0.0096098064337175899 0 0.02369451718075653 0.010432793996086263 0 0.023648995399516481 0.010015147724076075 0 0.022813864693624328 0.010463697149730776 0 0.022814659821531431 0.01045054835394448 0 0.022825822569090118 0.010457860698250419 0 0.023060589616703077 0.010336874186796661 0 0.022554970038650281 0.010546498070817017 0 0.023060589616703077 0.010336874186796661 0 0.023114364920999397 0.010343539112764699 0 0.024147307135121164 0.010199538056813204 0 0.02369451718075653 0.010432793996086263 0 0.023648995399516481 0.010015147724076075 0 0.024128130450305964 0.010133621218861386 0 0.023884300352060753 0.0097417072071653028 0 0.023648995399516481 0.010015147724076075 0 0.023502277772235482 0.0096098064337175899 0 0.023596032090308621 0.010535750049306816 0 0.023001970450641999 0.010252088442487052 0 0.022526872984163303 0.010520314088911411 0 0.023596032090308621 0.010535750049306816 0 0.023001970450641999 0.010252088442487052 0 0.022526872984163303 0.010520314088911411 0 0.023001970450641999 0.010252088442487052 0 0.022659712133879024 0.01010505940657991 0 0.023000781068379651 0.009884391434383159 0 0.023001970450641999 0.010252088442487052 0 0.022659712133879024 0.01010505940657991 0 0.022526872984163303 0.010520314088911411 0 0.022190441826051673 0.011132416116515586 0 0.023596032090308621 0.010535750049306816 0 0.022116968918776778 0.010798675852119684 0 0.022554970038650281 0.010546498070817017 0 0.021653906479180588 0.010981537266155139 0 0.022520107523071303 0.010547068848832089 0 0.022180886404258277 0.010950340372519447 0 0.022180886404258277 0.010950340372519447 0 0.022061744628749706 0.011134366614821332 0 0.02263817698372194 0.011210073736165253 0 0.021653906479180588 0.010981537266155139 0 0.022180886404258277 0.010950340372519447 0 0.022061744628749706 0.011134366614821332 0 0.022554970038650281 0.010546498070817017 0 0.022147182021845142 0.010776757645065341 0 0.022814659821531431 0.01045054835394448 0 0.022825822569090118 0.010457860698250419 0 0.022821778963586441 0.010438294274083234 0 0.022520107523071303 0.010547068848832089 0 0.022180886404258277 0.010950340372519447 0 0.02263817698372194 0.011210073736165253 0 0.021188280891755427 0.011048282866923127 0 0.02103732314233998 0.010930455566782724 0 0.021081289758077961 0.011179542455261378 0 0.021037551000987829 0.010934182413014058 0 0.02107964298785055 0.011188378665555953 0 0.020844453305866532 0.011112958542393973 0 0.022147182021845142 0.010776757645065341 0 0.022059468143753369 0.010869152231289999 0 0.022059468143753369 0.010869152231289999 0 0.022033109507748026 0.010911800162740263 0 0.02107964298785055 0.011188378665555953 0 0.020950245263425482 0.011369876547634165 0 0.021123287910794514 0.011425550317479296 0 0.02107964298785055 0.011188378665555953 0 0.020913264152723435 0.011243176264822994 0 0.020950245263425482 0.011369876547634165 0 0.02107964298785055 0.011188378665555953 0 0.020913264152723435 0.011243176264822994 0 0.020844453305866532 0.011112958542393973 0 0.020775149543010622 0.01130140736448884 0 0.020658299741569987 0.011222912995490766 0 0.02061296882311961 0.011378021581008898 0 0.020913264152723435 0.011243176264822994 0 0.020950245263425482 0.011369876547634165 0 0.020775149543010622 0.01130140736448884 0 0.020913264152723435 0.011243176264822994 0 0.020775149543010622 0.01130140736448884 0 0.020844453305866532 0.011112958542393973 0 0.020775149543010622 0.01130140736448884 0 0.020658299741569987 0.011222912995490766 0 0.020844453305866532 0.011112958542393973 0 0.022147182021845142 0.010776757645065341 0 0.021450619678972774 0.010988149622481106 0 0.020658299741569987 0.011222912995490766 0 0.020844453305866532 0.011112958542393973 0 0.020615155260444502 0.01102459914521668 0 0.021037551000987829 0.010934182413014058 0 0.020844453305866532 0.011112958542393973 0 0.020615155260444502 0.01102459914521668 0 0.022061744628749706 0.011134366614821332 0 0.02263817698372194 0.011210073736165253 0 0.021772517285921378 0.011394214637253356 0 0.021653906479180588 0.010981537266155139 0 0.022061744628749706 0.011134366614821332 0 0.021772517285921378 0.011394214637253356 0 0.021450619678972774 0.010988149622481106 0 0.020981264382901113 0.011120137182826999 0 0.021653906479180588 0.010981537266155139 0 0.021772517285921378 0.011394214637253356 0 0.021272788313911571 0.011345688514125572 0 0.021772517285921378 0.011394214637253356 0 0.021272788313911571 0.011345688514125572 0 0.020889409043864181 0.011587047069561819 0 0.021653906479180588 0.010981537266155139 0 0.021272788313911571 0.011345688514125572 0 0.020774634762346051 0.011421692939071771 0 0.020615155260444502 0.01102459914521668 0 0.02017015365216521 0.011169496413526525 0 0.02030860941429664 0.011236345140219503 0 0.022116968918776778 0.010798675852119684 0 0.021837426638598618 0.010941210244834923 0 0.021272788313911571 0.011345688514125572 0 0.020889409043864181 0.011587047069561819 0 0.020774634762346051 0.011421692939071771 0 0.020225757766714678 0.011375603031359857 0 0.020453308811346074 0.01129688448344905 0 0.020487733829971207 0.011543635211550926 0 0.02030860941429664 0.011236345140219503 0 0.020225757766714678 0.011375603031359857 0 0.020101839293345816 0.011302405279778964 0 0.02017015365216521 0.011169496413526525 0 0.02030860941429664 0.011236345140219503 0 0.020101839293345816 0.011302405279778964 0 0.02030860941429664 0.011236345140219503 0 0.020225757766714678 0.011375603031359857 0 0.020453308811346074 0.01129688448344905 0 0.020615155260444502 0.01102459914521668 0 0.02030860941429664 0.011236345140219503 0 0.020453308811346074 0.01129688448344905 0 0.020658299741569987 0.011222912995490766 0 0.020615155260444502 0.01102459914521668 0 0.020453308811346074 0.01129688448344905 0 0.020658299741569987 0.011222912995490766 0 0.020453308811346074 0.01129688448344905 0 0.02061296882311961 0.011378021581008898 0 0.02061296882311961 0.011378021581008898 0 0.020487733829971207 0.011543635211550926 0 0.020784264755910727 0.011542219966929741 0 0.020453308811346074 0.01129688448344905 0 0.02061296882311961 0.011378021581008898 0 0.020487733829971207 0.011543635211550926 0 0.020487733829971207 0.011543635211550926 0 0.020687957357648092 0.011765398976063044 0 0.020784264755910727 0.011542219966929741 0 0.020225757766714678 0.011375603031359857 0 0.020487733829971207 0.011543635211550926 0 0.020176730557286863 0.01161512052527233 0 0.020389751585754925 0.011866836188434012 0 0.020487733829971207 0.011543635211550926 0 0.020176730557286863 0.01161512052527233 0 0.020389751585754925 0.011866836188434012 0 0.020176730557286863 0.01161512052527233 0 0.020076812556241642 0.011868960247615155 0 0.020389751585754925 0.011866836188434012 0 0.020487733829971207 0.011543635211550926 0 0.020687957357648092 0.011765398976063044 0 0.021044172753945319 0.01188921828460871 0 0.020687957357648092 0.011765398976063044 0 0.020784264755910727 0.011542219966929741 0 0.021044172753945319 0.01188921828460871 0 0.021650153821261373 0.011685571097973631 0 0.021456389639929178 0.010985759515630326 0 0.021044172753945319 0.01188921828460871 0 0.021149018562033654 0.011572345137189896 0 0.021007928218743279 0.011566250033679054 0 0.021044172753945319 0.01188921828460871 0 0.021007928218743279 0.011566250033679054 0 0.020784264755910727 0.011542219966929741 0 0.02172328277784542 0.011414153387158335 0 0.021858469093411197 0.011233871085481096 0 0.021149018562033654 0.011572345137189896 0 0.021007928218743279 0.011566250033679054 0 0.021123287910794514 0.011425550317479296 0 0.020950245263425482 0.011369876547634165 0 0.021007928218743279 0.011566250033679054 0 0.021123287910794514 0.011425550317479296 0 0.020950245263425482 0.011369876547634165 0 0.021007928218743279 0.011566250033679054 0 0.020784264755910727 0.011542219966929741 0 0.020950245263425482 0.011369876547634165 0 0.020775149543010622 0.01130140736448884 0 0.020784264755910727 0.011542219966929741 0 0.020775149543010622 0.01130140736448884 0 0.02061296882311961 0.011378021581008898 0 0.020784264755910727 0.011542219966929741 0 0.019588168099916672 0.011571097293050071 0 0.019783178258464294 0.011516756418102469 0 0.019652474402534991 0.011406313491491918 0 0.019588168099916672 0.011571097293050071 0 0.019652474402534991 0.011406313491491918 0 0.01941698426854983 0.011442891275514318 0 0.019588168099916672 0.011571097293050071 0 0.019664464026344926 0.011680112086438908 0 0.019783178258464294 0.011516756418102469 0 0.019588168099916672 0.011571097293050071 0 0.019446953886861025 0.011620950231887708 0 0.01941698426854983 0.011442891275514318 0 0.019231499930391874 0.011571785948590273 0 0.019446953886861025 0.011620950231887708 0 0.01941698426854983 0.011442891275514318 0 0.019588168099916672 0.011571097293050071 0 0.019446953886861025 0.011620950231887708 0 0.019535827996223342 0.011695706273368457 0 0.019231499930391874 0.011571785948590273 0 0.019466522441124328 0.011766429927103887 0 0.019446953886861025 0.011620950231887708 0 0.019466522441124328 0.011766429927103887 0 0.019446953886861025 0.011620950231887708 0 0.019535827996223342 0.011695706273368457 0 0.01952473195321508 0.011769040490017445 0 0.019535827996223342 0.011695706273368457 0 0.019664464026344926 0.011680112086438908 0 0.019588168099916672 0.011571097293050071 0 0.019535827996223342 0.011695706273368457 0 0.019664464026344926 0.011680112086438908 0 0.019664464026344926 0.011680112086438908 0 0.019857679830353837 0.011640947663765852 0 0.019783178258464294 0.011516756418102469 0 0.011512283546511719 0.0080352994389255774 0 0.01288791562369794 0.0091209424173634528 0 0.01973791233835474 0.011805849590016279 0 0.019664464026344926 0.011680112086438908 0 0.019857679830353837 0.011640947663765852 0 0.019766215592169845 0.012054672724466831 0 0.019906302586470862 0.011683603298320711 0 0.020076812556241642 0.011868960247615155 0 0.020176730557286863 0.01161512052527233 0 0.019906302586470862 0.011683603298320711 0 0.020076812556241642 0.011868960247615155 0 0.01288791562369794 0.0091209424173634528 0 0.013341871114433489 0.0094016360214528114 0 0.020225757766714678 0.011375603031359857 0 0.020176730557286863 0.01161512052527233 0 0.020012244718534817 0.011398196800348349 0 0.020176730557286863 0.01161512052527233 0 0.019906302586470862 0.011683603298320711 0 0.020012244718534817 0.011398196800348349 0 0.019857679830353837 0.011640947663765852 0 0.019783178258464294 0.011516756418102469 0 0.020012244718534817 0.011398196800348349 0 0.019783178258464294 0.011516756418102469 0 0.019909774252697448 0.011399710200531162 0 0.019652474402534991 0.011406313491491918 0 0.019783178258464294 0.011516756418102469 0 0.019909774252697448 0.011399710200531162 0 0.020012244718534817 0.011398196800348349 0 0.019909774252697448 0.011399710200531162 0 0.020012244718534817 0.011398196800348349 0 0.020101839293345816 0.011302405279778964 0 0.02017015365216521 0.011169496413526525 0 0.019909774252697448 0.011399710200531162 0 0.020101839293345816 0.011302405279778964 0 0.020225757766714678 0.011375603031359857 0 0.020012244718534817 0.011398196800348349 0 0.020101839293345816 0.011302405279778964 0 0.020889409043864181 0.011587047069561819 0 0.019909774252697448 0.011399710200531162 0 0.020453555748843468 0.011348240510851459 0 0.020981264382901113 0.011120137182826999 0 0.020792577148933736 0.011167363260700933 0 0.020889409043864181 0.011587047069561819 0 0.020774634762346051 0.011421692939071771 0 0.020453555748843468 0.011348240510851459 0 0.020453555748843468 0.011348240510851459 0 0.020534531274768973 0.011183043638326206 0 0.020187327492873695 0.011145246454992104 0 0.020774634762346051 0.011421692939071771 0 0.020453555748843468 0.011348240510851459 0 0.020534531274768973 0.011183043638326206 0 0.020774634762346051 0.011421692939071771 0 0.020534531274768973 0.011183043638326206 0 0.020825358944994557 0.011047927968736375 0 0.019909774252697448 0.011399710200531162 0 0.020187327492873695 0.011145246454992104 0 0.019816647087081529 0.01106142205775984 0 0.019909774252697448 0.011399710200531162 0 0.019816647087081529 0.01106142205775984 0 0.01967985889261788 0.011231879181959043 0 0.019909774252697448 0.011399710200531162 0 0.020453555748843468 0.011348240510851459 0 0.020187327492873695 0.011145246454992104 0 0.019816647087081529 0.01106142205775984 0 0.01967985889261788 0.011231879181959043 0 0.01954639586032365 0.011014932156060983 0 0.01967985889261788 0.011231879181959043 0 0.019470831476862141 0.011254547715354481 0 0.01954639586032365 0.011014932156060983 0 0.019909774252697448 0.011399710200531162 0 0.01967985889261788 0.011231879181959043 0 0.019652474402534991 0.011406313491491918 0 0.01967985889261788 0.011231879181959043 0 0.019652474402534991 0.011406313491491918 0 0.019470831476862141 0.011254547715354481 0 0.019652474402534991 0.011406313491491918 0 0.01941698426854983 0.011442891275514318 0 0.019470831476862141 0.011254547715354481 0 0.01941698426854983 0.011442891275514318 0 0.019318715032216081 0.011269680925350828 0 0.019470831476862141 0.011254547715354481 0 0.019235500041838743 0.011361248564083602 0 0.01941698426854983 0.011442891275514318 0 0.019318715032216081 0.011269680925350828 0 0.019318715032216081 0.011269680925350828 0 0.019470831476862141 0.011254547715354481 0 0.019327643322516685 0.011115593323405948 0 0.019327643322516685 0.011115593323405948 0 0.019366457034186206 0.010949845686800448 0 0.01954639586032365 0.011014932156060983 0 0.019470831476862141 0.011254547715354481 0 0.019327643322516685 0.011115593323405948 0 0.01954639586032365 0.011014932156060983 0 0.019366457034186206 0.010949845686800448 0 0.01954639586032365 0.011014932156060983 0 0.019522368617772051 0.010655897083165508 0 0.019366457034186206 0.010949845686800448 0 0.019522368617772051 0.010655897083165508 0 0.019337502512315266 0.010745771621648909 0 0.019816647087081529 0.01106142205775984 0 0.019522368617772051 0.010655897083165508 0 0.020036915780981681 0.010780806445153269 0 0.019816647087081529 0.01106142205775984 0 0.01954639586032365 0.011014932156060983 0 0.019522368617772051 0.010655897083165508 0 0.020549694705826987 0.010574351179951638 0 0.020727441676075192 0.01054376294349463 0 0.019522368617772051 0.010655897083165508 0 0.019580830678292988 0.010626969120992086 0 0.019545807255608998 0.010584521514361896 0 0.019522368617772051 0.010655897083165508 0 0.019478272834037386 0.010578221774798545 0 0.019545807255608998 0.010584521514361896 0 0.019522368617772051 0.010655897083165508 0 0.019384463599606837 0.010610688938089856 0 0.019478272834037386 0.010578221774798545 0 0.019384463599606837 0.010610688938089856 0 0.01928894168055131 0.010656928359733397 0 0.019337502512315266 0.010745771621648909 0 0.019263575159628829 0.010581983716018544 0 0.019384463599606837 0.010610688938089856 0 0.01928894168055131 0.010656928359733397 0 0.019522368617772051 0.010655897083165508 0 0.019384463599606837 0.010610688938089856 0 0.019337502512315266 0.010745771621648909 0 0.02095263233228916 0.010418188918273369 0 0.020634296655068662 0.010621792418335062 0 0.020874157975467031 0.010780489800016583 0 0.020634296655068662 0.010621792418335062 0 0.020874157975467031 0.010780489800016583 0 0.02043676704186962 0.010888980397445435 0 0.020534531274768973 0.011183043638326206 0 0.020825358944994557 0.011047927968736375 0 0.02043676704186962 0.010888980397445435 0 0.020874157975467031 0.010780489800016583 0 0.020825358944994557 0.011047927968736375 0 0.02043676704186962 0.010888980397445435 0 0.020534531274768973 0.011183043638326206 0 0.020187327492873695 0.011145246454992104 0 0.02043676704186962 0.010888980397445435 0 0.020634296655068662 0.010621792418335062 0 0.02043676704186962 0.010888980397445435 0 0.020393403020377576 0.010576141863607261 0 0.02043676704186962 0.010888980397445435 0 0.020036915780981681 0.010780806445153269 0 0.020393403020377576 0.010576141863607261 0 0.020187327492873695 0.011145246454992104 0 0.02043676704186962 0.010888980397445435 0 0.020036915780981681 0.010780806445153269 0 0.020187327492873695 0.011145246454992104 0 0.019816647087081529 0.01106142205775984 0 0.020036915780981681 0.010780806445153269 0 0.019522368617772051 0.010655897083165508 0 0.020036915780981681 0.010780806445153269 0 0.020033028942692745 0.010370038026793921 0 0.020036915780981681 0.010780806445153269 0 0.020033028942692745 0.010370038026793921 0 0.020393403020377576 0.010576141863607261 0 0.020727441676075192 0.01054376294349463 0 0.021247902572535272 0.010461745786285994 0 0.020033028942692745 0.010370038026793921 0 0.020578678327042056 0.010268270205616065 0 0.020696574331330982 0.010088582823492906 0 0.020033028942692745 0.010370038026793921 0 0.020393403020377576 0.010576141863607261 0 0.020578678327042056 0.010268270205616065 0 0.019580830678292988 0.010626969120992086 0 0.019634787514706792 0.010616089267888226 0 0.019611975520800278 0.010602257146590324 0 0.020393403020377576 0.010576141863607261 0 0.020578678327042056 0.010268270205616065 0 0.020685363916203282 0.010427354821876818 0 0.02111125607989655 0.010128387615076256 0 0.020725995715273442 0.010003517181562149 0 0.020820906235285989 0.01024902290522592 0 0.02124460416840698 0.01046151719675127 0 0.021247902572535272 0.010461745786285994 0 0.020578678327042056 0.010268270205616065 0 0.020725995715273442 0.010003517181562149 0 0.020820906235285989 0.01024902290522592 0 0.02095263233228916 0.010418188918273369 0 0.020820906235285989 0.01024902290522592 0 0.020685363916203282 0.010427354821876818 0 0.020578678327042056 0.010268270205616065 0 0.020820906235285989 0.01024902290522592 0 0.020685363916203282 0.010427354821876818 0 0.020634296655068662 0.010621792418335062 0 0.020393403020377576 0.010576141863607261 0 0.020685363916203282 0.010427354821876818 0 0.02095263233228916 0.010418188918273369 0 0.020634296655068662 0.010621792418335062 0 0.020685363916203282 0.010427354821876818 0 0.019634787514706792 0.010616089267888226 0 0.019634096083786679 0.010588232473876399 0 0.019611975520800278 0.010602257146590324 0 0.019634096083786679 0.010588232473876399 0 0.019611975520800278 0.010602257146590324 0 0.019595048217617213 0.010583234976073412 0 0.019634096083786679 0.010588232473876399 0 0.019595048217617213 0.010583234976073412 0 0.019609228898263723 0.010559552757647835 0 0.019595048217617213 0.010583234976073412 0 0.019561970413680418 0.010542982328698287 0 0.019609228898263723 0.010559552757647835 0 0.019580830678292988 0.010626969120992086 0 0.019611975520800278 0.010602257146590324 0 0.019595048217617213 0.010583234976073412 0 0.019580830678292988 0.010626969120992086 0 0.019595048217617213 0.010583234976073412 0 0.019545807255608998 0.010584521514361896 0 0.019595048217617213 0.010583234976073412 0 0.019561970413680418 0.010542982328698287 0 0.019545807255608998 0.010584521514361896 0 0.019561970413680418 0.010542982328698287 0 0.019590103104061122 0.010529424850335938 0 0.019540766804305377 0.010510696919676925 0 0.019561970413680418 0.010542982328698287 0 0.019590103104061122 0.010529424850335938 0 0.019609228898263723 0.010559552757647835 0 0.019590103104061122 0.010529424850335938 0 0.019609228898263723 0.010559552757647835 0 0.019634468893573665 0.010534550005639538 0 0.019609228898263723 0.010559552757647835 0 0.019648640797396054 0.010566687348437336 0 0.019634468893573665 0.010534550005639538 0 0.019634096083786679 0.010588232473876399 0 0.019609228898263723 0.010559552757647835 0 0.019648640797396054 0.010566687348437336 0 0.019403154777527593 0.010523912031530596 0 0.01931328077456999 0.010496195334259059 0 0.01940748514551632 0.01041599638769026 0 0.019403154777527593 0.010523912031530596 0 0.019499287359191 0.010512493017100392 0 0.01940748514551632 0.01041599638769026 0 0.019403154777527593 0.010523912031530596 0 0.01931328077456999 0.010496195334259059 0 0.019341342463517774 0.010552028783708466 0 0.019263575159628829 0.010581983716018544 0 0.01931328077456999 0.010496195334259059 0 0.019341342463517774 0.010552028783708466 0 0.019263575159628829 0.010581983716018544 0 0.019384463599606837 0.010610688938089856 0 0.019341342463517774 0.010552028783708466 0 0.019384463599606837 0.010610688938089856 0 0.019403154777527593 0.010523912031530596 0 0.019341342463517774 0.010552028783708466 0 0.019384463599606837 0.010610688938089856 0 0.019403154777527593 0.010523912031530596 0 0.019478272834037386 0.010578221774798545 0 0.019478272834037386 0.010578221774798545 0 0.019545807255608998 0.010584521514361896 0 0.019499287359191 0.010512493017100392 0 0.019561970413680418 0.010542982328698287 0 0.019545807255608998 0.010584521514361896 0 0.019499287359191 0.010512493017100392 0 0.019403154777527593 0.010523912031530596 0 0.019478272834037386 0.010578221774798545 0 0.019499287359191 0.010512493017100392 0 0.015148546396435167 0.011553644407687927 0 0.014790422131362129 0.011961368565201538 0 0.0091195970745244787 0.019765847352289843 0 0.0092296969390435208 0.018255814322732749 0 0.010951104343350756 0.018821263468815214 0 0.019561970413680418 0.010542982328698287 0 0.019499287359191 0.010512493017100392 0 0.019540766804305377 0.010510696919676925 0 0.012487340669965267 0.012264971318542657 0 0.014790422131362129 0.011961368565201538 0 0.019499287359191 0.010512493017100392 0 0.01940748514551632 0.01041599638769026 0 0.019570486372251724 0.010337673819853514 0 0.0074083207138194085 0.019618921304535363 0 0.0091195970745244787 0.019765847352289843 0 0.0077320144382578334 0.018749957478561879 0 0.0074083207138194085 0.019618921304535363 0 0.007600762376024711 0.020273922485155013 0 0.0091195970745244787 0.019765847352289843 0 0.0099631250547571586 0.012346778854473895 0 0.012487340669965267 0.012264971318542657 0 0.0072885043299055936 0.020658370353643037 0 0.007600762376024711 0.020273922485155013 0 0.0091195970745244787 0.019765847352289843 0 0.0091195970745244787 0.019765847352289843 0 0.0092296969390435208 0.018255814322732749 0 0.0077320144382578334 0.018749957478561879 0 0.019226547347870236 0.010437802495529681 0 0.01931328077456999 0.010496195334259059 0 0.01940748514551632 0.01041599638769026 0 0.0092296969390435208 0.018255814322732749 0 0.0077320144382578334 0.018749957478561879 0 0.0066807208708638257 0.017540475715117763 0 0.0092296969390435208 0.018255814322732749 0 0.0094197589103346829 0.016746762400176377 0 0.0066807208708638257 0.017540475715117763 0 0.010951104343350756 0.018821263468815214 0 0.010465500326434585 0.017241096541026707 0 0.012019974575018509 0.016535820162917249 0 0.0092296969390435208 0.018255814322732749 0 0.010951104343350756 0.018821263468815214 0 0.010465500326434585 0.017241096541026707 0 0.0092296969390435208 0.018255814322732749 0 0.010465500326434585 0.017241096541026707 0 0.0094197589103346829 0.016746762400176377 0 0.010465500326434585 0.017241096541026707 0 0.010681303496250976 0.015872754887816764 0 0.0094197589103346829 0.016746762400176377 0 0.010465500326434585 0.017241096541026707 0 0.010681303496250976 0.015872754887816764 0 0.012019974575018509 0.016535820162917249 0 0.0094197589103346829 0.016746762400176377 0 0.0085572037589909979 0.015153250505311659 0 0.0066807208708638257 0.017540475715117763 0 0.010681303496250976 0.015872754887816764 0 0.0094197589103346829 0.016746762400176377 0 0.0085572037589909979 0.015153250505311659 0 0.019634468893573665 0.010534550005639538 0 0.01961082908486252 0.010493439023180891 0 0.019682882665948385 0.010524764589948686 0 0.019590103104061122 0.010529424850335938 0 0.019634468893573665 0.010534550005639538 0 0.01961082908486252 0.010493439023180891 0 0.01759649186753464 0.01147327910597378 0 0.018682364072962202 0.010910315835936527 0 0.01806305368577335 0.010452259115625797 0 0.014790422131362129 0.011961368565201538 0 0.014938262391027904 0.012186587275826177 0 0.019590103104061122 0.010529424850335938 0 0.019540766804305377 0.010510696919676925 0 0.01961082908486252 0.010493439023180891 0 0.014790422131362129 0.011961368565201538 0 0.017000447481212044 0.010999759546031568 0 0.010681303496250976 0.015872754887816764 0 0.012019974575018509 0.016535820162917249 0 0.011558579577839545 0.015039323433799351 0 0.018682364072962202 0.010910315835936527 0 0.01806305368577335 0.010452259115625797 0 0.018723774744596241 0.010450109063174326 0 0.01806305368577335 0.010452259115625797 0 0.018723774744596241 0.010450109063174326 0 0.018366180857022893 0.010061841070027866 0 0.018723774744596241 0.010450109063174326 0 0.01907964267615227 0.010039673438707732 0 0.019394252355345868 0.010436601656024261 0 0.018682364072962202 0.010910315835936527 0 0.018723774744596241 0.010450109063174326 0 0.019394252355345868 0.010436601656024261 0 0.018366180857022893 0.010061841070027866 0 0.018185755023411101 0.010080232744306375 0 0.017183630307206148 0.010355849197213522 0 0.018366180857022893 0.010061841070027866 0 0.019434776982245206 0.0083042645299110686 0 0.019349822675673665 0.0093691161250176493 0 0.01907964267615227 0.010039673438707732 0 0.018366180857022893 0.010061841070027866 0 0.019349822675673665 0.0093691161250176493 0 0.018723774744596241 0.010450109063174326 0 0.01907964267615227 0.010039673438707732 0 0.018366180857022893 0.010061841070027866 0 0.014938262391027904 0.012186587275826177 0 0.015302116886951269 0.01170293018864574 0 0.01806305368577335 0.010452259115625797 0 0.018366180857022893 0.010061841070027866 0 0.018185755023411101 0.010080232744306375 0 0.012019974575018509 0.016535820162917249 0 0.013121044238750004 0.014409250054421769 0 0.011558579577839545 0.015039323433799351 0 0.013121044238750004 0.014409250054421769 0 0.011558579577839545 0.015039323433799351 0 0.011659878209327075 0.013990107817782645 0 0.011659878209327075 0.013990107817782645 0 0.012146567977209869 0.012836373804012799 0 0.012596050972767083 0.013710416273752966 0 0.011659878209327075 0.013990107817782645 0 0.012146567977209869 0.012836373804012799 0 0.010488060919182113 0.013008840314953644 0 0.012146567977209869 0.012836373804012799 0 0.012596050972767083 0.013710416273752966 0 0.013193377722919133 0.013009343875981282 0 0.013121044238750004 0.014409250054421769 0 0.012596050972767083 0.013710416273752966 0 0.013193377722919133 0.013009343875981282 0 0.013121044238750004 0.014409250054421769 0 0.011659878209327075 0.013990107817782645 0 0.012596050972767083 0.013710416273752966 0 0.018185755023411101 0.010080232744306375 0 0.017170017717151691 0.010461185543875873 0 0.017183630307206148 0.010355849197213522 0 0.018497326543507917 0.009497709404564807 0 0.018652781070766376 0.0091605560283963532 0 0.015302116886951269 0.01170293018864574 0 0.015634386628019612 0.011111221809849631 0 0.013121044238750004 0.014409250054421769 0 0.013193377722919133 0.013009343875981282 0 0.014430555629091483 0.012441452338525272 0 0.0085572037589909979 0.015153250505311659 0 0.0088755349404426916 0.013319525465406249 0 0.0065050340126450766 0.014152756585186622 0 0.0085572037589909979 0.015153250505311659 0 0.01025416777661335 0.014377404390961319 0 0.0088755349404426916 0.013319525465406249 0 0.010681303496250976 0.015872754887816764 0 0.0085572037589909979 0.015153250505311659 0 0.01025416777661335 0.014377404390961319 0 0.010681303496250976 0.015872754887816764 0 0.011558579577839545 0.015039323433799351 0 0.01025416777661335 0.014377404390961319 0 0.011558579577839545 0.015039323433799351 0 0.011659878209327075 0.013990107817782645 0 0.01025416777661335 0.014377404390961319 0 0.010488060919182113 0.013008840314953644 0 0.0088755349404426916 0.013319525465406249 0 0.0097225214924724288 0.011569345020641553 0 0.01025416777661335 0.014377404390961319 0 0.010488060919182113 0.013008840314953644 0 0.0088755349404426916 0.013319525465406249 0 0.011659878209327075 0.013990107817782645 0 0.01025416777661335 0.014377404390961319 0 0.010488060919182113 0.013008840314953644 0 0.0088755349404426916 0.013319525465406249 0 0.0097225214924724288 0.011569345020641553 0 0.0076538995242441754 0.011750140920134178 0 0.0084941083408787837 0.010320881864262816 0 0.0097225214924724288 0.011569345020641553 0 0.0076538995242441754 0.011750140920134178 0 0.0084941083408787837 0.010320881864262816 0 0.0081063033939094923 0.0089406996154578408 0 0.010263016473165422 0.0093481900259850901 0 0.0084941083408787837 0.010320881864262816 0 0.0097225214924724288 0.011569345020641553 0 0.010263016473165422 0.0093481900259850901 0 0.0097225214924724288 0.011569345020641553 0 0.011557361605285107 0.011437549822294214 0 0.010263016473165422 0.0093481900259850901 0 0.011557361605285107 0.011437549822294214 0 0.01224915990008797 0.010186615824998949 0 0.010263016473165422 0.0093481900259850901 0 0.010488060919182113 0.013008840314953644 0 0.0097225214924724288 0.011569345020641553 0 0.011557361605285107 0.011437549822294214 0 0.012146567977209869 0.012836373804012799 0 0.010488060919182113 0.013008840314953644 0 0.011557361605285107 0.011437549822294214 0 0.012146567977209869 0.012836373804012799 0 0.012993378026431274 0.012066843206129461 0 0.011557361605285107 0.011437549822294214 0 0.012146567977209869 0.012836373804012799 0 0.013193377722919133 0.013009343875981282 0 0.012993378026431274 0.012066843206129461 0 0.012993378026431274 0.012066843206129461 0 0.011557361605285107 0.011437549822294214 0 0.013069203472390276 0.011003633862192988 0 0.013193377722919133 0.013009343875981282 0 0.012993378026431274 0.012066843206129461 0 0.013618886614977952 0.012288567356922556 0 0.013193377722919133 0.013009343875981282 0 0.014430555629091483 0.012441452338525272 0 0.013618886614977952 0.012288567356922556 0 0.014430555629091483 0.012441452338525272 0 0.013618886614977952 0.012288567356922556 0 0.013851745067684841 0.011612795962278199 0 0.012993378026431274 0.012066843206129461 0 0.013618886614977952 0.012288567356922556 0 0.013851745067684841 0.011612795962278199 0 0.012993378026431274 0.012066843206129461 0 0.013851745067684841 0.011612795962278199 0 0.013069203472390276 0.011003633862192988 0 0.014430555629091483 0.012441452338525272 0 0.013851745067684841 0.011612795962278199 0 0.014790750882439517 0.01099688105378434 0 0.014430555629091483 0.012441452338525272 0 0.014790750882439517 0.01099688105378434 0 0.016299777367674566 0.010188460835307198 0 0.014790750882439517 0.01099688105378434 0 0.014195877043950932 0.010666151716582454 0 0.014918899027743524 0.0099274725051296479 0 0.013851745067684841 0.011612795962278199 0 0.014195877043950932 0.010666151716582454 0 0.013069203472390276 0.011003633862192988 0 0.014195877043950932 0.010666151716582454 0 0.013654913980068252 0.0099654100400463509 0 0.013069203472390276 0.011003633862192988 0 0.013851745067684841 0.011612795962278199 0 0.014790750882439517 0.01099688105378434 0 0.014195877043950932 0.010666151716582454 0 0.014195877043950932 0.010666151716582454 0 0.013654913980068252 0.0099654100400463509 0 0.014918899027743524 0.0099274725051296479 0 0.013654913980068252 0.0099654100400463509 0 0.014918899027743524 0.0099274725051296479 0 0.014641174993011423 0.0089481867794376588 0 0.014790750882439517 0.01099688105378434 0 0.014918899027743524 0.0099274725051296479 0 0.016299777367674566 0.010188460835307198 0 0.01224915990008797 0.010186615824998949 0 0.012852961629903388 0.0089582933669765628 0 0.010263016473165422 0.0093481900259850901 0 0.011557361605285107 0.011437549822294214 0 0.013069203472390276 0.011003633862192988 0 0.01224915990008797 0.010186615824998949 0 0.013654913980068252 0.0099654100400463509 0 0.013069203472390276 0.011003633862192988 0 0.01224915990008797 0.010186615824998949 0 0.013654913980068252 0.0099654100400463509 0 0.01224915990008797 0.010186615824998949 0 0.012852961629903388 0.0089582933669765628 0 0.011753707373983173 0.007837199970505691 0 0.012852961629903388 0.0089582933669765628 0 0.014560987692550938 0.0071135134644393031 0 0.011753707373983173 0.007837199970505691 0 0.012852961629903388 0.0089582933669765628 0 0.010263016473165422 0.0093481900259850901 0 0.012852961629903388 0.0089582933669765628 0 0.014641174993011423 0.0089481867794376588 0 0.014560987692550938 0.0071135134644393031 0 0.014641174993011423 0.0089481867794376588 0 0.014560987692550938 0.0071135134644393031 0 0.016568489817336527 0.008371871929944057 0 0.014918899027743524 0.0099274725051296479 0 0.014641174993011423 0.0089481867794376588 0 0.015918469888169386 0.0094173975859940685 0 0.013654913980068252 0.0099654100400463509 0 0.012852961629903388 0.0089582933669765628 0 0.014641174993011423 0.0089481867794376588 0 0.011753707373983173 0.007837199970505691 0 0.010416790257671954 0.0066529412634323878 0 0.012554242574740922 0.0053145017085453944 0 0.011753707373983173 0.007837199970505691 0 0.014560987692550938 0.0071135134644393031 0 0.012554242574740922 0.0053145017085453944 0 0.010416790257671954 0.0066529412634323878 0 0.0082846404687870346 0.0072778830486783319 0 0.010263016473165422 0.0093481900259850901 0 0.010416790257671954 0.0066529412634323878 0 0.0082846404687870346 0.0072778830486783319 0 0.010180102776354784 0.004099509237913441 0 0.0082846404687870346 0.0072778830486783319 0 0.0081063033939094923 0.0089406996154578408 0 0.010263016473165422 0.0093481900259850901 0 0.011753707373983173 0.007837199970505691 0 0.010416790257671954 0.0066529412634323878 0 0.010263016473165422 0.0093481900259850901 0 0.02178079739660101 0.0065922769911427072 0 0.021929610458848742 0.0061087278217638848 0 0.021196439203872632 0.006055883484516471 0 0.022364241834033984 0.0065389228084959819 0 0.022430831712180851 0.0060760802542797442 0 0.021929610458848742 0.0061087278217638848 0 0.02178079739660101 0.0065922769911427072 0 0.022364241834033984 0.0065389228084959819 0 0.021929610458848742 0.0061087278217638848 0 0.02178079739660101 0.0065922769911427072 0 0.022364241834033984 0.0065389228084959819 0 0.022385158438212729 0.0071424122309222413 0 0.022364241834033984 0.0065389228084959819 0 0.022913921597010233 0.0066814045528922252 0 0.022385158438212729 0.0071424122309222413 0 0.022364241834033984 0.0065389228084959819 0 0.022913921597010233 0.0066814045528922252 0 0.022907815586033935 0.0062718312176698945 0 0.022913921597010233 0.0066814045528922252 0 0.022907815586033935 0.0062718312176698945 0 0.02340931280634569 0.0063426769357016926 0 0.022364241834033984 0.0065389228084959819 0 0.022907815586033935 0.0062718312176698945 0 0.022430831712180851 0.0060760802542797442 0 0.022907815586033935 0.0062718312176698945 0 0.022430831712180851 0.0060760802542797442 0 0.022794208169020946 0.0057859806489656933 0 0.022430831712180851 0.0060760802542797442 0 0.022794208169020946 0.0057859806489656933 0 0.022296977217417364 0.0057261735111637981 0 0.022907815586033935 0.0062718312176698945 0 0.022794208169020946 0.0057859806489656933 0 0.023208609298535778 0.005958947274755739 0 0.022794208169020946 0.0057859806489656933 0 0.022953659028155802 0.0053801457010004741 0 0.022593876279058619 0.0054414888484454454 0 0.022794208169020946 0.0057859806489656933 0 0.02314591420876163 0.005654379662124065 0 0.022953659028155802 0.0053801457010004741 0 0.022794208169020946 0.0057859806489656933 0 0.02314591420876163 0.005654379662124065 0 0.023208609298535778 0.005958947274755739 0 0.022794208169020946 0.0057859806489656933 0 0.022296977217417364 0.0057261735111637981 0 0.022593876279058619 0.0054414888484454454 0 0.021865301197033518 0.0056274061542687685 0 0.021929610458848742 0.0061087278217638848 0 0.021196439203872632 0.006055883484516471 0 0.022296977217417364 0.0057261735111637981 0 0.021865301197033518 0.0056274061542687685 0 0.022171723530886426 0.0052262773689998121 0 0.021865301197033518 0.0056274061542687685 0 0.021196439203872632 0.006055883484516471 0 0.021385992548247877 0.0048450773579739549 0 0.022296977217417364 0.0057261735111637981 0 0.021865301197033518 0.0056274061542687685 0 0.021929610458848742 0.0061087278217638848 0 0.022430831712180851 0.0060760802542797442 0 0.022296977217417364 0.0057261735111637981 0 0.021929610458848742 0.0061087278217638848 0 0.01875959168982921 0.0078756096366426383 0 0.017288494603140851 0.0066211023325724013 0 0.018865435032717755 0.0055266126296370875 0 0.019730900888941041 0.0070771577429997309 0 0.020085926164018657 0.0064019337312247225 0 0.01875959168982921 0.0078756096366426383 0 0.017288494603140851 0.0066211023325724013 0 0.016568489817336527 0.008371871929944057 0 0.014560987692550938 0.0071135134644393031 0 0.017288494603140851 0.0066211023325724013 0 0.016609541036515744 0.0050657438284543157 0 0.014560987692550938 0.0071135134644393031 0 0.017288494603140851 0.0066211023325724013 0 0.016568489817336527 0.008371871929944057 0 0.01875959168982921 0.0078756096366426383 0 0.016568489817336527 0.008371871929944057 0 0.016734536946045358 0.010411792577202325 0 0.016568489817336527 0.008371871929944057 0 0.015918469888169386 0.0094173975859940685 0 0.016734536946045358 0.010411792577202325 0 0.014641174993011423 0.0089481867794376588 0 0.016568489817336527 0.008371871929944057 0 0.015918469888169386 0.0094173975859940685 0 0.019730900888941041 0.0070771577429997309 0 0.019098979086315068 0.0082777683432543065 0 0.021196439203872632 0.006055883484516471 0 0.021172361223286765 0.0068517285336562204 0 0.020487426265102179 0.0070202895116024564 0 0.02178079739660101 0.0065922769911427072 0 0.021196439203872632 0.006055883484516471 0 0.021172361223286765 0.0068517285336562204 0 0.02178079739660101 0.0065922769911427072 0 0.021172361223286765 0.0068517285336562204 0 0.021460941333302959 0.007319657912411218 0 0.021172361223286765 0.0068517285336562204 0 0.020923244146677875 0.007376259753954807 0 0.020487426265102179 0.0070202895116024564 0 0.021172361223286765 0.0068517285336562204 0 0.020923244146677875 0.007376259753954807 0 0.021460941333302959 0.007319657912411218 0 0.017170017717151691 0.010461185543875873 0 0.016299777367674566 0.010188460835307198 0 0.016734536946045358 0.010411792577202325 0 0.015918469888169386 0.0094173975859940685 0 0.016299777367674566 0.010188460835307198 0 0.016734536946045358 0.010411792577202325 0 0.014918899027743524 0.0099274725051296479 0 0.015918469888169386 0.0094173975859940685 0 0.016299777367674566 0.010188460835307198 0 0.017170017717151691 0.010461185543875873 0 0.016734536946045358 0.010411792577202325 0 0.017183630307206148 0.010355849197213522 0 0.015634386628019612 0.011111221809849631 0 0.015791537827986622 0.010800780953762138 0 0.020487426265102179 0.0070202895116024564 0 0.020492134353370786 0.0078796241839098717 0 0.019434776982245206 0.0083042645299110686 0 0.019098979086315068 0.0082777683432543065 0 0.018652781070766376 0.0091605560283963532 0 0.020923244146677875 0.007376259753954807 0 0.020487426265102179 0.0070202895116024564 0 0.020492134353370786 0.0078796241839098717 0 0.021460941333302959 0.007319657912411218 0 0.021094600284961129 0.0078347191768608493 0 0.021526994553332686 0.0078826494626580007 0 0.020923244146677875 0.007376259753954807 0 0.021460941333302959 0.007319657912411218 0 0.021094600284961129 0.0078347191768608493 0 0.020923244146677875 0.007376259753954807 0 0.020492134353370786 0.0078796241839098717 0 0.021094600284961129 0.0078347191768608493 0 0.020492134353370786 0.0078796241839098717 0 0.021094600284961129 0.0078347191768608493 0 0.020799811615540665 0.008346587187942232 0 0.021094600284961129 0.0078347191768608493 0 0.02143448402744616 0.0082626916848726334 0 0.020799811615540665 0.008346587187942232 0 0.021094600284961129 0.0078347191768608493 0 0.021526994553332686 0.0078826494626580007 0 0.02143448402744616 0.0082626916848726334 0 0.021526994553332686 0.0078826494626580007 0 0.021928673284955836 0.0077265310095842935 0 0.021919224212640993 0.0081836200401892451 0 0.021526994553332686 0.0078826494626580007 0 0.021919224212640993 0.0081836200401892451 0 0.02143448402744616 0.0082626916848726334 0 0.021928673284955836 0.0077265310095842935 0 0.02242863640845022 0.0076620280788344194 0 0.022413564034724442 0.0080767195347426907 0 0.021928673284955836 0.0077265310095842935 0 0.022413564034724442 0.0080767195347426907 0 0.021919224212640993 0.0081836200401892451 0 0.021928673284955836 0.0077265310095842935 0 0.022385158438212729 0.0071424122309222413 0 0.02242863640845022 0.0076620280788344194 0 0.021460941333302959 0.007319657912411218 0 0.021526994553332686 0.0078826494626580007 0 0.021928673284955836 0.0077265310095842935 0 0.02178079739660101 0.0065922769911427072 0 0.021460941333302959 0.007319657912411218 0 0.022385158438212729 0.0071424122309222413 0 0.021460941333302959 0.007319657912411218 0 0.021928673284955836 0.0077265310095842935 0 0.022385158438212729 0.0071424122309222413 0 0.022385158438212729 0.0071424122309222413 0 0.022948836037327565 0.00758533911821459 0 0.023161377656599102 0.0070890973796613466 0 0.022913921597010233 0.0066814045528922252 0 0.022385158438212729 0.0071424122309222413 0 0.023161377656599102 0.0070890973796613466 0 0.022385158438212729 0.0071424122309222413 0 0.022948836037327565 0.00758533911821459 0 0.02242863640845022 0.0076620280788344194 0 0.022948836037327565 0.00758533911821459 0 0.02242863640845022 0.0076620280788344194 0 0.022413564034724442 0.0080767195347426907 0 0.022948836037327565 0.00758533911821459 0 0.022413564034724442 0.0080767195347426907 0 0.022905504015970836 0.0081939298423456004 0 0.022948836037327565 0.00758533911821459 0 0.022905504015970836 0.0081939298423456004 0 0.023344949981774516 0.0080662525754199577 0 0.022905504015970836 0.0081939298423456004 0 0.023252043691265198 0.0085546959655493013 0 0.022568127681968943 0.0085316012474694735 0 0.022905504015970836 0.0081939298423456004 0 0.023252043691265198 0.0085546959655493013 0 0.023344949981774516 0.0080662525754199577 0 0.023252043691265198 0.0085546959655493013 0 0.022568127681968943 0.0085316012474694735 0 0.022344945975492688 0.0090685505251741749 0 0.022413564034724442 0.0080767195347426907 0 0.022905504015970836 0.0081939298423456004 0 0.022568127681968943 0.0085316012474694735 0 0.022413564034724442 0.0080767195347426907 0 0.021919224212640993 0.0081836200401892451 0 0.021988194109899595 0.0086705655659145373 0 0.022413564034724442 0.0080767195347426907 0 0.022568127681968943 0.0085316012474694735 0 0.021988194109899595 0.0086705655659145373 0 0.02143448402744616 0.0082626916848726334 0 0.021988194109899595 0.0086705655659145373 0 0.021183201965631566 0.0088434006859019788 0 0.021919224212640993 0.0081836200401892451 0 0.02143448402744616 0.0082626916848726334 0 0.021988194109899595 0.0086705655659145373 0 0.021988194109899595 0.0086705655659145373 0 0.021612082825184547 0.0093730580898668935 0 0.021183201965631566 0.0088434006859019788 0 0.021988194109899595 0.0086705655659145373 0 0.022344945975492688 0.0090685505251741749 0 0.021612082825184547 0.0093730580898668935 0 0.022568127681968943 0.0085316012474694735 0 0.021988194109899595 0.0086705655659145373 0 0.022344945975492688 0.0090685505251741749 0 0.022344945975492688 0.0090685505251741749 0 0.021612082825184547 0.0093730580898668935 0 0.0224301664866626 0.0099178149838087988 0 0.021612082825184547 0.0093730580898668935 0 0.0224301664866626 0.0099178149838087988 0 0.021040074414543759 0.010224412402068546 0 0.022171176156344657 0.0094430871421955307 0 0.021362733075350665 0.0096600245346737963 0 0.023252043691265198 0.0085546959655493013 0 0.022344945975492688 0.0090685505251741749 0 0.0224301664866626 0.0099178149838087988 0 0.023653592215482685 0.0089419071601398274 0 0.024015145273693896 0.0091895543422014642 0 0.024131395616583243 0.0088740485409821608 0 0.023252043691265198 0.0085546959655493013 0 0.022668177878586587 0.009388839673403428 0 0.023473496447661432 0.0092496749378141955 0 0.022171176156344657 0.0094430871421955307 0 0.022700481106896899 0.0093389976888453193 0 0.022301982958768462 0.0093056418595843689 0 0.022171176156344657 0.0094430871421955307 0 0.019434776982245206 0.0083042645299110686 0 0.019860199127529711 0.008874863001900055 0 0.019349822675673665 0.0093691161250176493 0 0.019860199127529711 0.008874863001900055 0 0.019888914152124165 0.009291860963336819 0 0.019349822675673665 0.0093691161250176493 0 0.019434776982245206 0.0083042645299110686 0 0.020169485600446683 0.0084612002809692308 0 0.019860199127529711 0.008874863001900055 0 0.020492134353370786 0.0078796241839098717 0 0.019434776982245206 0.0083042645299110686 0 0.020169485600446683 0.0084612002809692308 0 0.019860199127529711 0.008874863001900055 0 0.020417493088586272 0.0089889949430825133 0 0.019888914152124165 0.009291860963336819 0 0.020169485600446683 0.0084612002809692308 0 0.019860199127529711 0.008874863001900055 0 0.020417493088586272 0.0089889949430825133 0 0.020417493088586272 0.0089889949430825133 0 0.021183201965631566 0.0088434006859019788 0 0.020817419327541799 0.0094725659553693137 0 0.020417493088586272 0.0089889949430825133 0 0.020799811615540665 0.008346587187942232 0 0.021183201965631566 0.0088434006859019788 0 0.020492134353370786 0.0078796241839098717 0 0.020169485600446683 0.0084612002809692308 0 0.020799811615540665 0.008346587187942232 0 0.020169485600446683 0.0084612002809692308 0 0.020417493088586272 0.0089889949430825133 0 0.020799811615540665 0.008346587187942232 0 0.02143448402744616 0.0082626916848726334 0 0.020799811615540665 0.008346587187942232 0 0.021183201965631566 0.0088434006859019788 0 0.021612082825184547 0.0093730580898668935 0 0.021183201965631566 0.0088434006859019788 0 0.020817419327541799 0.0094725659553693137 0 0.021612082825184547 0.0093730580898668935 0 0.020817419327541799 0.0094725659553693137 0 0.021040074414543759 0.010224412402068546 0 0.020817419327541799 0.0094725659553693137 0 0.020026682814460128 0.0097673321667877122 0 0.021040074414543759 0.010224412402068546 0 0.020417493088586272 0.0089889949430825133 0 0.020817419327541799 0.0094725659553693137 0 0.020026682814460128 0.0097673321667877122 0 0.020026682814460128 0.0097673321667877122 0 0.019394252355345868 0.010436601656024261 0 0.021040074414543759 0.010224412402068546 0 0.020417493088586272 0.0089889949430825133 0 0.019888914152124165 0.009291860963336819 0 0.020026682814460128 0.0097673321667877122 0 0.019888914152124165 0.009291860963336819 0 0.020026682814460128 0.0097673321667877122 0 0.019548862198282765 0.0097868148961575106 0 0.01907964267615227 0.010039673438707732 0 0.019548862198282765 0.0097868148961575106 0 0.019394252355345868 0.010436601656024261 0 0.020026682814460128 0.0097673321667877122 0 0.019548862198282765 0.0097868148961575106 0 0.019394252355345868 0.010436601656024261 0 0.01907964267615227 0.010039673438707732 0 0.019548862198282765 0.0097868148961575106 0 0.019349822675673665 0.0093691161250176493 0 0.019888914152124165 0.009291860963336819 0 0.019548862198282765 0.0097868148961575106 0 0.019349822675673665 0.0093691161250176493 0 0.021041464214463634 0.0097401071248238765 0 0.021362733075350665 0.0096600245346737963 0 0.017000447481212044 0.010999759546031568 0 0.017662288568685902 0.010715495440121754 0 0.018682364072962202 0.010910315835936527 0 0.019394252355345868 0.010436601656024261 0 0.019664381386808621 0.010425437908690712 0 0.019394252355345868 0.010436601656024261 0 0.019664381386808621 0.010425437908690712 0 0.01992533032457517 0.010316491991304338 0 0.01961082908486252 0.010493439023180891 0 0.019664381386808621 0.010425437908690712 0 0.019667270986576741 0.010480645390265234 0 0.019664381386808621 0.010425437908690712 0 0.019667270986576741 0.010480645390265234 0 0.019752559537578065 0.010482420448795176 0 0.019752559537578065 0.010482420448795176 0 0.01992533032457517 0.010316491991304338 0 0.019895431621649945 0.010526373453391273 0 0.019664381386808621 0.010425437908690712 0 0.019752559537578065 0.010482420448795176 0 0.01992533032457517 0.010316491991304338 0 0.019752559537578065 0.010482420448795176 0 0.019895431621649945 0.010526373453391273 0 0.019682882665948385 0.010524764589948686 0 0.01969822370119062 0.010595642090275942 0 0.019895431621649945 0.010526373453391273 0 0.019682882665948385 0.010524764589948686 0 0.021431128173643926 0.01025607672465983 0 0.021743093441681783 0.0099115636920882391 0 0.01961082908486252 0.010493439023180891 0 0.019667270986576741 0.010480645390265234 0 0.019682882665948385 0.010524764589948686 0 0.019667270986576741 0.010480645390265234 0 0.019752559537578065 0.010482420448795176 0 0.019682882665948385 0.010524764589948686 0 0.019665386527538433 0.010555509727692862 0 0.019634468893573665 0.010534550005639538 0 0.019682882665948385 0.010524764589948686 0 0.023653592215482685 0.0089419071601398274 0 0.024015145273693896 0.0091895543422014642 0 0.023752132658778992 0.0095080857858158459 0 0.024015145273693896 0.0091895543422014642 0 0.023752132658778992 0.0095080857858158459 0 0.024326777750526652 0.0095748206956528231 0 0.023653592215482685 0.0089419071601398274 0 0.023180359274178535 0.0095599055984732957 0 0.023752132658778992 0.0095080857858158459 0 0.022171176156344657 0.0094430871421955307 0 0.021743093441681783 0.0099115636920882391 0 0.020144957699655557 0.010277601906713835 0 0.01992533032457517 0.010316491991304338 0 0.019895431621649945 0.010526373453391273 0 0.023290835628223188 0.0099889035935948195 0 0.023180359274178535 0.0095599055984732957 0 0.023551330098367674 0.0098079102021202298 0 0.023180359274178535 0.0095599055984732957 0 0.023551330098367674 0.0098079102021202298 0 0.023752132658778992 0.0095080857858158459 0 0.023801508333548306 0.010074827659956006 0 0.023551330098367674 0.0098079102021202298 0 0.023752132658778992 0.0095080857858158459 0 0.023801508333548306 0.010074827659956006 0 0.023752132658778992 0.0095080857858158459 0 0.024326777750526652 0.0095748206956528231 0 0.023236732874855306 0.0096510901588877773 0 0.023703322310705356 0.0093705359136479656 0 0.024015145273693896 0.0091895543422014642 0 0.024326777750526652 0.0095748206956528231 0 0.024360143584227684 0.009083873621076672 0 0.024015145273693896 0.0091895543422014642 0 0.024360143584227684 0.009083873621076672 0 0.024131395616583243 0.0088740485409821608 0 0.024470835677019756 0.0090514765014676757 0 0.024860652495096232 0.0090126761963242197 0 0.024986106915610276 0.0091504922992554499 0 0.024326777750526652 0.0095748206956528231 0 0.024360143584227684 0.009083873621076672 0 0.024860652495096232 0.0090126761963242197 0 0.023703322310705356 0.0093705359136479656 0 0.023892968047009161 0.0092476775215451206 0 0.024924205410271391 0.009375784107880732 0 0.024470835677019756 0.0090514765014676757 0 0.024986106915610276 0.0091504922992554499 0 0.025310252293911532 0.0094094968357599871 0 0.024924205410271391 0.009375784107880732 0 0.024986106915610276 0.0091504922992554499 0 0.025310252293911532 0.0094094968357599871 0 0.024986106915610276 0.0091504922992554499 0 0.025290288228311447 0.0090779579553145039 0 0.028162812591110635 0.0072490526719217411 0 0.027705348285464351 0.0069406230635070528 0 0.024860652495096232 0.0090126761963242197 0 0.024986106915610276 0.0091504922992554499 0 0.025290288228311447 0.0090779579553145039 0 0.024860652495096232 0.0090126761963242197 0 0.025447206967460275 0.0086155247321241576 0 0.024932658650039026 0.0085384121829627149 0 0.024860652495096232 0.0090126761963242197 0 0.025290288228311447 0.0090779579553145039 0 0.025447206967460275 0.0086155247321241576 0 0.027705348285464351 0.0069406230635070528 0 0.027218041690070725 0.0063581734866984645 0 0.03020023636730507 0.0069730286333386854 0 0.028461348909110642 0.0061960302209878087 0 0.029958410756421073 0.0063576449702182122 0 0.028461348909110642 0.0061960302209878087 0 0.028313868809990518 0.0053161057945432808 0 0.029958410756421073 0.0063576449702182122 0 0.027218041690070725 0.0063581734866984645 0 0.026806156744849676 0.0056905697708924683 0 0.028461348909110642 0.0061960302209878087 0 0.028313868809990518 0.0053161057945432808 0 0.026758591133921834 0.0046137128264144046 0 0.025447206967460275 0.0086155247321241576 0 0.025217383190407342 0.0079804997209293946 0 0.024932658650039026 0.0085384121829627149 0 0.025447206967460275 0.0086155247321241576 0 0.025217383190407342 0.0079804997209293946 0 0.025705844652614579 0.0073342025963437476 0 0.025217383190407342 0.0079804997209293946 0 0.024932658650039026 0.0085384121829627149 0 0.024686364154384625 0.0079726917892764346 0 0.024932658650039026 0.0085384121829627149 0 0.024564620122592327 0.0084772242147881961 0 0.024686364154384625 0.0079726917892764346 0 0.024564620122592327 0.0084772242147881961 0 0.024686364154384625 0.0079726917892764346 0 0.024090806060500815 0.0084530716428784687 0 0.024564620122592327 0.0084772242147881961 0 0.024090806060500815 0.0084530716428784687 0 0.024537873433412197 0.0088595669177250393 0 0.024686364154384625 0.0079726917892764346 0 0.024074958755601013 0.0079265080560923656 0 0.024090806060500815 0.0084530716428784687 0 0.024074958755601013 0.0079265080560923656 0 0.023649902771686243 0.0083828538196257709 0 0.024090806060500815 0.0084530716428784687 0 0.023252043691265198 0.0085546959655493013 0 0.023649902771686243 0.0083828538196257709 0 0.023344949981774516 0.0080662525754199577 0 0.024074958755601013 0.0079265080560923656 0 0.023649902771686243 0.0083828538196257709 0 0.023344949981774516 0.0080662525754199577 0 0.023252043691265198 0.0085546959655493013 0 0.023649902771686243 0.0083828538196257709 0 0.023717076068640101 0.0087680183465471372 0 0.023649902771686243 0.0083828538196257709 0 0.024090806060500815 0.0084530716428784687 0 0.023717076068640101 0.0087680183465471372 0 0.022700481106896899 0.0093389976888453193 0 0.022898434668292132 0.0092997872763373526 0 0.023717076068640101 0.0087680183465471372 0 0.023473496447661432 0.0092496749378141955 0 0.024537873433412197 0.0088595669177250393 0 0.024360143584227684 0.009083873621076672 0 0.024131395616583243 0.0088740485409821608 0 0.024537873433412197 0.0088595669177250393 0 0.024090806060500815 0.0084530716428784687 0 0.023717076068640101 0.0087680183465471372 0 0.024537873433412197 0.0088595669177250393 0 0.023252043691265198 0.0085546959655493013 0 0.023717076068640101 0.0087680183465471372 0 0.023473496447661432 0.0092496749378141955 0 0.024360143584227684 0.009083873621076672 0 0.024860652495096232 0.0090126761963242197 0 0.024537873433412197 0.0088595669177250393 0 0.024860652495096232 0.0090126761963242197 0 0.024932658650039026 0.0085384121829627149 0 0.024537873433412197 0.0088595669177250393 0 0.024932658650039026 0.0085384121829627149 0 0.024564620122592327 0.0084772242147881961 0 0.024537873433412197 0.0088595669177250393 0 0.031726046185484691 0.0069609240062919412 0 0.03128756298062367 0.0067804876003888523 0 0.031372535691229102 0.0068679820557103295 0 0.03232966084103471 0.0062347479701551356 0 0.032235442913631125 0.006235765451410611 0 0.033357683176027955 0.0058158678564355429 0 0.032938130876907772 0.0050826444051808748 0 0.033127856423068841 0.0053334018902912268 0 0.03128756298062367 0.0067804876003888523 0 0.031372535691229102 0.0068679820557103295 0 0.031249799544048624 0.0068525743948876228 0 0.031726046185484691 0.0069609240062919412 0 0.031372535691229102 0.0068679820557103295 0 0.031467140830248284 0.0067315332258157624 0 0.031372535691229102 0.0068679820557103295 0 0.031249799544048624 0.0068525743948876228 0 0.031042763545831416 0.0066927037209717167 0 0.031249799544048624 0.0068525743948876228 0 0.030760416352158974 0.0068855039054230771 0 0.031042763545831416 0.0066927037209717167 0 0.031352981717588824 0.0067006281548763228 0 0.031249799544048624 0.0068525743948876228 0 0.030760416352158974 0.0068855039054230771 0 0.031352981717588824 0.0067006281548763228 0 0.03020023636730507 0.0069730286333386854 0 0.030760416352158974 0.0068855039054230771 0 0.03020023636730507 0.0069730286333386854 0 0.030760416352158974 0.0068855039054230771 0 0.029958410756421073 0.0063576449702182122 0 0.030760416352158974 0.0068855039054230771 0 0.029958410756421073 0.0063576449702182122 0 0.031042763545831416 0.0066927037209717167 0 0.029958410756421073 0.0063576449702182122 0 0.029984810258206047 0.0053702771192493471 0 0.030903473127452563 0.0058552284771342528 0 0.028313868809990518 0.0053161057945432808 0 0.029958410756421073 0.0063576449702182122 0 0.029984810258206047 0.0053702771192493471 0 0.029131212216014918 0.0064854997631629734 0 0.028949801922469025 0.0065425825398754515 0 0.029984810258206047 0.0053702771192493471 0 0.030903473127452563 0.0058552284771342528 0 0.030889521000094049 0.0047244868409672359 0 0.031059198730621421 0.006466029901262025 0 0.031544358155565319 0.0062584074407368365 0 0.031052980077980658 0.00611961166753156 0 0.031059198730621421 0.006466029901262025 0 0.031042763545831416 0.0066927037209717167 0 0.031467140830248284 0.0067315332258157624 0 0.029131212216014918 0.0064854997631629734 0 0.029191773364282639 0.0065046853251188664 0 0.029958410756421073 0.0063576449702182122 0 0.030903473127452563 0.0058552284771342528 0 0.031042763545831416 0.0066927037209717167 0 0.031372535691229102 0.0068679820557103295 0 0.031042763545831416 0.0066927037209717167 0 0.031467140830248284 0.0067315332258157624 0 0.031467140830248284 0.0067315332258157624 0 0.031544358155565319 0.0062584074407368365 0 0.031950025664658765 0.0067822380370314017 0 0.031059198730621421 0.006466029901262025 0 0.031467140830248284 0.0067315332258157624 0 0.031544358155565319 0.0062584074407368365 0 0.02985322598664257 0.0068634655696801425 0 0.030366852616145239 0.0070313508561396882 0 0.029567633528004407 0.008726874012675738 0 0.031014814273486364 0.0086877720712592536 0 0.030961124603384637 0.008182647606842279 0 0.031544358155565319 0.0062584074407368365 0 0.031950025664658765 0.0067822380370314017 0 0.032382801612368832 0.0065684409593240777 0 0.031726046185484691 0.0069609240062919412 0 0.031467140830248284 0.0067315332258157624 0 0.031950025664658765 0.0067822380370314017 0 0.02986765716693732 0.0075858743345394875 0 0.030378775331299217 0.0079335287871583459 0 0.030749076827244273 0.0075346955318376504 0 0.02986765716693732 0.0075858743345394875 0 0.030378775331299217 0.0079335287871583459 0 0.029199442549167662 0.0079356341446617656 0 0.029567633528004407 0.008726874012675738 0 0.030378775331299217 0.0079335287871583459 0 0.030961124603384637 0.008182647606842279 0 0.029567633528004407 0.008726874012675738 0 0.030378775331299217 0.0079335287871583459 0 0.029199442549167662 0.0079356341446617656 0 0.029567633528004407 0.008726874012675738 0 0.029199442549167662 0.0079356341446617656 0 0.028546687401270622 0.0085393403771648769 0 0.02985322598664257 0.0068634655696801425 0 0.028949801922469025 0.0065425825398754515 0 0.029199442549167662 0.0079356341446617656 0 0.028431492801409459 0.0076465913201254334 0 0.028546687401270622 0.0085393403771648769 0 0.028233211844615781 0.0061982377761041424 0 0.028949801922469025 0.0065425825398754515 0 0.025277428464442614 0.0050231648464342101 0 0.025220218916962262 0.0041721089532632738 0 0.025774142581386935 0.0042972263567051892 0 0.028313868809990518 0.0053161057945432808 0 0.029984810258206047 0.0053702771192493471 0 0.029388267608875279 0.0043864994432669347 0 0.028949801922469025 0.0065425825398754515 0 0.028448549717539025 0.0062210112560808174 0 0.029984810258206047 0.0053702771192493471 0 0.030889521000094049 0.0047244868409672359 0 0.029388267608875279 0.0043864994432669347 0 0.025277428464442614 0.0050231648464342101 0 0.025774142581386935 0.0042972263567051892 0 0.025906101521295664 0.00489012730155649 0 0.025277428464442614 0.0050231648464342101 0 0.025906101521295664 0.00489012730155649 0 0.025681884368025727 0.0052145021118372116 0 0.025277428464442614 0.0050231648464342101 0 0.02536503252283245 0.0054266472972890082 0 0.025681884368025727 0.0052145021118372116 0 0.02536503252283245 0.0054266472972890082 0 0.025681884368025727 0.0052145021118372116 0 0.025398571600574148 0.0054493504716953706 0 0.028233211844615781 0.0061982377761041424 0 0.027746946147167793 0.0058802201461228077 0 0.028431492801409459 0.0076465913201254334 0 0.028012263126265799 0.0070569872977423436 0 0.028984678150784326 0.0072012660221605941 0 0.02986765716693732 0.0075858743345394875 0 0.029199442549167662 0.0079356341446617656 0 0.028984678150784326 0.0072012660221605941 0 0.029199442549167662 0.0079356341446617656 0 0.028431492801409459 0.0076465913201254334 0 0.028984678150784326 0.0072012660221605941 0 0.028012263126265799 0.0070569872977423436 0 0.028984678150784326 0.0072012660221605941 0 0.028183701019122692 0.0066191235889119073 0 0.028984678150784326 0.0072012660221605941 0 0.029266214150708049 0.0067594924251757693 0 0.030124287208312749 0.007130316336928252 0 0.02986765716693732 0.0075858743345394875 0 0.028984678150784326 0.0072012660221605941 0 0.030124287208312749 0.007130316336928252 0 0.0252571371744881 0.0065940756192724116 0 0.024366501300882148 0.0063348988157309284 0 0.025795632611287523 0.0053575808833093378 0 0.0252571371744881 0.0065940756192724116 0 0.024366501300882148 0.0063348988157309284 0 0.025063923093384295 0.0072994916689462126 0 0.022948836037327565 0.00758533911821459 0 0.023161377656599102 0.0070890973796613466 0 0.023761570191871813 0.0072270032977719608 0 0.023161377656599102 0.0070890973796613466 0 0.023761570191871813 0.0072270032977719608 0 0.023609312888158384 0.0066746443546711652 0 0.024074958755601013 0.0079265080560923656 0 0.023344949981774516 0.0080662525754199577 0 0.024366501300882148 0.0063348988157309284 0 0.022948836037327565 0.00758533911821459 0 0.023344949981774516 0.0080662525754199577 0 0.023761570191871813 0.0072270032977719608 0 0.024124461009665355 0.0069482575261270215 0 0.024309651349476855 0.0066515525531873993 0 0.024074958755601013 0.0079265080560923656 0 0.024366501300882148 0.0063348988157309284 0 0.024558921185072378 0.0074041689592122687 0 0.024686364154384625 0.0079726917892764346 0 0.024074958755601013 0.0079265080560923656 0 0.024558921185072378 0.0074041689592122687 0 0.024686364154384625 0.0079726917892764346 0 0.024558921185072378 0.0074041689592122687 0 0.025063923093384295 0.0072994916689462126 0 0.024366501300882148 0.0063348988157309284 0 0.024558921185072378 0.0074041689592122687 0 0.025063923093384295 0.0072994916689462126 0 0.025217383190407342 0.0079804997209293946 0 0.024686364154384625 0.0079726917892764346 0 0.025063923093384295 0.0072994916689462126 0 0.025217383190407342 0.0079804997209293946 0 0.025063923093384295 0.0072994916689462126 0 0.025705844652614579 0.0073342025963437476 0 0.0252571371744881 0.0065940756192724116 0 0.025063923093384295 0.0072994916689462126 0 0.025705844652614579 0.0073342025963437476 0 0.025774142581386935 0.0042972263567051892 0 0.026904890399620258 0.0044908653941725558 0 0.025906101521295664 0.00489012730155649 0 0.028313868809990518 0.0053161057945432808 0 0.029388267608875279 0.0043864994432669347 0 0.026904890399620258 0.0044908653941725558 0 0.028448549717539025 0.0062210112560808174 0 0.028282344247781244 0.006120287651497849 0 0.028313868809990518 0.0053161057945432808 0 0.026758591133921834 0.0046137128264144046 0 0.026904890399620258 0.0044908653941725558 0 0.025906101521295664 0.00489012730155649 0 0.026230645034865861 0.0050032737512897491 0 0.025681884368025727 0.0052145021118372116 0 0.026904890399620258 0.0044908653941725558 0 0.025906101521295664 0.00489012730155649 0 0.026230645034865861 0.0050032737512897491 0 0.0252571371744881 0.0065940756192724116 0 0.025705844652614579 0.0073342025963437476 0 0.025795632611287523 0.0053575808833093378 0 0.026758591133921834 0.0046137128264144046 0 0.026230645034865861 0.0050032737512897491 0 0.025795632611287523 0.0053575808833093378 0 0.026758591133921834 0.0046137128264144046 0 0.026904890399620258 0.0044908653941725558 0 0.026230645034865861 0.0050032737512897491 0 0.026806156744849676 0.0056905697708924683 0 0.026638006067842612 0.0053904080952436265 0 0.026230645034865861 0.0050032737512897491 0 0.025784056338177541 0.0051840979552256281 0 0.025795632611287523 0.0053575808833093378 0 0.025784056338177541 0.0051840979552256281 0 0.025768956791101666 0.0050047410635720782 0 0.025795632611287523 0.0053575808833093378 0 0.026230645034865861 0.0050032737512897491 0 0.025784056338177541 0.0051840979552256281 0 0.025681884368025727 0.0052145021118372116 0 0.025784056338177541 0.0051840979552256281 0 0.02517845229377691 0.0054169897399013378 0 0.025398571600574148 0.0054493504716953706 0 0.025784056338177541 0.0051840979552256281 0 0.025681884368025727 0.0052145021118372116 0 0.025398571600574148 0.0054493504716953706 0 0.025784056338177541 0.0051840979552256281 0 0.025768956791101666 0.0050047410635720782 0 0.02517845229377691 0.0054169897399013378 0 0.024402215746708873 0.0063587278157130099 0 0.024470880628700668 0.0055477338608770198 0 0.02517845229377691 0.0054169897399013378 0 0.024642737707531379 0.0061320791371049467 0 0.024793407182434331 0.0058930924013976278 0 0.024185318889100554 0.0060109660765738076 0 0.024402215746708873 0.0063587278157130099 0 0.024470880628700668 0.0055477338608770198 0 0.023942575469626418 0.0058561205303558237 0 0.024185318889100554 0.0060109660765738076 0 0.024470880628700668 0.0055477338608770198 0 0.023942575469626418 0.0058561205303558237 0 0.023814626222487072 0.0054759539558276466 0 0.024470880628700668 0.0055477338608770198 0 0.024185318889100554 0.0060109660765738076 0 0.024402215746708873 0.0063587278157130099 0 0.023928333339142821 0.0062777745676331495 0 0.023942575469626418 0.0058561205303558237 0 0.024185318889100554 0.0060109660765738076 0 0.023928333339142821 0.0062777745676331495 0 0.024309651349476855 0.0066515525531873993 0 0.024642737707531379 0.0061320791371049467 0 0.024402215746708873 0.0063587278157130099 0 0.023928333339142821 0.0062777745676331495 0 0.023609312888158384 0.0066746443546711652 0 0.023761570191871813 0.0072270032977719608 0 0.024402215746708873 0.0063587278157130099 0 0.023609312888158384 0.0066746443546711652 0 0.024366501300882148 0.0063348988157309284 0 0.025768956791101666 0.0050047410635720782 0 0.025795632611287523 0.0053575808833093378 0 0.022913921597010233 0.0066814045528922252 0 0.023609312888158384 0.0066746443546711652 0 0.02340931280634569 0.0063426769357016926 0 0.022913921597010233 0.0066814045528922252 0 0.023161377656599102 0.0070890973796613466 0 0.023609312888158384 0.0066746443546711652 0 0.023928333339142821 0.0062777745676331495 0 0.023609312888158384 0.0066746443546711652 0 0.02340931280634569 0.0063426769357016926 0 0.023928333339142821 0.0062777745676331495 0 0.02340931280634569 0.0063426769357016926 0 0.023631263368949777 0.0060492246349688819 0 0.022907815586033935 0.0062718312176698945 0 0.02340931280634569 0.0063426769357016926 0 0.023208609298535778 0.005958947274755739 0 0.02340931280634569 0.0063426769357016926 0 0.023208609298535778 0.005958947274755739 0 0.023631263368949777 0.0060492246349688819 0 0.023208609298535778 0.005958947274755739 0 0.023631263368949777 0.0060492246349688819 0 0.023536924408929415 0.0057526737347057049 0 0.023942575469626418 0.0058561205303558237 0 0.023928333339142821 0.0062777745676331495 0 0.023631263368949777 0.0060492246349688819 0 0.023942575469626418 0.0058561205303558237 0 0.023536924408929415 0.0057526737347057049 0 0.023814626222487072 0.0054759539558276466 0 0.023942575469626418 0.0058561205303558237 0 0.023631263368949777 0.0060492246349688819 0 0.023536924408929415 0.0057526737347057049 0 0.02314591420876163 0.005654379662124065 0 0.023208609298535778 0.005958947274755739 0 0.023536924408929415 0.0057526737347057049 0 0.02314591420876163 0.005654379662124065 0 0.023536924408929415 0.0057526737347057049 0 0.023374980403647067 0.005427957426138272 0 0.023374980403647067 0.005427957426138272 0 0.023249553119412816 0.0051557793265650347 0 0.022953659028155802 0.0053801457010004741 0 0.023374980403647067 0.005427957426138272 0 0.023573473186906883 0.0052016359240507409 0 0.023249553119412816 0.0051557793265650347 0 0.023374980403647067 0.005427957426138272 0 0.023814626222487072 0.0054759539558276466 0 0.023573473186906883 0.0052016359240507409 0 0.023536924408929415 0.0057526737347057049 0 0.023374980403647067 0.005427957426138272 0 0.023814626222487072 0.0054759539558276466 0 0.023573473186906883 0.0052016359240507409 0 0.0234036691620799 0.0048391399742435687 0 0.02397341743805716 0.0051109890403481517 0 0.023814626222487072 0.0054759539558276466 0 0.023573473186906883 0.0052016359240507409 0 0.02397341743805716 0.0051109890403481517 0 0.023573473186906883 0.0052016359240507409 0 0.023249553119412816 0.0051557793265650347 0 0.0234036691620799 0.0048391399742435687 0 0.0234036691620799 0.0048391399742435687 0 0.02391992423687472 0.00458890126552751 0 0.023294464639074499 0.0044803625216865645 0 0.0234036691620799 0.0048391399742435687 0 0.02397341743805716 0.0051109890403481517 0 0.02391992423687472 0.00458890126552751 0 0.02397341743805716 0.0051109890403481517 0 0.024559581676329229 0.0050618090244711625 0 0.02391992423687472 0.00458890126552751 0 0.024559581676329229 0.0050618090244711625 0 0.024430013533918844 0.0048342790941767709 0 0.02391992423687472 0.00458890126552751 0 0.02397341743805716 0.0051109890403481517 0 0.024470880628700668 0.0055477338608770198 0 0.024559581676329229 0.0050618090244711625 0 0.023814626222487072 0.0054759539558276466 0 0.02397341743805716 0.0051109890403481517 0 0.024470880628700668 0.0055477338608770198 0 0.024470880628700668 0.0055477338608770198 0 0.02517845229377691 0.0054169897399013378 0 0.024559581676329229 0.0050618090244711625 0 0.02517845229377691 0.0054169897399013378 0 0.025398571600574148 0.0054493504716953706 0 0.025061336033489905 0.0052609218346153551 0 0.02517845229377691 0.0054169897399013378 0 0.025061336033489905 0.0052609218346153551 0 0.024559581676329229 0.0050618090244711625 0 0.025061336033489905 0.0052609218346153551 0 0.024559581676329229 0.0050618090244711625 0 0.024430013533918844 0.0048342790941767709 0 0.024430013533918844 0.0048342790941767709 0 0.024508998240119324 0.0048295266979986214 0 0.024031457733672632 0.0044919263268164509 0 0.025061336033489905 0.0052609218346153551 0 0.024430013533918844 0.0048342790941767709 0 0.024508998240119324 0.0048295266979986214 0 0.025061336033489905 0.0052609218346153551 0 0.024508998240119324 0.0048295266979986214 0 0.024708044513439973 0.004881502643015294 0 0.024508998240119324 0.0048295266979986214 0 0.024708044513439973 0.004881502643015294 0 0.024092762549798061 0.0045272224471736722 0 0.024508998240119324 0.0048295266979986214 0 0.024031457733672632 0.0044919263268164509 0 0.024092762549798061 0.0045272224471736722 0 0.024031457733672632 0.0044919263268164509 0 0.023972038378465566 0.0044157402487069296 0 0.024092762549798061 0.0045272224471736722 0 0.024031457733672632 0.0044919263268164509 0 0.023850993012760804 0.0043607072173423318 0 0.023972038378465566 0.0044157402487069296 0 0.024031457733672632 0.0044919263268164509 0 0.023850993012760804 0.0043607072173423318 0 0.023581816092692512 0.0042279079206586807 0 0.02391992423687472 0.00458890126552751 0 0.023581816092692512 0.0042279079206586807 0 0.023294464639074499 0.0044803625216865645 0 0.024031457733672632 0.0044919263268164509 0 0.02391992423687472 0.00458890126552751 0 0.023581816092692512 0.0042279079206586807 0 0.024430013533918844 0.0048342790941767709 0 0.024031457733672632 0.0044919263268164509 0 0.02391992423687472 0.00458890126552751 0 0.02895068786053185 0.0064012470902914806 0 0.028183701019122692 0.0066191235889119073 0 0.02773977377486558 0.0061413918216140949 0 0.02895068786053185 0.0064012470902914806 0 0.029266214150708049 0.0067594924251757693 0 0.028183701019122692 0.0066191235889119073 0 0.028984678150784326 0.0072012660221605941 0 0.029266214150708049 0.0067594924251757693 0 0.028183701019122692 0.0066191235889119073 0 0.028183701019122692 0.0066191235889119073 0 0.027170370832733704 0.006548889133650598 0 0.02773977377486558 0.0061413918216140949 0 0.027440390015894878 0.0055620548098986528 0 0.027325364907971751 0.0053888542281507277 0 0.028012263126265799 0.0070569872977423436 0 0.028183701019122692 0.0066191235889119073 0 0.027170370832733704 0.006548889133650598 0 0.027746946147167793 0.0058802201461228077 0 0.027440390015894878 0.0055620548098986528 0 0.02536503252283245 0.0054266472972890082 0 0.025398571600574148 0.0054493504716953706 0 0.025484179664991526 0.005454838098805999 0 0.025061336033489905 0.0052609218346153551 0 0.025484179664991526 0.005454838098805999 0 0.025798839158322696 0.0054927494259440568 0 0.025398571600574148 0.0054493504716953706 0 0.025061336033489905 0.0052609218346153551 0 0.025484179664991526 0.005454838098805999 0 0.025061336033489905 0.0052609218346153551 0 0.024708044513439973 0.004881502643015294 0 0.025798839158322696 0.0054927494259440568 0 0.024708044513439973 0.004881502643015294 0 0.025798839158322696 0.0054927494259440568 0 0.025398423880912083 0.0050136570540985316 0 0.025798839158322696 0.0054927494259440568 0 0.027153617868510203 0.0055320482080407534 0 0.025398423880912083 0.0050136570540985316 0 0.027170370832733704 0.006548889133650598 0 0.025798839158322696 0.0054927494259440568 0 0.02773977377486558 0.0061413918216140949 0 0.025798839158322696 0.0054927494259440568 0 0.02773977377486558 0.0061413918216140949 0 0.027153617868510203 0.0055320482080407534 0 0.027153617868510203 0.0055320482080407534 0 0.026200887094412564 0.0050026106983787275 0 0.025398423880912083 0.0050136570540985316 0 0.027153617868510203 0.0055320482080407534 0 0.027910243261726926 0.0054388358497414408 0 0.026955075702383365 0.00506155109665298 0 0.027153617868510203 0.0055320482080407534 0 0.027910243261726926 0.0054388358497414408 0 0.028398724635843121 0.0059988723802303886 0 0.02773977377486558 0.0061413918216140949 0 0.027153617868510203 0.0055320482080407534 0 0.028398724635843121 0.0059988723802303886 0 0.02895068786053185 0.0064012470902914806 0 0.02773977377486558 0.0061413918216140949 0 0.028398724635843121 0.0059988723802303886 0 0.027421663603454986 0.0040132671120193704 0 0.027306998872780659 0.004701171902795326 0 0.026770975259606384 0.0032317826047757736 0 0.022356383933566801 0.0075461340730103819 0 0.021993477005284683 0.0082561426880030115 0 0.027421663603454986 0.0040132671120193704 0 0.027306998872780659 0.004701171902795326 0 0.028095717396757636 0.0047924941445369332 0 0.027910243261726926 0.0054388358497414408 0 0.027306998872780659 0.004701171902795326 0 0.028095717396757636 0.0047924941445369332 0 0.027910243261726926 0.0054388358497414408 0 0.026955075702383365 0.00506155109665298 0 0.027306998872780659 0.004701171902795326 0 0.027153617868510203 0.0055320482080407534 0 0.026955075702383365 0.00506155109665298 0 0.026200887094412564 0.0050026106983787275 0 0.026955075702383365 0.00506155109665298 0 0.027306998872780659 0.004701171902795326 0 0.025938850549804122 0.0045952145677427107 0 0.026955075702383365 0.00506155109665298 0 0.026200887094412564 0.0050026106983787275 0 0.025938850549804122 0.0045952145677427107 0 0.027306998872780659 0.004701171902795326 0 0.025938850549804122 0.0045952145677427107 0 0.026058063488977726 0.0038701337790493372 0 0.026200887094412564 0.0050026106983787275 0 0.025938850549804122 0.0045952145677427107 0 0.024855425092880398 0.004651923808416069 0 0.025938850549804122 0.0045952145677427107 0 0.024855425092880398 0.004651923808416069 0 0.02435450744154841 0.0043008875291198762 0 0.026200887094412564 0.0050026106983787275 0 0.024855425092880398 0.004651923808416069 0 0.025398423880912083 0.0050136570540985316 0 0.024708044513439973 0.004881502643015294 0 0.025398423880912083 0.0050136570540985316 0 0.024162530339617443 0.0046242598975595513 0 0.024855425092880398 0.004651923808416069 0 0.025398423880912083 0.0050136570540985316 0 0.024162530339617443 0.0046242598975595513 0 0.024855425092880398 0.004651923808416069 0 0.024162530339617443 0.0046242598975595513 0 0.023333298546367755 0.0044703385861600744 0 0.024855425092880398 0.004651923808416069 0 0.02435450744154841 0.0043008875291198762 0 0.023333298546367755 0.0044703385861600744 0 0.021756331407515237 0.0042887395870578517 0 0.02435450744154841 0.0043008875291198762 0 0.023333298546367755 0.0044703385861600744 0 0.021091628534846196 0.0083289231007926991 0 0.020755617827223755 0.0087706704416241222 0 0.021756331407515237 0.0042887395870578517 0 0.02435450744154841 0.0043008875291198762 0 0.024550812802361554 0.0027662531528797303 0 0.025938850549804122 0.0045952145677427107 0 0.02435450744154841 0.0043008875291198762 0 0.026058063488977726 0.0038701337790493372 0 0.021993477005284683 0.0082561426880030115 0 0.020755617827223755 0.0087706704416241222 0 0.021808014382046621 0.0088075610188665492 0 0.021421549660151074 0.0077099791021144632 0 0.021014465789583499 0.0078276944327172211 0 0.021993477005284683 0.0082561426880030115 0 0.020199786496808154 0.0094352886869776987 0 0.023080760901309054 0.010600610444351266 0 0.023023170814135029 0.010732417376684483 0 0.023148136100932592 0.010808323800024167 0 0.02435450744154841 0.0043008875291198762 0 0.026058063488977726 0.0038701337790493372 0 0.024550812802361554 0.0027662531528797303 0 0.023023170814135029 0.010732417376684483 0 0.022895006090636234 0.010654713125568727 0 0.022957840867133761 0.010871821652985935 0 0.023080760901309054 0.010600610444351266 0 0.023023170814135029 0.010732417376684483 0 0.022895006090636234 0.010654713125568727 0 0.022986951971895354 0.010477677145484523 0 0.023080760901309054 0.010600610444351266 0 0.022895006090636234 0.010654713125568727 0 0.02331677203597881 0.0081445919476317314 0 0.021993477005284683 0.0082561426880030115 0 0.023986461444767283 0.0044483608761781814 0 0.024472920195741533 0.0047624979622121469 0 0.024123166072899424 0.0044421759730513266 0 0.023850993012760804 0.0043607072173423318 0 0.023972038378465566 0.0044157402487069296 0 0.024123166072899424 0.0044421759730513266 0 0.023986461444767283 0.0044483608761781814 0 0.023972038378465566 0.0044157402487069296 0 0.024123166072899424 0.0044421759730513266 0 0.023986461444767283 0.0044483608761781814 0 0.023972038378465566 0.0044157402487069296 0 0.024092762549798061 0.0045272224471736722 0 0.024708044513439973 0.004881502643015294 0 0.024162530339617443 0.0046242598975595513 0 0.024092762549798061 0.0045272224471736722 0 0.024162530339617443 0.0046242598975595513 0 0.024092762549798061 0.0045272224471736722 0 0.023772870384217895 0.0044856235620271924 0 0.024162530339617443 0.0046242598975595513 0 0.023772870384217895 0.0044856235620271924 0 0.023333298546367755 0.0044703385861600744 0 0.023986461444767283 0.0044483608761781814 0 0.023772870384217895 0.0044856235620271924 0 0.02349549623601651 0.0045883482196528731 0 0.023986461444767283 0.0044483608761781814 0 0.024092762549798061 0.0045272224471736722 0 0.023772870384217895 0.0044856235620271924 0 0.023772870384217895 0.0044856235620271924 0 0.02349549623601651 0.0045883482196528731 0 0.023333298546367755 0.0044703385861600744 0 0.02349549623601651 0.0045883482196528731 0 0.023333298546367755 0.0044703385861600744 0 0.022795791928094403 0.0046920105730753657 0 0.021756331407515237 0.0042887395870578517 0 0.023333298546367755 0.0044703385861600744 0 0.022795791928094403 0.0046920105730753657 0 0.021756331407515237 0.0042887395870578517 0 0.022795791928094403 0.0046920105730753657 0 0.022233719425672899 0.0058632276155093791 0 0.02349549623601651 0.0045883482196528731 0 0.023281719420393848 0.005493931463361473 0 0.024165736489475252 0.0051226020010490527 0 0.022795791928094403 0.0046920105730753657 0 0.023281719420393848 0.005493931463361473 0 0.022233719425672899 0.0058632276155093791 0 0.02349549623601651 0.0045883482196528731 0 0.022795791928094403 0.0046920105730753657 0 0.023281719420393848 0.005493931463361473 0 0.023281719420393848 0.005493931463361473 0 0.023981425537625549 0.0058823810307608035 0 0.024165736489475252 0.0051226020010490527 0 0.023981425537625549 0.0058823810307608035 0 0.024165736489475252 0.0051226020010490527 0 0.024665716349690482 0.0058350099487377268 0 0.023986461444767283 0.0044483608761781814 0 0.02349549623601651 0.0045883482196528731 0 0.024165736489475252 0.0051226020010490527 0 0.023986461444767283 0.0044483608761781814 0 0.024165736489475252 0.0051226020010490527 0 0.024472920195741533 0.0047624979622121469 0 0.020749817368964241 0.010324999699410383 0 0.022143199481012794 0.011797063973574327 0 0.024165736489475252 0.0051226020010490527 0 0.024472920195741533 0.0047624979622121469 0 0.024836931743615197 0.0057855361847996591 0 0.024165736489475252 0.0051226020010490527 0 0.024665716349690482 0.0058350099487377268 0 0.024836931743615197 0.0057855361847996591 0 0.016629775899705861 0.014419989247261499 0 0.016578628003339358 0.014371803051939002 0 0.016671356357501891 0.014309844331851087 0 0.016578628003339358 0.014371803051939002 0 0.01658824234327877 0.014310622886964853 0 0.016671356357501891 0.014309844331851087 0 0.016578628003339358 0.014371803051939002 0 0.016509190656712955 0.014314739400154227 0 0.01658824234327877 0.014310622886964853 0 0.016578628003339358 0.014371803051939002 0 0.016507392475650924 0.014401823471347087 0 0.016509190656712955 0.014314739400154227 0 0.016507392475650924 0.014401823471347087 0 0.016545898059937794 0.014453732709583184 0 0.016471335551569325 0.014460527062380919 0 0.016578628003339358 0.014371803051939002 0 0.016507392475650924 0.014401823471347087 0 0.016545898059937794 0.014453732709583184 0 0.016629775899705861 0.014419989247261499 0 0.016578628003339358 0.014371803051939002 0 0.016545898059937794 0.014453732709583184 0 0.016545898059937794 0.014453732709583184 0 0.016489018740129379 0.014550615637413968 0 0.016594426618929115 0.014532887039019709 0 0.016629775899705861 0.014419989247261499 0 0.016545898059937794 0.014453732709583184 0 0.016594426618929115 0.014532887039019709 0 0.020749817368964241 0.010324999699410383 0 0.019340727157957382 0.0091371904395884489 0 0.016489018740129379 0.014550615637413968 0 0.016369123157414046 0.014470070807114883 0 0.016384929600859913 0.014325143710257044 0 0.013770690208111268 0.017737293541231262 0 0.013755811317459218 0.018266816739179424 0 0.016545898059937794 0.014453732709583184 0 0.016489018740129379 0.014550615637413968 0 0.016471335551569325 0.014460527062380919 0 0.016489018740129379 0.014550615637413968 0 0.016349331695718047 0.014603424049682425 0 0.01655679850350909 0.014714030481566354 0 0.019340727157957382 0.0091371904395884489 0 0.017793477633099745 0.0077458313136252281 0 0.016489018740129379 0.014550615637413968 0 0.016594426618929115 0.014532887039019709 0 0.01655679850350909 0.014714030481566354 0 0.01530854930201956 0.00959752625932952 0 0.012421404176162469 0.012332997420496273 0 0.016284771933983692 -0.0032732198340987128 0 0.019650995582840808 -0.003447873598651847 0 0.016356727341209281 -0.0058435639652162303 0 0.016349331695718047 0.014603424049682425 0 0.016250838367962244 0.014395428747571838 0 0.016369123157414046 0.014470070807114883 0 0.016489018740129379 0.014550615637413968 0 0.016349331695718047 0.014603424049682425 0 0.016369123157414046 0.014470070807114883 0 0.016349331695718047 0.014603424049682425 0 0.016250838367962244 0.014395428747571838 0 0.016069532168445894 0.014425171965573197 0 0.016250838367962244 0.014395428747571838 0 0.016369123157414046 0.014470070807114883 0 0.016384929600859913 0.014325143710257044 0 0.016250838367962244 0.014395428747571838 0 0.016384929600859913 0.014325143710257044 0 0.016192664100231412 0.014215285102363844 0 0.016250838367962244 0.014395428747571838 0 0.016069532168445894 0.014425171965573197 0 0.016192664100231412 0.014215285102363844 0 0.012421404176162469 0.012332997420496273 0 0.012650226293230461 0.012395869648216311 0 0.015982576756750362 0.014534955662053834 0 0.016067467639819619 0.014217335343571742 0 0.0158264505142156 0.01442173594138765 0 0.01160397027834479 0.018382090904814314 0 0.01073820929011176 0.015164942054695593 0 0.015982576756750362 0.014534955662053834 0 0.016067467639819619 0.014217335343571742 0 0.016192664100231412 0.014215285102363844 0 0.00041736800863973703 0.034808532396794031 0 0.0028645590520562777 0.034452083634394053 0 0.0040059929629204117 0.031397284701103215 0 0.016067467639819619 0.014217335343571742 0 0.016192664100231412 0.014215285102363844 0 0.016270557199934095 0.014062105577955614 0 0.00041736800863973703 0.034808532396794031 0 -0.0029252988093837464 0.037978836396405209 0 0.00051973162047852961 0.038145304751827008 0 0.01160397027834479 0.018382090904814314 0 0.013818332643360498 0.020155530019268442 0 0.00041736800863973703 0.034808532396794031 0 0.0020456046465900097 0.036798111337195849 0 0.0028645590520562777 0.034452083634394053 0 0.00041736800863973703 0.034808532396794031 0 0.0020456046465900097 0.036798111337195849 0 0.00051973162047852961 0.038145304751827008 0 0.016507392475650924 0.014401823471347087 0 0.016471335551569325 0.014460527062380919 0 0.01643776220625787 0.01438002350001368 0 0.016384929600859913 0.014325143710257044 0 0.016192664100231412 0.014215285102363844 0 0.016270557199934095 0.014062105577955614 0 0.013755811317459218 0.018266816739179424 0 0.013818332643360498 0.020155530019268442 0 0.013818332643360498 0.020155530019268442 0 0.018539319460502759 0.017130132635530693 0 0.013696723160166921 0.019337920390671337 0 0.014284749758207087 0.020590661968240699 0 0.012397322762706038 0.02051457408103816 0 0.016507392475650924 0.014401823471347087 0 0.01643776220625787 0.01438002350001368 0 0.016509190656712955 0.014314739400154227 0 0.013818332643360498 0.020155530019268442 0 0.013739698893572204 0.022143192595507205 0 0.0019910445146328073 0.038553334759823782 0 0.00051973162047852961 0.038145304751827008 0 0.0016270712249950002 0.040065374541593722 0 0.0020456046465900097 0.036798111337195849 0 0.0019910445146328073 0.038553334759823782 0 0.0032475178563620244 0.038082640111271916 0 0.0020456046465900097 0.036798111337195849 0 0.0019910445146328073 0.038553334759823782 0 0.00051973162047852961 0.038145304751827008 0 -0.0029252988093837464 0.037978836396405209 0 0.00051973162047852961 0.038145304751827008 0 -0.00011845390168201125 0.039831258216902629 0 -0.00011845390168201125 0.039831258216902629 0 0.00087333484447639856 0.040918289896914727 0 -0.00095960093929593749 0.041984374510195745 0 -0.0029252988093837464 0.037978836396405209 0 -0.00011845390168201125 0.039831258216902629 0 -0.00095960093929593749 0.041984374510195745 0 0.00087333484447639856 0.040918289896914727 0 0.0022273530614771316 0.040971535589482147 0 0.0013323442321293245 0.041987796214982269 0 0.00051973162047852961 0.038145304751827008 0 -0.00011845390168201125 0.039831258216902629 0 0.0016270712249950002 0.040065374541593722 0 -0.00011845390168201125 0.039831258216902629 0 0.00087333484447639856 0.040918289896914727 0 0.0016270712249950002 0.040065374541593722 0 0.0019910445146328073 0.038553334759823782 0 0.0016270712249950002 0.040065374541593722 0 0.0025544117130754341 0.039613602971747534 0 0.0016270712249950002 0.040065374541593722 0 0.0024021386641320344 0.040396505603025754 0 0.0025544117130754341 0.039613602971747534 0 0.0016270712249950002 0.040065374541593722 0 0.0024021386641320344 0.040396505603025754 0 0.0022273530614771316 0.040971535589482147 0 0.00087333484447639856 0.040918289896914727 0 0.0016270712249950002 0.040065374541593722 0 0.0022273530614771316 0.040971535589482147 0 0.003184067266899052 0.040905002908481043 0 0.0025544117130754341 0.039613602971747534 0 0.0032475178563620244 0.038082640111271916 0 0.003184067266899052 0.040905002908481043 0 0.0038700909672135741 0.040825459602347888 0 0.0036469571924444459 0.039922632097100161 0 0.003184067266899052 0.040905002908481043 0 0.0032475178563620244 0.038082640111271916 0 0.005277450066438409 0.036203459261941413 0 0.0014366963636525739 0.02822677630332868 0 0.0018072658542768157 0.026612555054795917 0 0.0022273530614771316 0.040971535589482147 0 0.003184067266899052 0.040905002908481043 0 0.0030900496452346518 0.041698256599338637 0 0.0024021386641320344 0.040396505603025754 0 0.0022273530614771316 0.040971535589482147 0 0.003184067266899052 0.040905002908481043 0 0.0024021386641320344 0.040396505603025754 0 0.003184067266899052 0.040905002908481043 0 0.0025544117130754341 0.039613602971747534 0 0.0019910445146328073 0.038553334759823782 0 0.0025544117130754341 0.039613602971747534 0 0.0032475178563620244 0.038082640111271916 0 0.0038700909672135741 0.040825459602347888 0 0.004554731933175302 0.040517025397105229 0 0.0036469571924444459 0.039922632097100161 0 0.003184067266899052 0.040905002908481043 0 0.0038700909672135741 0.040825459602347888 0 0.003663001614120778 0.041384130971793401 0 0.0038700909672135741 0.040825459602347888 0 0.0042669605269958343 0.041456054322968783 0 0.003663001614120778 0.041384130971793401 0 0.004554731933175302 0.040517025397105229 0 0.0058976502180744786 0.040005117769093983 0 0.0050647962057639839 0.041368982316983674 0 0.004554731933175302 0.040517025397105229 0 0.0050647962057639839 0.041368982316983674 0 0.0042669605269958343 0.041456054322968783 0 0.0038700909672135741 0.040825459602347888 0 0.004554731933175302 0.040517025397105229 0 0.0042669605269958343 0.041456054322968783 0 0.0046346378562232178 0.03957556157510328 0 0.0058976502180744786 0.040005117769093983 0 0.0046074617821624426 0.038375347453366238 0 0.004554731933175302 0.040517025397105229 0 0.0046346378562232178 0.03957556157510328 0 0.0058976502180744786 0.040005117769093983 0 0.0046346378562232178 0.03957556157510328 0 0.0036469571924444459 0.039922632097100161 0 0.0040951140702944321 0.038733732213392602 0 0.004554731933175302 0.040517025397105229 0 0.0046346378562232178 0.03957556157510328 0 0.0036469571924444459 0.039922632097100161 0 0.0018072658542768157 0.026612555054795917 0 0.0028474987197690026 0.021882783346365651 0 0.0028645590520562777 0.034452083634394053 0 0.005277450066438409 0.036203459261941413 0 0.0071248805732869111 0.031497719220426497 0 0.0024293461153461968 0.022670788045093249 0 0.0028474987197690026 0.021882783346365651 0 0.0020456046465900097 0.036798111337195849 0 0.0028645590520562777 0.034452083634394053 0 0.0034368378958688738 0.036343772857824051 0 0.0028645590520562777 0.034452083634394053 0 0.0034368378958688738 0.036343772857824051 0 0.005277450066438409 0.036203459261941413 0 0.0020456046465900097 0.036798111337195849 0 0.0032475178563620244 0.038082640111271916 0 0.0034368378958688738 0.036343772857824051 0 0.0032475178563620244 0.038082640111271916 0 0.0034368378958688738 0.036343772857824051 0 0.005277450066438409 0.036203459261941413 0 -0.022140061939028139 0.019372768349823918 0 -0.022589432160333545 0.019429361119814463 0 -0.022593046460451405 0.018857432384083533 0 0.0058976502180744786 0.040005117769093983 0 0.0059787982438243093 0.042095622082106467 0 0.0072035271964223701 0.041675053983230508 0 -0.022589432160333545 0.019429361119814463 0 -0.022593046460451405 0.018857432384083533 0 -0.022827915333939894 0.019165404137390912 0 -0.0030681401155494043 0.02817553925188054 0 -0.0072711687037359937 0.036706534718071601 0 0.0058976502180744786 0.040005117769093983 0 0.0059787982438243093 0.042095622082106467 0 0.0050647962057639839 0.041368982316983674 0 -0.0030681401155494043 0.02817553925188054 0 0.0031553131078021512 0.020476855622811777 0 -0.022589432160333545 0.019429361119814463 0 -0.022451479315790994 0.019835648474962584 0 -0.022767619437878198 0.019832434862475323 0 -0.022140061939028139 0.019372768349823918 0 -0.022589432160333545 0.019429361119814463 0 -0.022451479315790994 0.019835648474962584 0 -0.022451479315790994 0.019835648474962584 0 -0.022642450056988134 0.020176727985828147 0 -0.022767619437878198 0.019832434862475323 0 -0.022451479315790994 0.019835648474962584 0 -0.022370958738445527 0.02008245857718138 0 -0.022101761684876816 0.019969112088693706 0 -0.022451479315790994 0.019835648474962584 0 -0.022370958738445527 0.02008245857718138 0 -0.022642450056988134 0.020176727985828147 0 -0.022140061939028139 0.019372768349823918 0 -0.022101761684876816 0.019969112088693706 0 -0.021629087111978862 0.019936087392446677 0 -0.022140061939028139 0.019372768349823918 0 -0.022451479315790994 0.019835648474962584 0 -0.022101761684876816 0.019969112088693706 0 -0.022101761684876816 0.019969112088693706 0 -0.022289369636329114 0.020354400731166157 0 -0.021629087111978862 0.019936087392446677 0 0.0083433741669051067 0.0030729003434542654 0 0.0093688802384006981 0.0028933063569810537 0 0.0085562541077787383 0.0036590301016626 0 0.0057338763770392112 0.01600797276222336 0 0.0076987757749031492 0.013368451012902523 0 -0.0017323847506316799 0.017737902430734049 0 0.0031553131078021512 0.020476855622811777 0 -0.022370958738445527 0.02008245857718138 0 -0.022101761684876816 0.019969112088693706 0 -0.022289369636329114 0.020354400731166157 0 -0.022289369636329114 0.020354400731166157 0 -0.022642450056988134 0.020176727985828147 0 -0.023013786937955329 0.020709961613036485 0 -0.022370958738445527 0.02008245857718138 0 -0.022289369636329114 0.020354400731166157 0 -0.022642450056988134 0.020176727985828147 0 0.01073820929011176 0.015164942054695593 0 0.0050418274850961122 0.017507337905405387 0 0.0091438042489873327 0.0048612158253816739 0 0.0092067042424275099 0.0047856501828884516 0 0.0091624088698775037 0.0047800357510143819 0 0.0040059929629204117 0.031397284701103215 0 0.0072453759709243696 0.031396390433143628 0 0.007752149909194277 0.027955634418585798 0 0.0090957227831414238 0.0048194294575751679 0 0.0091438042489873327 0.0048612158253816739 0 0.0091624088698775037 0.0047800357510143819 0 0.0028645590520562777 0.034452083634394053 0 0.0040059929629204117 0.031397284701103215 0 0.0072453759709243696 0.031396390433143628 0 0.012421404176162469 0.012332997420496273 0 0.01073820929011176 0.015164942054695593 0 0.0046346378562232178 0.03957556157510328 0 0.0040951140702944321 0.038733732213392602 0 0.0046074617821624426 0.038375347453366238 0 0.0028474987197690026 0.021882783346365651 0 0.0031553131078021512 0.020476855622811777 0 0.0072453759709243696 0.031396390433143628 0 0.008319257972947941 0.028651450426000775 0 0.007752149909194277 0.027955634418585798 0 0.0093261052899225091 0.0024772555880032084 0 0.0094656627257145524 0.0026481475392482923 0 0.0093688802384006981 0.0028933063569810537 0 0.0028474987197690026 0.021882783346365651 0 0.0043558940024519578 0.018475528614674677 0 0.0085798521654470699 0.018807274514219544 0 0.0034784194674591694 0.022305554932894097 0 0.0059821023830441463 0.025379200817602202 0 0.0031553131078021512 0.020476855622811777 0 0.0043558940024519578 0.018475528614674677 0 0.0043558940024519578 0.018475528614674677 0 0.0050418274850961122 0.017507337905405387 0 0.0057338763770392112 0.01600797276222336 0 0.0075040321814597516 0.011012614355896577 0 0.0091896015611997259 0.004761205729959684 0 0.0091967090198118231 0.004739406717125463 0 0.0091869628761479336 0.004758670645603336 0 0.0091967090198118231 0.004739406717125463 0 0.0091862606801659478 0.0047212970413836285 0 0.0091869628761479336 0.004758670645603336 0 0.0050418274850961122 0.017507337905405387 0 0.0050212937611447423 0.017443735393219903 0 0.0083433741669051067 0.0030729003434542654 0 0.0093261052899225091 0.0024772555880032084 0 0.0093688802384006981 0.0028933063569810537 0 0.0091967090198118231 0.004739406717125463 0 0.0091862606801659478 0.0047212970413836285 0 0.0091650519614331176 0.0047053296682729815 0 0.0030292746603148061 0.012971302997720899 0 0.0051315089692523727 0.015552461069653706 0 0.00027669514606845538 0.019937136669149827 0 0.0043558940024519578 0.018475528614674677 0 0.0057338763770392112 0.01600797276222336 0 0.0050418274850961122 0.017507337905405387 0 0.0057338763770392112 0.01600797276222336 0 0.012421404176162469 0.012332997420496273 0 0.013080671884926056 0.0073592073813736171 0 0.0091624088698775037 0.0047800357510143819 0 0.0091869628761479336 0.004758670645603336 0 0.0091888880978216372 0.0046966326783227557 0 0.0090957227831414238 0.0048194294575751679 0 0.0091624088698775037 0.0047800357510143819 0 0.0091888880978216372 0.0046966326783227557 0 0.016284771933983692 -0.0032732198340987128 0 0.016356727341209281 -0.0058435639652162303 0 0.014181370792054315 -0.0024411762078521059 0 0.0091862606801659478 0.0047212970413836285 0 0.0091869628761479336 0.004758670645603336 0 0.0091888880978216372 0.0046966326783227557 0 0.0092067042424275099 0.0047856501828884516 0 0.0091624088698775037 0.0047800357510143819 0 0.0091869628761479336 0.004758670645603336 0 0.015580365327225469 -0.0013155868719538606 0 0.014181370792054315 -0.0024411762078521059 0 0.014449298152820429 0.00015979717884923779 0 0.016284771933983692 -0.0032732198340987128 0 0.015580365327225469 -0.0013155868719538606 0 0.014181370792054315 -0.0024411762078521059 0 0.0091650519614331176 0.0047053296682729815 0 0.009125048150333135 0.0046963748928146847 0 0.0091765224191474142 0.0048535275732890454 0 0.0091862606801659478 0.0047212970413836285 0 0.0091888880978216372 0.0046966326783227557 0 0.0091650519614331176 0.0047053296682729815 0 0.0091888880978216372 0.0046966326783227557 0 0.0091650519614331176 0.0047053296682729815 0 0.0091765224191474142 0.0048535275732890454 0 0.0091967090198118231 0.004739406717125463 0 0.0091650519614331176 0.0047053296682729815 0 0.009125048150333135 0.0046963748928146847 0 0.013080671884926056 0.0073592073813736171 0 0.012412077354379181 0.0060558391647995875 0 0.012111147947598851 0.00093587604248530345 0 0.014449298152820429 0.00015979717884923779 0 0.013585436725980029 0.0018503452716992388 0 0.014181370792054315 -0.0024411762078521059 0 0.012111147947598851 0.00093587604248530345 0 0.014449298152820429 0.00015979717884923779 0 0.014449298152820429 0.00015979717884923779 0 0.015146546507543952 0.0019060797959243459 0 0.013585436725980029 0.0018503452716992388 0 0.014449298152820429 0.00015979717884923779 0 0.015146546507543952 0.0019060797959243459 0 0.016554908236567044 0.00042049244069824023 0 0.015580365327225469 -0.0013155868719538606 0 0.014449298152820429 0.00015979717884923779 0 0.016554908236567044 0.00042049244069824023 0 0.0085562541077787383 0.0036590301016626 0 0.0079650995933161165 0.004406160110256606 0 0.0070399781325980199 0.0036934969630778546 0 -0.0017323847506316799 0.017737902430734049 0 -0.0049221344688112146 0.015866076808709256 0 0.0083433741669051067 0.0030729003434542654 0 0.0085562541077787383 0.0036590301016626 0 0.0070399781325980199 0.0036934969630778546 0 0.0096011948706499206 0.002779395410194977 0 0.0091812529376409813 0.0038197062088528074 0 0.0085562541077787383 0.0036590301016626 0 0.0091812529376409813 0.0038197062088528074 0 0.0085562541077787383 0.0036590301016626 0 0.0086101533528021683 0.0042539478519944707 0 0.0075040321814597516 0.011012614355896577 0 0.0079570165535281494 0.0096982542745137207 0 0.009125048150333135 0.0046963748928146847 0 0.0091765224191474142 0.0048535275732890454 0 0.0088001736780329316 0.005030923098675341 0 0.0091812529376409813 0.0038197062088528074 0 0.0086101533528021683 0.0042539478519944707 0 0.0088001736780329316 0.005030923098675341 0 0.0086101533528021683 0.0042539478519944707 0 0.0079650995933161165 0.004406160110256606 0 0.0088001736780329316 0.005030923098675341 0 0.0085562541077787383 0.0036590301016626 0 0.0086101533528021683 0.0042539478519944707 0 0.0079650995933161165 0.004406160110256606 0 0.0079650995933161165 0.004406160110256606 0 0.0081938806655594953 0.005339546530244506 0 0.0074472609948319952 0.0049784964758929481 0 0.0079650995933161165 0.004406160110256606 0 0.0081938806655594953 0.005339546530244506 0 0.0088001736780329316 0.005030923098675341 0 0.0081938806655594953 0.005339546530244506 0 0.0076899194396350011 0.0061387266527764533 0 0.0074472609948319952 0.0049784964758929481 0 0.0081938806655594953 0.005339546530244506 0 0.0087894786567569161 0.0058184246127227605 0 0.0076899194396350011 0.0061387266527764533 0 0.012412077354379181 0.0060558391647995875 0 0.011507931962291417 0.0062499498503527295 0 0.0081938806655594953 0.005339546530244506 0 0.0088001736780329316 0.005030923098675341 0 0.0087894786567569161 0.0058184246127227605 0 0.0091765224191474142 0.0048535275732890454 0 0.0088001736780329316 0.005030923098675341 0 0.0087894786567569161 0.0058184246127227605 0 0.010416790257671954 0.0066529412634323878 0 0.010180102776354784 0.004099509237913441 0 0.012554242574740922 0.0053145017085453944 0 0.011045038379027226 0.0066058438007273014 0 0.011507931962291417 0.0062499498503527295 0 0.0082846404687870346 0.0072778830486783319 0 0.0087894786567569161 0.0058184246127227605 0 0.0076899194396350011 0.0061387266527764533 0 0.013807496755898506 0.0035970473337536514 0 0.015712187781024116 0.0036270850527871409 0 0.015146546507543952 0.0019060797959243459 0 0.013807496755898506 0.0035970473337536514 0 0.015146546507543952 0.0019060797959243459 0 0.013585436725980029 0.0018503452716992388 0 0.012111147947598851 0.00093587604248530345 0 0.010180102776354784 0.004099509237913441 0 0.012442896203949531 0.0031728152694468566 0 0.012111147947598851 0.00093587604248530345 0 0.013585436725980029 0.0018503452716992388 0 0.012442896203949531 0.0031728152694468566 0 0.013807496755898506 0.0035970473337536514 0 0.013585436725980029 0.0018503452716992388 0 0.012442896203949531 0.0031728152694468566 0 0.013807496755898506 0.0035970473337536514 0 0.012442896203949531 0.0031728152694468566 0 0.012554242574740922 0.0053145017085453944 0 0.010180102776354784 0.004099509237913441 0 0.012442896203949531 0.0031728152694468566 0 0.012554242574740922 0.0053145017085453944 0 0.014560987692550938 0.0071135134644393031 0 0.012554242574740922 0.0053145017085453944 0 0.01464029451905666 0.0049631445710672708 0 0.014560987692550938 0.0071135134644393031 0 0.01464029451905666 0.0049631445710672708 0 0.016609541036515744 0.0050657438284543157 0 0.013807496755898506 0.0035970473337536514 0 0.012554242574740922 0.0053145017085453944 0 0.01464029451905666 0.0049631445710672708 0 0.013807496755898506 0.0035970473337536514 0 0.015712187781024116 0.0036270850527871409 0 0.01464029451905666 0.0049631445710672708 0 0.015712187781024116 0.0036270850527871409 0 0.01464029451905666 0.0049631445710672708 0 0.016609541036515744 0.0050657438284543157 0 0.017288494603140851 0.0066211023325724013 0 0.016609541036515744 0.0050657438284543157 0 0.017927080600670071 0.0047039113037617734 0 0.016609541036515744 0.0050657438284543157 0 0.017927080600670071 0.0047039113037617734 0 0.017296100487031535 0.0036499530601217804 0 0.015712187781024116 0.0036270850527871409 0 0.016609541036515744 0.0050657438284543157 0 0.017296100487031535 0.0036499530601217804 0 0.015712187781024116 0.0036270850527871409 0 0.017296100487031535 0.0036499530601217804 0 0.016767788394171281 0.0022772294233439532 0 0.017296100487031535 0.0036499530601217804 0 0.017854029608075989 0.0027181908321847253 0 0.018844470875019444 0.0033551159497294584 0 0.017927080600670071 0.0047039113037617734 0 0.017296100487031535 0.0036499530601217804 0 0.018844470875019444 0.0033551159497294584 0 0.017296100487031535 0.0036499530601217804 0 0.017854029608075989 0.0027181908321847253 0 0.016767788394171281 0.0022772294233439532 0 0.017854029608075989 0.0027181908321847253 0 0.016767788394171281 0.0022772294233439532 0 0.018426427828873406 0.0016897488119761517 0 0.015712187781024116 0.0036270850527871409 0 0.015146546507543952 0.0019060797959243459 0 0.016767788394171281 0.0022772294233439532 0 0.019674226896337545 0.0026400313252099854 0 0.020871886603231631 0.0030246896045753257 0 0.020316237668354831 0.0015445624178491121 0 0.019674226896337545 0.0026400313252099854 0 0.018426427828873406 0.0016897488119761517 0 0.020316237668354831 0.0015445624178491121 0 0.017854029608075989 0.0027181908321847253 0 0.018844470875019444 0.0033551159497294584 0 0.018426427828873406 0.0016897488119761517 0 0.019674226896337545 0.0026400313252099854 0 0.018844470875019444 0.0033551159497294584 0 0.018426427828873406 0.0016897488119761517 0 0.018844470875019444 0.0033551159497294584 0 0.019982790680492649 0.0036087823765112042 0 0.019633250275495655 0.0043790140508316658 0 0.019674226896337545 0.0026400313252099854 0 0.018844470875019444 0.0033551159497294584 0 0.019982790680492649 0.0036087823765112042 0 0.019982790680492649 0.0036087823765112042 0 0.020730822720172074 0.004061458038260574 0 0.020871886603231631 0.0030246896045753257 0 0.019674226896337545 0.0026400313252099854 0 0.019982790680492649 0.0036087823765112042 0 0.020871886603231631 0.0030246896045753257 0 0.019982790680492649 0.0036087823765112042 0 0.019633250275495655 0.0043790140508316658 0 0.020730822720172074 0.004061458038260574 0 0.019633250275495655 0.0043790140508316658 0 0.021385992548247877 0.0048450773579739549 0 0.020730822720172074 0.004061458038260574 0 0.019633250275495655 0.0043790140508316658 0 0.018865435032717755 0.0055266126296370875 0 0.021385992548247877 0.0048450773579739549 0 0.01875959168982921 0.0078756096366426383 0 0.018865435032717755 0.0055266126296370875 0 0.021385992548247877 0.0048450773579739549 0 0.017927080600670071 0.0047039113037617734 0 0.019633250275495655 0.0043790140508316658 0 0.018865435032717755 0.0055266126296370875 0 0.017927080600670071 0.0047039113037617734 0 0.018844470875019444 0.0033551159497294584 0 0.019633250275495655 0.0043790140508316658 0 0.017288494603140851 0.0066211023325724013 0 0.017927080600670071 0.0047039113037617734 0 0.018865435032717755 0.0055266126296370875 0 0.021865301197033518 0.0056274061542687685 0 0.022171723530886426 0.0052262773689998121 0 0.021385992548247877 0.0048450773579739549 0 0.022171723530886426 0.0052262773689998121 0 0.022012893846704771 0.0047631219694526609 0 0.021385992548247877 0.0048450773579739549 0 0.022171723530886426 0.0052262773689998121 0 0.022302181337470337 0.0049053889522549183 0 0.022012893846704771 0.0047631219694526609 0 0.022302181337470337 0.0049053889522549183 0 0.022012893846704771 0.0047631219694526609 0 0.022297529125198841 0.004508496084463188 0 0.022012893846704771 0.0047631219694526609 0 0.021385992548247877 0.0048450773579739549 0 0.021758800273121139 0.0043272704803726091 0 0.021385992548247877 0.0048450773579739549 0 0.020730822720172074 0.004061458038260574 0 0.021758800273121139 0.0043272704803726091 0 0.022953659028155802 0.0053801457010004741 0 0.022572156949279356 0.0051379162419305357 0 0.022916544414421949 0.0049711075080146371 0 0.02314591420876163 0.005654379662124065 0 0.023374980403647067 0.005427957426138272 0 0.022953659028155802 0.0053801457010004741 0 0.022296977217417364 0.0057261735111637981 0 0.022171723530886426 0.0052262773689998121 0 0.022593876279058619 0.0054414888484454454 0 0.022953659028155802 0.0053801457010004741 0 0.022593876279058619 0.0054414888484454454 0 0.022572156949279356 0.0051379162419305357 0 0.022171723530886426 0.0052262773689998121 0 0.022593876279058619 0.0054414888484454454 0 0.022572156949279356 0.0051379162419305357 0 0.022572280371944538 0.0048142800294231946 0 0.022916544414421949 0.0049711075080146371 0 0.022801500998019808 0.0045932163928044034 0 0.022302181337470337 0.0049053889522549183 0 0.022572156949279356 0.0051379162419305357 0 0.022572280371944538 0.0048142800294231946 0 0.022171723530886426 0.0052262773689998121 0 0.022302181337470337 0.0049053889522549183 0 0.022572156949279356 0.0051379162419305357 0 0.022302181337470337 0.0049053889522549183 0 0.022572280371944538 0.0048142800294231946 0 0.022297529125198841 0.004508496084463188 0 0.022572156949279356 0.0051379162419305357 0 0.022572280371944538 0.0048142800294231946 0 0.022916544414421949 0.0049711075080146371 0 0.023249553119412816 0.0051557793265650347 0 0.0234036691620799 0.0048391399742435687 0 0.022916544414421949 0.0049711075080146371 0 0.023249553119412816 0.0051557793265650347 0 0.022953659028155802 0.0053801457010004741 0 0.022916544414421949 0.0049711075080146371 0 0.022801500998019808 0.0045932163928044034 0 0.023294464639074499 0.0044803625216865645 0 0.022449764471769072 0.0042022641138048621 0 0.0234036691620799 0.0048391399742435687 0 0.022916544414421949 0.0049711075080146371 0 0.022801500998019808 0.0045932163928044034 0 0.0234036691620799 0.0048391399742435687 0 0.022801500998019808 0.0045932163928044034 0 0.023294464639074499 0.0044803625216865645 0 0.022572280371944538 0.0048142800294231946 0 0.022801500998019808 0.0045932163928044034 0 0.022297529125198841 0.004508496084463188 0 0.022801500998019808 0.0045932163928044034 0 0.022297529125198841 0.004508496084463188 0 0.022449764471769072 0.0042022641138048621 0 0.018746224969386504 0.0059267508971056126 0 0.018549724153400858 0.0062549042934149429 0 0.021758800273121139 0.0043272704803726091 0 0.022297529125198841 0.004508496084463188 0 0.022449764471769072 0.0042022641138048621 0 0.021758800273121139 0.0043272704803726091 0 0.020871886603231631 0.0030246896045753257 0 0.022348815309375797 0.001444662604621917 0 0.020730822720172074 0.004061458038260574 0 0.021758800273121139 0.0043272704803726091 0 0.020871886603231631 0.0030246896045753257 0 0.022012893846704771 0.0047631219694526609 0 0.021758800273121139 0.0043272704803726091 0 0.022297529125198841 0.004508496084463188 0 0.020871886603231631 0.0030246896045753257 0 0.022348815309375797 0.001444662604621917 0 0.020316237668354831 0.0015445624178491121 0 0.018549724153400858 0.0062549042934149429 0 0.017793477633099745 0.0077458313136252281 0 0.022348815309375797 0.001444662604621917 0 0.020830658128208685 -0.00035930909245891621 0 0.020316237668354831 0.0015445624178491121 0 0.022348815309375797 0.001444662604621917 0 0.020830658128208685 -0.00035930909245891621 0 0.023017555585628905 -0.0010254478276167688 0 0.023581816092692512 0.0042279079206586807 0 0.022449764471769072 0.0042022641138048621 0 0.022755610946718553 0.0034809232737650362 0 0.023581816092692512 0.0042279079206586807 0 0.023294464639074499 0.0044803625216865645 0 0.022449764471769072 0.0042022641138048621 0 0.018227823612796915 0.0077577066766410753 0 0.017793477633099745 0.0077458313136252281 0 0.023850993012760804 0.0043607072173423318 0 0.023581816092692512 0.0042279079206586807 0 0.023927331498953285 0.0043263914310379065 0 0.023850993012760804 0.0043607072173423318 0 0.024123166072899424 0.0044421759730513266 0 0.023927331498953285 0.0043263914310379065 0 0.019650995582840808 -0.003447873598651847 0 0.020830658128208685 -0.00035930909245891621 0 0.023017555585628905 -0.0010254478276167688 0 0.01530854930201956 0.00959752625932952 0 0.017793477633099745 0.0077458313136252281 0 0.019650995582840808 -0.003447873598651847 0 0.017140230266685482 -0.0016255312982302338 0 0.018836630728801984 -0.00024908710062156571 0 0.019650995582840808 -0.003447873598651847 0 0.020830658128208685 -0.00035930909245891621 0 0.018836630728801984 -0.00024908710062156571 0 0.016284771933983692 -0.0032732198340987128 0 0.019650995582840808 -0.003447873598651847 0 0.017140230266685482 -0.0016255312982302338 0 0.016284771933983692 -0.0032732198340987128 0 0.015580365327225469 -0.0013155868719538606 0 0.017140230266685482 -0.0016255312982302338 0 0.015580365327225469 -0.0013155868719538606 0 0.017140230266685482 -0.0016255312982302338 0 0.016554908236567044 0.00042049244069824023 0 0.017140230266685482 -0.0016255312982302338 0 0.016554908236567044 0.00042049244069824023 0 0.018836630728801984 -0.00024908710062156571 0 0.015146546507543952 0.0019060797959243459 0 0.016767788394171281 0.0022772294233439532 0 0.016554908236567044 0.00042049244069824023 0 0.016767788394171281 0.0022772294233439532 0 0.016554908236567044 0.00042049244069824023 0 0.018426427828873406 0.0016897488119761517 0 0.016554908236567044 0.00042049244069824023 0 0.018426427828873406 0.0016897488119761517 0 0.018836630728801984 -0.00024908710062156571 0 0.018426427828873406 0.0016897488119761517 0 0.020316237668354831 0.0015445624178491121 0 0.018836630728801984 -0.00024908710062156571 0 0.020830658128208685 -0.00035930909245891621 0 0.020316237668354831 0.0015445624178491121 0 0.018836630728801984 -0.00024908710062156571 0 0.03517832569586575 0.0072333826608722718 0 0.035130334808446621 0.0079218775313203045 0 0.035082409563599294 0.0078408883712804515 0 0.03517832569586575 0.0072333826608722718 0 0.035082409563599294 0.0078408883712804515 0 0.035067953292717904 0.007289789005742885 0 0.03517832569586575 0.0072333826608722718 0 0.034998910576077714 0.0075467346240919676 0 0.035000173230717802 0.005483436343008183 0 0.03517832569586575 0.0072333826608722718 0 0.034998910576077714 0.0075467346240919676 0 0.035130334808446621 0.0079218775313203045 0 0.034998910576077714 0.0075467346240919676 0 0.035113467837020948 0.0085750339915270628 0 0.035130334808446621 0.0079218775313203045 0 0.035113467837020948 0.0085750339915270628 0 0.035130334808446621 0.0079218775313203045 0 0.035013423746081004 0.0083008124250229607 0 0.034998910576077714 0.0075467346240919676 0 0.035113467837020948 0.0085750339915270628 0 0.034999721908715774 0.0096164960266543094 0 0.035130334808446621 0.0079218775313203045 0 0.035082409563599294 0.0078408883712804515 0 0.035013423746081004 0.0083008124250229607 0 0.035082409563599294 0.0078408883712804515 0 0.035039588163445511 0.0082927771459513945 0 0.035013423746081004 0.0083008124250229607 0 0.035082409563599294 0.0078408883712804515 0 0.035081541062881229 0.0081756674710056817 0 0.035009310196534069 0.0075063715349787258 0 0.035082409563599294 0.0078408883712804515 0 0.035081541062881229 0.0081756674710056817 0 0.035039588163445511 0.0082927771459513945 0 0.035081541062881229 0.0081756674710056817 0 0.035009310196534069 0.0075063715349787258 0 0.035201417616001519 0.0083158962123106254 0 0.035009310196534069 0.0075063715349787258 0 0.035067953292717904 0.007289789005742885 0 0.0349262137614295 0.0070875470418226968 0 0.035082409563599294 0.0078408883712804515 0 0.035009310196534069 0.0075063715349787258 0 0.035067953292717904 0.007289789005742885 0 0.0349262137614295 0.0070875470418226968 0 0.034960420188315841 0.0069560382097543366 0 0.03510563222053991 0.0066866197636745953 0 0.035067953292717904 0.007289789005742885 0 0.0349262137614295 0.0070875470418226968 0 0.03510563222053991 0.0066866197636745953 0 0.0349262137614295 0.0070875470418226968 0 0.034601264000491981 0.0072120842461599203 0 0.034721200733636104 0.0071647886493259819 0 0.035009310196534069 0.0075063715349787258 0 0.0349262137614295 0.0070875470418226968 0 0.034601264000491981 0.0072120842461599203 0 0.035009310196534069 0.0075063715349787258 0 0.034601264000491981 0.0072120842461599203 0 0.034172882521693697 0.0070491651473156697 0 0.034721200733636104 0.0071647886493259819 0 0.034513940813819866 0.0073830286337272658 0 0.034354583276084358 0.0072804178768185639 0 0.034601264000491981 0.0072120842461599203 0 0.034721200733636104 0.0071647886493259819 0 0.034354583276084358 0.0072804178768185639 0 0.034721200733636104 0.0071647886493259819 0 0.034960420188315841 0.0069560382097543366 0 0.034803131214283044 0.0072455658645736738 0 0.0349262137614295 0.0070875470418226968 0 0.034721200733636104 0.0071647886493259819 0 0.034960420188315841 0.0069560382097543366 0 0.034960420188315841 0.0069560382097543366 0 0.03510563222053991 0.0066866197636745953 0 0.035135922728910668 0.0068461383906879879 0 0.034960420188315841 0.0069560382097543366 0 0.035135922728910668 0.0068461383906879879 0 0.034803131214283044 0.0072455658645736738 0 0.03517832569586575 0.0072333826608722718 0 0.035067953292717904 0.007289789005742885 0 0.03510563222053991 0.0066866197636745953 0 0.03517832569586575 0.0072333826608722718 0 0.03510563222053991 0.0066866197636745953 0 0.035000173230717802 0.005483436343008183 0 0.03499998642312533 0.0054787310354948776 0 0.035000018947808784 0.0034416880851976602 0 0.036177323495134299 0.0043117751128055421 0 0.03510563222053991 0.0066866197636745953 0 0.035000173230717802 0.005483436343008183 0 0.035135922728910668 0.0068461383906879879 0 0.034999858449502694 0.00547761374804198 0 0.035187785875106223 0.0049326199436016595 0 0.035000018947808784 0.0034416880851976602 0 0.036177323495134299 0.0043117751128055421 0 0.036184941478981075 0.0026583042079342156 0 0.035135922728910668 0.0068461383906879879 0 0.034928069940658869 0.0075280697779478755 0 0.034803131214283044 0.0072455658645736738 0 0.035187785875106223 0.0049326199436016595 0 0.035489898867569855 0.0041281251017180704 0 0.036177323495134299 0.0043117751128055421 0 0.036184941478981075 0.0026583042079342156 0 0.037385285018123382 0.0031358323008632005 0 0.036184941478981075 0.0026583042079342156 0 0.037184663955948195 0.0020300822920105745 0 0.037385285018123382 0.0031358323008632005 0 0.035000018947808784 0.0034416880851976602 0 0.036184941478981075 0.0026583042079342156 0 0.034999855662426277 0.0014045205545703081 0 0.036184941478981075 0.0026583042079342156 0 0.034999855662426277 0.0014045205545703081 0 0.036293172411021153 0.0014123939247807252 0 0.036184941478981075 0.0026583042079342156 0 0.037184663955948195 0.0020300822920105745 0 0.036293172411021153 0.0014123939247807252 0 0.037184663955948195 0.0020300822920105745 0 0.036293172411021153 0.0014123939247807252 0 0.037427334371857107 0.00098900423814805459 0 0.036293172411021153 0.0014123939247807252 0 0.036067418606202606 -4.8002053070666485e-05 0 0.037427334371857107 0.00098900423814805459 0 0.035781221781588601 0.0023498463806746707 0 0.03586256297369253 0.0025542315802064381 0 0.036449664949158848 -2.2232704630463481e-05 0 0.036067418606202606 -4.8002053070666485e-05 0 0.036815096756365372 0.00044813918290542704 0 0.035813470700387845 -0.00040437852998218108 0 0.036449664949158848 -2.2232704630463481e-05 0 0.036067418606202606 -4.8002053070666485e-05 0 0.034999855662426277 0.0014045205545703081 0 0.036293172411021153 0.0014123939247807252 0 0.036067418606202606 -4.8002053070666485e-05 0 0.034999768367844158 -0.00063326030266010257 0 0.035813470700387845 -0.00040437852998218108 0 0.034999855662426277 0.0014045205545703081 0 0.035813470700387845 -0.00040437852998218108 0 0.034999855662426277 0.0014045205545703081 0 0.036067418606202606 -4.8002053070666485e-05 0 0.03780321106216996 -0.00016300510961588283 0 0.03702176698341629 -0.00022404895220453649 0 0.037343759947157766 0.00024480720626592615 0 0.03780321106216996 -0.00016300510961588283 0 0.037343759947157766 0.00024480720626592615 0 0.037723336105293236 0.00048102457712435604 0 0.03702176698341629 -0.00022404895220453649 0 0.037343759947157766 0.00024480720626592615 0 0.036815096756365372 0.00044813918290542704 0 0.03702176698341629 -0.00022404895220453649 0 0.036449664949158848 -2.2232704630463481e-05 0 0.036815096756365372 0.00044813918290542704 0 0.037343759947157766 0.00024480720626592615 0 0.036815096756365372 0.00044813918290542704 0 0.037395149332600693 0.00083880105794695498 0 0.037184663955948195 0.0020300822920105745 0 0.037427334371857107 0.00098900423814805459 0 0.038633949332432457 0.0019231470222833722 0 0.03586256297369253 0.0025542315802064381 0 0.035857436776955215 0.0029975338348129576 0 0.037343759947157766 0.00024480720626592615 0 0.037395149332600693 0.00083880105794695498 0 0.037723336105293236 0.00048102457712435604 0 0.037420205855796494 0.00077970111393721637 0 0.037723336105293236 0.00048102457712435604 0 0.037801880000330378 0.0010649107148638941 0 0.035857436776955215 0.0029975338348129576 0 0.036052630398706272 0.0027873729226716836 0 0.034581918770178542 0.0079542266837766776 0 0.034569584148181322 0.0075765565800890783 0 0.034300887324273312 0.0077708955567591092 0 0.035857436776955215 0.0029975338348129576 0 0.036071839532396698 0.0035501203623750409 0 0.034569584148181322 0.0075765565800890783 0 0.034301059181789877 0.0075651314616068093 0 0.034300887324273312 0.0077708955567591092 0 0.037184663955948195 0.0020300822920105745 0 0.038633949332432457 0.0019231470222833722 0 0.037385285018123382 0.0031358323008632005 0 0.034581918770178542 0.0079542266837766776 0 0.034569584148181322 0.0075765565800890783 0 0.034928069940658869 0.0075280697779478755 0 0.035857436776955215 0.0029975338348129576 0 0.035489898867569855 0.0041281251017180704 0 0.034569584148181322 0.0075765565800890783 0 0.034928069940658869 0.0075280697779478755 0 0.034803131214283044 0.0072455658645736738 0 0.034569584148181322 0.0075765565800890783 0 0.034513940813819866 0.0073830286337272658 0 0.034301059181789877 0.0075651314616068093 0 0.034569584148181322 0.0075765565800890783 0 0.034803131214283044 0.0072455658645736738 0 0.034513940813819866 0.0073830286337272658 0 0.034721200733636104 0.0071647886493259819 0 0.034803131214283044 0.0072455658645736738 0 0.034513940813819866 0.0073830286337272658 0 0.034513940813819866 0.0073830286337272658 0 0.034294565365999979 0.0074185671356192546 0 0.034354583276084358 0.0072804178768185639 0 0.034513940813819866 0.0073830286337272658 0 0.034294565365999979 0.0074185671356192546 0 0.034301059181789877 0.0075651314616068093 0 0.034294565365999979 0.0074185671356192546 0 0.034071334415684378 0.0075123402272249708 0 0.033907734276513134 0.0073134492409723259 0 0.034071334415684378 0.0075123402272249708 0 0.034002279223781628 0.0076181549593326353 0 0.034301059181789877 0.0075651314616068093 0 0.036142321950855413 0.0040818506539858695 0 0.036208168944496279 0.0039842928643992791 0 0.034294565365999979 0.0074185671356192546 0 0.034071334415684378 0.0075123402272249708 0 0.034301059181789877 0.0075651314616068093 0 0.032806092369313672 0.0070125723621920827 0 0.033350953716770486 0.0073253975632908584 0 0.033187054105653403 0.0068670887677190554 0 0.033350953716770486 0.0073253975632908584 0 0.0334380331974439 0.0072124363602941262 0 0.033577118640132589 0.0073429335419926281 0 0.034071334415684378 0.0075123402272249708 0 0.033350953716770486 0.0073253975632908584 0 0.033907734276513134 0.0073134492409723259 0 0.036208168944496279 0.0039842928643992791 0 0.036141459638411672 0.0040398485661422125 0 0.034071334415684378 0.0075123402272249708 0 0.033852850823984683 0.0077957443769230876 0 0.033350953716770486 0.0073253975632908584 0 0.033350953716770486 0.0073253975632908584 0 0.033187054105653403 0.0068670887677190554 0 0.0334380331974439 0.0072124363602941262 0 0.032806092369313672 0.0070125723621920827 0 0.032812876862966918 0.0063327032624782408 0 0.033187054105653403 0.0068670887677190554 0 0.038183450109741189 0.0013540540329031161 0 0.038148710736424049 0.00099680667403458057 0 0.038539264336616565 0.00084036406652711034 0 0.036208168944496279 0.0039842928643992791 0 0.035945677770881555 0.0032539317079956554 0 0.034002279223781628 0.0076181549593326353 0 0.034301059181789877 0.0075651314616068093 0 0.034300887324273312 0.0077708955567591092 0 0.036208168944496279 0.0039842928643992791 0 0.036071839532396698 0.0035501203623750409 0 0.038183450109741189 0.0013540540329031161 0 0.038148710736424049 0.00099680667403458057 0 0.037801880000330378 0.0010649107148638941 0 0.038148710736424049 0.00099680667403458057 0 0.037801880000330378 0.0010649107148638941 0 0.038070232163900958 0.00072829599285034274 0 0.037723336105293236 0.00048102457712435604 0 0.038070232163900958 0.00072829599285034274 0 0.038269836092868666 0.00034349436481680373 0 0.037723336105293236 0.00048102457712435604 0 0.037801880000330378 0.0010649107148638941 0 0.038070232163900958 0.00072829599285034274 0 0.038539264336616565 0.00084036406652711034 0 0.038269836092868666 0.00034349436481680373 0 0.038886295629543016 0.00032840694428444648 0 0.038070232163900958 0.00072829599285034274 0 0.038539264336616565 0.00084036406652711034 0 0.038269836092868666 0.00034349436481680373 0 0.038148710736424049 0.00099680667403458057 0 0.038070232163900958 0.00072829599285034274 0 0.038539264336616565 0.00084036406652711034 0 0.038522428231777192 -0.00015557839269913682 0 0.038269836092868666 0.00034349436481680373 0 0.038886295629543016 0.00032840694428444648 0 0.03780321106216996 -0.00016300510961588283 0 0.037723336105293236 0.00048102457712435604 0 0.038269836092868666 0.00034349436481680373 0 0.03780321106216996 -0.00016300510961588283 0 0.038522428231777192 -0.00015557839269913682 0 0.038269836092868666 0.00034349436481680373 0 0.032824337994451801 0.0041499149485785345 0 0.032673812872296773 0.005375386029743837 0 0.033444437072888321 0.004766558138834559 0 0.032673812872296773 0.005375386029743837 0 0.033420668501226658 0.0059863116291841512 0 0.033444437072888321 0.004766558138834559 0 0.035464848632465157 0.0016980840205073366 0 0.035727817508722851 0.0024705179397021401 0 0.039226589718767323 -0.00016836381485685407 0 0.038522428231777192 -0.00015557839269913682 0 0.038886295629543016 0.00032840694428444648 0 0.035945677770881555 0.0032539317079956554 0 0.035727817508722851 0.0024705179397021401 0 0.032812876862966918 0.0063327032624782408 0 0.032673812872296773 0.005375386029743837 0 0.033099354067414058 0.0062469446835546043 0 0.032673812872296773 0.005375386029743837 0 0.033099354067414058 0.0062469446835546043 0 0.033420668501226658 0.0059863116291841512 0 0.033420668501226658 0.0059863116291841512 0 0.033376444764266558 0.0068720959532003389 0 0.033803760201373399 0.0069247965128621447 0 0.033099354067414058 0.0062469446835546043 0 0.033420668501226658 0.0059863116291841512 0 0.033376444764266558 0.0068720959532003389 0 0.032812876862966918 0.0063327032624782408 0 0.033099354067414058 0.0062469446835546043 0 0.033187054105653403 0.0068670887677190554 0 0.033099354067414058 0.0062469446835546043 0 0.033376444764266558 0.0068720959532003389 0 0.033187054105653403 0.0068670887677190554 0 0.033376444764266558 0.0068720959532003389 0 0.0334380331974439 0.0072124363602941262 0 0.033652078741454143 0.0073635277852089507 0 0.033376444764266558 0.0068720959532003389 0 0.033187054105653403 0.0068670887677190554 0 0.0334380331974439 0.0072124363602941262 0 0.033376444764266558 0.0068720959532003389 0 0.033652078741454143 0.0073635277852089507 0 0.033803760201373399 0.0069247965128621447 0 0.033652078741454143 0.0073635277852089507 0 0.034179317310658132 0.0075068138351504984 0 0.033803760201373399 0.0069247965128621447 0 0.033652078741454143 0.0073635277852089507 0 0.034205814733000453 0.0078755052158253607 0 0.034179317310658132 0.0075068138351504984 0 0.034831462476136436 0.0082445208934984124 0 0.03458367792134049 0.0081250085848686305 0 0.034205814733000453 0.0078755052158253607 0 0.033652078741454143 0.0073635277852089507 0 0.033643312994415898 0.0074451400176610014 0 0.034205814733000453 0.0078755052158253607 0 0.034520823779442392 0.0077012657038633249 0 0.034551855958949607 0.0077037188919388076 0 0.033652078741454143 0.0073635277852089507 0 0.033643312994415898 0.0074451400176610014 0 0.033577118640132589 0.0073429335419926281 0 0.0334380331974439 0.0072124363602941262 0 0.033652078741454143 0.0073635277852089507 0 0.033577118640132589 0.0073429335419926281 0 0.033350953716770486 0.0073253975632908584 0 0.033577118640132589 0.0073429335419926281 0 0.033907734276513134 0.0073134492409723259 0 0.033577118640132589 0.0073429335419926281 0 0.033969976453228565 0.0072687511335289339 0 0.033907734276513134 0.0073134492409723259 0 0.034601264000491981 0.0072120842461599203 0 0.033969976453228565 0.0072687511335289339 0 0.034354583276084358 0.0072804178768185639 0 0.034294565365999979 0.0074185671356192546 0 0.034354583276084358 0.0072804178768185639 0 0.033907734276513134 0.0073134492409723259 0 0.033969976453228565 0.0072687511335289339 0 0.034354583276084358 0.0072804178768185639 0 0.033907734276513134 0.0073134492409723259 0 0.034601264000491981 0.0072120842461599203 0 0.033969976453228565 0.0072687511335289339 0 0.034172882521693697 0.0070491651473156697 0 0.033643312994415898 0.0074451400176610014 0 0.033577118640132589 0.0073429335419926281 0 0.033969976453228565 0.0072687511335289339 0 0.034520823779442392 0.0077012657038633249 0 0.034471453410031765 0.0076924159744084716 0 0.033643312994415898 0.0074451400176610014 0 0.033969976453228565 0.0072687511335289339 0 0.034172882521693697 0.0070491651473156697 0 0.034831462476136436 0.0082445208934984124 0 0.035124404597162019 0.0080595536125518813 0 0.034968244930969825 0.0082730050869748023 0 0.035009310196534069 0.0075063715349787258 0 0.035124404597162019 0.0080595536125518813 0 0.035201417616001519 0.0083158962123106254 0 0.034450777181044778 0.0076891741733486306 0 0.034471453410031765 0.0076924159744084716 0 0.035124404597162019 0.0080595536125518813 0 0.035201417616001519 0.0083158962123106254 0 0.034968244930969825 0.0082730050869748023 0 0.034968244930969825 0.0082730050869748023 0 0.034734561015918833 0.0083011402743055993 0 0.034952250108258989 0.0086169186480256343 0 0.034734561015918833 0.0083011402743055993 0 0.03458367792134049 0.0081250085848686305 0 0.034469924042993386 0.0081032066518518832 0 0.034968244930969825 0.0082730050869748023 0 0.034734561015918833 0.0083011402743055993 0 0.03458367792134049 0.0081250085848686305 0 0.03458367792134049 0.0081250085848686305 0 0.034469924042993386 0.0081032066518518832 0 0.034205814733000453 0.0078755052158253607 0 0.034831462476136436 0.0082445208934984124 0 0.034968244930969825 0.0082730050869748023 0 0.03458367792134049 0.0081250085848686305 0 0.034469924042993386 0.0081032066518518832 0 0.034358642213221442 0.0079936047794475478 0 0.034307484926669095 0.0078206419604112849 0 0.034469924042993386 0.0081032066518518832 0 0.034307484926669095 0.0078206419604112849 0 0.034205814733000453 0.0078755052158253607 0 0.034734561015918833 0.0083011402743055993 0 0.034469924042993386 0.0081032066518518832 0 0.034637048133738566 0.0083756484164133876 0 0.034469924042993386 0.0081032066518518832 0 0.034358642213221442 0.0079936047794475478 0 0.034637048133738566 0.0083756484164133876 0 0.034358642213221442 0.0079936047794475478 0 0.033806622644301891 0.0075844718178299329 0 0.034276609760902729 0.007975616779705293 0 0.034358642213221442 0.0079936047794475478 0 0.034130103980305103 0.0077658341421721448 0 0.033806622644301891 0.0075844718178299329 0 0.034130103980305103 0.0077658341421721448 0 0.033956037888286134 0.0076743375267872005 0 0.033806622644301891 0.0075844718178299329 0 0.034358642213221442 0.0079936047794475478 0 0.034130103980305103 0.0077658341421721448 0 0.034307484926669095 0.0078206419604112849 0 0.033956037888286134 0.0076743375267872005 0 0.034242607986135841 0.0076050612922282101 0 0.034307484926669095 0.0078206419604112849 0 0.034130103980305103 0.0077658341421721448 0 0.033956037888286134 0.0076743375267872005 0 0.034307484926669095 0.0078206419604112849 0 0.033956037888286134 0.0076743375267872005 0 0.034061345764328607 0.0075357461250555547 0 0.033404334825060424 0.0076740526913348832 0 0.033956037888286134 0.0076743375267872005 0 0.034061345764328607 0.0075357461250555547 0 0.034242607986135841 0.0076050612922282101 0 0.034061345764328607 0.0075357461250555547 0 0.034242607986135841 0.0076050612922282101 0 0.034358460083343131 0.0073436396039220425 0 0.034242607986135841 0.0076050612922282101 0 0.034179317310658132 0.0075068138351504984 0 0.034358460083343131 0.0073436396039220425 0 0.034242607986135841 0.0076050612922282101 0 0.034307484926669095 0.0078206419604112849 0 0.034179317310658132 0.0075068138351504984 0 0.034307484926669095 0.0078206419604112849 0 0.034205814733000453 0.0078755052158253607 0 0.034179317310658132 0.0075068138351504984 0 0.034179317310658132 0.0075068138351504984 0 0.034269707632166017 0.0070430307024629676 0 0.033803760201373399 0.0069247965128621447 0 0.034179317310658132 0.0075068138351504984 0 0.034269707632166017 0.0070430307024629676 0 0.034358460083343131 0.0073436396039220425 0 0.034269707632166017 0.0070430307024629676 0 0.034210097894249884 0.0059097149493524629 0 0.034669405982423428 0.0069439064891058623 0 0.034269707632166017 0.0070430307024629676 0 0.034669405982423428 0.0069439064891058623 0 0.034358460083343131 0.0073436396039220425 0 0.034269707632166017 0.0070430307024629676 0 0.033803760201373399 0.0069247965128621447 0 0.034210097894249884 0.0059097149493524629 0 0.033420668501226658 0.0059863116291841512 0 0.034210097894249884 0.0059097149493524629 0 0.033444437072888321 0.004766558138834559 0 0.033420668501226658 0.0059863116291841512 0 0.033803760201373399 0.0069247965128621447 0 0.034210097894249884 0.0059097149493524629 0 0.034210097894249884 0.0059097149493524629 0 0.035156142287678278 0.0058882203958861342 0 0.034669405982423428 0.0069439064891058623 0 0.034210097894249884 0.0059097149493524629 0 0.034924498955410069 0.0049073726641767103 0 0.035156142287678278 0.0058882203958861342 0 0.034210097894249884 0.0059097149493524629 0 0.034924498955410069 0.0049073726641767103 0 0.034441145972076967 0.0044451603373951093 0 0.03504429620067142 0.0030426138040021023 0 0.034924498955410069 0.0049073726641767103 0 0.034441145972076967 0.0044451603373951093 0 0.034210097894249884 0.0059097149493524629 0 0.034441145972076967 0.0044451603373951093 0 0.033444437072888321 0.004766558138834559 0 0.03407237946286705 0.0030229758126654187 0 0.034441145972076967 0.0044451603373951093 0 0.033444437072888321 0.004766558138834559 0 0.033909948972537733 0.004702795164783175 0 0.033820523385462167 0.0052992675137601385 0 0.032819660292284725 0.0053883678978929386 0 0.032497179006776379 0.0054830451079533171 0 0.032858049112900217 0.0056085858995256173 0 0.032672371028589456 0.0052030173917347235 0 0.032819660292284725 0.0053883678978929386 0 0.032497179006776379 0.0054830451079533171 0 0.033926318769273538 0.0047080070047291894 0 0.033909948972537733 0.004702795164783175 0 0.03504429620067142 0.0030426138040021023 0 0.034924498955410069 0.0049073726641767103 0 0.035886043517382525 0.0045303477750262052 0 0.034924498955410069 0.0049073726641767103 0 0.035886043517382525 0.0045303477750262052 0 0.035156142287678278 0.0058882203958861342 0 0.035886043517382525 0.0045303477750262052 0 0.036215162460875194 0.004882002567733492 0 0.035156142287678278 0.0058882203958861342 0 0.036215162460875194 0.004882002567733492 0 0.035037342635976784 0.0069233667269613525 0 0.035156142287678278 0.0058882203958861342 0 0.033909948972537733 0.004702795164783175 0 0.033955644037482725 0.0048606402156123937 0 0.035037342635976784 0.0069233667269613525 0 0.035156142287678278 0.0058882203958861342 0 0.034669405982423428 0.0069439064891058623 0 0.035066899237565036 0.0079745185871713826 0 0.035037342635976784 0.0069233667269613525 0 0.033850013631279437 0.0077017657543440639 0 0.035037342635976784 0.0069233667269613525 0 0.033738536529833642 0.0074650973400082294 0 0.033850013631279437 0.0077017657543440639 0 0.035037342635976784 0.0069233667269613525 0 0.034312392536261775 0.0072983461978615881 0 0.033738536529833642 0.0074650973400082294 0 0.035037342635976784 0.0069233667269613525 0 0.034312392536261775 0.0072983461978615881 0 0.034669405982423428 0.0069439064891058623 0 0.034312392536261775 0.0072983461978615881 0 0.034669405982423428 0.0069439064891058623 0 0.034358460083343131 0.0073436396039220425 0 0.034061345764328607 0.0075357461250555547 0 0.034312392536261775 0.0072983461978615881 0 0.034358460083343131 0.0073436396039220425 0 0.034061345764328607 0.0075357461250555547 0 0.034312392536261775 0.0072983461978615881 0 0.033582973712018814 0.0075489009523121691 0 0.033582973712018814 0.0075489009523121691 0 0.033047497047846985 0.007604154725784882 0 0.033738536529833642 0.0074650973400082294 0 0.033582973712018814 0.0075489009523121691 0 0.033047497047846985 0.007604154725784882 0 0.032711418805316618 0.007797219445880646 0 0.033047497047846985 0.007604154725784882 0 0.032545395692580449 0.007620867129927488 0 0.032711418805316618 0.007797219445880646 0 0.033047497047846985 0.007604154725784882 0 0.0329465696004844 0.0077351336216876761 0 0.033738536529833642 0.0074650973400082294 0 0.033047497047846985 0.007604154725784882 0 0.0329465696004844 0.0077351336216876761 0 0.032545395692580449 0.007620867129927488 0 0.034312392536261775 0.0072983461978615881 0 0.033582973712018814 0.0075489009523121691 0 0.033738536529833642 0.0074650973400082294 0 0.0329465696004844 0.0077351336216876761 0 0.033738536529833642 0.0074650973400082294 0 0.033850013631279437 0.0077017657543440639 0 0.033776499547575119 0.0056576589142461782 0 0.033820523385462167 0.0052992675137601385 0 0.032757595102539602 0.0058761253120566213 0 0.032858049112900217 0.0056085858995256173 0 0.033027813966594245 0.0054417319034689915 0 0.032757595102539602 0.0058761253120566213 0 0.033027813966594245 0.0054417319034689915 0 0.032901848950701786 0.0057186844312325687 0 0.033006862253668445 0.0050858917780193628 0 0.032819660292284725 0.0053883678978929386 0 0.033027813966594245 0.0054417319034689915 0 0.032819660292284725 0.0053883678978929386 0 0.032858049112900217 0.0056085858995256173 0 0.033027813966594245 0.0054417319034689915 0 0.033127856423068841 0.0053334018902912268 0 0.033161857676968463 0.0052510885451180541 0 0.032901848950701786 0.0057186844312325687 0 0.033027813966594245 0.0054417319034689915 0 0.033161857676968463 0.0052510885451180541 0 0.032901848950701786 0.0057186844312325687 0 0.033357683176027955 0.0058158678564355429 0 0.033127856423068841 0.0053334018902912268 0 0.032901848950701786 0.0057186844312325687 0 0.033357683176027955 0.0058158678564355429 0 0.032901848950701786 0.0057186844312325687 0 0.03265850850090489 0.006858279475391302 0 0.031726046185484691 0.0069609240062919412 0 0.031950025664658765 0.0067822380370314017 0 0.032561492700829101 0.0069550305940180388 0 0.03232966084103471 0.0062347479701551356 0 0.032365911014294889 0.0062539851685249866 0 0.033357683176027955 0.0058158678564355429 0 0.03265850850090489 0.006858279475391302 0 0.032561492700829101 0.0069550305940180388 0 0.033776499547575119 0.0056576589142461782 0 0.033795993515942487 0.0057960953631439917 0 0.032757595102539602 0.0058761253120566213 0 0.032901848950701786 0.0057186844312325687 0 0.03265850850090489 0.006858279475391302 0 0.0329465696004844 0.0077351336216876761 0 0.03265850850090489 0.006858279475391302 0 0.032545395692580449 0.007620867129927488 0 0.032545395692580449 0.007620867129927488 0 0.031934141577824177 0.0079844320618132816 0 0.032711418805316618 0.007797219445880646 0 0.03265850850090489 0.006858279475391302 0 0.032545395692580449 0.007620867129927488 0 0.032561492700829101 0.0069550305940180388 0 0.032545395692580449 0.007620867129927488 0 0.031014814273486364 0.0086877720712592536 0 0.031934141577824177 0.0079844320618132816 0 0.032545395692580449 0.007620867129927488 0 0.032561492700829101 0.0069550305940180388 0 0.032382801612368832 0.0065684409593240777 0 0.031950025664658765 0.0067822380370314017 0 0.032561492700829101 0.0069550305940180388 0 0.032382801612368832 0.0065684409593240777 0 0.030531525547384301 0.0070796174577057005 0 0.030366852616145239 0.0070313508561396882 0 0.030378775331299217 0.0079335287871583459 0 0.030961124603384637 0.008182647606842279 0 0.031746601882902112 0.0077989558686252722 0 0.030961124603384637 0.008182647606842279 0 0.031746601882902112 0.0077989558686252722 0 0.031934141577824177 0.0079844320618132816 0 0.031014814273486364 0.0086877720712592536 0 0.030961124603384637 0.008182647606842279 0 0.031934141577824177 0.0079844320618132816 0 0.030378775331299217 0.0079335287871583459 0 0.031746601882902112 0.0077989558686252722 0 0.030749076827244273 0.0075346955318376504 0 0.031746601882902112 0.0077989558686252722 0 0.031934141577824177 0.0079844320618132816 0 0.032711418805316618 0.007797219445880646 0 0.031746601882902112 0.0077989558686252722 0 0.032711418805316618 0.007797219445880646 0 0.033134393668734351 0.0076876455218262687 0 0.032711418805316618 0.007797219445880646 0 0.033404334825060424 0.0076740526913348832 0 0.033134393668734351 0.0076876455218262687 0 0.033582973712018814 0.0075489009523121691 0 0.032711418805316618 0.007797219445880646 0 0.033404334825060424 0.0076740526913348832 0 0.034061345764328607 0.0075357461250555547 0 0.033582973712018814 0.0075489009523121691 0 0.033404334825060424 0.0076740526913348832 0 0.033956037888286134 0.0076743375267872005 0 0.033134393668734351 0.0076876455218262687 0 0.033806622644301891 0.0075844718178299329 0 0.033956037888286134 0.0076743375267872005 0 0.033404334825060424 0.0076740526913348832 0 0.033134393668734351 0.0076876455218262687 0 0.031746601882902112 0.0077989558686252722 0 0.033134393668734351 0.0076876455218262687 0 0.031670620976555132 0.0072140521958115661 0 0.033134393668734351 0.0076876455218262687 0 0.033806622644301891 0.0075844718178299329 0 0.031670620976555132 0.0072140521958115661 0 0.033806622644301891 0.0075844718178299329 0 0.031670620976555132 0.0072140521958115661 0 0.033492352854611232 0.0073731373421938714 0 0.031424005736295106 0.0081854961769435037 0 0.031478649259116455 0.0081462787888429405 0 0.030124287208312749 0.007130316336928252 0 0.031670620976555132 0.0072140521958115661 0 0.030061744435258577 0.0065350602608596443 0 0.029266214150708049 0.0067594924251757693 0 0.030124287208312749 0.007130316336928252 0 0.030061744435258577 0.0065350602608596443 0 0.02986765716693732 0.0075858743345394875 0 0.030124287208312749 0.007130316336928252 0 0.030749076827244273 0.0075346955318376504 0 0.030124287208312749 0.007130316336928252 0 0.030749076827244273 0.0075346955318376504 0 0.031670620976555132 0.0072140521958115661 0 0.031746601882902112 0.0077989558686252722 0 0.030749076827244273 0.0075346955318376504 0 0.031670620976555132 0.0072140521958115661 0 0.030061744435258577 0.0065350602608596443 0 0.029820484158256291 0.0062255211166580612 0 0.029356789882148775 0.0062034871319396889 0 0.02895068786053185 0.0064012470902914806 0 0.030061744435258577 0.0065350602608596443 0 0.029356789882148775 0.0062034871319396889 0 0.02895068786053185 0.0064012470902914806 0 0.029266214150708049 0.0067594924251757693 0 0.030061744435258577 0.0065350602608596443 0 0.031670620976555132 0.0072140521958115661 0 0.030061744435258577 0.0065350602608596443 0 0.030311945720337206 0.0064717770337935068 0 0.033806622644301891 0.0075844718178299329 0 0.033492352854611232 0.0073731373421938714 0 0.034276609760902729 0.007975616779705293 0 0.033492352854611232 0.0073731373421938714 0 0.034420168499961198 0.0081725356646428909 0 0.034276609760902729 0.007975616779705293 0 0.031478649259116455 0.0081462787888429405 0 0.031472208628743018 0.0083155227882701355 0 0.030311945720337206 0.0064717770337935068 0 0.029820484158256291 0.0062255211166580612 0 0.029577413492388484 0.0060249557944106703 0 0.030061744435258577 0.0065350602608596443 0 0.030311945720337206 0.0064717770337935068 0 0.029820484158256291 0.0062255211166580612 0 0.029820484158256291 0.0062255211166580612 0 0.029632916739943362 0.0062242338052653631 0 0.029577413492388484 0.0060249557944106703 0 0.029820484158256291 0.0062255211166580612 0 0.029632916739943362 0.0062242338052653631 0 0.029452464492729636 0.0061067669378120915 0 0.029632916739943362 0.0062242338052653631 0 0.029577413492388484 0.0060249557944106703 0 0.029491988602638412 0.0064086714621574455 0 0.029577413492388484 0.0060249557944106703 0 0.029491988602638412 0.0064086714621574455 0 0.029014593456122013 0.0070299715842033622 0 0.029491988602638412 0.0064086714621574455 0 0.029292630095644562 0.0066228913482119884 0 0.029343079410021178 0.0063500514190234468 0 0.029491988602638412 0.0064086714621574455 0 0.029292630095644562 0.0066228913482119884 0 0.029014593456122013 0.0070299715842033622 0 0.029632916739943362 0.0062242338052653631 0 0.029480831879920368 0.0062194110927411752 0 0.029452464492729636 0.0061067669378120915 0 0.029632916739943362 0.0062242338052653631 0 0.029491988602638412 0.0064086714621574455 0 0.029480831879920368 0.0062194110927411752 0 0.029491988602638412 0.0064086714621574455 0 0.029480831879920368 0.0062194110927411752 0 0.029343079410021178 0.0063500514190234468 0 0.029480831879920368 0.0062194110927411752 0 0.02931479316081069 0.0060134914448590118 0 0.029343079410021178 0.0063500514190234468 0 0.029249494587037215 0.0059244548989771792 0 0.029452464492729636 0.0061067669378120915 0 0.02931479316081069 0.0060134914448590118 0 0.029480831879920368 0.0062194110927411752 0 0.029452464492729636 0.0061067669378120915 0 0.02931479316081069 0.0060134914448590118 0 0.029249494587037215 0.0059244548989771792 0 0.029452464492729636 0.0061067669378120915 0 0.02896247131358104 0.0059331823804327525 0 0.029452464492729636 0.0061067669378120915 0 0.029356789882148775 0.0062034871319396889 0 0.02896247131358104 0.0059331823804327525 0 0.029820484158256291 0.0062255211166580612 0 0.029452464492729636 0.0061067669378120915 0 0.029356789882148775 0.0062034871319396889 0 0.028398724635843121 0.0059988723802303886 0 0.029356789882148775 0.0062034871319396889 0 0.02896247131358104 0.0059331823804327525 0 0.02895068786053185 0.0064012470902914806 0 0.028398724635843121 0.0059988723802303886 0 0.029356789882148775 0.0062034871319396889 0 0.027910243261726926 0.0054388358497414408 0 0.028398724635843121 0.0059988723802303886 0 0.02896247131358104 0.0059331823804327525 0 0.027910243261726926 0.0054388358497414408 0 0.02896247131358104 0.0059331823804327525 0 0.029193340449652497 0.0056667647377325516 0 0.029249494587037215 0.0059244548989771792 0 0.02896247131358104 0.0059331823804327525 0 0.029193340449652497 0.0056667647377325516 0 0.027910243261726926 0.0054388358497414408 0 0.029193340449652497 0.0056667647377325516 0 0.028729511080249886 0.005019648918831221 0 0.024795094501714285 0.0075683225747748169 0 0.024388115357322711 0.0080027604587026985 0 0.029193340449652497 0.0056667647377325516 0 0.029416808560434236 0.0059742022772744461 0 0.029231315006616861 0.0060026094396889067 0 0.024488535915897159 0.0080019684532519654 0 0.024388115357322711 0.0080027604587026985 0 0.029193340449652497 0.0056667647377325516 0 0.02931479316081069 0.0060134914448590118 0 0.029231315006616861 0.0060026094396889067 0 0.029249494587037215 0.0059244548989771792 0 0.029193340449652497 0.0056667647377325516 0 0.02931479316081069 0.0060134914448590118 0 0.02931479316081069 0.0060134914448590118 0 0.029231315006616861 0.0060026094396889067 0 0.029231285178798236 0.0061757688525293499 0 0.029231315006616861 0.0060026094396889067 0 0.029240602154833106 0.0062278116487907787 0 0.029231285178798236 0.0061757688525293499 0 0.029240602154833106 0.0062278116487907787 0 0.029231285178798236 0.0061757688525293499 0 0.0292262614915356 0.0062563941648366801 0 0.022986951971895354 0.010477677145484523 0 0.022890532900175002 0.010352956715785667 0 0.022777301645616619 0.010497475098083322 0 0.024388115357322711 0.0080027604587026985 0 0.024905311148740016 0.0089582480438723869 0 0.029416808560434236 0.0059742022772744461 0 0.029231315006616861 0.0060026094396889067 0 0.029240602154833106 0.0062278116487907787 0 0.02331677203597881 0.0081445919476317314 0 0.024388115357322711 0.0080027604587026985 0 0.022986951971895354 0.010477677145484523 0 0.022777301645616619 0.010497475098083322 0 0.022895006090636234 0.010654713125568727 0 0.022777301645616619 0.010497475098083322 0 0.022895006090636234 0.010654713125568727 0 0.022665631720301824 0.010642167877755663 0 0.029240602154833106 0.0062278116487907787 0 0.029227274843925666 0.0062332814398439731 0 0.0292262614915356 0.0062563941648366801 0 0.024905311148740016 0.0089582480438723869 0 0.025018168723527672 0.010328713235634931 0 0.022895006090636234 0.010654713125568727 0 0.022665631720301824 0.010642167877755663 0 0.022790345457744339 0.010781256594784171 0 0.022665631720301824 0.010642167877755663 0 0.022670330363523134 0.010855839581911097 0 0.022790345457744339 0.010781256594784171 0 0.022895006090636234 0.010654713125568727 0 0.022790345457744339 0.010781256594784171 0 0.022957840867133761 0.010871821652985935 0 0.025417286030103094 0.011137348737891965 0 0.024540408927407793 0.012520951378411558 0 0.028131522276914879 0.015768577289208146 0 0.029382402337788934 0.013936278358336406 0 0.027526892667076093 0.01471558021193092 0 0.028131522276914879 0.015768577289208146 0 0.029382402337788934 0.013936278358336406 0 0.029463083422752025 0.016039018704309342 0 0.029227274843925666 0.0062332814398439731 0 0.02927323171241316 0.0062309281650807617 0 0.029250079714470092 0.0062082614675628266 0 0.025018168723527672 0.010328713235634931 0 0.024540408927407793 0.012520951378411558 0 0.022665631720301824 0.010642167877755663 0 0.022670330363523134 0.010855839581911097 0 0.022553921070416177 0.010786460222457404 0 0.029227274843925666 0.0062332814398439731 0 0.02927323171241316 0.0062309281650807617 0 0.0292262614915356 0.0062563941648366801 0 0.025417286030103094 0.011137348737891965 0 0.025858262371406732 0.010091411681546501 0 0.029382402337788934 0.013936278358336406 0 0.029670090122389813 0.011232945196913089 0 0.02791902121941495 0.012916680375526519 0 0.029341366663614706 0.0063530897900160501 0 0.0292262614915356 0.0062563941648366801 0 0.029249374831140741 0.0063564140616085606 0 0.02927323171241316 0.0062309281650807617 0 0.029341366663614706 0.0063530897900160501 0 0.0292262614915356 0.0062563941648366801 0 0.029231285178798236 0.0061757688525293499 0 0.0292262614915356 0.0062563941648366801 0 0.029249374831140741 0.0063564140616085606 0 0.029231285178798236 0.0061757688525293499 0 0.029249374831140741 0.0063564140616085606 0 0.029343079410021178 0.0063500514190234468 0 0.029249374831140741 0.0063564140616085606 0 0.029343079410021178 0.0063500514190234468 0 0.029244624916383095 0.0065803968730214629 0 0.02931479316081069 0.0060134914448590118 0 0.029231285178798236 0.0061757688525293499 0 0.029343079410021178 0.0063500514190234468 0 0.025858262371406732 0.010091411681546501 0 0.025968374015615431 0.0096267720168624667 0 0.029341366663614706 0.0063530897900160501 0 0.029244624916383095 0.0065803968730214629 0 0.029014593456122013 0.0070299715842033622 0 0.029341366663614706 0.0063530897900160501 0 0.029249374831140741 0.0063564140616085606 0 0.029244624916383095 0.0065803968730214629 0 0.029292630095644562 0.0066228913482119884 0 0.029343079410021178 0.0063500514190234468 0 0.029244624916383095 0.0065803968730214629 0 0.029292630095644562 0.0066228913482119884 0 0.029244624916383095 0.0065803968730214629 0 0.029014593456122013 0.0070299715842033622 0 0.028195573849954185 0.0099602924849679607 0 0.029014593456122013 0.0070299715842033622 0 0.028073068055959851 0.0070138969831971491 0 0.029670090122389813 0.011232945196913089 0 0.028195573849954185 0.0099602924849679607 0 0.029014593456122013 0.0070299715842033622 0 0.028195573849954185 0.0099602924849679607 0 0.02571343681835955 0.012273315362546545 0 0.028073068055959851 0.0070138969831971491 0 0.030924290870843224 0.0098817663333378662 0 0.031256215260495775 0.0089380114763532303 0 0.034583136708875299 0.009270576713029461 0 0.034591372543362413 0.009578304867714842 0 0.034757055477779769 0.009020050004537053 0 0.029670090122389813 0.011232945196913089 0 0.028195573849954185 0.0099602924849679607 0 0.02791902121941495 0.012916680375526519 0 0.028195573849954185 0.0099602924849679607 0 0.02571343681835955 0.012273315362546545 0 0.02791902121941495 0.012916680375526519 0 0.02791902121941495 0.012916680375526519 0 0.026805509924502511 0.013965603273661312 0 0.027526892667076093 0.01471558021193092 0 0.029382402337788934 0.013936278358336406 0 0.02791902121941495 0.012916680375526519 0 0.027526892667076093 0.01471558021193092 0 0.02571343681835955 0.012273315362546545 0 0.02791902121941495 0.012916680375526519 0 0.026805509924502511 0.013965603273661312 0 0.02571343681835955 0.012273315362546545 0 0.02651708874107216 0.014144123042562023 0 0.026805509924502511 0.013965603273661312 0 0.02571343681835955 0.012273315362546545 0 0.02651708874107216 0.014144123042562023 0 0.0272324934676305 0.014933521342820562 0 0.02651708874107216 0.014144123042562023 0 0.026805509924502511 0.013965603273661312 0 0.026164723732622516 0.014961450295398439 0 0.02651708874107216 0.014144123042562023 0 0.026164723732622516 0.014961450295398439 0 0.0272324934676305 0.014933521342820562 0 0.028131522276914879 0.015768577289208146 0 0.027526892667076093 0.01471558021193092 0 0.026911918392312516 0.01641751168605934 0 0.026164723732622516 0.014961450295398439 0 0.027526892667076093 0.01471558021193092 0 0.026911918392312516 0.01641751168605934 0 0.026805509924502511 0.013965603273661312 0 0.026164723732622516 0.014961450295398439 0 0.027526892667076093 0.01471558021193092 0 0.033755474763602494 0.012416384073999963 0 0.033712842799394391 0.01259352384113986 0 0.032451648036097874 0.010633889183628223 0 0.033624627881718001 0.0097399002229260796 0 0.030340400100627905 0.010505487535066327 0 0.031357988405935844 0.011296199247197207 0 0.032451648036097874 0.010633889183628223 0 0.030340400100627905 0.010505487535066327 0 0.031357988405935844 0.011296199247197207 0 0.030340400100627905 0.010505487535066327 0 0.030357332274282365 0.011686709368835287 0 0.032451648036097874 0.010633889183628223 0 0.033891519537404505 0.010006419226288862 0 0.030155413372418338 0.012552914279718238 0 0.026164723732622516 0.014961450295398439 0 0.0272324934676305 0.014933521342820562 0 0.02917760900403751 0.012649786211473292 0 0.032451648036097874 0.010633889183628223 0 0.033891519537404505 0.010006419226288862 0 0.033624627881718001 0.0097399002229260796 0 0.034591372543362413 0.009578304867714842 0 0.033891519537404505 0.010006419226288862 0 0.034181421019322131 0.0096705451819053285 0 0.033891519537404505 0.010006419226288862 0 0.033624627881718001 0.0097399002229260796 0 0.034181421019322131 0.0096705451819053285 0 0.030924290870843224 0.0098817663333378662 0 0.030754649987070289 0.010551535153322356 0 0.033624627881718001 0.0097399002229260796 0 0.03439403940203218 0.0097297464520094776 0 0.034773938632226657 0.0091202791864474549 0 0.033624627881718001 0.0097399002229260796 0 0.03439403940203218 0.0097297464520094776 0 0.034181421019322131 0.0096705451819053285 0 0.03439403940203218 0.0097297464520094776 0 0.034632638211538905 0.0098263058844515229 0 0.034979357649699207 0.0099143232655286833 0 0.03439403940203218 0.0097297464520094776 0 0.034632638211538905 0.0098263058844515229 0 0.034181421019322131 0.0096705451819053285 0 0.034632638211538905 0.0098263058844515229 0 0.034181421019322131 0.0096705451819053285 0 0.03448247303677842 0.0095515657363253129 0 0.034591372543362413 0.009578304867714842 0 0.034181421019322131 0.0096705451819053285 0 0.03448247303677842 0.0095515657363253129 0 0.034583136708875299 0.009270576713029461 0 0.03448247303677842 0.0095515657363253129 0 0.034667700584024408 0.0093019908630100605 0 0.034583136708875299 0.009270576713029461 0 0.034591372543362413 0.009578304867714842 0 0.03448247303677842 0.0095515657363253129 0 0.034632638211538905 0.0098263058844515229 0 0.03448247303677842 0.0095515657363253129 0 0.034826728529542529 0.0096776764374348588 0 0.034632638211538905 0.0098263058844515229 0 0.034826728529542529 0.0096776764374348588 0 0.035169282890298671 0.010105066201759402 0 0.03448247303677842 0.0095515657363253129 0 0.034826728529542529 0.0096776764374348588 0 0.034667700584024408 0.0093019908630100605 0 0.034826728529542529 0.0096776764374348588 0 0.034869599996981603 0.0092527664880654014 0 0.034667700584024408 0.0093019908630100605 0 0.034869599996981603 0.0092527664880654014 0 0.034643077100445729 0.0089322513984471351 0 0.034667700584024408 0.0093019908630100605 0 0.034869599996981603 0.0092527664880654014 0 0.034643077100445729 0.0089322513984471351 0 0.03464787172117393 0.0086303360952516353 0 0.034869599996981603 0.0092527664880654014 0 0.03464787172117393 0.0086303360952516353 0 0.034903990686100797 0.0088580455269922816 0 0.034643077100445729 0.0089322513984471351 0 0.034525063899434522 0.0085269204594202487 0 0.03464787172117393 0.0086303360952516353 0 0.034643077100445729 0.0089322513984471351 0 0.034667700584024408 0.0093019908630100605 0 0.034585215719788037 0.0089658739601443729 0 0.034583136708875299 0.009270576713029461 0 0.034667700584024408 0.0093019908630100605 0 0.034585215719788037 0.0089658739601443729 0 0.034585215719788037 0.0089658739601443729 0 0.034757055477779769 0.009020050004537053 0 0.0345289037012411 0.0085427341693691174 0 0.034583136708875299 0.009270576713029461 0 0.034585215719788037 0.0089658739601443729 0 0.034757055477779769 0.009020050004537053 0 0.031472208628743018 0.0083155227882701355 0 0.031256215260495775 0.0089380114763532303 0 0.029577413492388484 0.0060249557944106703 0 0.029014593456122013 0.0070299715842033622 0 0.028073068055959851 0.0070138969831971491 0 0.034420168499961198 0.0081725356646428909 0 0.034757055477779769 0.009020050004537053 0 0.0345289037012411 0.0085427341693691174 0 0.034585215719788037 0.0089658739601443729 0 0.0345289037012411 0.0085427341693691174 0 0.034525063899434522 0.0085269204594202487 0 0.034643077100445729 0.0089322513984471351 0 0.034585215719788037 0.0089658739601443729 0 0.034525063899434522 0.0085269204594202487 0 0.0345289037012411 0.0085427341693691174 0 0.034525063899434522 0.0085269204594202487 0 0.034276609760902729 0.007975616779705293 0 0.034525063899434522 0.0085269204594202487 0 0.034276609760902729 0.007975616779705293 0 0.034486000806364922 0.0082700020101924756 0 0.034420168499961198 0.0081725356646428909 0 0.0345289037012411 0.0085427341693691174 0 0.034276609760902729 0.007975616779705293 0 0.034358642213221442 0.0079936047794475478 0 0.034276609760902729 0.007975616779705293 0 0.034486000806364922 0.0082700020101924756 0 0.034358642213221442 0.0079936047794475478 0 0.034486000806364922 0.0082700020101924756 0 0.034637048133738566 0.0083756484164133876 0 0.034637048133738566 0.0083756484164133876 0 0.03464787172117393 0.0086303360952516353 0 0.034903990686100797 0.0088580455269922816 0 0.034486000806364922 0.0082700020101924756 0 0.034637048133738566 0.0083756484164133876 0 0.03464787172117393 0.0086303360952516353 0 0.034525063899434522 0.0085269204594202487 0 0.034486000806364922 0.0082700020101924756 0 0.03464787172117393 0.0086303360952516353 0 0.035208239051399685 0.0090649888434422097 0 0.034952250108258989 0.0086169186480256343 0 0.035174062007172394 0.0087262758868242567 0 0.035208239051399685 0.0090649888434422097 0 0.034903990686100797 0.0088580455269922816 0 0.034952250108258989 0.0086169186480256343 0 0.034637048133738566 0.0083756484164133876 0 0.034903990686100797 0.0088580455269922816 0 0.034952250108258989 0.0086169186480256343 0 0.034734561015918833 0.0083011402743055993 0 0.034637048133738566 0.0083756484164133876 0 0.034952250108258989 0.0086169186480256343 0 0.034968244930969825 0.0082730050869748023 0 0.034952250108258989 0.0086169186480256343 0 0.035174062007172394 0.0087262758868242567 0 0.035201417616001519 0.0083158962123106254 0 0.035174062007172394 0.0087262758868242567 0 0.035268374938807336 0.0088208044214190696 0 0.035201417616001519 0.0083158962123106254 0 0.034968244930969825 0.0082730050869748023 0 0.035174062007172394 0.0087262758868242567 0 0.035201417616001519 0.0083158962123106254 0 0.035268374938807336 0.0088208044214190696 0 0.035173866469677545 0.0085716354380994883 0 0.035268374938807336 0.0088208044214190696 0 0.035446653928660456 0.0095627489213485749 0 0.035197918813738779 0.0090078064908168318 0 0.035268374938807336 0.0088208044214190696 0 0.035337603773249036 0.0091791075892541305 0 0.035446653928660456 0.0095627489213485749 0 0.035268374938807336 0.0088208044214190696 0 0.035197918813738779 0.0090078064908168318 0 0.035173866469677545 0.0085716354380994883 0 0.035174062007172394 0.0087262758868242567 0 0.035268374938807336 0.0088208044214190696 0 0.035337603773249036 0.0091791075892541305 0 0.035208239051399685 0.0090649888434422097 0 0.035174062007172394 0.0087262758868242567 0 0.035337603773249036 0.0091791075892541305 0 0.035337603773249036 0.0091791075892541305 0 0.035477311366283869 0.0096824826459503688 0 0.035446653928660456 0.0095627489213485749 0 0.035208239051399685 0.0090649888434422097 0 0.035337603773249036 0.0091791075892541305 0 0.035477311366283869 0.0096824826459503688 0 0.035446653928660456 0.0095627489213485749 0 0.035554699306974927 0.010350202769404668 0 0.035314862463466226 0.0096080165458685106 0 0.035446653928660456 0.0095627489213485749 0 0.035693964418149982 0.010324434890088436 0 0.035554699306974927 0.010350202769404668 0 0.035477311366283869 0.0096824826459503688 0 0.035446653928660456 0.0095627489213485749 0 0.035693964418149982 0.010324434890088436 0 0.035477311366283869 0.0096824826459503688 0 0.035693964418149982 0.010324434890088436 0 0.035506175030925527 0.010011214688331327 0 0.035477311366283869 0.0096824826459503688 0 0.035506175030925527 0.010011214688331327 0 0.035217033516037111 0.0094498354249551771 0 0.035506175030925527 0.010011214688331327 0 0.035217033516037111 0.0094498354249551771 0 0.035208475692421269 0.0098256608085019945 0 0.035208239051399685 0.0090649888434422097 0 0.035477311366283869 0.0096824826459503688 0 0.035217033516037111 0.0094498354249551771 0 0.035208239051399685 0.0090649888434422097 0 0.034903990686100797 0.0088580455269922816 0 0.035217033516037111 0.0094498354249551771 0 0.034869599996981603 0.0092527664880654014 0 0.034903990686100797 0.0088580455269922816 0 0.035217033516037111 0.0094498354249551771 0 0.034869599996981603 0.0092527664880654014 0 0.035217033516037111 0.0094498354249551771 0 0.035208475692421269 0.0098256608085019945 0 0.034826728529542529 0.0096776764374348588 0 0.034869599996981603 0.0092527664880654014 0 0.035208475692421269 0.0098256608085019945 0 0.035208475692421269 0.0098256608085019945 0 0.035169282890298671 0.010105066201759402 0 0.035520340371746423 0.010260331549433153 0 0.034826728529542529 0.0096776764374348588 0 0.035208475692421269 0.0098256608085019945 0 0.035169282890298671 0.010105066201759402 0 0.035520340371746423 0.010260331549433153 0 0.035784663833862598 0.010523192098776493 0 0.035802823208941362 0.010663880874875032 0 0.035506175030925527 0.010011214688331327 0 0.035520340371746423 0.010260331549433153 0 0.035802823208941362 0.010663880874875032 0 0.035506175030925527 0.010011214688331327 0 0.035208475692421269 0.0098256608085019945 0 0.035520340371746423 0.010260331549433153 0 0.035169282890298671 0.010105066201759402 0 0.035520340371746423 0.010260331549433153 0 0.035784663833862598 0.010523192098776493 0 0.034632638211538905 0.0098263058844515229 0 0.035169282890298671 0.010105066201759402 0 0.034979357649699207 0.0099143232655286833 0 0.035169282890298671 0.010105066201759402 0 0.035784663833862598 0.010523192098776493 0 0.034979357649699207 0.0099143232655286833 0 0.03439403940203218 0.0097297464520094776 0 0.034979357649699207 0.0099143232655286833 0 0.034773938632226657 0.0091202791864474549 0 0.034979357649699207 0.0099143232655286833 0 0.035553469738928402 0.0095807919618124699 0 0.034773938632226657 0.0091202791864474549 0 0.035784663833862598 0.010523192098776493 0 0.034979357649699207 0.0099143232655286833 0 0.035553469738928402 0.0095807919618124699 0 0.035784663833862598 0.010523192098776493 0 0.035553469738928402 0.0095807919618124699 0 0.036423869264687755 0.0095303472678513398 0 0.035095075897485603 0.012608964350448166 0 0.034918521400964957 0.012895581413613799 0 0.035553469738928402 0.0095807919618124699 0 0.035859539478851371 0.0088498586628437351 0 0.036423869264687755 0.0095303472678513398 0 0.033809852892299923 0.01310536469479916 0 0.033712842799394391 0.01259352384113986 0 0.035553469738928402 0.0095807919618124699 0 0.035859539478851371 0.0088498586628437351 0 0.034773938632226657 0.0091202791864474549 0 0.029575543571188214 0.011128699140322638 0 0.030340400100627905 0.010505487535066327 0 0.029924681646572703 0.011595645970989662 0 0.030340400100627905 0.010505487535066327 0 0.030357332274282365 0.011686709368835287 0 0.029924681646572703 0.011595645970989662 0 0.034162663737027754 0.014020734882190538 0 0.034621284594549162 0.014165738801378818 0 0.038160178546949856 0.016045342105060707 0 0.039684550327364093 0.015600547655024785 0 0.036513996585250057 0.013268403994960156 0 0.036116286989134258 0.012074261513631302 0 0.036140090371014962 0.012330862096718784 0 0.036513996585250057 0.013268403994960156 0 0.034369012348627555 0.014005807108825782 0 0.034162663737027754 0.014020734882190538 0 0.033809852892299923 0.01310536469479916 0 0.034162663737027754 0.014020734882190538 0 0.036116286989134258 0.012074261513631302 0 0.036095141935492306 0.011975698287146347 0 0.036140090371014962 0.012330862096718784 0 0.034162663737027754 0.014020734882190538 0 0.034918521400964957 0.012895581413613799 0 0.035859539478851371 0.0088498586628437351 0 0.037050870742426044 0.0086694390556024958 0 0.036423869264687755 0.0095303472678513398 0 0.035784663833862598 0.010523192098776493 0 0.036095141935492306 0.011975698287146347 0 0.03598936560817341 0.011466473219528492 0 0.036095141935492306 0.011975698287146347 0 0.036140090371014962 0.012330862096718784 0 0.03598936560817341 0.011466473219528492 0 0.036140090371014962 0.012330862096718784 0 0.036121416032166627 0.012186570771902458 0 0.036513996585250057 0.013268403994960156 0 0.036140090371014962 0.012330862096718784 0 0.036121416032166627 0.012186570771902458 0 0.03598936560817341 0.011466473219528492 0 0.036121416032166627 0.012186570771902458 0 0.035887710168065134 0.011242721614641406 0 0.03593096600994064 0.012224947916093569 0 0.036121416032166627 0.012186570771902458 0 0.03598936560817341 0.011466473219528492 0 0.035887710168065134 0.011242721614641406 0 0.03598936560817341 0.011466473219528492 0 0.035802823208941362 0.010663880874875032 0 0.035887710168065134 0.011242721614641406 0 0.035784663833862598 0.010523192098776493 0 0.03598936560817341 0.011466473219528492 0 0.035802823208941362 0.010663880874875032 0 0.035693964418149982 0.010324434890088436 0 0.035802823208941362 0.010663880874875032 0 0.035887710168065134 0.011242721614641406 0 0.035693964418149982 0.010324434890088436 0 0.035506175030925527 0.010011214688331327 0 0.035802823208941362 0.010663880874875032 0 0.035693964418149982 0.010324434890088436 0 0.035887710168065134 0.011242721614641406 0 0.035554699306974927 0.010350202769404668 0 0.035887710168065134 0.011242721614641406 0 0.035446955625745256 0.011391670819812461 0 0.03593096600994064 0.012224947916093569 0 0.035887710168065134 0.011242721614641406 0 0.035446955625745256 0.011391670819812461 0 0.035554699306974927 0.010350202769404668 0 0.035446955625745256 0.011391670819812461 0 0.035453115585211033 0.012940872507729319 0 0.034290597704207219 0.011544582494310946 0 0.035446955625745256 0.011391670819812461 0 0.034290597704207219 0.011544582494310946 0 0.034935713341337743 0.010778146715956581 0 0.035453115585211033 0.012940872507729319 0 0.03593096600994064 0.012224947916093569 0 0.036513996585250057 0.013268403994960156 0 0.035446955625745256 0.011391670819812461 0 0.035453115585211033 0.012940872507729319 0 0.03593096600994064 0.012224947916093569 0 0.036121416032166627 0.012186570771902458 0 0.03593096600994064 0.012224947916093569 0 0.036513996585250057 0.013268403994960156 0 0.036513996585250057 0.013268403994960156 0 0.035479676471706557 0.014322593497616285 0 0.035898211428645632 0.015304725477298251 0 0.035453115585211033 0.012940872507729319 0 0.035479676471706557 0.014322593497616285 0 0.034875495341358649 0.014197946270337485 0 0.035453115585211033 0.012940872507729319 0 0.036513996585250057 0.013268403994960156 0 0.035479676471706557 0.014322593497616285 0 0.035898211428645632 0.015304725477298251 0 0.035124731942484264 0.01553573372215461 0 0.035425770423522122 0.016573355382047409 0 0.035479676471706557 0.014322593497616285 0 0.035898211428645632 0.015304725477298251 0 0.035124731942484264 0.01553573372215461 0 0.035898211428645632 0.015304725477298251 0 0.035425770423522122 0.016573355382047409 0 0.035939115295483992 0.016699932756248599 0 0.035898211428645632 0.015304725477298251 0 0.03651849993661499 0.016391833042585482 0 0.035939115295483992 0.016699932756248599 0 0.036513996585250057 0.013268403994960156 0 0.035898211428645632 0.015304725477298251 0 0.036783467084520363 0.015568755731344051 0 0.038160178546949856 0.016045342105060707 0 0.036513996585250057 0.013268403994960156 0 0.036783467084520363 0.015568755731344051 0 0.035898211428645632 0.015304725477298251 0 0.036783467084520363 0.015568755731344051 0 0.03651849993661499 0.016391833042585482 0 0.035105603511860414 0.016924522559582027 0 0.035124731942484264 0.01553573372215461 0 0.034996584061583354 0.016344827132945876 0 0.035105603511860414 0.016924522559582027 0 0.034996584061583354 0.016344827132945876 0 0.035000275730425107 0.017627322244076517 0 0.035105603511860414 0.016924522559582027 0 0.035124731942484264 0.01553573372215461 0 0.035425770423522122 0.016573355382047409 0 0.035124731942484264 0.01553573372215461 0 0.034875495341358649 0.014197946270337485 0 0.034996584061583354 0.016344827132945876 0 0.035479676471706557 0.014322593497616285 0 0.035124731942484264 0.01553573372215461 0 0.034875495341358649 0.014197946270337485 0 0.03500000491490985 0.016346985691048616 0 0.035766628358822793 0.014893359945836307 0 0.034999989041320803 0.015192017544959432 0 0.035000038783915291 0.016342607536128498 0 0.035371350290831237 0.014548347570119169 0 0.034875495341358649 0.014197946270337485 0 0.034996584061583354 0.016344827132945876 0 0.03415556952540362 0.013667382351011873 0 0.035766628358822793 0.014893359945836307 0 0.034999989041320803 0.015192017544959432 0 0.035000009797090281 0.014037114055749785 0 0.035453115585211033 0.012940872507729319 0 0.034875495341358649 0.014197946270337485 0 0.034290597704207219 0.011544582494310946 0 0.034875495341358649 0.014197946270337485 0 0.03415556952540362 0.013667382351011873 0 0.034290597704207219 0.011544582494310946 0 0.035371350290831237 0.014548347570119169 0 0.035587377135014905 0.013162093186249772 0 0.035766628358822793 0.014893359945836307 0 0.035000009797090281 0.014037114055749785 0 0.035651871861509248 0.013518614722829982 0 0.035766628358822793 0.014893359945836307 0 0.036513959077452363 0.013459951082867386 0 0.035651871861509248 0.013518614722829982 0 0.034999725202619042 0.014043190693529255 0 0.035331535158829121 0.012881057837550497 0 0.035000009797090281 0.014037114055749785 0 0.035651871861509248 0.013518614722829982 0 0.035102267991960978 0.012902375615093841 0 0.036513959077452363 0.013459951082867386 0 0.035651871861509248 0.013518614722829982 0 0.035981332567883759 0.012701282556934684 0 0.035102267991960978 0.012902375615093841 0 0.035981332567883759 0.012701282556934684 0 0.035198160573766117 0.011774407223835924 0 0.035331535158829121 0.012881057837550497 0 0.035075536908449674 0.011722443730855431 0 0.034903134263587127 0.012874583032453635 0 0.034999906382791303 0.011686000294265021 0 0.035184155645166935 0.011712321212890878 0 0.035651871861509248 0.013518614722829982 0 0.035102267991960978 0.012902375615093841 0 0.035981332567883759 0.012701282556934684 0 0.035981332567883759 0.012701282556934684 0 0.035198160573766117 0.011774407223835924 0 0.036228828634063806 0.011913882634615571 0 0.034569296756215347 0.0091508148864431049 0 0.034750887629618414 0.0089976945598224771 0 0.034680525091457269 0.0087547763821825431 0 0.035075536908449674 0.011722443730855431 0 0.035111234919767059 0.010869521271904416 0 0.035000182000356983 0.011686244259331588 0 0.035193816651532685 0.011712349127632936 0 0.035344679455116108 0.010236943330539058 0 0.035001145437230118 0.011686965784726592 0 0.035075536908449674 0.011722443730855431 0 0.035075536908449674 0.011722443730855431 0 0.035363006315430802 0.011920320290446514 0 0.034569296756215347 0.0091508148864431049 0 0.034750887629618414 0.0089976945598224771 0 0.034780271137989177 0.0091886267923352322 0 0.034825898198758573 0.0091767208837044405 0 0.034859832869840637 0.0091208032317272088 0 0.034837889724239561 0.0089542902480002559 0 0.034750887629618414 0.0089976945598224771 0 0.034825898198758573 0.0091767208837044405 0 0.034837889724239561 0.0089542902480002559 0 0.034750887629618414 0.0089976945598224771 0 0.034825898198758573 0.0091767208837044405 0 0.034780271137989177 0.0091886267923352322 0 0.035363006315430802 0.011920320290446514 0 0.035646013158681052 0.012198530942328948 0 0.034825898198758573 0.0091767208837044405 0 0.034780271137989177 0.0091886267923352322 0 0.03483884206248121 0.0092658707761884302 0 0.035981332567883759 0.012701282556934684 0 0.036228828634063806 0.011913882634615571 0 0.03725857970843946 0.012052226773770375 0 0.036513959077452363 0.013459951082867386 0 0.035981332567883759 0.012701282556934684 0 0.03725857970843946 0.012052226773770375 0 0.035587377135014905 0.013162093186249772 0 0.035646013158681052 0.012198530942328948 0 0.035446955625745256 0.011391670819812461 0 0.034935713341337743 0.010778146715956581 0 0.035186410458550726 0.010014098352269811 0 0.034290597704207219 0.011544582494310946 0 0.034935713341337743 0.010778146715956581 0 0.034620765674174381 0.010114615337558888 0 0.034935713341337743 0.010778146715956581 0 0.035186410458550726 0.010014098352269811 0 0.034620765674174381 0.010114615337558888 0 0.035591236200333783 0.012132198357153833 0 0.035646013158681052 0.012198530942328948 0 0.035446955625745256 0.011391670819812461 0 0.035554699306974927 0.010350202769404668 0 0.035186410458550726 0.010014098352269811 0 0.035554699306974927 0.010350202769404668 0 0.035186410458550726 0.010014098352269811 0 0.035314862463466226 0.0096080165458685106 0 0.035186410458550726 0.010014098352269811 0 0.035314862463466226 0.0096080165458685106 0 0.035121550097872441 0.009277909527067937 0 0.035314862463466226 0.0096080165458685106 0 0.035121550097872441 0.009277909527067937 0 0.035197918813738779 0.0090078064908168318 0 0.035446653928660456 0.0095627489213485749 0 0.035314862463466226 0.0096080165458685106 0 0.035197918813738779 0.0090078064908168318 0 0.034825898198758573 0.0091767208837044405 0 0.034815137512121765 0.0093519923985013517 0 0.03483884206248121 0.0092658707761884302 0 0.035658745207258181 0.012147641895891122 0 0.035646013158681052 0.012198530942328948 0 0.035186410458550726 0.010014098352269811 0 0.034815137512121765 0.0093519923985013517 0 0.034643639448655859 0.0096693822612485478 0 0.035186410458550726 0.010014098352269811 0 0.035121550097872441 0.009277909527067937 0 0.034815137512121765 0.0093519923985013517 0 0.035121550097872441 0.009277909527067937 0 0.034815137512121765 0.0093519923985013517 0 0.034947541880063313 0.0091751297002184793 0 0.034825898198758573 0.0091767208837044405 0 0.034815137512121765 0.0093519923985013517 0 0.034859832869840637 0.0091208032317272088 0 0.034815137512121765 0.0093519923985013517 0 0.034947541880063313 0.0091751297002184793 0 0.034859832869840637 0.0091208032317272088 0 0.034950151039982565 0.0089109222419790479 0 0.035197918813738779 0.0090078064908168318 0 0.035057937100909119 0.0085615159837190737 0 0.034947541880063313 0.0091751297002184793 0 0.034859832869840637 0.0091208032317272088 0 0.034950151039982565 0.0089109222419790479 0 0.034859832869840637 0.0091208032317272088 0 0.034950151039982565 0.0089109222419790479 0 0.034837889724239561 0.0089542902480002559 0 0.035121550097872441 0.009277909527067937 0 0.034947541880063313 0.0091751297002184793 0 0.034950151039982565 0.0089109222419790479 0 0.034950151039982565 0.0089109222419790479 0 0.035057937100909119 0.0085615159837190737 0 0.034963988250214226 0.0085603228004037194 0 0.035121550097872441 0.009277909527067937 0 0.034950151039982565 0.0089109222419790479 0 0.035197918813738779 0.0090078064908168318 0 0.035197918813738779 0.0090078064908168318 0 0.035173866469677545 0.0085716354380994883 0 0.035057937100909119 0.0085615159837190737 0 0.035081541062881229 0.0081756674710056817 0 0.035201417616001519 0.0083158962123106254 0 0.035173866469677545 0.0085716354380994883 0 0.035081541062881229 0.0081756674710056817 0 0.035173866469677545 0.0085716354380994883 0 0.035057937100909119 0.0085615159837190737 0 0.035057937100909119 0.0085615159837190737 0 0.035039588163445511 0.0082927771459513945 0 0.034963988250214226 0.0085603228004037194 0 0.035081541062881229 0.0081756674710056817 0 0.035057937100909119 0.0085615159837190737 0 0.035039588163445511 0.0082927771459513945 0 0.035039588163445511 0.0082927771459513945 0 0.035013423746081004 0.0083008124250229607 0 0.034963988250214226 0.0085603228004037194 0 0.035013423746081004 0.0083008124250229607 0 0.034963988250214226 0.0085603228004037194 0 0.034896924145826104 0.008591201473642349 0 0.034963988250214226 0.0085603228004037194 0 0.034896924145826104 0.008591201473642349 0 0.034883616477406204 0.0087309826174537322 0 0.035113467837020948 0.0085750339915270628 0 0.034896924145826104 0.008591201473642349 0 0.034680525091457269 0.0087547763821825431 0 0.03512595261426215 0.01056574746050817 0 0.035111234919767059 0.010869521271904416 0 0.035113467837020948 0.0085750339915270628 0 0.035013423746081004 0.0083008124250229607 0 0.034896924145826104 0.008591201473642349 0 0.035113467837020948 0.0085750339915270628 0 0.034999721908715774 0.0096164960266543094 0 0.035344679455116108 0.010236943330539058 0 0.034896924145826104 0.008591201473642349 0 0.034680525091457269 0.0087547763821825431 0 0.034813950103867529 0.008800051045637294 0 0.035000182000356983 0.011686244259331588 0 0.034999721908715774 0.0096164960266543094 0 0.035344679455116108 0.010236943330539058 0 0.034750887629618414 0.0089976945598224771 0 0.034680525091457269 0.0087547763821825431 0 0.034813950103867529 0.008800051045637294 0 0.034750887629618414 0.0089976945598224771 0 0.034837889724239561 0.0089542902480002559 0 0.034813950103867529 0.008800051045637294 0 0.034950151039982565 0.0089109222419790479 0 0.034837889724239561 0.0089542902480002559 0 0.034883616477406204 0.0087309826174537322 0 0.034950151039982565 0.0089109222419790479 0 0.034963988250214226 0.0085603228004037194 0 0.034883616477406204 0.0087309826174537322 0 0.034896924145826104 0.008591201473642349 0 0.034883616477406204 0.0087309826174537322 0 0.034813950103867529 0.008800051045637294 0 0.034837889724239561 0.0089542902480002559 0 0.034883616477406204 0.0087309826174537322 0 0.034813950103867529 0.008800051045637294 0 0.036347113455250261 0.025215150705130394 0 0.037315318609185764 0.024331778681884419 0 0.036142397687650291 0.023677471577789034 0 0.036347113455250261 0.025215150705130394 0 0.034999889182016936 0.025095609599438719 0 0.036142397687650291 0.023677471577789034 0 0.034999889182016936 0.025095609599438719 0 0.03625714947028421 0.026572078170392425 0 0.034999996996890735 0.027158162536582292 0 0.036347113455250261 0.025215150705130394 0 0.034999889182016936 0.025095609599438719 0 0.03625714947028421 0.026572078170392425 0 0.036347113455250261 0.025215150705130394 0 0.037469902160485423 0.026240756061695743 0 0.03625714947028421 0.026572078170392425 0 0.037469902160485423 0.026240756061695743 0 0.037996567576303437 0.025510152538576771 0 0.038371475363459168 0.026409735432939119 0 0.036347113455250261 0.025215150705130394 0 0.037469902160485423 0.026240756061695743 0 0.037315318609185764 0.024331778681884419 0 0.037469902160485423 0.026240756061695743 0 0.037996567576303437 0.025510152538576771 0 0.037320732145204379 0.025529089263566208 0 0.036860447133824345 0.024418066622627872 0 0.036745711332660358 0.023995259782993099 0 0.037320732145204379 0.025529089263566208 0 0.037644557188416826 0.025051558479115197 0 0.037122496750625351 0.024731551249772762 0 0.037996567576303437 0.025510152538576771 0 0.037320732145204379 0.025529089263566208 0 0.037644557188416826 0.025051558479115197 0 0.036745711332660358 0.023995259782993099 0 0.036444286823340437 0.022976964080060804 0 0.037996567576303437 0.025510152538576771 0 0.037644557188416826 0.025051558479115197 0 0.038109520638544801 0.024813817831092811 0 0.037996567576303437 0.025510152538576771 0 0.038109520638544801 0.024813817831092811 0 0.038460373873328541 0.025185832417291401 0 0.035924806001818577 0.021170852185372995 0 0.035202877065609088 0.020640848420781 0 0.037644557188416826 0.025051558479115197 0 0.038109520638544801 0.024813817831092811 0 0.037795680231912834 0.024333004448464934 0 0.038109520638544801 0.024813817831092811 0 0.037795680231912834 0.024333004448464934 0 0.038644225079597763 0.024740588036084119 0 0.037644557188416826 0.025051558479115197 0 0.037122496750625351 0.024731551249772762 0 0.037795680231912834 0.024333004448464934 0 0.036986170575651615 0.022594315683401516 0 0.036142397687650291 0.023677471577789034 0 0.03583956872250571 0.021969166549827529 0 0.037315318609185764 0.024331778681884419 0 0.036986170575651615 0.022594315683401516 0 0.036142397687650291 0.023677471577789034 0 0.034999889182016936 0.025095609599438719 0 0.036142397687650291 0.023677471577789034 0 0.034999980716786644 0.0230327970577019 0 0.034999980716786644 0.0230327970577019 0 0.03583956872250571 0.021969166549827529 0 0.034999957152321869 0.020970033156484272 0 0.036142397687650291 0.023677471577789034 0 0.034999980716786644 0.0230327970577019 0 0.03583956872250571 0.021969166549827529 0 0.03583956872250571 0.021969166549827529 0 0.035777931823681913 0.021088527761217859 0 0.034999957152321869 0.020970033156484272 0 0.03583956872250571 0.021969166549827529 0 0.035777931823681913 0.021088527761217859 0 0.036632693492937969 0.020910182967115179 0 0.035777931823681913 0.021088527761217859 0 0.034999957152321869 0.020970033156484272 0 0.035325324952209504 0.020239450676872335 0 0.036444286823340437 0.022976964080060804 0 0.035966272722215115 0.021481335921405123 0 0.036986170575651615 0.022594315683401516 0 0.03583956872250571 0.021969166549827529 0 0.036632693492937969 0.020910182967115179 0 0.036962314156947708 0.020871109499731779 0 0.036647033343931129 0.019505404539992631 0 0.035325324952209504 0.020239450676872335 0 0.036756472481910961 0.018678541524431526 0 0.036554097810348934 0.019013175167765146 0 0.036394461726928375 0.018601502642560056 0 0.036756472481910961 0.018678541524431526 0 0.036554097810348934 0.019013175167765146 0 0.036647033343931129 0.019505404539992631 0 0.035966272722215115 0.021481335921405123 0 0.035953288961520571 0.021281030926273568 0 0.036554097810348934 0.019013175167765146 0 0.036647033343931129 0.019505404539992631 0 0.036714544755250947 0.019331414107197884 0 0.036647033343931129 0.019505404539992631 0 0.035325324952209504 0.020239450676872335 0 0.035000204488955564 0.018906949891772273 0 0.034999957152321869 0.020970033156484272 0 0.035325324952209504 0.020239450676872335 0 0.035000204488955564 0.018906949891772273 0 0.035777931823681913 0.021088527761217859 0 0.036632693492937969 0.020910182967115179 0 0.035325324952209504 0.020239450676872335 0 0.035966272722215115 0.021481335921405123 0 0.035871909502881723 0.021387266095009457 0 0.036647033343931129 0.019505404539992631 0 0.035000204488955564 0.018906949891772273 0 0.036714544755250947 0.019331414107197884 0 0.034999027566390145 0.018904960343923406 0 0.035229259690554682 0.018166773875429337 0 0.035110693223238718 0.017971341273446843 0 0.034999027566390145 0.018904960343923406 0 0.035286513991283297 0.018240516835587389 0 0.035229259690554682 0.018166773875429337 0 0.035000819685322086 0.018907397545833059 0 0.035411660748221378 0.018989791426462708 0 0.035286513991283297 0.018240516835587389 0 0.035343101811778264 0.018103618393421238 0 0.035229259690554682 0.018166773875429337 0 0.035286513991283297 0.018240516835587389 0 0.035343101811778264 0.018103618393421238 0 0.035684785940829959 0.018220597618374256 0 0.03542936930712582 0.017867316223507856 0 0.035343101811778264 0.018103618393421238 0 0.035684785940829959 0.018220597618374256 0 0.03542936930712582 0.017867316223507856 0 0.035229259690554682 0.018166773875429337 0 0.03527755254212829 0.017508768038207334 0 0.03542936930712582 0.017867316223507856 0 0.035343101811778264 0.018103618393421238 0 0.035229259690554682 0.018166773875429337 0 0.035105603511860414 0.016924522559582027 0 0.03527755254212829 0.017508768038207334 0 0.035425770423522122 0.016573355382047409 0 0.03542936930712582 0.017867316223507856 0 0.03527755254212829 0.017508768038207334 0 0.035644127352897383 0.017357778352113957 0 0.03527755254212829 0.017508768038207334 0 0.035425770423522122 0.016573355382047409 0 0.035644127352897383 0.017357778352113957 0 0.034999027566390145 0.018904960343923406 0 0.035000275730425107 0.017627322244076517 0 0.035110693223238718 0.017971341273446843 0 0.035105603511860414 0.016924522559582027 0 0.03527755254212829 0.017508768038207334 0 0.035110693223238718 0.017971341273446843 0 0.035105603511860414 0.016924522559582027 0 0.035000275730425107 0.017627322244076517 0 0.035110693223238718 0.017971341273446843 0 0.035229259690554682 0.018166773875429337 0 0.03527755254212829 0.017508768038207334 0 0.035110693223238718 0.017971341273446843 0 0.036330027304819441 0.017549302888050792 0 0.037254142526278428 0.016656816779141319 0 0.037837482102536339 0.01740703311063569 0 0.038160178546949856 0.016045342105060707 0 0.036783467084520363 0.015568755731344051 0 0.037254142526278428 0.016656816779141319 0 0.036783467084520363 0.015568755731344051 0 0.037254142526278428 0.016656816779141319 0 0.03651849993661499 0.016391833042585482 0 0.036330027304819441 0.017549302888050792 0 0.037254142526278428 0.016656816779141319 0 0.03651849993661499 0.016391833042585482 0 0.036330027304819441 0.017549302888050792 0 0.03651849993661499 0.016391833042585482 0 0.035939115295483992 0.016699932756248599 0 0.035425770423522122 0.016573355382047409 0 0.035939115295483992 0.016699932756248599 0 0.035644127352897383 0.017357778352113957 0 0.036330027304819441 0.017549302888050792 0 0.035939115295483992 0.016699932756248599 0 0.035644127352897383 0.017357778352113957 0 0.036330027304819441 0.017549302888050792 0 0.035821783558142972 0.018002650583612761 0 0.036106599762090942 0.018374178549719865 0 0.036330027304819441 0.017549302888050792 0 0.035644127352897383 0.017357778352113957 0 0.035821783558142972 0.018002650583612761 0 0.03542936930712582 0.017867316223507856 0 0.035821783558142972 0.018002650583612761 0 0.035684785940829959 0.018220597618374256 0 0.03542936930712582 0.017867316223507856 0 0.035644127352897383 0.017357778352113957 0 0.035821783558142972 0.018002650583612761 0 0.035821783558142972 0.018002650583612761 0 0.035684785940829959 0.018220597618374256 0 0.036106599762090942 0.018374178549719865 0 0.035684785940829959 0.018220597618374256 0 0.036106599762090942 0.018374178549719865 0 0.036228558418045967 0.018778902238324856 0 0.03422648661821516 0.01532751570592919 0 0.034216996214746304 0.015027791050754628 0 0.036330027304819441 0.017549302888050792 0 0.036446600388897306 0.01874650048207582 0 0.037837482102536339 0.01740703311063569 0 0.036330027304819441 0.017549302888050792 0 0.036106599762090942 0.018374178549719865 0 0.036446600388897306 0.01874650048207582 0 0.036446600388897306 0.01874650048207582 0 0.036136336870128911 0.018566710351266391 0 0.035568317241581833 0.018882283921807391 0 0.036106599762090942 0.018374178549719865 0 0.036446600388897306 0.01874650048207582 0 0.036228558418045967 0.018778902238324856 0 0.036446600388897306 0.01874650048207582 0 0.036136336870128911 0.018566710351266391 0 0.036228558418045967 0.018778902238324856 0 0.036136336870128911 0.018566710351266391 0 0.036228558418045967 0.018778902238324856 0 0.036216364176159734 0.018474766019192249 0 0.035286513991283297 0.018240516835587389 0 0.035684785940829959 0.018220597618374256 0 0.036228558418045967 0.018778902238324856 0 0.036554097810348934 0.019013175167765146 0 0.036714544755250947 0.019331414107197884 0 0.036228558418045967 0.018778902238324856 0 0.035411660748221378 0.018989791426462708 0 0.035602411913712342 0.019034536858359388 0 0.036228558418045967 0.018778902238324856 0 0.036394461726928375 0.018601502642560056 0 0.036216364176159734 0.018474766019192249 0 0.036554097810348934 0.019013175167765146 0 0.036228558418045967 0.018778902238324856 0 0.036394461726928375 0.018601502642560056 0 0.036756472481910961 0.018678541524431526 0 0.036394461726928375 0.018601502642560056 0 0.036285813485891452 0.018054859980625337 0 0.035966272722215115 0.021481335921405123 0 0.035924806001818577 0.021170852185372995 0 0.037122496750625351 0.024731551249772762 0 0.036934336680858555 0.023916258568644835 0 0.037795680231912834 0.024333004448464934 0 0.036394461726928375 0.018601502642560056 0 0.036216364176159734 0.018474766019192249 0 0.036285813485891452 0.018054859980625337 0 0.036025491026431426 0.018279128960054188 0 0.036285813485891452 0.018054859980625337 0 0.035733684051225532 0.017908986128559831 0 0.036136336870128911 0.018566710351266391 0 0.036025491026431426 0.018279128960054188 0 0.035626521458976067 0.018333846294900959 0 0.036136336870128911 0.018566710351266391 0 0.036025491026431426 0.018279128960054188 0 0.036216364176159734 0.018474766019192249 0 0.036025491026431426 0.018279128960054188 0 0.036216364176159734 0.018474766019192249 0 0.036285813485891452 0.018054859980625337 0 0.035733684051225532 0.017908986128559831 0 0.035626521458976067 0.018333846294900959 0 0.035106394181433596 0.017874860534332526 0 0.035626521458976067 0.018333846294900959 0 0.035106394181433596 0.017874860534332526 0 0.034986102784418861 0.018490262922251876 0 0.036025491026431426 0.018279128960054188 0 0.035733684051225532 0.017908986128559831 0 0.035626521458976067 0.018333846294900959 0 0.035106394181433596 0.017874860534332526 0 0.034343662556732588 0.018311297363219733 0 0.033830744311631487 0.016777839213898436 0 0.035106394181433596 0.017874860534332526 0 0.034343662556732588 0.018311297363219733 0 0.034986102784418861 0.018490262922251876 0 0.034343662556732588 0.018311297363219733 0 0.034464170298631996 0.018682787917004604 0 0.034986102784418861 0.018490262922251876 0 0.034464170298631996 0.018682787917004604 0 0.034986102784418861 0.018490262922251876 0 0.034836517634739474 0.018941257505252246 0 0.034986102784418861 0.018490262922251876 0 0.034836517634739474 0.018941257505252246 0 0.035568317241581833 0.018882283921807391 0 0.034464170298631996 0.018682787917004604 0 0.034836517634739474 0.018941257505252246 0 0.034296470167478367 0.019072814809219924 0 0.035626521458976067 0.018333846294900959 0 0.034986102784418861 0.018490262922251876 0 0.035568317241581833 0.018882283921807391 0 0.036136336870128911 0.018566710351266391 0 0.035626521458976067 0.018333846294900959 0 0.035568317241581833 0.018882283921807391 0 0.035568317241581833 0.018882283921807391 0 0.034958241047319115 0.019456596653784956 0 0.035782902284786339 0.019767281330237505 0 0.036446600388897306 0.01874650048207582 0 0.035568317241581833 0.018882283921807391 0 0.035782902284786339 0.019767281330237505 0 0.034958241047319115 0.019456596653784956 0 0.034229495011197847 0.019739133341203984 0 0.034296470167478367 0.019072814809219924 0 0.034836517634739474 0.018941257505252246 0 0.035568317241581833 0.018882283921807391 0 0.034958241047319115 0.019456596653784956 0 0.034836517634739474 0.018941257505252246 0 0.034958241047319115 0.019456596653784956 0 0.034296470167478367 0.019072814809219924 0 0.035181080123910198 0.020542249107503026 0 0.035113058904823267 0.020155043282524959 0 0.034229495011197847 0.019739133341203984 0 0.034958241047319115 0.019456596653784956 0 0.035113058904823267 0.020155043282524959 0 0.034229495011197847 0.019739133341203984 0 0.034162663737027754 0.014020734882190538 0 0.032394312669199177 0.015248126920759235 0 0.029575543571188214 0.011128699140322638 0 0.028663297965159991 0.011287684942404324 0 0.029646996548352698 0.012027040526358857 0 0.038160178546949856 0.016045342105060707 0 0.039216213879477546 0.015753791858807518 0 0.037837482102536339 0.01740703311063569 0 0.035181080123910198 0.020542249107503026 0 0.035113058904823267 0.020155043282524959 0 0.035782902284786339 0.019767281330237505 0 0.034162663737027754 0.014020734882190538 0 0.034216996214746304 0.015027791050754628 0 0.034958241047319115 0.019456596653784956 0 0.035113058904823267 0.020155043282524959 0 0.035782902284786339 0.019767281330237505 0 0.038160178546949856 0.016045342105060707 0 0.037254142526278428 0.016656816779141319 0 0.037837482102536339 0.01740703311063569 0 0.030385659459122583 0.012082348323057433 0 0.029924681646572703 0.011595645970989662 0 0.029646996548352698 0.012027040526358857 0 0.030385659459122583 0.012082348323057433 0 0.030357332274282365 0.011686709368835287 0 0.030520662590231614 0.011981153435299326 0 0.030385659459122583 0.012082348323057433 0 0.030357332274282365 0.011686709368835287 0 0.029924681646572703 0.011595645970989662 0 0.029575543571188214 0.011128699140322638 0 0.029924681646572703 0.011595645970989662 0 0.029646996548352698 0.012027040526358857 0 0.034229495011197847 0.019739133341203984 0 0.034296470167478367 0.019072814809219924 0 0.033438775634540022 0.019062215217045164 0 0.030385659459122583 0.012082348323057433 0 0.030777450104213958 0.011942194885661159 0 0.030155413372418338 0.012552914279718238 0 0.032394312669199177 0.015248126920759235 0 0.030872980648091759 0.016388372828349627 0 0.030385659459122583 0.012082348323057433 0 0.029646996548352698 0.012027040526358857 0 0.030777450104213958 0.011942194885661159 0 0.030742181909976036 0.021775277260218343 0 0.032654746775873697 0.020102005579486978 0 0.030675530277367288 0.019194905348905753 0 0.030872980648091759 0.016388372828349627 0 0.031159415503944198 0.016670566852952557 0 0.034296470167478367 0.019072814809219924 0 0.033438775634540022 0.019062215217045164 0 0.033989676066873281 0.018637180506291737 0 0.034464170298631996 0.018682787917004604 0 0.034296470167478367 0.019072814809219924 0 0.033989676066873281 0.018637180506291737 0 0.034343662556732588 0.018311297363219733 0 0.034464170298631996 0.018682787917004604 0 0.033989676066873281 0.018637180506291737 0 0.034343662556732588 0.018311297363219733 0 0.032482899553267233 0.01812939623832532 0 0.033830744311631487 0.016777839213898436 0 0.031322270936084064 0.016701622072432011 0 0.031159415503944198 0.016670566852952557 0 0.034343662556732588 0.018311297363219733 0 0.032654746775873697 0.020102005579486978 0 0.032482899553267233 0.01812939623832532 0 0.032482899553267233 0.01812939623832532 0 0.030675530277367288 0.019194905348905753 0 0.03067757741180497 0.016733920057132746 0 0.032654746775873697 0.020102005579486978 0 0.032482899553267233 0.01812939623832532 0 0.030675530277367288 0.019194905348905753 0 0.029726611439642007 0.016982208409478793 0 0.03065978970972812 0.015738061653785291 0 0.03210901909038643 0.016689776639071459 0 0.029726611439642007 0.016982208409478793 0 0.03065978970972812 0.015738061653785291 0 0.028410045258305473 0.015238437595155635 0 0.03065978970972812 0.015738061653785291 0 0.030251621763217076 0.014373604466045856 0 0.028410045258305473 0.015238437595155635 0 0.03065978970972812 0.015738061653785291 0 0.030251621763217076 0.014373604466045856 0 0.032373130904741622 0.015371244349492046 0 0.0346033633157138 0.021651986620270895 0 0.035040518469814222 0.0211240369357233 0 0.040178543913844386 0.025495420246884021 0 0.039417466442058215 0.0251140958038517 0 0.039312985129721943 0.025628087444273612 0 0.031740140022287859 0.019467074884732153 0 0.033344100963375797 0.019844823638011818 0 0.03065978970972812 0.015738061653785291 0 0.032373130904741622 0.015371244349492046 0 0.03210901909038643 0.016689776639071459 0 0.032482899553267233 0.01812939623832532 0 0.03067757741180497 0.016733920057132746 0 0.033830744311631487 0.016777839213898436 0 0.033344100963375797 0.019844823638011818 0 0.035202877065609088 0.020640848420781 0 0.035106394181433596 0.017874860534332526 0 0.033830744311631487 0.016777839213898436 0 0.035456518215718734 0.017093911890444076 0 0.032373130904741622 0.015371244349492046 0 0.03210901909038643 0.016689776639071459 0 0.034504785675542313 0.016387172220809269 0 0.035040518469814222 0.0211240369357233 0 0.035202877065609088 0.020640848420781 0 0.035515394719729608 0.02074241928961482 0 0.035202877065609088 0.020640848420781 0 0.036285813485891452 0.018054859980625337 0 0.035733684051225532 0.017908986128559831 0 0.035456518215718734 0.017093911890444076 0 0.038109520638544801 0.024813817831092811 0 0.038669265121546663 0.024744706890579546 0 0.038460373873328541 0.025185832417291401 0 0.035733684051225532 0.017908986128559831 0 0.035106394181433596 0.017874860534332526 0 0.035456518215718734 0.017093911890444076 0 0.037996567576303437 0.025510152538576771 0 0.038460373873328541 0.025185832417291401 0 0.038691512252841044 0.025653619910524086 0 0.038669265121546663 0.024744706890579546 0 0.038460373873328541 0.025185832417291401 0 0.03888864724279599 0.025247086709385119 0 0.038460373873328541 0.025185832417291401 0 0.03888864724279599 0.025247086709385119 0 0.038691512252841044 0.025653619910524086 0 0.039417466442058215 0.0251140958038517 0 0.038669265121546663 0.024744706890579546 0 0.03888864724279599 0.025247086709385119 0 0.039417466442058215 0.0251140958038517 0 0.03888864724279599 0.025247086709385119 0 0.039312985129721943 0.025628087444273612 0 0.03888864724279599 0.025247086709385119 0 0.039312985129721943 0.025628087444273612 0 0.038691512252841044 0.025653619910524086 0 0.039312985129721943 0.025628087444273612 0 0.038691512252841044 0.025653619910524086 0 0.039087122469354238 0.026234136055266706 0 0.039312985129721943 0.025628087444273612 0 0.039087122469354238 0.026234136055266706 0 0.039644792638209476 0.026016831157079662 0 0.037996567576303437 0.025510152538576771 0 0.038691512252841044 0.025653619910524086 0 0.038371475363459168 0.026409735432939119 0 0.038691512252841044 0.025653619910524086 0 0.038371475363459168 0.026409735432939119 0 0.039087122469354238 0.026234136055266706 0 0.038371475363459168 0.026409735432939119 0 0.039087122469354238 0.026234136055266706 0 0.039206336152289981 0.02706517722750746 0 0.039087122469354238 0.026234136055266706 0 0.039823471206440739 0.026656354650032455 0 0.039206336152289981 0.02706517722750746 0 0.039823471206440739 0.026656354650032455 0 0.040292146954726861 0.026158257345804483 0 0.039644792638209476 0.026016831157079662 0 0.039087122469354238 0.026234136055266706 0 0.039823471206440739 0.026656354650032455 0 0.039644792638209476 0.026016831157079662 0 0.039823471206440739 0.026656354650032455 0 0.040292146954726861 0.026158257345804483 0 0.040754108116292535 0.026715458247206655 0 0.040178543913844386 0.025495420246884021 0 0.040292146954726861 0.026158257345804483 0 0.039644792638209476 0.026016831157079662 0 0.040178543913844386 0.025495420246884021 0 0.040292146954726861 0.026158257345804483 0 0.0409647923629263 0.025893258705514642 0 0.040178543913844386 0.025495420246884021 0 0.039312985129721943 0.025628087444273612 0 0.039644792638209476 0.026016831157079662 0 0.034155778039691456 0.022448940810024815 0 0.033999702077531814 0.023796037985034407 0 0.027107268224146927 0.013611810510152433 0 0.028214421500986926 0.013409084167073326 0 0.026323969975125757 0.012337343980394697 0 0.027107268224146927 0.013611810510152433 0 0.026453258346707437 0.013472113745545647 0 0.026323969975125757 0.012337343980394697 0 0.027107268224146927 0.013611810510152433 0 0.026453258346707437 0.013472113745545647 0 0.026487881044369482 0.014379732273149278 0 0.027107268224146927 0.013611810510152433 0 0.028214421500986926 0.013409084167073326 0 0.028410045258305473 0.015238437595155635 0 0.0346033633157138 0.021651986620270895 0 0.034155778039691456 0.022448940810024815 0 0.040292146954726861 0.026158257345804483 0 0.0409647923629263 0.025893258705514642 0 0.040754108116292535 0.026715458247206655 0 0.0409647923629263 0.025893258705514642 0 0.040754108116292535 0.026715458247206655 0 0.041239916119920367 0.02630478400408158 0 0.040754108116292535 0.026715458247206655 0 0.041291679641723783 0.026664526444721972 0 0.041239916119920367 0.02630478400408158 0 0.0409647923629263 0.025893258705514642 0 0.041239916119920367 0.02630478400408158 0 0.041757859933123677 0.026315809007917617 0 0.041291679641723783 0.026664526444721972 0 0.041239916119920367 0.02630478400408158 0 0.041592031505057921 0.026526661470450835 0 0.041239916119920367 0.02630478400408158 0 0.041592031505057921 0.026526661470450835 0 0.041757859933123677 0.026315809007917617 0 0.041592031505057921 0.026526661470450835 0 0.041757859933123677 0.026315809007917617 0 0.041736926071144702 0.026435512121996171 0 0.041291679641723783 0.026664526444721972 0 0.041592031505057921 0.026526661470450835 0 0.041581979155895385 0.026773366077420268 0 0.041581979155895385 0.026773366077420268 0 0.041725252358099117 0.026688894151533311 0 0.041771872049059362 0.026848605849627429 0 0.041592031505057921 0.026526661470450835 0 0.041581979155895385 0.026773366077420268 0 0.041725252358099117 0.026688894151533311 0 0.02561136225123295 0.01239339205300061 0 0.026323969975125757 0.012337343980394697 0 0.024697941433256779 0.011953938044161975 0 0.041725252358099117 0.026688894151533311 0 0.041783630877935178 0.026560787054912528 0 0.041894512531425572 0.026735234424611294 0 0.041725252358099117 0.026688894151533311 0 0.041894512531425572 0.026735234424611294 0 0.041771872049059362 0.026848605849627429 0 0.033999702077531814 0.023796037985034407 0 0.0303760110824692 0.024715779087270857 0 0.041964507126381223 0.026509992806047978 0 0.041757859933123677 0.026315809007917617 0 0.042563225121011135 0.026751141533489599 0 0.041964507126381223 0.026509992806047978 0 0.04207864603723644 0.026593646662507044 0 0.042563225121011135 0.026751141533489599 0 0.033999702077531814 0.023796037985034407 0 0.036102434340202327 0.024708559816904244 0 0.026323969975125757 0.012337343980394697 0 0.023675661161552234 0.011126891716958617 0 0.024697941433256779 0.011953938044161975 0 0.041592031505057921 0.026526661470450835 0 0.041783630877935178 0.026560787054912528 0 0.041736926071144702 0.026435512121996171 0 0.041592031505057921 0.026526661470450835 0 0.041725252358099117 0.026688894151533311 0 0.041783630877935178 0.026560787054912528 0 0.041783630877935178 0.026560787054912528 0 0.041736926071144702 0.026435512121996171 0 0.04183839056880146 0.026483533710639339 0 0.041783630877935178 0.026560787054912528 0 0.041928619350031476 0.026599493331976698 0 0.04183839056880146 0.026483533710639339 0 0.041783630877935178 0.026560787054912528 0 0.041928619350031476 0.026599493331976698 0 0.041894512531425572 0.026735234424611294 0 0.041964507126381223 0.026509992806047978 0 0.041928619350031476 0.026599493331976698 0 0.04183839056880146 0.026483533710639339 0 0.041928619350031476 0.026599493331976698 0 0.041894512531425572 0.026735234424611294 0 0.042040168467837237 0.0266840610515343 0 0.042040168467837237 0.0266840610515343 0 0.042215298959072146 0.026694475827111947 0 0.042081259054917636 0.026798306106033017 0 0.041894512531425572 0.026735234424611294 0 0.042040168467837237 0.0266840610515343 0 0.042081259054917636 0.026798306106033017 0 0.042040168467837237 0.0266840610515343 0 0.042215298959072146 0.026694475827111947 0 0.04207864603723644 0.026593646662507044 0 0.042215298959072146 0.026694475827111947 0 0.042266500584573791 0.026819954112137317 0 0.042081259054917636 0.026798306106033017 0 0.041928619350031476 0.026599493331976698 0 0.042040168467837237 0.0266840610515343 0 0.04207864603723644 0.026593646662507044 0 0.041964507126381223 0.026509992806047978 0 0.041928619350031476 0.026599493331976698 0 0.04207864603723644 0.026593646662507044 0 0.025196693366372258 0.012336866554089535 0 0.02561136225123295 0.01239339205300061 0 0.024697941433256779 0.011953938044161975 0 0.024977309362670362 0.012285356648211664 0 0.025196693366372258 0.012336866554089535 0 0.024697941433256779 0.011953938044161975 0 0.024977309362670362 0.012285356648211664 0 0.024706051883393157 0.012434017078147853 0 0.025118707526381741 0.012653860295425564 0 0.025196693366372258 0.012336866554089535 0 0.025509581770468803 0.012624998419536335 0 0.025118707526381741 0.012653860295425564 0 0.024977309362670362 0.012285356648211664 0 0.025196693366372258 0.012336866554089535 0 0.025118707526381741 0.012653860295425564 0 0.025196693366372258 0.012336866554089535 0 0.02561136225123295 0.01239339205300061 0 0.025509581770468803 0.012624998419536335 0 0.02561136225123295 0.01239339205300061 0 0.025862161527768036 0.01255581547796642 0 0.025509581770468803 0.012624998419536335 0 0.02561136225123295 0.01239339205300061 0 0.025862161527768036 0.01255581547796642 0 0.026323969975125757 0.012337343980394697 0 0.025862161527768036 0.01255581547796642 0 0.026323969975125757 0.012337343980394697 0 0.02596420732304822 0.01275324025684191 0 0.041757859933123677 0.026315809007917617 0 0.041736926071144702 0.026435512121996171 0 0.04183839056880146 0.026483533710639339 0 0.041964507126381223 0.026509992806047978 0 0.041757859933123677 0.026315809007917617 0 0.04183839056880146 0.026483533710639339 0 0.041062997877408913 0.025996234961376263 0 0.042563225121011135 0.026751141533489599 0 0.042709972438289293 0.026551191271314178 0 0.023675661161552234 0.011126891716958617 0 0.023466745586250951 0.011604436358934017 0 0.022971856439476659 0.01153324187542773 0 0.042714204149386564 0.026783619051771245 0 0.042709972438289293 0.026551191271314178 0 0.042906472103312845 0.026854711034428987 0 0.042714204149386564 0.026783619051771245 0 0.042563225121011135 0.026751141533489599 0 0.042709972438289293 0.026551191271314178 0 0.023675661161552234 0.011126891716958617 0 0.024038477186867156 0.011604587552683203 0 0.02377721614745051 0.011644256626656106 0 0.023675661161552234 0.011126891716958617 0 0.02377721614745051 0.011644256626656106 0 0.023466745586250951 0.011604436358934017 0 0.042215298959072146 0.026694475827111947 0 0.04207864603723644 0.026593646662507044 0 0.042563225121011135 0.026751141533489599 0 0.042215298959072146 0.026694475827111947 0 0.042563225121011135 0.026751141533489599 0 0.042375633427151956 0.026795536091705371 0 0.042215298959072146 0.026694475827111947 0 0.042266500584573791 0.026819954112137317 0 0.042375633427151956 0.026795536091705371 0 0.023675661161552234 0.011126891716958617 0 0.024697941433256779 0.011953938044161975 0 0.024038477186867156 0.011604587552683203 0 0.024697941433256779 0.011953938044161975 0 0.024706051883393157 0.012434017078147853 0 0.024345937355304138 0.012239520115015595 0 0.024977309362670362 0.012285356648211664 0 0.024697941433256779 0.011953938044161975 0 0.024706051883393157 0.012434017078147853 0 0.024345937355304138 0.012239520115015595 0 0.02407616461281907 0.01196061673209319 0 0.023908394666644423 0.012398475169664275 0 0.024697941433256779 0.011953938044161975 0 0.024345937355304138 0.012239520115015595 0 0.02407616461281907 0.01196061673209319 0 0.024697941433256779 0.011953938044161975 0 0.02407616461281907 0.01196061673209319 0 0.024038477186867156 0.011604587552683203 0 0.02407616461281907 0.01196061673209319 0 0.024038477186867156 0.011604587552683203 0 0.02377721614745051 0.011644256626656106 0 0.02377721614745051 0.011644256626656106 0 0.023655934547715429 0.011928826490375058 0 0.023466745586250951 0.011604436358934017 0 0.02407616461281907 0.01196061673209319 0 0.02377721614745051 0.011644256626656106 0 0.023655934547715429 0.011928826490375058 0 0.02407616461281907 0.01196061673209319 0 0.023655934547715429 0.011928826490375058 0 0.023908394666644423 0.012398475169664275 0 0.023655934547715429 0.011928826490375058 0 0.023908394666644423 0.012398475169664275 0 0.023245168248172066 0.012446182778209738 0 0.023655934547715429 0.011928826490375058 0 0.023210617042293536 0.0119087429907702 0 0.023245168248172066 0.012446182778209738 0 0.023210617042293536 0.0119087429907702 0 0.023466745586250951 0.011604436358934017 0 0.022971856439476659 0.01153324187542773 0 0.023655934547715429 0.011928826490375058 0 0.023210617042293536 0.0119087429907702 0 0.023466745586250951 0.011604436358934017 0 0.023245168248172066 0.012446182778209738 0 0.023723413273753501 0.012910120713338949 0 0.023106677868829452 0.013365082789517634 0 0.023723413273753501 0.012910120713338949 0 0.02398912126087209 0.013537931067440253 0 0.023106677868829452 0.013365082789517634 0 0.023908394666644423 0.012398475169664275 0 0.023245168248172066 0.012446182778209738 0 0.023723413273753501 0.012910120713338949 0 0.023908394666644423 0.012398475169664275 0 0.023723413273753501 0.012910120713338949 0 0.024275099212402312 0.012763895294657808 0 0.023723413273753501 0.012910120713338949 0 0.024275099212402312 0.012763895294657808 0 0.02398912126087209 0.013537931067440253 0 0.024275099212402312 0.012763895294657808 0 0.024661191589438584 0.013485786950504796 0 0.02398912126087209 0.013537931067440253 0 0.024706051883393157 0.012434017078147853 0 0.024345937355304138 0.012239520115015595 0 0.024275099212402312 0.012763895294657808 0 0.024345937355304138 0.012239520115015595 0 0.023908394666644423 0.012398475169664275 0 0.024275099212402312 0.012763895294657808 0 0.024706051883393157 0.012434017078147853 0 0.024275099212402312 0.012763895294657808 0 0.024772878471409583 0.012855775267411586 0 0.024706051883393157 0.012434017078147853 0 0.024772878471409583 0.012855775267411586 0 0.025118707526381741 0.012653860295425564 0 0.024772878471409583 0.012855775267411586 0 0.024661191589438584 0.013485786950504796 0 0.025172906326737944 0.01314131744635515 0 0.024275099212402312 0.012763895294657808 0 0.024772878471409583 0.012855775267411586 0 0.024661191589438584 0.013485786950504796 0 0.024661191589438584 0.013485786950504796 0 0.025001775164154281 0.01410548547066229 0 0.024457104547539632 0.014347201854463898 0 0.024661191589438584 0.013485786950504796 0 0.02398912126087209 0.013537931067440253 0 0.024457104547539632 0.014347201854463898 0 0.02398912126087209 0.013537931067440253 0 0.023649564450196846 0.014102061189324791 0 0.023106677868829452 0.013365082789517634 0 0.02398912126087209 0.013537931067440253 0 0.023649564450196846 0.014102061189324791 0 0.024457104547539632 0.014347201854463898 0 0.026453258346707437 0.013472113745545647 0 0.026323969975125757 0.012337343980394697 0 0.026102028789407785 0.013031315960099153 0 0.025677095153381835 0.013277785709714685 0 0.026102028789407785 0.013031315960099153 0 0.025764226068840136 0.012892161924958149 0 0.026026592229140437 0.013400124208817239 0 0.025677095153381835 0.013277785709714685 0 0.026102028789407785 0.013031315960099153 0 0.026453258346707437 0.013472113745545647 0 0.026026592229140437 0.013400124208817239 0 0.026102028789407785 0.013031315960099153 0 0.026323969975125757 0.012337343980394697 0 0.026102028789407785 0.013031315960099153 0 0.02596420732304822 0.01275324025684191 0 0.026102028789407785 0.013031315960099153 0 0.02596420732304822 0.01275324025684191 0 0.025764226068840136 0.012892161924958149 0 0.025862161527768036 0.01255581547796642 0 0.02596420732304822 0.01275324025684191 0 0.025764226068840136 0.012892161924958149 0 0.025862161527768036 0.01255581547796642 0 0.025764226068840136 0.012892161924958149 0 0.025509581770468803 0.012624998419536335 0 0.025509581770468803 0.012624998419536335 0 0.025460785471332476 0.012899581646453405 0 0.025118707526381741 0.012653860295425564 0 0.025764226068840136 0.012892161924958149 0 0.025509581770468803 0.012624998419536335 0 0.025460785471332476 0.012899581646453405 0 0.024772878471409583 0.012855775267411586 0 0.025118707526381741 0.012653860295425564 0 0.025172906326737944 0.01314131744635515 0 0.025460785471332476 0.012899581646453405 0 0.025118707526381741 0.012653860295425564 0 0.025172906326737944 0.01314131744635515 0 0.025677095153381835 0.013277785709714685 0 0.025460785471332476 0.012899581646453405 0 0.025172906326737944 0.01314131744635515 0 0.025677095153381835 0.013277785709714685 0 0.025172906326737944 0.01314131744635515 0 0.025327706408633903 0.013667789067863024 0 0.025677095153381835 0.013277785709714685 0 0.025764226068840136 0.012892161924958149 0 0.025460785471332476 0.012899581646453405 0 0.025677095153381835 0.013277785709714685 0 0.025327706408633903 0.013667789067863024 0 0.02593688479741595 0.013833782008741882 0 0.024661191589438584 0.013485786950504796 0 0.025327706408633903 0.013667789067863024 0 0.025001775164154281 0.01410548547066229 0 0.024661191589438584 0.013485786950504796 0 0.025172906326737944 0.01314131744635515 0 0.025327706408633903 0.013667789067863024 0 0.025327706408633903 0.013667789067863024 0 0.025001775164154281 0.01410548547066229 0 0.02550173009515316 0.014159970694880741 0 0.025327706408633903 0.013667789067863024 0 0.02550173009515316 0.014159970694880741 0 0.02593688479741595 0.013833782008741882 0 0.02550173009515316 0.014159970694880741 0 0.02593688479741595 0.013833782008741882 0 0.025848041728286669 0.014605447686045971 0 0.026453258346707437 0.013472113745545647 0 0.02593688479741595 0.013833782008741882 0 0.026487881044369482 0.014379732273149278 0 0.026026592229140437 0.013400124208817239 0 0.025677095153381835 0.013277785709714685 0 0.02593688479741595 0.013833782008741882 0 0.026453258346707437 0.013472113745545647 0 0.026026592229140437 0.013400124208817239 0 0.02593688479741595 0.013833782008741882 0 0.025848041728286669 0.014605447686045971 0 0.026314654361389883 0.015362275092729364 0 0.026487881044369482 0.014379732273149278 0 0.02593688479741595 0.013833782008741882 0 0.025848041728286669 0.014605447686045971 0 0.026487881044369482 0.014379732273149278 0 0.02550173009515316 0.014159970694880741 0 0.025848041728286669 0.014605447686045971 0 0.025179613604326252 0.014724977973457787 0 0.025001775164154281 0.01410548547066229 0 0.02550173009515316 0.014159970694880741 0 0.025179613604326252 0.014724977973457787 0 0.025848041728286669 0.014605447686045971 0 0.025179613604326252 0.014724977973457787 0 0.025521966414671846 0.015423511032718737 0 0.025179613604326252 0.014724977973457787 0 0.025521966414671846 0.015423511032718737 0 0.024748999817681139 0.015245580528363214 0 0.025521966414671846 0.015423511032718737 0 0.024748999817681139 0.015245580528363214 0 0.025106716065033365 0.016235790201883118 0 0.025848041728286669 0.014605447686045971 0 0.025521966414671846 0.015423511032718737 0 0.026314654361389883 0.015362275092729364 0 0.025521966414671846 0.015423511032718737 0 0.026314654361389883 0.015362275092729364 0 0.025935428175865142 0.016091328580050617 0 0.023649564450196846 0.014102061189324791 0 0.023924433435834079 0.014915833523982304 0 0.022715361393994264 0.014421282477164444 0 0.023649564450196846 0.014102061189324791 0 0.023924433435834079 0.014915833523982304 0 0.024457104547539632 0.014347201854463898 0 0.025179613604326252 0.014724977973457787 0 0.024457104547539632 0.014347201854463898 0 0.024748999817681139 0.015245580528363214 0 0.023924433435834079 0.014915833523982304 0 0.024457104547539632 0.014347201854463898 0 0.024748999817681139 0.015245580528363214 0 0.025001775164154281 0.01410548547066229 0 0.025179613604326252 0.014724977973457787 0 0.024457104547539632 0.014347201854463898 0 0.023924433435834079 0.014915833523982304 0 0.024748999817681139 0.015245580528363214 0 0.02422891907766039 0.015756907973235555 0 0.024748999817681139 0.015245580528363214 0 0.02422891907766039 0.015756907973235555 0 0.025106716065033365 0.016235790201883118 0 0.023924433435834079 0.014915833523982304 0 0.02422891907766039 0.015756907973235555 0 0.023183956859576232 0.015945923232631987 0 0.024263282177885426 0.016584459431731403 0 0.023673846050658764 0.017307697202199292 0 0.023183956859576232 0.015945923232631987 0 0.02422891907766039 0.015756907973235555 0 0.024263282177885426 0.016584459431731403 0 0.023183956859576232 0.015945923232631987 0 0.024263282177885426 0.016584459431731403 0 0.025036789407916999 0.017208983831461466 0 0.025106716065033365 0.016235790201883118 0 0.02422891907766039 0.015756907973235555 0 0.024263282177885426 0.016584459431731403 0 0.025106716065033365 0.016235790201883118 0 0.024263282177885426 0.016584459431731403 0 0.025036789407916999 0.017208983831461466 0 0.023673846050658764 0.017307697202199292 0 0.025935428175865142 0.016091328580050617 0 0.025106716065033365 0.016235790201883118 0 0.025789207780595798 0.016941631663730222 0 0.025935428175865142 0.016091328580050617 0 0.025789207780595798 0.016941631663730222 0 0.026670474678621679 0.016325392937836223 0 0.025521966414671846 0.015423511032718737 0 0.025935428175865142 0.016091328580050617 0 0.025106716065033365 0.016235790201883118 0 0.025036789407916999 0.017208983831461466 0 0.025789207780595798 0.016941631663730222 0 0.025854327276076661 0.017940073037148806 0 0.025036789407916999 0.017208983831461466 0 0.025106716065033365 0.016235790201883118 0 0.025789207780595798 0.016941631663730222 0 0.025789207780595798 0.016941631663730222 0 0.02631482771566885 0.017353833093064326 0 0.026670474678621679 0.016325392937836223 0 0.02631482771566885 0.017353833093064326 0 0.027217852387727649 0.017214912061563808 0 0.026670474678621679 0.016325392937836223 0 0.026670474678621679 0.016325392937836223 0 0.027109585268791273 0.015208650426253427 0 0.027795037784501726 0.016183047689505143 0 0.027217852387727649 0.017214912061563808 0 0.026670474678621679 0.016325392937836223 0 0.027795037784501726 0.016183047689505143 0 0.026314654361389883 0.015362275092729364 0 0.025935428175865142 0.016091328580050617 0 0.026670474678621679 0.016325392937836223 0 0.027107268224146927 0.013611810510152433 0 0.027109585268791273 0.015208650426253427 0 0.028410045258305473 0.015238437595155635 0 0.026314654361389883 0.015362275092729364 0 0.026670474678621679 0.016325392937836223 0 0.027109585268791273 0.015208650426253427 0 0.027107268224146927 0.013611810510152433 0 0.027109585268791273 0.015208650426253427 0 0.026487881044369482 0.014379732273149278 0 0.026314654361389883 0.015362275092729364 0 0.027109585268791273 0.015208650426253427 0 0.026487881044369482 0.014379732273149278 0 0.030251621763217076 0.014373604466045856 0 0.028214421500986926 0.013409084167073326 0 0.028410045258305473 0.015238437595155635 0 0.027109585268791273 0.015208650426253427 0 0.028410045258305473 0.015238437595155635 0 0.027795037784501726 0.016183047689505143 0 0.029726611439642007 0.016982208409478793 0 0.028410045258305473 0.015238437595155635 0 0.027795037784501726 0.016183047689505143 0 0.029726611439642007 0.016982208409478793 0 0.027217852387727649 0.017214912061563808 0 0.027795037784501726 0.016183047689505143 0 0.031740140022287859 0.019467074884732153 0 0.030983629825611696 0.019376368225326839 0 0.03067757741180497 0.016733920057132746 0 0.027217852387727649 0.017214912061563808 0 0.028709108323231803 0.018267145063772819 0 0.030675530277367288 0.019194905348905753 0 0.03067757741180497 0.016733920057132746 0 0.028709108323231803 0.018267145063772819 0 0.028709108323231803 0.018267145063772819 0 0.026338658902587811 0.018376667368720564 0 0.02866054973081518 0.020186181849715025 0 0.030675530277367288 0.019194905348905753 0 0.028709108323231803 0.018267145063772819 0 0.02866054973081518 0.020186181849715025 0 0.02631482771566885 0.017353833093064326 0 0.026338658902587811 0.018376667368720564 0 0.025854327276076661 0.017940073037148806 0 0.02631482771566885 0.017353833093064326 0 0.027217852387727649 0.017214912061563808 0 0.026338658902587811 0.018376667368720564 0 0.027217852387727649 0.017214912061563808 0 0.028709108323231803 0.018267145063772819 0 0.026338658902587811 0.018376667368720564 0 0.029731440798133783 0.016360590042277159 0 0.030055414043048859 0.016408971663921162 0 0.026338658902587811 0.018376667368720564 0 0.025929362962097448 0.018433646420289107 0 0.025692378531708075 0.018403732460603835 0 0.026338658902587811 0.018376667368720564 0 0.025929362962097448 0.018433646420289107 0 0.025854327276076661 0.017940073037148806 0 0.025929362962097448 0.018433646420289107 0 0.025692378531708075 0.018403732460603835 0 0.025767359918458663 0.018501022368621455 0 0.026338658902587811 0.018376667368720564 0 0.025692378531708075 0.018403732460603835 0 0.025139193084428278 0.018453684525390125 0 0.025692378531708075 0.018403732460603835 0 0.025139193084428278 0.018453684525390125 0 0.025214440671205825 0.018080927009533752 0 0.025692378531708075 0.018403732460603835 0 0.025214440671205825 0.018080927009533752 0 0.025644398787276649 0.018323932104074254 0 0.025692378531708075 0.018403732460603835 0 0.025644398787276649 0.018323932104074254 0 0.025767359918458663 0.018501022368621455 0 0.024599473840934364 0.018121307033052911 0 0.025139193084428278 0.018453684525390125 0 0.025214440671205825 0.018080927009533752 0 0.030742181909976036 0.021775277260218343 0 0.030675530277367288 0.019194905348905753 0 0.02866054973081518 0.020186181849715025 0 0.030872980648091759 0.016388372828349627 0 0.030055414043048859 0.016408971663921162 0 0.024599473840934364 0.018121307033052911 0 0.025214440671205825 0.018080927009533752 0 0.024843523884394061 0.017389001031078381 0 0.030872980648091759 0.016388372828349627 0 0.029429235005829581 0.016438200873572433 0 0.030777450104213958 0.011942194885661159 0 0.02917760900403751 0.012649786211473292 0 0.030155413372418338 0.012552914279718238 0 0.025214440671205825 0.018080927009533752 0 0.025353323346226642 0.017799912075836186 0 0.024843523884394061 0.017389001031078381 0 0.025214440671205825 0.018080927009533752 0 0.025353323346226642 0.017799912075836186 0 0.025644398787276649 0.018323932104074254 0 0.028977705116014277 0.016423942583162293 0 0.029429235005829581 0.016438200873572433 0 0.025353323346226642 0.017799912075836186 0 0.024843523884394061 0.017389001031078381 0 0.025831402420931293 0.01718791848530854 0 0.0272324934676305 0.014933521342820562 0 0.02917760900403751 0.012649786211473292 0 0.030155413372418338 0.012552914279718238 0 0.030754649987070289 0.010551535153322356 0 0.030690827067935716 0.010783154840479148 0 0.031357988405935844 0.011296199247197207 0 0.032451648036097874 0.010633889183628223 0 0.030155413372418338 0.012552914279718238 0 0.031357988405935844 0.011296199247197207 0 0.030520662590231614 0.011981153435299326 0 0.030155413372418338 0.012552914279718238 0 0.031357988405935844 0.011296199247197207 0 0.030357332274282365 0.011686709368835287 0 0.030520662590231614 0.011981153435299326 0 0.030385659459122583 0.012082348323057433 0 0.030520662590231614 0.011981153435299326 0 0.030155413372418338 0.012552914279718238 0 0.028131522276914879 0.015768577289208146 0 0.026911918392312516 0.01641751168605934 0 0.027331710652808459 0.017647322969339928 0 0.026911918392312516 0.01641751168605934 0 0.025831402420931293 0.01718791848530854 0 0.026456730334528389 0.01758662464818345 0 0.026911918392312516 0.01641751168605934 0 0.026456730334528389 0.01758662464818345 0 0.027331710652808459 0.017647322969339928 0 0.026164723732622516 0.014961450295398439 0 0.026911918392312516 0.01641751168605934 0 0.025831402420931293 0.01718791848530854 0 0.026164723732622516 0.014961450295398439 0 0.024843523884394061 0.017389001031078381 0 0.025831402420931293 0.01718791848530854 0 0.025831402420931293 0.01718791848530854 0 0.025686018773655794 0.017943708415793437 0 0.025873792293120808 0.018253872390919659 0 0.025831402420931293 0.01718791848530854 0 0.025873792293120808 0.018253872390919659 0 0.026456730334528389 0.01758662464818345 0 0.025353323346226642 0.017799912075836186 0 0.025831402420931293 0.01718791848530854 0 0.025686018773655794 0.017943708415793437 0 0.025353323346226642 0.017799912075836186 0 0.025686018773655794 0.017943708415793437 0 0.025644398787276649 0.018323932104074254 0 0.025686018773655794 0.017943708415793437 0 0.025644398787276649 0.018323932104074254 0 0.025873792293120808 0.018253872390919659 0 0.025644398787276649 0.018323932104074254 0 0.025873792293120808 0.018253872390919659 0 0.025709590400128862 0.018682944674460158 0 0.025873792293120808 0.018253872390919659 0 0.026456730334528389 0.01758662464818345 0 0.025693911554660623 0.019438918407593531 0 0.025873792293120808 0.018253872390919659 0 0.025693911554660623 0.019438918407593531 0 0.025709590400128862 0.018682944674460158 0 0.026456730334528389 0.01758662464818345 0 0.025693911554660623 0.019438918407593531 0 0.027331710652808459 0.017647322969339928 0 0.025693911554660623 0.019438918407593531 0 0.025415882134223067 0.018712407506832097 0 0.023833285216825921 0.018552935773269254 0 0.025693911554660623 0.019438918407593531 0 0.025415882134223067 0.018712407506832097 0 0.025709590400128862 0.018682944674460158 0 0.025644398787276649 0.018323932104074254 0 0.025709590400128862 0.018682944674460158 0 0.025767359918458663 0.018501022368621455 0 0.025415882134223067 0.018712407506832097 0 0.025709590400128862 0.018682944674460158 0 0.0256852180055183 0.018473094894477349 0 0.025929362962097448 0.018433646420289107 0 0.0256852180055183 0.018473094894477349 0 0.025767359918458663 0.018501022368621455 0 0.025709590400128862 0.018682944674460158 0 0.0256852180055183 0.018473094894477349 0 0.025767359918458663 0.018501022368621455 0 0.025929362962097448 0.018433646420289107 0 0.0256852180055183 0.018473094894477349 0 0.025854327276076661 0.017940073037148806 0 0.0256852180055183 0.018473094894477349 0 0.025854327276076661 0.017940073037148806 0 0.025077914538963145 0.018004310806268322 0 0.025415882134223067 0.018712407506832097 0 0.0256852180055183 0.018473094894477349 0 0.025077914538963145 0.018004310806268322 0 0.025036789407916999 0.017208983831461466 0 0.025854327276076661 0.017940073037148806 0 0.025077914538963145 0.018004310806268322 0 0.025789207780595798 0.016941631663730222 0 0.02631482771566885 0.017353833093064326 0 0.025854327276076661 0.017940073037148806 0 0.025077914538963145 0.018004310806268322 0 0.023833285216825921 0.018552935773269254 0 0.023673846050658764 0.017307697202199292 0 0.025415882134223067 0.018712407506832097 0 0.025077914538963145 0.018004310806268322 0 0.023833285216825921 0.018552935773269254 0 0.025036789407916999 0.017208983831461466 0 0.025077914538963145 0.018004310806268322 0 0.023673846050658764 0.017307697202199292 0 0.022479917515045762 0.017848180017755139 0 0.023833285216825921 0.018552935773269254 0 0.023673846050658764 0.017307697202199292 0 0.022479917515045762 0.017848180017755139 0 0.020815845354969477 0.018618689739153139 0 0.023833285216825921 0.018552935773269254 0 0.022479917515045762 0.017848180017755139 0 0.020815845354969477 0.018618689739153139 0 0.021519801739944788 0.016961717595373512 0 0.020815845354969477 0.018618689739153139 0 0.023833285216825921 0.018552935773269254 0 0.021983375693600985 0.021042916432107119 0 0.018037826812196563 0.021645690546305871 0 0.018261466257812844 0.024082232762427148 0 0.016358294097392492 0.023100092550649765 0 0.021740577305060963 0.016492876779127294 0 0.022246753640153494 0.014923913932094822 0 0.025693911554660623 0.019438918407593531 0 0.023833285216825921 0.018552935773269254 0 0.021983375693600985 0.021042916432107119 0 0.025693911554660623 0.019438918407593531 0 0.027331710652808459 0.017647322969339928 0 0.030518539026022824 0.018611123126914118 0 0.022988807756805393 0.015189459968436436 0 0.022246753640153494 0.014923913932094822 0 0.022246753640153494 0.014923913932094822 0 0.024540408927407793 0.012520951378411558 0 0.022603001422026328 0.010983499446625604 0 0.022670330363523134 0.010855839581911097 0 0.022553921070416177 0.010786460222457404 0 0.027331710652808459 0.017647322969339928 0 0.030518539026022824 0.018611123126914118 0 0.029541813824188863 0.014874090787791694 0 0.024671370887965276 0.01286119999613629 0 0.024540408927407793 0.012520951378411558 0 0.028131522276914879 0.015768577289208146 0 0.027331710652808459 0.017647322969339928 0 0.029463083422752025 0.016039018704309342 0 0.022790345457744339 0.010781256594784171 0 0.022785900312691482 0.010925315428877926 0 0.022957840867133761 0.010871821652985935 0 0.020393001641587694 0.013882991695530977 0 0.019493409433924688 0.012249686918210856 0 0.022670330363523134 0.010855839581911097 0 0.022790345457744339 0.010781256594784171 0 0.022785900312691482 0.010925315428877926 0 0.018261466257812844 0.024082232762427148 0 0.016043163170143388 0.024541696851246277 0 0.016358294097392492 0.023100092550649765 0 0.022603001422026328 0.010983499446625604 0 0.022670330363523134 0.010855839581911097 0 0.022785900312691482 0.010925315428877926 0 0.022246753640153494 0.014923913932094822 0 0.020393001641587694 0.013882991695530977 0 0.016043163170143388 0.024541696851246277 0 0.014535253587898568 0.023110560705983618 0 0.014010232448572512 0.024857872158175344 0 0.016043163170143388 0.024541696851246277 0 0.014535253587898568 0.023110560705983618 0 0.016358294097392492 0.023100092550649765 0 0.014535253587898568 0.023110560705983618 0 0.016358294097392492 0.023100092550649765 0 0.015000094502430759 0.021727648191331307 0 0.014535253587898568 0.023110560705983618 0 0.015000094502430759 0.021727648191331307 0 0.013542662780444317 0.021177739432617852 0 0.018037826812196563 0.021645690546305871 0 0.016358294097392492 0.023100092550649765 0 0.015000094502430759 0.021727648191331307 0 0.018037826812196563 0.021645690546305871 0 0.015000094502430759 0.021727648191331307 0 0.013856575735589094 0.01967050395136943 0 0.015000094502430759 0.021727648191331307 0 0.013856575735589094 0.01967050395136943 0 0.013542662780444317 0.021177739432617852 0 0.013856575735589094 0.01967050395136943 0 0.013024594261939122 0.021134877711025086 0 0.013405942322328423 0.020537500056735564 0 0.013856575735589094 0.01967050395136943 0 0.012299700658129032 0.021541663136931125 0 0.010587455480313717 0.022018098597384822 0 0.020230805194538182 0.023023653652761152 0 0.020698882397910918 0.023152419323824294 0 0.013856575735589094 0.01967050395136943 0 0.012299700658129032 0.021541663136931125 0 0.013024594261939122 0.021134877711025086 0 0.012299700658129032 0.021541663136931125 0 0.010587455480313717 0.022018098597384822 0 0.011456902524208791 0.022714460822330328 0 0.012299700658129032 0.021541663136931125 0 0.012337844512633494 0.022433010333631261 0 0.013024594261939122 0.021134877711025086 0 0.012299700658129032 0.021541663136931125 0 0.012337844512633494 0.022433010333631261 0 0.011456902524208791 0.022714460822330328 0 0.013856575735589094 0.01967050395136943 0 0.016447930582540682 0.014556952245640341 0 0.018326984937499048 0.017070307215602272 0 0.016447930582540682 0.014556952245640341 0 0.018326984937499048 0.017070307215602272 0 0.019194110268210548 0.014541095362693083 0 0.021740577305060963 0.016492876779127294 0 0.021414712572251058 0.016380327110789281 0 0.018037826812196563 0.021645690546305871 0 0.013856575735589094 0.01967050395136943 0 0.018326984937499048 0.017070307215602272 0 0.018326984937499048 0.017070307215602272 0 0.021519801739944788 0.016961717595373512 0 0.020326363173902587 0.015748148204919713 0 0.020815845354969477 0.018618689739153139 0 0.018326984937499048 0.017070307215602272 0 0.021519801739944788 0.016961717595373512 0 0.021519801739944788 0.016961717595373512 0 0.023673846050658764 0.017307697202199292 0 0.023183956859576232 0.015945923232631987 0 0.022479917515045762 0.017848180017755139 0 0.021519801739944788 0.016961717595373512 0 0.023673846050658764 0.017307697202199292 0 0.023183956859576232 0.015945923232631987 0 0.021604567641203141 0.015342719578109593 0 0.022715361393994264 0.014421282477164444 0 0.021519801739944788 0.016961717595373512 0 0.023183956859576232 0.015945923232631987 0 0.021604567641203141 0.015342719578109593 0 0.021604567641203141 0.015342719578109593 0 0.021731333741703988 0.014290389911362576 0 0.022715361393994264 0.014421282477164444 0 0.023924433435834079 0.014915833523982304 0 0.023183956859576232 0.015945923232631987 0 0.022715361393994264 0.014421282477164444 0 0.018326984937499048 0.017070307215602272 0 0.020326363173902587 0.015748148204919713 0 0.019194110268210548 0.014541095362693083 0 0.021519801739944788 0.016961717595373512 0 0.021604567641203141 0.015342719578109593 0 0.020326363173902587 0.015748148204919713 0 0.021604567641203141 0.015342719578109593 0 0.020326363173902587 0.015748148204919713 0 0.020807482386764338 0.01407258872805171 0 0.021604567641203141 0.015342719578109593 0 0.021731333741703988 0.014290389911362576 0 0.020807482386764338 0.01407258872805171 0 0.020326363173902587 0.015748148204919713 0 0.019194110268210548 0.014541095362693083 0 0.020807482386764338 0.01407258872805171 0 0.019194110268210548 0.014541095362693083 0 0.019986899038229842 0.013262824113869219 0 0.020807482386764338 0.01407258872805171 0 0.019194110268210548 0.014541095362693083 0 0.019986899038229842 0.013262824113869219 0 0.018869210907076037 0.012852817269149316 0 0.020807482386764338 0.01407258872805171 0 0.020913377497588228 0.012909319205320549 0 0.02193648574342209 0.013434775680184231 0 0.019986899038229842 0.013262824113869219 0 0.020807482386764338 0.01407258872805171 0 0.020913377497588228 0.012909319205320549 0 0.019986899038229842 0.013262824113869219 0 0.020913377497588228 0.012909319205320549 0 0.020118175814212685 0.012373677923679129 0 0.020913377497588228 0.012909319205320549 0 0.021695550698747918 0.012383053044133691 0 0.020912362847246027 0.012004649882295859 0 0.020913377497588228 0.012909319205320549 0 0.020118175814212685 0.012373677923679129 0 0.020912362847246027 0.012004649882295859 0 0.019986899038229842 0.013262824113869219 0 0.020118175814212685 0.012373677923679129 0 0.018869210907076037 0.012852817269149316 0 0.020118175814212685 0.012373677923679129 0 0.019513394768131225 0.011860310158405168 0 0.018869210907076037 0.012852817269149316 0 0.023649564450196846 0.014102061189324791 0 0.022715361393994264 0.014421282477164444 0 0.023106677868829452 0.013365082789517634 0 0.022715361393994264 0.014421282477164444 0 0.023106677868829452 0.013365082789517634 0 0.02193648574342209 0.013434775680184231 0 0.021731333741703988 0.014290389911362576 0 0.020807482386764338 0.01407258872805171 0 0.02193648574342209 0.013434775680184231 0 0.021731333741703988 0.014290389911362576 0 0.022715361393994264 0.014421282477164444 0 0.02193648574342209 0.013434775680184231 0 0.02193648574342209 0.013434775680184231 0 0.021695550698747918 0.012383053044133691 0 0.022478847474754586 0.012572897790865912 0 0.020913377497588228 0.012909319205320549 0 0.02193648574342209 0.013434775680184231 0 0.021695550698747918 0.012383053044133691 0 0.023106677868829452 0.013365082789517634 0 0.02193648574342209 0.013434775680184231 0 0.022478847474754586 0.012572897790865912 0 0.023245168248172066 0.012446182778209738 0 0.023106677868829452 0.013365082789517634 0 0.022478847474754586 0.012572897790865912 0 0.0303760110824692 0.024715779087270857 0 0.025810071526548219 0.026583828335247559 0 0.023675661161552234 0.011126891716958617 0 0.021633134156739686 0.010845174426626372 0 0.022362190474575071 0.011222617183953157 0 0.042709972438289293 0.026551191271314178 0 0.043681664622045299 0.026900297737362723 0 0.042906472103312845 0.026854711034428987 0 0.023675661161552234 0.011126891716958617 0 0.021633134156739686 0.010845174426626372 0 0.020461312106211729 0.0099490079786269947 0 0.022971856439476659 0.01153324187542773 0 0.022748370500931626 0.011992641424811988 0 0.022433801957893674 0.011591187228251263 0 0.023210617042293536 0.0119087429907702 0 0.022971856439476659 0.01153324187542773 0 0.022748370500931626 0.011992641424811988 0 0.023210617042293536 0.0119087429907702 0 0.023245168248172066 0.012446182778209738 0 0.022748370500931626 0.011992641424811988 0 0.023245168248172066 0.012446182778209738 0 0.022478847474754586 0.012572897790865912 0 0.022748370500931626 0.011992641424811988 0 0.022478847474754586 0.012572897790865912 0 0.022748370500931626 0.011992641424811988 0 0.022135030063858446 0.01189353741072246 0 0.022971856439476659 0.01153324187542773 0 0.022433801957893674 0.011591187228251263 0 0.022362190474575071 0.011222617183953157 0 0.022748370500931626 0.011992641424811988 0 0.022433801957893674 0.011591187228251263 0 0.022135030063858446 0.01189353741072246 0 0.022433801957893674 0.011591187228251263 0 0.02206223852640829 0.011482025885180949 0 0.022362190474575071 0.011222617183953157 0 0.02206223852640829 0.011482025885180949 0 0.022135030063858446 0.01189353741072246 0 0.021588038049411461 0.011502149233365065 0 0.02206223852640829 0.011482025885180949 0 0.021588038049411461 0.011502149233365065 0 0.021788023642231456 0.011200917206871436 0 0.022433801957893674 0.011591187228251263 0 0.02206223852640829 0.011482025885180949 0 0.022135030063858446 0.01189353741072246 0 0.021695550698747918 0.012383053044133691 0 0.022478847474754586 0.012572897790865912 0 0.022135030063858446 0.01189353741072246 0 0.021695550698747918 0.012383053044133691 0 0.022135030063858446 0.01189353741072246 0 0.021588038049411461 0.011502149233365065 0 0.021695550698747918 0.012383053044133691 0 0.021588038049411461 0.011502149233365065 0 0.020912362847246027 0.012004649882295859 0 0.021389948832064326 0.011113937676400773 0 0.021633134156739686 0.010845174426626372 0 0.021083322191169488 0.010919878731463993 0 0.021588038049411461 0.011502149233365065 0 0.021389948832064326 0.011113937676400773 0 0.020876046401662761 0.011243720632528671 0 0.021588038049411461 0.011502149233365065 0 0.021389948832064326 0.011113937676400773 0 0.021788023642231456 0.011200917206871436 0 0.021389948832064326 0.011113937676400773 0 0.021633134156739686 0.010845174426626372 0 0.021788023642231456 0.011200917206871436 0 0.021633134156739686 0.010845174426626372 0 0.021788023642231456 0.011200917206871436 0 0.022362190474575071 0.011222617183953157 0 0.02206223852640829 0.011482025885180949 0 0.021788023642231456 0.011200917206871436 0 0.022362190474575071 0.011222617183953157 0 0.023675661161552234 0.011126891716958617 0 0.022971856439476659 0.01153324187542773 0 0.022362190474575071 0.011222617183953157 0 0.01962027715135618 0.011097978097752759 0 0.018638531408977602 0.011940181798906074 0 0.019580546656665174 0.0097288692750318456 0 0.019513394768131225 0.011860310158405168 0 0.01962027715135618 0.011097978097752759 0 0.018638531408977602 0.011940181798906074 0 0.020270104063857319 0.011587568214989841 0 0.020334302551578656 0.011005366589652288 0 0.01962027715135618 0.011097978097752759 0 0.019513394768131225 0.011860310158405168 0 0.020270104063857319 0.011587568214989841 0 0.01962027715135618 0.011097978097752759 0 0.020118175814212685 0.012373677923679129 0 0.019513394768131225 0.011860310158405168 0 0.020270104063857319 0.011587568214989841 0 0.020118175814212685 0.012373677923679129 0 0.020912362847246027 0.012004649882295859 0 0.020270104063857319 0.011587568214989841 0 0.021588038049411461 0.011502149233365065 0 0.020912362847246027 0.012004649882295859 0 0.020876046401662761 0.011243720632528671 0 0.020912362847246027 0.012004649882295859 0 0.020270104063857319 0.011587568214989841 0 0.020876046401662761 0.011243720632528671 0 0.020270104063857319 0.011587568214989841 0 0.020334302551578656 0.011005366589652288 0 0.020876046401662761 0.011243720632528671 0 0.020334302551578656 0.011005366589652288 0 0.020707561484364072 0.010884397621130961 0 0.020876046401662761 0.011243720632528671 0 0.021633134156739686 0.010845174426626372 0 0.020789048619119628 0.010543466647016022 0 0.020461312106211729 0.0099490079786269947 0 0.020334302551578656 0.011005366589652288 0 0.020707561484364072 0.010884397621130961 0 0.020425134184590438 0.010614711434890796 0 0.021389948832064326 0.011113937676400773 0 0.020876046401662761 0.011243720632528671 0 0.021083322191169488 0.010919878731463993 0 0.020707561484364072 0.010884397621130961 0 0.020876046401662761 0.011243720632528671 0 0.021083322191169488 0.010919878731463993 0 0.021633134156739686 0.010845174426626372 0 0.021083322191169488 0.010919878731463993 0 0.020789048619119628 0.010543466647016022 0 0.020707561484364072 0.010884397621130961 0 0.021083322191169488 0.010919878731463993 0 0.020789048619119628 0.010543466647016022 0 0.020334302551578656 0.011005366589652288 0 0.020425134184590438 0.010614711434890796 0 0.02008354345589413 0.010487281763385599 0 0.020789048619119628 0.010543466647016022 0 0.020425134184590438 0.010614711434890796 0 0.020461312106211729 0.0099490079786269947 0 0.020425134184590438 0.010614711434890796 0 0.02008354345589413 0.010487281763385599 0 0.020461312106211729 0.0099490079786269947 0 0.020707561484364072 0.010884397621130961 0 0.020789048619119628 0.010543466647016022 0 0.020425134184590438 0.010614711434890796 0 0.02008354345589413 0.010487281763385599 0 0.01962027715135618 0.011097978097752759 0 0.019580546656665174 0.0097288692750318456 0 0.020334302551578656 0.011005366589652288 0 0.02008354345589413 0.010487281763385599 0 0.01962027715135618 0.011097978097752759 0 0.021993878047999633 0.024112531364894722 0 0.023979965738235329 0.026350054262180019 0 0.0092688980926338167 0.024573165596211765 0 0.010697193615684679 0.025902894978081029 0 0.010619493991918491 0.023676698926007538 0 0.021993878047999633 0.024112531364894722 0 0.021473288462051803 0.026521678712691982 0 0.0092688980926338167 0.024573165596211765 0 0.010697193615684679 0.025902894978081029 0 0.010649961923193063 0.02793683145114834 0 0.010619493991918491 0.023676698926007538 0 0.010356845467939227 0.026873629152374616 0 0.011279385229371773 0.025738073851200784 0 0.010697193615684679 0.025902894978081029 0 0.010619493991918491 0.023676698926007538 0 0.012250265874343672 0.027464209926375001 0 0.010619493991918491 0.023676698926007538 0 0.011279385229371773 0.025738073851200784 0 0.011694232413129762 0.024602773648525304 0 0.011461019231929749 0.027650476686833136 0 0.01178807521595656 0.028684584067554419 0 0.010619493991918491 0.023676698926007538 0 0.011719314940969967 0.023415405214607821 0 0.011694232413129762 0.024602773648525304 0 0.012337844512633494 0.022433010333631261 0 0.011719314940969967 0.023415405214607821 0 0.011456902524208791 0.022714460822330328 0 0.010587455480313717 0.022018098597384822 0 0.010619493991918491 0.023676698926007538 0 0.011456902524208791 0.022714460822330328 0 0.010619493991918491 0.023676698926007538 0 0.011719314940969967 0.023415405214607821 0 0.011456902524208791 0.022714460822330328 0 0.020698882397910918 0.023152419323824294 0 0.021993878047999633 0.024112531364894722 0 0.010587455480313717 0.022018098597384822 0 0.0092688980926338167 0.024573165596211765 0 0.010619493991918491 0.023676698926007538 0 0.016447930582540682 0.014556952245640341 0 0.01834863221641125 0.011397678070464368 0 0.018869210907076037 0.012852817269149316 0 0.016447930582540682 0.014556952245640341 0 0.019194110268210548 0.014541095362693083 0 0.018869210907076037 0.012852817269149316 0 0.019513394768131225 0.011860310158405168 0 0.018638531408977602 0.011940181798906074 0 0.018869210907076037 0.012852817269149316 0 0.021993878047999633 0.024112531364894722 0 0.021810745444696942 0.023607134096748691 0 0.024330440423422812 0.028651335923847995 0 0.024420062462565048 0.028445648368516683 0 0.024542435890373058 0.02876740392564197 0 0.024330440423422812 0.028651335923847995 0 0.024402800292180591 0.028788723424671155 0 0.024542435890373058 0.02876740392564197 0 0.024330440423422812 0.028651335923847995 0 0.024420062462565048 0.028445648368516683 0 0.024305369322495832 0.028526608812299799 0 0.024330440423422812 0.028651335923847995 0 0.024305369322495832 0.028526608812299799 0 0.024219388631820139 0.028586398984737391 0 0.024330440423422812 0.028651335923847995 0 0.024205038207334609 0.02870800311282504 0 0.024257013394621274 0.028788609435796423 0 0.024330440423422812 0.028651335923847995 0 0.024402800292180591 0.028788723424671155 0 0.024257013394621274 0.028788609435796423 0 0.024330440423422812 0.028651335923847995 0 0.024219388631820139 0.028586398984737391 0 0.024205038207334609 0.02870800311282504 0 0.012280895956017253 0.028317547739545989 0 0.012250265874343672 0.027464209926375001 0 0.013561593477460809 0.03099495178676823 0 0.021473288462051803 0.026521678712691982 0 0.020932964356194659 0.029467257677868553 0 0.012280895956017253 0.028317547739545989 0 0.012129253464066311 0.030836441854981366 0 0.013561593477460809 0.03099495178676823 0 0.012280895956017253 0.028317547739545989 0 0.010880126609230363 0.027908460178509908 0 0.012129253464066311 0.030836441854981366 0 0.01178807521595656 0.028684584067554419 0 0.012450047072292199 0.030704671501190328 0 0.012280895956017253 0.028317547739545989 0 0.012250265874343672 0.027464209926375001 0 0.010649961923193063 0.02793683145114834 0 0.020909628306751183 0.026431217088372375 0 0.021473288462051803 0.026521678712691982 0 0.010356845467939227 0.026873629152374616 0 0.011279385229371773 0.025738073851200784 0 0.011440398130614319 0.026933642790843693 0 0.010697193615684679 0.025902894978081029 0 0.012250265874343672 0.027464209926375001 0 0.010649961923193063 0.02793683145114834 0 0.021631781434548341 0.026256009269554258 0 0.022126315153241261 0.027524391710995143 0 0.021228267300314914 0.027261900357901769 0 0.024420062462565048 0.028445648368516683 0 0.024305369322495832 0.028526608812299799 0 0.024191486928021675 0.028378932831103206 0 0.021473288462051803 0.026521678712691982 0 0.023979965738235329 0.026350054262180019 0 0.024305369322495832 0.028526608812299799 0 0.024191486928021675 0.028378932831103206 0 0.024219388631820139 0.028586398984737391 0 0.024236493489732468 0.028285934911014367 0 0.024112222358466866 0.028250989485516312 0 0.0240710128035817 0.028689073824347825 0 0.025810071526548219 0.026583828335247559 0 0.027142460034752718 0.028207252321757224 0 0.023979965738235329 0.026350054262180019 0 0.025810071526548219 0.026583828335247559 0 0.02008354345589413 0.010487281763385599 0 0.019580546656665174 0.0097288692750318456 0 0.020461312106211729 0.0099490079786269947 0 0.043681664622045299 0.026900297737362723 0 0.042906472103312845 0.026854711034428987 0 0.043174827120906943 0.027219687422938958 0 0.043681664622045299 0.026900297737362723 0 0.043174827120906943 0.027219687422938958 0 0.043272865694521108 0.02786940906039849 0 0.042906472103312845 0.026854711034428987 0 0.043174827120906943 0.027219687422938958 0 0.042843343505432577 0.0272811493245993 0 0.043174827120906943 0.027219687422938958 0 0.043272865694521108 0.02786940906039849 0 0.042843343505432577 0.0272811493245993 0 0.043272865694521108 0.02786940906039849 0 0.042485447288924144 0.027594853613577788 0 0.042843343505432577 0.0272811493245993 0 0.023979965738235329 0.026350054262180019 0 0.023855984120294379 0.026841760871608791 0 0.024191486928021675 0.028378932831103206 0 0.024219388631820139 0.028586398984737391 0 0.0240710128035817 0.028689073824347825 0 0.024112222358466866 0.028250989485516312 0 0.023936122631026322 0.028692003965548496 0 0.0240710128035817 0.028689073824347825 0 0.023936122631026322 0.028692003965548496 0 0.0240710128035817 0.028689073824347825 0 0.024080322278825068 0.028819146920242955 0 0.0240710128035817 0.028689073824347825 0 0.024205038207334609 0.02870800311282504 0 0.024080322278825068 0.028819146920242955 0 0.024219388631820139 0.028586398984737391 0 0.0240710128035817 0.028689073824347825 0 0.024205038207334609 0.02870800311282504 0 0.024205038207334609 0.02870800311282504 0 0.024080322278825068 0.028819146920242955 0 0.024257013394621274 0.028788609435796423 0 0.024080322278825068 0.028819146920242955 0 0.023794282682907834 0.029062560239241933 0 0.024200199146023376 0.02897212144117749 0 0.024080322278825068 0.028819146920242955 0 0.024200199146023376 0.02897212144117749 0 0.024257013394621274 0.028788609435796423 0 0.023936122631026322 0.028692003965548496 0 0.024080322278825068 0.028819146920242955 0 0.023794282682907834 0.029062560239241933 0 0.043272865694521108 0.02786940906039849 0 0.042865568466613026 0.028832065515580381 0 0.042476662390055001 0.028291997473166311 0 0.027142460034752718 0.028207252321757224 0 0.026622653845715116 0.031292723770667386 0 0.026622653845715116 0.031292723770667386 0 0.023030410885515464 0.031450146321232379 0 0.021847018072455818 0.039966737866778471 0 0.019842935847763796 0.040344318063949017 0 0.020131583971366652 0.039046460718111409 0 0.019842935847763796 0.040344318063949017 0 0.018948743469141348 0.039793606238826981 0 0.020131583971366652 0.039046460718111409 0 0.019842935847763796 0.040344318063949017 0 0.018948743469141348 0.039793606238826981 0 0.017827646240081072 0.040723786723596153 0 0.018948743469141348 0.039793606238826981 0 0.018526809830281422 0.039334472709428858 0 0.018953557223022791 0.038870060386560205 0 0.024200199146023376 0.02897212144117749 0 0.024402800292180591 0.028788723424671155 0 0.024588892126032085 0.028890003764755021 0 0.023030410885515464 0.031450146321232379 0 0.020866902604941111 0.030654799323607325 0 0.024200199146023376 0.02897212144117749 0 0.024402800292180591 0.028788723424671155 0 0.024257013394621274 0.028788609435796423 0 0.012129253464066311 0.030836441854981366 0 0.012668353174470202 0.031816113113200643 0 0.013561593477460809 0.03099495178676823 0 0.020932964356194659 0.029467257677868553 0 0.020866902604941111 0.030654799323607325 0 0.024402800292180591 0.028788723424671155 0 0.024542435890373058 0.02876740392564197 0 0.024588892126032085 0.028890003764755021 0 0.018017740852129305 0.039974946081827965 0 0.017577826594409485 0.038292097653062872 0 0.017430452623515495 0.039745012053005388 0 0.017827646240081072 0.040723786723596153 0 0.018017740852129305 0.039974946081827965 0 0.017430452623515495 0.039745012053005388 0 0.018948743469141348 0.039793606238826981 0 0.017827646240081072 0.040723786723596153 0 0.018017740852129305 0.039974946081827965 0 0.020866902604941111 0.030654799323607325 0 0.019748600708716847 0.032362844898474956 0 0.018017740852129305 0.039974946081827965 0 0.018526809830281422 0.039334472709428858 0 0.01825686742368831 0.038812647836485858 0 0.018948743469141348 0.039793606238826981 0 0.018017740852129305 0.039974946081827965 0 0.018526809830281422 0.039334472709428858 0 0.017484135390630866 0.03794727187372602 0 0.01735723948408981 0.037439961912799455 0 0.018017740852129305 0.039974946081827965 0 0.01825686742368831 0.038812647836485858 0 0.017613562090610862 0.038329000591055415 0 0.018526809830281422 0.039334472709428858 0 0.01825686742368831 0.038812647836485858 0 0.018953557223022791 0.038870060386560205 0 0.01825686742368831 0.038812647836485858 0 0.018953557223022791 0.038870060386560205 0 0.018503217285841575 0.038094617504021655 0 0.01825686742368831 0.038812647836485858 0 0.017613562090610862 0.038329000591055415 0 0.018503217285841575 0.038094617504021655 0 0.018953557223022791 0.038870060386560205 0 0.019324146462208192 0.03811881876843002 0 0.020131583971366652 0.039046460718111409 0 0.018948743469141348 0.039793606238826981 0 0.018953557223022791 0.038870060386560205 0 0.020131583971366652 0.039046460718111409 0 0.018953557223022791 0.038870060386560205 0 0.019324146462208192 0.03811881876843002 0 0.018503217285841575 0.038094617504021655 0 0.019324146462208192 0.03811881876843002 0 0.019002414839019294 0.037301066296834134 0 0.02017875358531877 0.03762630484181629 0 0.019324146462208192 0.03811881876843002 0 0.019002414839019294 0.037301066296834134 0 0.018503217285841575 0.038094617504021655 0 0.017613562090610862 0.038329000591055415 0 0.018102906527139868 0.037310004975775884 0 0.017184318324445488 0.036671547034957945 0 0.017613562090610862 0.038329000591055415 0 0.018503217285841575 0.038094617504021655 0 0.018102906527139868 0.037310004975775884 0 0.019002414839019294 0.037301066296834134 0 0.018503217285841575 0.038094617504021655 0 0.018102906527139868 0.037310004975775884 0 0.019002414839019294 0.037301066296834134 0 0.018102906527139868 0.037310004975775884 0 0.018212753820156719 0.036147942766739688 0 0.018102906527139868 0.037310004975775884 0 0.018212753820156719 0.036147942766739688 0 0.017184318324445488 0.036671547034957945 0 0.019002414839019294 0.037301066296834134 0 0.018212753820156719 0.036147942766739688 0 0.019696411957494827 0.036286740847317374 0 0.019002414839019294 0.037301066296834134 0 0.019696411957494827 0.036286740847317374 0 0.02017875358531877 0.03762630484181629 0 0.018669958477915978 0.034999989065357409 0 0.020594806001557484 0.034999991328189609 0 0.019696411957494827 0.036286740847317374 0 0.018212753820156719 0.036147942766739688 0 0.018669958477915978 0.034999989065357409 0 0.019696411957494827 0.036286740847317374 0 0.018212753820156719 0.036147942766739688 0 0.018669958477915978 0.034999989065357409 0 0.016745126403576147 0.034999995575127153 0 0.020594806001557484 0.034999991328189609 0 0.021513999432244225 0.036688789379021799 0 0.022519676055506019 0.034999980765944398 0 0.020594806001557484 0.034999991328189609 0 0.019696411957494827 0.036286740847317374 0 0.021513999432244225 0.036688789379021799 0 0.019696411957494827 0.036286740847317374 0 0.021513999432244225 0.036688789379021799 0 0.02017875358531877 0.03762630484181629 0 0.021513999432244225 0.036688789379021799 0 0.021260294768262262 0.03829925358188991 0 0.022630600010696264 0.038160452437203674 0 0.021513999432244225 0.036688789379021799 0 0.02017875358531877 0.03762630484181629 0 0.021260294768262262 0.03829925358188991 0 0.02017875358531877 0.03762630484181629 0 0.020131583971366652 0.039046460718111409 0 0.021260294768262262 0.03829925358188991 0 0.019324146462208192 0.03811881876843002 0 0.02017875358531877 0.03762630484181629 0 0.020131583971366652 0.039046460718111409 0 0.021847018072455818 0.039966737866778471 0 0.020131583971366652 0.039046460718111409 0 0.021260294768262262 0.03829925358188991 0 0.021986582400009433 0.039883324361392705 0 0.02272294948598046 0.03813077231086779 0 0.023784063884539408 0.039560819968253613 0 0.021847018072455818 0.039966737866778471 0 0.021260294768262262 0.03829925358188991 0 0.022630600010696264 0.038160452437203674 0 0.026622653845715116 0.031292723770667386 0 0.024781296439525986 0.035051436744807873 0 0.02272294948598046 0.03813077231086779 0 0.024309433558679004 0.037766153800595843 0 0.023784063884539408 0.039560819968253613 0 0.024781296439525986 0.035051436744807873 0 0.024424769312682611 0.035711840888317872 0 0.02272294948598046 0.03813077231086779 0 0.023438240451077785 0.036339693074261999 0 0.024309433558679004 0.037766153800595843 0 0.021513999432244225 0.036688789379021799 0 0.022630600010696264 0.038160452437203674 0 0.023438240451077785 0.036339693074261999 0 0.023438240451077785 0.036339693074261999 0 0.022519676055506019 0.034999980765944398 0 0.024444544838339233 0.034999990038611303 0 0.021513999432244225 0.036688789379021799 0 0.023438240451077785 0.036339693074261999 0 0.022519676055506019 0.034999980765944398 0 0.024444544838339233 0.034999990038611303 0 0.024664932809805126 0.036204525048227167 0 0.026369384166355824 0.034999987447927317 0 0.023438240451077785 0.036339693074261999 0 0.024444544838339233 0.034999990038611303 0 0.024664932809805126 0.036204525048227167 0 0.024664932809805126 0.036204525048227167 0 0.025648751808398654 0.037084967620718431 0 0.024309433558679004 0.037766153800595843 0 0.023438240451077785 0.036339693074261999 0 0.024664932809805126 0.036204525048227167 0 0.024309433558679004 0.037766153800595843 0 0.024664932809805126 0.036204525048227167 0 0.025648751808398654 0.037084967620718431 0 0.026369384166355824 0.034999987447927317 0 0.025648751808398654 0.037084967620718431 0 0.025626589582059937 0.039241254855130962 0 0.0267966653901546 0.037857228650211565 0 0.025648751808398654 0.037084967620718431 0 0.024309433558679004 0.037766153800595843 0 0.025626589582059937 0.039241254855130962 0 0.024309433558679004 0.037766153800595843 0 0.025626589582059937 0.039241254855130962 0 0.023784063884539408 0.039560819968253613 0 0.040954223104070306 0.029263747256301254 0 0.041143091959767404 0.028473774642739719 0 0.040419306737868858 0.028786979780140987 0 0.040338943190799614 0.027861084316483199 0 0.040046549334602388 0.027669339263997179 0 0.041143091959767404 0.028473774642739719 0 0.041133120347710952 0.027835598809956962 0 0.040124633422462454 0.027747627605948535 0 0.041143091959767404 0.028473774642739719 0 0.041894894138135214 0.028115016408236368 0 0.041133120347710952 0.027835598809956962 0 0.041143091959767404 0.028473774642739719 0 0.041875847801432525 0.02904045807414584 0 0.041894894138135214 0.028115016408236368 0 0.040954223104070306 0.029263747256301254 0 0.041143091959767404 0.028473774642739719 0 0.041875847801432525 0.02904045807414584 0 0.032200949639171902 0.032436578065174103 0 0.030308496279006735 0.031962086739517455 0 0.026622653845715116 0.031292723770667386 0 0.030308496279006735 0.031962086739517455 0 0.042865568466613026 0.028832065515580381 0 0.041875847801432525 0.02904045807414584 0 0.042476662390055001 0.028291997473166311 0 0.041875847801432525 0.02904045807414584 0 0.042476662390055001 0.028291997473166311 0 0.041894894138135214 0.028115016408236368 0 0.041894894138135214 0.028115016408236368 0 0.042002659034168409 0.027516412707812514 0 0.041545082738070518 0.027448645633388939 0 0.041894894138135214 0.028115016408236368 0 0.042002659034168409 0.027516412707812514 0 0.042485447288924144 0.027594853613577788 0 0.042002659034168409 0.027516412707812514 0 0.042485447288924144 0.027594853613577788 0 0.042226518938169075 0.027121626551170279 0 0.042002659034168409 0.027516412707812514 0 0.041882288093468792 0.027225895968637809 0 0.041545082738070518 0.027448645633388939 0 0.042476662390055001 0.028291997473166311 0 0.041894894138135214 0.028115016408236368 0 0.042485447288924144 0.027594853613577788 0 0.043272865694521108 0.02786940906039849 0 0.042476662390055001 0.028291997473166311 0 0.042485447288924144 0.027594853613577788 0 0.042485447288924144 0.027594853613577788 0 0.042843343505432577 0.0272811493245993 0 0.04253881600305761 0.02717049531442858 0 0.042843343505432577 0.0272811493245993 0 0.04253881600305761 0.02717049531442858 0 0.042677219361777111 0.026950320162706327 0 0.042485447288924144 0.027594853613577788 0 0.04253881600305761 0.02717049531442858 0 0.042226518938169075 0.027121626551170279 0 0.04253881600305761 0.02717049531442858 0 0.042456555851398813 0.026918050359260325 0 0.042226518938169075 0.027121626551170279 0 0.042266500584573791 0.026819954112137317 0 0.042456555851398813 0.026918050359260325 0 0.042226518938169075 0.027121626551170279 0 0.042266500584573791 0.026819954112137317 0 0.042375633427151956 0.026795536091705371 0 0.042456555851398813 0.026918050359260325 0 0.042563225121011135 0.026751141533489599 0 0.042375633427151956 0.026795536091705371 0 0.042456555851398813 0.026918050359260325 0 0.042906472103312845 0.026854711034428987 0 0.042843343505432577 0.0272811493245993 0 0.042677219361777111 0.026950320162706327 0 0.04253881600305761 0.02717049531442858 0 0.042456555851398813 0.026918050359260325 0 0.042677219361777111 0.026950320162706327 0 0.042563225121011135 0.026751141533489599 0 0.042456555851398813 0.026918050359260325 0 0.042677219361777111 0.026950320162706327 0 0.042714204149386564 0.026783619051771245 0 0.042563225121011135 0.026751141533489599 0 0.042677219361777111 0.026950320162706327 0 0.042714204149386564 0.026783619051771245 0 0.042906472103312845 0.026854711034428987 0 0.042677219361777111 0.026950320162706327 0 0.041882288093468792 0.027225895968637809 0 0.041967686495329018 0.026962545619149854 0 0.0416658227902406 0.027082593113693796 0 0.042002659034168409 0.027516412707812514 0 0.041882288093468792 0.027225895968637809 0 0.042226518938169075 0.027121626551170279 0 0.041882288093468792 0.027225895968637809 0 0.042226518938169075 0.027121626551170279 0 0.041967686495329018 0.026962545619149854 0 0.042266500584573791 0.026819954112137317 0 0.042226518938169075 0.027121626551170279 0 0.042138885084959957 0.026930173215174134 0 0.042226518938169075 0.027121626551170279 0 0.042138885084959957 0.026930173215174134 0 0.041967686495329018 0.026962545619149854 0 0.042266500584573791 0.026819954112137317 0 0.042138885084959957 0.026930173215174134 0 0.042081259054917636 0.026798306106033017 0 0.042138885084959957 0.026930173215174134 0 0.042081259054917636 0.026798306106033017 0 0.041967686495329018 0.026962545619149854 0 0.041894512531425572 0.026735234424611294 0 0.041967686495329018 0.026962545619149854 0 0.041771872049059362 0.026848605849627429 0 0.041967686495329018 0.026962545619149854 0 0.041771872049059362 0.026848605849627429 0 0.0416658227902406 0.027082593113693796 0 0.041894512531425572 0.026735234424611294 0 0.042081259054917636 0.026798306106033017 0 0.041967686495329018 0.026962545619149854 0 0.041286717511808659 0.027002536547056279 0 0.040890692136761227 0.027367623367763213 0 0.041545082738070518 0.027448645633388939 0 0.041581979155895385 0.026773366077420268 0 0.041771872049059362 0.026848605849627429 0 0.0416658227902406 0.027082593113693796 0 0.041581979155895385 0.026773366077420268 0 0.0416658227902406 0.027082593113693796 0 0.041286717511808659 0.027002536547056279 0 0.0416658227902406 0.027082593113693796 0 0.041286717511808659 0.027002536547056279 0 0.041545082738070518 0.027448645633388939 0 0.041882288093468792 0.027225895968637809 0 0.0416658227902406 0.027082593113693796 0 0.041545082738070518 0.027448645633388939 0 0.041291679641723783 0.026664526444721972 0 0.041581979155895385 0.026773366077420268 0 0.041286717511808659 0.027002536547056279 0 0.040754108116292535 0.026715458247206655 0 0.041286717511808659 0.027002536547056279 0 0.040890692136761227 0.027367623367763213 0 0.040754108116292535 0.026715458247206655 0 0.040890692136761227 0.027367623367763213 0 0.040124633422462454 0.027747627605948535 0 0.040754108116292535 0.026715458247206655 0 0.041291679641723783 0.026664526444721972 0 0.041286717511808659 0.027002536547056279 0 0.040890692136761227 0.027367623367763213 0 0.041133120347710952 0.027835598809956962 0 0.040124633422462454 0.027747627605948535 0 0.040890692136761227 0.027367623367763213 0 0.041133120347710952 0.027835598809956962 0 0.041545082738070518 0.027448645633388939 0 0.041894894138135214 0.028115016408236368 0 0.041133120347710952 0.027835598809956962 0 0.041545082738070518 0.027448645633388939 0 0.040046549334602388 0.027669339263997179 0 0.039520105321177015 0.027319391943429416 0 0.040370755465176565 0.02798791617694844 0 0.039474636014377326 0.027272560842426664 0 0.039693404463258739 0.028526975359726422 0 0.039823471206440739 0.026656354650032455 0 0.040754108116292535 0.026715458247206655 0 0.040124633422462454 0.027747627605948535 0 0.039823471206440739 0.026656354650032455 0 0.040124633422462454 0.027747627605948535 0 0.039206336152289981 0.02706517722750746 0 0.039218675875174545 0.027118245197173461 0 0.039520105321177015 0.027319391943429416 0 0.038371475363459168 0.026409735432939119 0 0.039474636014377326 0.027272560842426664 0 0.038597225339045201 0.02735867691907188 0 0.038597225339045201 0.02735867691907188 0 0.038947128946846057 0.028043987381398662 0 0.038295984973788041 0.027844133073358025 0 0.038947128946846057 0.028043987381398662 0 0.038521523434888821 0.028454481040115043 0 0.038295984973788041 0.027844133073358025 0 0.039474636014377326 0.027272560842426664 0 0.038597225339045201 0.02735867691907188 0 0.038947128946846057 0.028043987381398662 0 0.039474636014377326 0.027272560842426664 0 0.038947128946846057 0.028043987381398662 0 0.039693404463258739 0.028526975359726422 0 0.038947128946846057 0.028043987381398662 0 0.038924742283553859 0.028861706534844288 0 0.039693404463258739 0.028526975359726422 0 0.038947128946846057 0.028043987381398662 0 0.038521523434888821 0.028454481040115043 0 0.038924742283553859 0.028861706534844288 0 0.038521523434888821 0.028454481040115043 0 0.038924742283553859 0.028861706534844288 0 0.038232050699245131 0.02896730626208412 0 0.038924742283553859 0.028861706534844288 0 0.038388846758884723 0.029546987422097895 0 0.038232050699245131 0.02896730626208412 0 0.038924742283553859 0.028861706534844288 0 0.038388846758884723 0.029546987422097895 0 0.039022244402721055 0.029463673947040643 0 0.038924742283553859 0.028861706534844288 0 0.039438651797092814 0.029069496919794914 0 0.039693404463258739 0.028526975359726422 0 0.038924742283553859 0.028861706534844288 0 0.039438651797092814 0.029069496919794914 0 0.039022244402721055 0.029463673947040643 0 0.039438651797092814 0.029069496919794914 0 0.039022244402721055 0.029463673947040643 0 0.039583898090238642 0.029501893953970727 0 0.039853270894952116 0.029084082712605933 0 0.040419306737868858 0.028786979780140987 0 0.040065702086052618 0.029569084143886495 0 0.039853270894952116 0.029084082712605933 0 0.039693404463258739 0.028526975359726422 0 0.040419306737868858 0.028786979780140987 0 0.039438651797092814 0.029069496919794914 0 0.039853270894952116 0.029084082712605933 0 0.039583898090238642 0.029501893953970727 0 0.039438651797092814 0.029069496919794914 0 0.039853270894952116 0.029084082712605933 0 0.039693404463258739 0.028526975359726422 0 0.041143091959767404 0.028473774642739719 0 0.040370755465176565 0.02798791617694844 0 0.040419306737868858 0.028786979780140987 0 0.040370755465176565 0.02798791617694844 0 0.039693404463258739 0.028526975359726422 0 0.040419306737868858 0.028786979780140987 0 0.040954223104070306 0.029263747256301254 0 0.040419306737868858 0.028786979780140987 0 0.040065702086052618 0.029569084143886495 0 0.032200949639171902 0.032436578065174103 0 0.033435537769076325 0.032649605020830461 0 0.025626589582059937 0.039241254855130962 0 0.027499874394551847 0.038905485792917818 0 0.0267966653901546 0.037857228650211565 0 0.027499874394551847 0.038905485792917818 0 0.028264276324139484 0.037844543811773011 0 0.029375412137749215 0.038553450502734003 0 0.033435537769076325 0.032649605020830461 0 0.034616609935937924 0.032557709381205953 0 0.039853270894952116 0.029084082712605933 0 0.040065702086052618 0.029569084143886495 0 0.039583898090238642 0.029501893953970727 0 0.027499874394551847 0.038905485792917818 0 0.028264276324139484 0.037844543811773011 0 0.0267966653901546 0.037857228650211565 0 0.028264276324139484 0.037844543811773011 0 0.0267966653901546 0.037857228650211565 0 0.027340005707708538 0.036570879120923085 0 0.025648751808398654 0.037084967620718431 0 0.0267966653901546 0.037857228650211565 0 0.027340005707708538 0.036570879120923085 0 0.025648751808398654 0.037084967620718431 0 0.027340005707708538 0.036570879120923085 0 0.026369384166355824 0.034999987447927317 0 0.027340005707708538 0.036570879120923085 0 0.028294250505063928 0.034999986243495894 0 0.029040417874234933 0.036840659145342576 0 0.028264276324139484 0.037844543811773011 0 0.027340005707708538 0.036570879120923085 0 0.029040417874234933 0.036840659145342576 0 0.027340005707708538 0.036570879120923085 0 0.028294250505063928 0.034999986243495894 0 0.026369384166355824 0.034999987447927317 0 0.029796358351018373 0.03600182954630262 0 0.030219063522062693 0.034999985713512517 0 0.030910056313230093 0.036029896059497753 0 0.030226409148506495 0.034996773728307423 0 0.03184986285815488 0.034541501587444755 0 0.028294250505063928 0.034999986243495894 0 0.029796358351018373 0.03600182954630262 0 0.029040417874234933 0.036840659145342576 0 0.028294250505063928 0.034999986243495894 0 0.029796358351018373 0.03600182954630262 0 0.030219063522062693 0.034999985713512517 0 0.029796358351018373 0.03600182954630262 0 0.030371776164890816 0.036748099325026436 0 0.030910056313230093 0.036029896059497753 0 0.029040417874234933 0.036840659145342576 0 0.030371776164890816 0.036748099325026436 0 0.030495856720682835 0.037808556815058909 0 0.029796358351018373 0.03600182954630262 0 0.029040417874234933 0.036840659145342576 0 0.030371776164890816 0.036748099325026436 0 0.034024087889452923 0.033245705122586004 0 0.034616609935937924 0.032557709381205953 0 0.029040417874234933 0.036840659145342576 0 0.030495856720682835 0.037808556815058909 0 0.029375412137749215 0.038553450502734003 0 0.038327346237609299 0.030560420351409084 0 0.039007060457700318 0.030093763721005966 0 0.038318372121462829 0.030226644561173535 0 0.028264276324139484 0.037844543811773011 0 0.029040417874234933 0.036840659145342576 0 0.029375412137749215 0.038553450502734003 0 0.040065702086052618 0.029569084143886495 0 0.039108948776762228 0.029860886928136408 0 0.039583898090238642 0.029501893953970727 0 0.039022244402721055 0.029463673947040643 0 0.039052536739730463 0.030003831185638589 0 0.039583898090238642 0.029501893953970727 0 0.034616609935937924 0.032557709381205953 0 0.035155540241758661 0.032206541001981025 0 0.039052536739730463 0.030003831185638589 0 0.038318372121462829 0.030226644561173535 0 0.03861929787834225 0.029837148643708306 0 0.034616609935937924 0.032557709381205953 0 0.035136577425284761 0.032402568788554693 0 0.038318372121462829 0.030226644561173535 0 0.03861929787834225 0.029837148643708306 0 0.038250023372764286 0.029933274783564119 0 0.039022244402721055 0.029463673947040643 0 0.039052536739730463 0.030003831185638589 0 0.03861929787834225 0.029837148643708306 0 0.038388846758884723 0.029546987422097895 0 0.039022244402721055 0.029463673947040643 0 0.03861929787834225 0.029837148643708306 0 0.038388846758884723 0.029546987422097895 0 0.03861929787834225 0.029837148643708306 0 0.038250023372764286 0.029933274783564119 0 0.038388846758884723 0.029546987422097895 0 0.038250023372764286 0.029933274783564119 0 0.037906305593533314 0.029891822717960616 0 0.038388846758884723 0.029546987422097895 0 0.037906305593533314 0.029891822717960616 0 0.037791456349875019 0.02946456452497169 0 0.037906305593533314 0.029891822717960616 0 0.037468753673592016 0.029817733068170274 0 0.037791456349875019 0.02946456452497169 0 0.037906305593533314 0.029891822717960616 0 0.037620340605448638 0.030289953911159875 0 0.038001568905575545 0.03026057192108568 0 0.037906305593533314 0.029891822717960616 0 0.037620340605448638 0.030289953911159875 0 0.037468753673592016 0.029817733068170274 0 0.038250023372764286 0.029933274783564119 0 0.037906305593533314 0.029891822717960616 0 0.038001568905575545 0.03026057192108568 0 0.038318372121462829 0.030226644561173535 0 0.038250023372764286 0.029933274783564119 0 0.038001568905575545 0.03026057192108568 0 0.037620340605448638 0.030289953911159875 0 0.036919762362014018 0.030004877134832013 0 0.037468753673592016 0.029817733068170274 0 0.036919762362014018 0.030004877134832013 0 0.037468753673592016 0.029817733068170274 0 0.037139435036915067 0.029438256710908203 0 0.033750998455514318 0.033657707384813551 0 0.034093098040209921 0.033088541369751055 0 0.037620340605448638 0.030289953911159875 0 0.036919762362014018 0.030004877134832013 0 0.037629316677893911 0.031022987315419203 0 0.038451963802808853 0.032996009128901188 0 0.03814485685653967 0.033200667301637232 0 0.036929365089492003 0.032477486885660468 0 0.037232102207295545 0.031156818653404195 0 0.038451963802808853 0.032996009128901188 0 0.036929365089492003 0.032477486885660468 0 0.034108386181628321 0.032654530394800943 0 0.033445946271489488 0.033811247331282351 0 0.034024087889452923 0.033245705122586004 0 0.033445946271489488 0.033811247331282351 0 0.038327346237609299 0.030560420351409084 0 0.037878398866284475 0.030567616246434264 0 0.037629316677893911 0.031022987315419203 0 0.030371776164890816 0.036748099325026436 0 0.030495856720682835 0.037808556815058909 0 0.031611600145956889 0.037062117724979346 0 0.037620340605448638 0.030289953911159875 0 0.037878398866284475 0.030567616246434264 0 0.037629316677893911 0.031022987315419203 0 0.038327346237609299 0.030560420351409084 0 0.038001568905575545 0.03026057192108568 0 0.037878398866284475 0.030567616246434264 0 0.038327346237609299 0.030560420351409084 0 0.038318372121462829 0.030226644561173535 0 0.038001568905575545 0.03026057192108568 0 0.037620340605448638 0.030289953911159875 0 0.038001568905575545 0.03026057192108568 0 0.037878398866284475 0.030567616246434264 0 0.030371776164890816 0.036748099325026436 0 0.031611600145956889 0.037062117724979346 0 0.030910056313230093 0.036029896059497753 0 0.031576768154487463 0.036257356913346112 0 0.031735000790991938 0.0367694207114053 0 0.030931167760752682 0.036041194398231273 0 0.033445946271489488 0.033811247331282351 0 0.03184986285815488 0.034541501587444755 0 0.031639840658983447 0.037077379033329222 0 0.031735000790991938 0.0367694207114053 0 0.030931167760752682 0.036041194398231273 0 0.033483632303333379 0.033145325066945619 0 0.034040243129850614 0.032773361212508879 0 0.034290845894823396 0.033621836677484446 0 0.033445946271489488 0.033811247331282351 0 0.033750998455514318 0.033657707384813551 0 0.031639840658983447 0.037077379033329222 0 0.031735000790991938 0.0367694207114053 0 0.031929066765349449 0.036883178065712341 0 0.031735000790991938 0.0367694207114053 0 0.031929572421589905 0.036884305136372517 0 0.031959041957800617 0.036422351872353896 0 0.033748206149099416 0.033661670255015423 0 0.033750998455514318 0.033657707384813551 0 0.033750998455514318 0.033657707384813551 0 0.033384852407887432 0.033955937753814246 0 0.031929572421589905 0.036884305136372517 0 0.032725655786749332 0.036353095713905013 0 0.031959041957800617 0.036422351872353896 0 0.031576768154487463 0.036257356913346112 0 0.031959041957800617 0.036422351872353896 0 0.031828008762088786 0.035847262625679596 0 0.032725655786749332 0.036353095713905013 0 0.031959041957800617 0.036422351872353896 0 0.031828008762088786 0.035847262625679596 0 0.031576768154487463 0.036257356913346112 0 0.031735000790991938 0.0367694207114053 0 0.031959041957800617 0.036422351872353896 0 0.032725655786749332 0.036353095713905013 0 0.031828008762088786 0.035847262625679596 0 0.032328015951444147 0.034999990928292903 0 0.033384852407887432 0.033955937753814246 0 0.03233311928363862 0.034997202906033351 0 0.03021912325874002 0.034999997757157279 0 0.031828008762088786 0.035847262625679596 0 0.032328015951444147 0.034999990928292903 0 0.03021912325874002 0.034999997757157279 0 0.031828008762088786 0.035847262625679596 0 0.030931167760752682 0.036041194398231273 0 0.031576768154487463 0.036257356913346112 0 0.031828008762088786 0.035847262625679596 0 0.030931167760752682 0.036041194398231273 0 0.032329053211394239 0.034999537623002848 0 0.034999762626998464 0.034999866829899702 0 0.034691208635765532 0.034987111620888196 0 0.034999762626998464 0.034999866829899702 0 0.035582739890777655 0.033349301334507787 0 0.034999438149177602 0.031284075031324195 0 0.034999762626998464 0.034999866829899702 0 0.034691208635765532 0.034987111620888196 0 0.035582739890777655 0.033349301334507787 0 0.034691208635765532 0.034987111620888196 0 0.035971773857218545 0.034386491511678247 0 0.035582739890777655 0.033349301334507787 0 0.033664536188693771 0.033981901019886351 0 0.033598372431193464 0.033974969789973178 0 0.032777576676068704 0.036368903103413903 0 0.032329053211394239 0.034999537623002848 0 0.03371832070372581 0.035729066201176163 0 0.032329053211394239 0.034999537623002848 0 0.034691208635765532 0.034987111620888196 0 0.03371832070372581 0.035729066201176163 0 0.033384852407887432 0.033955937753814246 0 0.033598372431193464 0.033974969789973178 0 0.033384852407887432 0.033955937753814246 0 0.034093098040209921 0.033088541369751055 0 0.035971773857218545 0.034386491511678247 0 0.036284947302049383 0.033488303730278217 0 0.035582739890777655 0.033349301334507787 0 0.036967988187957421 0.033754338030178278 0 0.036284947302049383 0.033488303730278217 0 0.03661375624544868 0.032491495988632643 0 0.036967988187957421 0.033754338030178278 0 0.035971773857218545 0.034386491511678247 0 0.036284947302049383 0.033488303730278217 0 0.036284947302049383 0.033488303730278217 0 0.035582739890777655 0.033349301334507787 0 0.03661375624544868 0.032491495988632643 0 0.035582739890777655 0.033349301334507787 0 0.035742249881919153 0.031917131648590627 0 0.034999438149177602 0.031284075031324195 0 0.035582739890777655 0.033349301334507787 0 0.035742249881919153 0.031917131648590627 0 0.03661375624544868 0.032491495988632643 0 0.034648090646544144 0.032216011084073702 0 0.034093098040209921 0.033088541369751055 0 0.034093098040209921 0.033088541369751055 0 0.034245159110393525 0.032670095561936147 0 0.037232102207295545 0.031156818653404195 0 0.036929365089492003 0.032477486885660468 0 0.036363205103622551 0.030477419839763542 0 0.035957307594186992 0.031838423811578698 0 0.036941845710284991 0.032422793739646655 0 0.036363205103622551 0.030477419839763542 0 0.035957307594186992 0.031838423811578698 0 0.034999989040573824 0.031283451884655457 0 0.036363205103622551 0.030477419839763542 0 0.034648090646544144 0.032216011084073702 0 0.034997671653663041 0.031288354956632305 0 0.036028578582947716 0.029262558788159823 0 0.034999980662306328 0.0292202461245295 0 0.036363205103622551 0.030477419839763542 0 0.034999989040573824 0.031283451884655457 0 0.034999980662306328 0.0292202461245295 0 0.036363205103622551 0.030477419839763542 0 0.036028578582947716 0.029262558788159823 0 0.034999980662306328 0.0292202461245295 0 0.035984204074893451 0.028041134771290385 0 0.036028578582947716 0.029262558788159823 0 0.036534597594811133 0.028520716191333111 0 0.035984204074893451 0.028041134771290385 0 0.036028578582947716 0.029262558788159823 0 0.036534597594811133 0.028520716191333111 0 0.036965384036856029 0.028891530088225013 0 0.036919762362014018 0.030004877134832013 0 0.036028578582947716 0.029262558788159823 0 0.037139435036915067 0.029438256710908203 0 0.037232102207295545 0.031156818653404195 0 0.036028578582947716 0.029262558788159823 0 0.036363205103622551 0.030477419839763542 0 0.034108386181628321 0.032654530394800943 0 0.034157766767861107 0.032074382342694989 0 0.036028578582947716 0.029262558788159823 0 0.037139435036915067 0.029438256710908203 0 0.036965384036856029 0.028891530088225013 0 0.037468753673592016 0.029817733068170274 0 0.037139435036915067 0.029438256710908203 0 0.037791456349875019 0.02946456452497169 0 0.037139435036915067 0.029438256710908203 0 0.037791456349875019 0.02946456452497169 0 0.037599039426138764 0.02891875695034235 0 0.037139435036915067 0.029438256710908203 0 0.036965384036856029 0.028891530088225013 0 0.037599039426138764 0.02891875695034235 0 0.038388846758884723 0.029546987422097895 0 0.037791456349875019 0.02946456452497169 0 0.038232050699245131 0.02896730626208412 0 0.037791456349875019 0.02946456452497169 0 0.038232050699245131 0.02896730626208412 0 0.037599039426138764 0.02891875695034235 0 0.038521523434888821 0.028454481040115043 0 0.038232050699245131 0.02896730626208412 0 0.038026440410503765 0.028473408182115901 0 0.038232050699245131 0.02896730626208412 0 0.038026440410503765 0.028473408182115901 0 0.037599039426138764 0.02891875695034235 0 0.038026440410503765 0.028473408182115901 0 0.037599039426138764 0.02891875695034235 0 0.037407579323856278 0.028206935844628626 0 0.038521523434888821 0.028454481040115043 0 0.038026440410503765 0.028473408182115901 0 0.038295984973788041 0.027844133073358025 0 0.036534597594811133 0.028520716191333111 0 0.036965384036856029 0.028891530088225013 0 0.037407579323856278 0.028206935844628626 0 0.036965384036856029 0.028891530088225013 0 0.037599039426138764 0.02891875695034235 0 0.037407579323856278 0.028206935844628626 0 0.036534597594811133 0.028520716191333111 0 0.037407579323856278 0.028206935844628626 0 0.036897745272279479 0.02761118441149233 0 0.037407579323856278 0.028206935844628626 0 0.037883328932933419 0.027227168733880217 0 0.036897745272279479 0.02761118441149233 0 0.037407579323856278 0.028206935844628626 0 0.038295984973788041 0.027844133073358025 0 0.037883328932933419 0.027227168733880217 0 0.038597225339045201 0.02735867691907188 0 0.038295984973788041 0.027844133073358025 0 0.037883328932933419 0.027227168733880217 0 0.038026440410503765 0.028473408182115901 0 0.037407579323856278 0.028206935844628626 0 0.038295984973788041 0.027844133073358025 0 0.037469902160485423 0.026240756061695743 0 0.038371475363459168 0.026409735432939119 0 0.037883328932933419 0.027227168733880217 0 0.038371475363459168 0.026409735432939119 0 0.038597225339045201 0.02735867691907188 0 0.037883328932933419 0.027227168733880217 0 0.037469902160485423 0.026240756061695743 0 0.037883328932933419 0.027227168733880217 0 0.036897745272279479 0.02761118441149233 0 0.037469902160485423 0.026240756061695743 0 0.03625714947028421 0.026572078170392425 0 0.036897745272279479 0.02761118441149233 0 0.03625714947028421 0.026572078170392425 0 0.034999996996890735 0.027158162536582292 0 0.035984204074893451 0.028041134771290385 0 0.034999980662306328 0.0292202461245295 0 0.034999996996890735 0.027158162536582292 0 0.035984204074893451 0.028041134771290385 0 0.036534597594811133 0.028520716191333111 0 0.035984204074893451 0.028041134771290385 0 0.036897745272279479 0.02761118441149233 0 0.03625714947028421 0.026572078170392425 0 0.035984204074893451 0.028041134771290385 0 0.036897745272279479 0.02761118441149233 0 0.0052981412551061343 0.044646938995049096 0 0.0049647391275434169 0.045905382874770272 0 0.0069281173602964976 0.044229775062404164 0 0.012737065288069935 0.033155318322184005 0 0.015495193604115266 0.032853894661696838 0 0.0052981412551061343 0.044646938995049096 0 0.0069281173602964976 0.044229775062404164 0 0.0057930160682547758 0.043442089898539947 0 0.0052981412551061343 0.044646938995049096 0 0.0040415143443955585 0.043976598541501218 0 0.0049098682629196127 0.043529989556038734 0 0.0052981412551061343 0.044646938995049096 0 0.0040415143443955585 0.043976598541501218 0 0.0041359787706073924 0.044950949102152714 0 0.0052981412551061343 0.044646938995049096 0 0.0041359787706073924 0.044950949102152714 0 0.0045440782756500644 0.045257957255081915 0 0.0037542974884483974 0.045134785253786461 0 0.0041359787706073924 0.044950949102152714 0 0.0045440782756500644 0.045257957255081915 0 0.035786348609528507 0.016942763695055922 0 0.033421507209076114 0.016272085491873808 0 0.032519946161747339 0.021538829623234758 0 0.035786348609528507 0.016942763695055922 0 0.033421507209076114 0.016272085491873808 0 0.03398895770092393 0.013563493659527364 0 0.012343239475900842 0.03440744201329151 0 0.012737065288069935 0.033155318322184005 0 0.033421507209076114 0.016272085491873808 0 0.031208212072681416 0.016984086070912695 0 0.032519946161747339 0.021538829623234758 0 0.033421507209076114 0.016272085491873808 0 0.031208212072681416 0.016984086070912695 0 0.031595656841899439 0.014283287580256756 0 0.031208212072681416 0.016984086070912695 0 0.028684596522553115 0.015074789125274681 0 0.031595656841899439 0.014283287580256756 0 0.028942558611813798 0.018140084016319176 0 0.028684596522553115 0.015074789125274681 0 0.025393711930298924 0.01658403223166887 0 0.031208212072681416 0.016984086070912695 0 0.028942558611813798 0.018140084016319176 0 0.028684596522553115 0.015074789125274681 0 0.028265548591449093 0.020753194052466249 0 0.032519946161747339 0.021538829623234758 0 0.027111850411268623 0.023708953754758642 0 0.028942558611813798 0.018140084016319176 0 0.028265548591449093 0.020753194052466249 0 0.032519946161747339 0.021538829623234758 0 0.028942558611813798 0.018140084016319176 0 0.028265548591449093 0.020753194052466249 0 0.025461633876603017 0.019912890175161183 0 0.028265548591449093 0.020753194052466249 0 0.027111850411268623 0.023708953754758642 0 0.025461633876603017 0.019912890175161183 0 0.031208212072681416 0.016984086070912695 0 0.028942558611813798 0.018140084016319176 0 0.032519946161747339 0.021538829623234758 0 0.0069281173602964976 0.044229775062404164 0 0.0069664211638692797 0.043010278466359443 0 0.0090801194767597734 0.042800088250284245 0 0.015495193604115266 0.032853894661696838 0 0.016163181629427325 0.033917821514530218 0 0.0069281173602964976 0.044229775062404164 0 0.0069664211638692797 0.043010278466359443 0 0.0057930160682547758 0.043442089898539947 0 0.032519946161747339 0.021538829623234758 0 0.027111850411268623 0.023708953754758642 0 0.028454129588163624 0.027415061266809978 0 0.0090801194767597734 0.042800088250284245 0 0.006886503736488506 0.041903432814896426 0 0.009619585382780205 0.04168913434790817 0 0.0069664211638692797 0.043010278466359443 0 0.0090801194767597734 0.042800088250284245 0 0.006886503736488506 0.041903432814896426 0 0.0069664211638692797 0.043010278466359443 0 0.006886503736488506 0.041903432814896426 0 0.0059948781454152869 0.04274079211878494 0 0.0076220747514011344 0.042323093956668813 0 0.0056967800727965286 0.042100516412308518 0 0.0062106128096945899 0.041696194922358147 0 0.006886503736488506 0.041903432814896426 0 0.0059948781454152869 0.04274079211878494 0 0.0045594747816195868 0.042570115747744594 0 0.0076220747514011344 0.042323093956668813 0 0.0053734865283503819 0.042679532311665068 0 0.0056967800727965286 0.042100516412308518 0 0.0065985045973457543 0.042216275417327587 0 0.005654263264363516 0.042514537777937872 0 0.0069664211638692797 0.043010278466359443 0 0.0059948781454152869 0.04274079211878494 0 0.0057930160682547758 0.043442089898539947 0 0.0059948781454152869 0.04274079211878494 0 0.0053681370453226313 0.043042444120373474 0 0.0045594747816195868 0.042570115747744594 0 0.0052981412551061343 0.044646938995049096 0 0.0057930160682547758 0.043442089898539947 0 0.0049098682629196127 0.043529989556038734 0 0.0059948781454152869 0.04274079211878494 0 0.0053681370453226313 0.043042444120373474 0 0.0057930160682547758 0.043442089898539947 0 0.0053681370453226313 0.043042444120373474 0 0.0057930160682547758 0.043442089898539947 0 0.0049098682629196127 0.043529989556038734 0 0.0040415143443955585 0.043976598541501218 0 0.0049098682629196127 0.043529989556038734 0 0.0045594747816195868 0.042570115747744594 0 0.005008344728052048 0.04227249939566087 0 0.0053734865283503819 0.042679532311665068 0 0.0026721298488059089 0.043037353012182179 0 0.0053681370453226313 0.043042444120373474 0 0.0049098682629196127 0.043529989556038734 0 0.0045594747816195868 0.042570115747744594 0 0.005008344728052048 0.04227249939566087 0 0.0053734865283503819 0.042679532311665068 0 0.0056967800727965286 0.042100516412308518 0 0.0056967800727965286 0.042100516412308518 0 0.0051952265782363935 0.041693068082514606 0 0.0062106128096945899 0.041696194922358147 0 0.005008344728052048 0.04227249939566087 0 0.0056967800727965286 0.042100516412308518 0 0.0050904057091090563 0.041977375500720088 0 0.0056967800727965286 0.042100516412308518 0 0.0050904057091090563 0.041977375500720088 0 0.0051952265782363935 0.041693068082514606 0 0.005008344728052048 0.04227249939566087 0 0.0050904057091090563 0.041977375500720088 0 0.0045516476507127708 0.04184956834402858 0 0.0050904057091090563 0.041977375500720088 0 0.0045516476507127708 0.04184956834402858 0 0.0051952265782363935 0.041693068082514606 0 0.005008344728052048 0.04227249939566087 0 0.0045516476507127708 0.04184956834402858 0 0.0033317844776791917 0.041959340814784168 0 0.005008344728052048 0.04227249939566087 0 0.0018799395987746995 0.040698467644894154 0 0.0026721298488059089 0.043037353012182179 0 0.0021020711523348492 0.041431580337344703 0 0.0012616246290541723 0.041221434559190966 0 0.0018799395987746995 0.040698467644894154 0 0.00098502471883930723 0.04236550906503226 0 -0.00014313636777222411 0.041459818678778196 0 0.0018799395987746995 0.040698467644894154 0 0.00098502471883930723 0.04236550906503226 0 0.0026721298488059089 0.043037353012182179 0 0.00098502471883930723 0.04236550906503226 0 0.0026721298488059089 0.043037353012182179 0 0.00050787644312236268 0.044605192145631425 0 0.005654263264363516 0.042514537777937872 0 0.0051092680716360236 0.042688077388262774 0 0.0040415143443955585 0.043976598541501218 0 0.0045594747816195868 0.042570115747744594 0 0.0026721298488059089 0.043037353012182179 0 -0.00014313636777222411 0.041459818678778196 0 -0.0017565446426865449 0.041784790046932252 0 -0.0013535866533599277 0.039634732314443366 0 -0.0017565446426865449 0.041784790046932252 0 -0.0013535866533599277 0.039634732314443366 0 -0.0030443182747282287 0.040939413101689644 0 -0.0017565446426865449 0.041784790046932252 0 -0.0030443182747282287 0.040939413101689644 0 -0.0032186583799106872 0.042172484983602751 0 0.0018799395987746995 0.040698467644894154 0 -0.00014313636777222411 0.041459818678778196 0 -0.0013535866533599277 0.039634732314443366 0 0.0012616246290541723 0.041221434559190966 0 -0.00060970708650933542 0.040794180142067343 0 0.00098502471883930723 0.04236550906503226 0 -0.00049074365753209342 0.042752618594467738 0 0.00050787644312236268 0.044605192145631425 0 0.00098502471883930723 0.04236550906503226 0 -0.00014313636777222411 0.041459818678778196 0 -0.00049074365753209342 0.042752618594467738 0 -0.00014313636777222411 0.041459818678778196 0 -0.00049074365753209342 0.042752618594467738 0 -0.0017565446426865449 0.041784790046932252 0 -0.0017565446426865449 0.041784790046932252 0 -0.0023776242238399427 0.044087883004946538 0 -0.0032186583799106872 0.042172484983602751 0 -0.00049074365753209342 0.042752618594467738 0 -0.0017565446426865449 0.041784790046932252 0 -0.0023776242238399427 0.044087883004946538 0 -0.0023776242238399427 0.044087883004946538 0 0.00050787644312236268 0.044605192145631425 0 -0.0024393644969373535 0.047542706180598346 0 -0.00049074365753209342 0.042752618594467738 0 -0.0023776242238399427 0.044087883004946538 0 0.00050787644312236268 0.044605192145631425 0 0.00050787644312236268 0.044605192145631425 0 0.0033220105259205873 0.045357414747261696 0 0.0013287683540317175 0.048002316055118122 0 0.0040415143443955585 0.043976598541501218 0 0.0041359787706073924 0.044950949102152714 0 0.0033220105259205873 0.045357414747261696 0 0.0040415143443955585 0.043976598541501218 0 0.0026721298488059089 0.043037353012182179 0 0.0033220105259205873 0.045357414747261696 0 0.0026721298488059089 0.043037353012182179 0 0.00050787644312236268 0.044605192145631425 0 0.0033220105259205873 0.045357414747261696 0 0.0037542974884483974 0.045134785253786461 0 0.0041359787706073924 0.044950949102152714 0 0.0033220105259205873 0.045357414747261696 0 0.0037542974884483974 0.045134785253786461 0 0.0033220105259205873 0.045357414747261696 0 0.0033916933511240225 0.04490666698513697 0 0.0033220105259205873 0.045357414747261696 0 0.0033916933511240225 0.04490666698513697 0 0.0045537566839490709 0.044831368796774823 0 -0.0022562778163365189 0.041913153986984343 0 -0.00289336060306811 0.041647282756045359 0 0.0045537566839490709 0.044831368796774823 0 0.0042451756177403054 0.043833596584018086 0 0.0059558092192144602 0.043387890090935501 0 0.0033916933511240225 0.04490666698513697 0 0.0045537566839490709 0.044831368796774823 0 0.0042451756177403054 0.043833596584018086 0 0.0033916933511240225 0.04490666698513697 0 0.0042451756177403054 0.043833596584018086 0 0.0032848887553103105 0.043843070533534784 0 0.00050787644312236268 0.044605192145631425 0 0.0013287683540317175 0.048002316055118122 0 -0.0024393644969373535 0.047542706180598346 0 -0.00289336060306811 0.041647282756045359 0 -0.0046220895192923151 0.04028082132969224 0 0.0013287683540317175 0.048002316055118122 0 -0.0024393644969373535 0.047542706180598346 0 -0.00049779180927396428 0.050789086741931319 0 -0.0024393644969373535 0.047542706180598346 0 -0.00049779180927396428 0.050789086741931319 0 -0.0032407189997285604 0.050856501198949189 0 -0.0046220895192923151 0.04028082132969224 0 -0.0072711687037359937 0.036706534718071601 0 -0.00049779180927396428 0.050789086741931319 0 -0.0031590405576590432 0.053269106368586339 0 -0.0032407189997285604 0.050856501198949189 0 0.0059558092192144602 0.043387890090935501 0 0.0059787982438243093 0.042095622082106467 0 0.0046761126849664356 0.042455587224195943 0 0.0059787982438243093 0.042095622082106467 0 0.0046761126849664356 0.042455587224195943 0 0.0050647962057639839 0.041368982316983674 0 0.0059558092192144602 0.043387890090935501 0 0.0059787982438243093 0.042095622082106467 0 0.0072035271964223701 0.041675053983230508 0 -0.00049779180927396428 0.050789086741931319 0 -0.0025070670380374477 0.054065056357695387 0 -0.0031590405576590432 0.053269106368586339 0 -0.0072711687037359937 0.036706534718071601 0 -0.007026004020612194 0.037092643951761421 0 0.0032848887553103105 0.043843070533534784 0 0.0035853064626257692 0.042887690479810954 0 0.002490565393137491 0.042516567155230493 0 0.0042451756177403054 0.043833596584018086 0 0.0032848887553103105 0.043843070533534784 0 0.0035853064626257692 0.042887690479810954 0 0.0042451756177403054 0.043833596584018086 0 0.0059558092192144602 0.043387890090935501 0 0.0046761126849664356 0.042455587224195943 0 0.0042451756177403054 0.043833596584018086 0 0.0035853064626257692 0.042887690479810954 0 0.0046761126849664356 0.042455587224195943 0 0.0046761126849664356 0.042455587224195943 0 0.0042669605269958343 0.041456054322968783 0 0.0037134753242552871 0.042025007510036981 0 0.0046761126849664356 0.042455587224195943 0 0.0050647962057639839 0.041368982316983674 0 0.0042669605269958343 0.041456054322968783 0 0.0042669605269958343 0.041456054322968783 0 0.003663001614120778 0.041384130971793401 0 0.0037134753242552871 0.042025007510036981 0 0.0035853064626257692 0.042887690479810954 0 0.0046761126849664356 0.042455587224195943 0 0.0037134753242552871 0.042025007510036981 0 0.0035853064626257692 0.042887690479810954 0 0.0037134753242552871 0.042025007510036981 0 0.003084347370056929 0.042153264875441264 0 0.0035853064626257692 0.042887690479810954 0 0.003084347370056929 0.042153264875441264 0 0.002490565393137491 0.042516567155230493 0 0.0037134753242552871 0.042025007510036981 0 0.003084347370056929 0.042153264875441264 0 0.0030900496452346518 0.041698256599338637 0 0.003663001614120778 0.041384130971793401 0 0.0037134753242552871 0.042025007510036981 0 0.0030900496452346518 0.041698256599338637 0 0.003184067266899052 0.040905002908481043 0 0.003663001614120778 0.041384130971793401 0 0.0030900496452346518 0.041698256599338637 0 0.0022273530614771316 0.040971535589482147 0 0.0030900496452346518 0.041698256599338637 0 0.0013323442321293245 0.041987796214982269 0 0.011634888009008084 0.023546024506321137 0 0.011876187882262031 0.023431093295757904 0 0.003084347370056929 0.042153264875441264 0 0.0030900496452346518 0.041698256599338637 0 0.0026471942008132279 0.041666768554926147 0 0.011876187882262031 0.023431093295757904 0 0.013739698893572204 0.022143192595507205 0 0.00087333484447639856 0.040918289896914727 0 0.0013323442321293245 0.041987796214982269 0 -0.00095960093929593749 0.041984374510195745 0 0.014144546606679216 0.020666093473404572 0 0.012773287488521582 0.020614522209111814 0 0.013741701764432877 0.0226785914372153 0 0.036297682337942803 0.0045875241920824558 0 0.037374813354873825 0.0068700986319251483 0 0.034622855021825716 0.0066885490141750693 0 0.013739698893572204 0.022143192595507205 0 0.012630697859628993 0.024640707400811358 0 0.003084347370056929 0.042153264875441264 0 0.0026471942008132279 0.041666768554926147 0 0.002490565393137491 0.042516567155230493 0 0.011876187882262031 0.023431093295757904 0 0.012630697859628993 0.024640707400811358 0 0.036297682337942803 0.0045875241920824558 0 0.034622855021825716 0.0066885490141750693 0 0.032189091821055296 0.0044213915991089328 0 0.013739698893572204 0.022143192595507205 0 0.018539319460502759 0.017130132635530693 0 0.034622855021825716 0.0066885490141750693 0 0.033572284740117642 0.0087332099292882475 0 0.03219213130063462 0.0070183167254366241 0 0.034622855021825716 0.0066885490141750693 0 0.035366011153514447 0.0089088458412847783 0 0.033572284740117642 0.0087332099292882475 0 0.037374813354873825 0.0068700986319251483 0 0.034622855021825716 0.0066885490141750693 0 0.035366011153514447 0.0089088458412847783 0 0.035366011153514447 0.0089088458412847783 0 0.033572284740117642 0.0087332099292882475 0 0.03432678986087008 0.010843815564753142 0 0.0032848887553103105 0.043843070533534784 0 0.0027688845999543055 0.042686910324499124 0 0.0024837305367314123 0.044447350383203951 0 0.037374813354873825 0.0068700986319251483 0 0.035366011153514447 0.0089088458412847783 0 0.036508540130475275 0.011783612468383527 0 0.012865737120502034 0.027040406821866703 0 0.012630697859628993 0.024640707400811358 0 0.012630697859628993 0.024640707400811358 0 0.01338893275305756 0.028404893587227205 0 0.0033916933511240225 0.04490666698513697 0 0.0032848887553103105 0.043843070533534784 0 0.0024837305367314123 0.044447350383203951 0 0.035366011153514447 0.0089088458412847783 0 0.036508540130475275 0.011783612468383527 0 0.03432678986087008 0.010843815564753142 0 0.033572284740117642 0.0087332099292882475 0 0.03432678986087008 0.010843815564753142 0 0.03217951670418101 0.011284780968178282 0 0.03432678986087008 0.010843815564753142 0 0.03398895770092393 0.013563493659527364 0 0.03217951670418101 0.011284780968178282 0 0.036508540130475275 0.011783612468383527 0 0.03432678986087008 0.010843815564753142 0 0.03398895770092393 0.013563493659527364 0 0.035786348609528507 0.016942763695055922 0 0.036508540130475275 0.011783612468383527 0 0.03398895770092393 0.013563493659527364 0 0.012737065288069935 0.033155318322184005 0 0.01338893275305756 0.028404893587227205 0 0.0021746579022975825 0.046280915318109024 0 0.0033916933511240225 0.04490666698513697 0 0.0024837305367314123 0.044447350383203951 0 0.012737065288069935 0.033155318322184005 0 0.0097921674134703578 0.036659205409733615 0 0.0037542974884483974 0.045134785253786461 0 0.0045440782756500644 0.045257957255081915 0 0.0033916933511240225 0.04490666698513697 0 0.030015829668496339 0.012721312718314696 0 0.028684596522553115 0.015074789125274681 0 0.027794208671614987 0.011947982712399092 0 0.028684596522553115 0.015074789125274681 0 0.027794208671614987 0.011947982712399092 0 0.02589151336476524 0.013439415551605542 0 0.030015829668496339 0.012721312718314696 0 0.028684596522553115 0.015074789125274681 0 0.031595656841899439 0.014283287580256756 0 0.03398895770092393 0.013563493659527364 0 0.031595656841899439 0.014283287580256756 0 0.03217951670418101 0.011284780968178282 0 0.030015829668496339 0.012721312718314696 0 0.031595656841899439 0.014283287580256756 0 0.03217951670418101 0.011284780968178282 0 0.033421507209076114 0.016272085491873808 0 0.03398895770092393 0.013563493659527364 0 0.031595656841899439 0.014283287580256756 0 0.030015829668496339 0.012721312718314696 0 0.03217951670418101 0.011284780968178282 0 0.02962066276396318 0.01076775117261353 0 0.03217951670418101 0.011284780968178282 0 0.02962066276396318 0.01076775117261353 0 0.030639657674447259 0.0087525828122412639 0 0.030015829668496339 0.012721312718314696 0 0.02962066276396318 0.01076775117261353 0 0.027794208671614987 0.011947982712399092 0 0.02962066276396318 0.01076775117261353 0 0.027794208671614987 0.011947982712399092 0 0.027980516292256664 0.0096110714285364482 0 0.027980516292256664 0.0096110714285364482 0 0.028394697848470474 0.0076879384755113699 0 0.030639657674447259 0.0087525828122412639 0 0.02962066276396318 0.01076775117261353 0 0.027980516292256664 0.0096110714285364482 0 0.030639657674447259 0.0087525828122412639 0 0.028394697848470474 0.0076879384755113699 0 0.030639657674447259 0.0087525828122412639 0 0.029941752014481154 0.0064692470767820105 0 0.033572284740117642 0.0087332099292882475 0 0.030639657674447259 0.0087525828122412639 0 0.03219213130063462 0.0070183167254366241 0 0.033572284740117642 0.0087332099292882475 0 0.03217951670418101 0.011284780968178282 0 0.030639657674447259 0.0087525828122412639 0 0.030639657674447259 0.0087525828122412639 0 0.03219213130063462 0.0070183167254366241 0 0.029941752014481154 0.0064692470767820105 0 0.018539319460502759 0.017130132635530693 0 0.020655118570265259 0.01429098208149371 0 0.03195952857906758 0.0046275366363190693 0 0.029941752014481154 0.0064692470767820105 0 0.029096333314546436 0.0045006105517879135 0 0.034622855021825716 0.0066885490141750693 0 0.03219213130063462 0.0070183167254366241 0 0.032189091821055296 0.0044213915991089328 0 0.03219213130063462 0.0070183167254366241 0 0.032189091821055296 0.0044213915991089328 0 0.029941752014481154 0.0064692470767820105 0 0.018539319460502759 0.017130132635530693 0 0.020066130990887079 0.015738512565028229 0 0.020655118570265259 0.01429098208149371 0 0.022143199481012794 0.011797063973574327 0 0.027809860288442664 0.0060936304737562296 0 0.029096333314546436 0.0045006105517879135 0 0.026119802324641391 0.0043912027963368587 0 0.028394697848470474 0.0076879384755113699 0 0.027809860288442664 0.0060936304737562296 0 0.029941752014481154 0.0064692470767820105 0 0.027809860288442664 0.0060936304737562296 0 0.029941752014481154 0.0064692470767820105 0 0.029096333314546436 0.0045006105517879135 0 0.028394697848470474 0.0076879384755113699 0 0.027809860288442664 0.0060936304737562296 0 0.025280175081402297 0.0072686589504467576 0 0.027809860288442664 0.0060936304737562296 0 0.026119802324641391 0.0043912027963368587 0 0.025280175081402297 0.0072686589504467576 0 0.022143199481012794 0.011797063973574327 0 0.022698465875443326 0.010556471766226976 0 0.025549223628864748 0.0058850980825256452 0 0.025245169178503883 0.0078205900337690974 0 0.024585203634724013 0.0065821727569480223 0 0.024665716349690482 0.0058350099487377268 0 0.025549223628864748 0.0058850980825256452 0 0.024585203634724013 0.0065821727569480223 0 0.022202054456476321 0.01176185069963827 0 0.022143199481012794 0.011797063973574327 0 0.022698465875443326 0.010556471766226976 0 0.022828840603749023 0.010325643910982764 0 0.025280175081402297 0.0072686589504467576 0 0.026175501204648934 0.010643981040929847 0 0.02458244138931677 0.010092654341173773 0 0.027980516292256664 0.0096110714285364482 0 0.028394697848470474 0.0076879384755113699 0 0.025280175081402297 0.0072686589504467576 0 0.027980516292256664 0.0096110714285364482 0 0.025280175081402297 0.0072686589504467576 0 0.026175501204648934 0.010643981040929847 0 0.025245169178503883 0.0078205900337690974 0 0.0234604615851218 0.0088614467005330867 0 0.023775458660290651 0.0069970632975911674 0 0.025245169178503883 0.0078205900337690974 0 0.0234604615851218 0.0088614467005330867 0 0.02458244138931677 0.010092654341173773 0 0.025245169178503883 0.0078205900337690974 0 0.023775458660290651 0.0069970632975911674 0 0.024585203634724013 0.0065821727569480223 0 0.023981425537625549 0.0058823810307608035 0 0.024665716349690482 0.0058350099487377268 0 0.024585203634724013 0.0065821727569480223 0 0.023281719420393848 0.005493931463361473 0 0.023981425537625549 0.0058823810307608035 0 0.023775458660290651 0.0069970632975911674 0 0.023981425537625549 0.0058823810307608035 0 0.023775458660290651 0.0069970632975911674 0 0.024585203634724013 0.0065821727569480223 0 0.023281719420393848 0.005493931463361473 0 0.022233719425672899 0.0058632276155093791 0 0.022361736338821457 0.0077188554123834964 0 0.023281719420393848 0.005493931463361473 0 0.023775458660290651 0.0069970632975911674 0 0.022361736338821457 0.0077188554123834964 0 0.021756331407515237 0.0042887395870578517 0 0.022233719425672899 0.0058632276155093791 0 0.020671740300664494 0.0077548217758647486 0 0.022233719425672899 0.0058632276155093791 0 0.020671740300664494 0.0077548217758647486 0 0.022361736338821457 0.0077188554123834964 0 0.020685075521376484 0.0093781200506866547 0 0.022361736338821457 0.0077188554123834964 0 0.021593386555492505 0.010345835428243961 0 0.020671740300664494 0.0077548217758647486 0 0.020685075521376484 0.0093781200506866547 0 0.022361736338821457 0.0077188554123834964 0 0.0234604615851218 0.0088614467005330867 0 0.023775458660290651 0.0069970632975911674 0 0.022361736338821457 0.0077188554123834964 0 0.0234604615851218 0.0088614467005330867 0 0.022361736338821457 0.0077188554123834964 0 0.021593386555492505 0.010345835428243961 0 0.0234604615851218 0.0088614467005330867 0 0.021593386555492505 0.010345835428243961 0 0.022694098813470162 0.011360903584744316 0 0.021593386555492505 0.010345835428243961 0 0.021505771156147907 0.011738436121369478 0 0.022694098813470162 0.011360903584744316 0 0.021505771156147907 0.011738436121369478 0 0.022694098813470162 0.011360903584744316 0 0.021649548868413485 0.012790089125006905 0 0.021593386555492505 0.010345835428243961 0 0.019510176173383218 0.010966192777239071 0 0.020372816121304458 0.012448692029804549 0 0.020685075521376484 0.0093781200506866547 0 0.021593386555492505 0.010345835428243961 0 0.019510176173383218 0.010966192777239071 0 0.021593386555492505 0.010345835428243961 0 0.021505771156147907 0.011738436121369478 0 0.020372816121304458 0.012448692029804549 0 0.019510176173383218 0.010966192777239071 0 0.020372816121304458 0.012448692029804549 0 0.018383246764421303 0.012868165106167978 0 0.020372816121304458 0.012448692029804549 0 0.019238247353277404 0.014373857073518995 0 0.018383246764421303 0.012868165106167978 0 0.020372816121304458 0.012448692029804549 0 0.020645527159092233 0.014467231893069109 0 0.021649548868413485 0.012790089125006905 0 0.020372816121304458 0.012448692029804549 0 0.020645527159092233 0.014467231893069109 0 0.019238247353277404 0.014373857073518995 0 0.021649548868413485 0.012790089125006905 0 0.02257952893514853 0.013399186445158402 0 0.01940949880554544 0.017575634824990548 0 0.022694098813470162 0.011360903584744316 0 0.021649548868413485 0.012790089125006905 0 0.02257952893514853 0.013399186445158402 0 0.021505771156147907 0.011738436121369478 0 0.020372816121304458 0.012448692029804549 0 0.021649548868413485 0.012790089125006905 0 0.022694098813470162 0.011360903584744316 0 0.02257952893514853 0.013399186445158402 0 0.024194817416236865 0.012183457437386459 0 0.02257952893514853 0.013399186445158402 0 0.02397131803486249 0.014347512452536897 0 0.024194817416236865 0.012183457437386459 0 0.02257952893514853 0.013399186445158402 0 0.02397131803486249 0.014347512452536897 0 0.022620456096199303 0.016598093936867224 0 0.02397131803486249 0.014347512452536897 0 0.02589151336476524 0.013439415551605542 0 0.025393711930298924 0.01658403223166887 0 0.028684596522553115 0.015074789125274681 0 0.02589151336476524 0.013439415551605542 0 0.025393711930298924 0.01658403223166887 0 0.02397131803486249 0.014347512452536897 0 0.02589151336476524 0.013439415551605542 0 0.024194817416236865 0.012183457437386459 0 0.027794208671614987 0.011947982712399092 0 0.02589151336476524 0.013439415551605542 0 0.026175501204648934 0.010643981040929847 0 0.02589151336476524 0.013439415551605542 0 0.026175501204648934 0.010643981040929847 0 0.024194817416236865 0.012183457437386459 0 0.027794208671614987 0.011947982712399092 0 0.027980516292256664 0.0096110714285364482 0 0.026175501204648934 0.010643981040929847 0 0.026175501204648934 0.010643981040929847 0 0.02458244138931677 0.010092654341173773 0 0.024194817416236865 0.012183457437386459 0 0.0234604615851218 0.0088614467005330867 0 0.022694098813470162 0.011360903584744316 0 0.02458244138931677 0.010092654341173773 0 0.022694098813470162 0.011360903584744316 0 0.02458244138931677 0.010092654341173773 0 0.024194817416236865 0.012183457437386459 0 0.014535253587898568 0.023110560705983618 0 0.014010232448572512 0.024857872158175344 0 0.013035073267316864 0.022513131497629294 0 0.009837485306799041 0.0072283717133949654 0 0.011921865584821952 0.0081719351643778689 0 0.011841049049016662 0.010564211947980169 0 0.019493409433924688 0.012249686918210856 0 0.017959383968957753 0.014369743140598792 0 0.023023170814135029 0.010732417376684483 0 0.022957840867133761 0.010871821652985935 0 0.023148136100932592 0.010808323800024167 0 0.009837485306799041 0.0072283717133949654 0 0.013323352451070495 0.0061653833062437127 0 0.011921865584821952 0.0081719351643778689 0 0.019493409433924688 0.012249686918210856 0 0.020199786496808154 0.0094352886869776987 0 0.020199786496808154 0.0094352886869776987 0 0.020755617827223755 0.0087706704416241222 0 0.020199786496808154 0.0094352886869776987 0 0.019196575033823111 0.009591980234568075 0 0.013323352451070495 0.0061653833062437127 0 0.011921865584821952 0.0081719351643778689 0 0.014610585880307374 0.0097894696950171101 0 0.011921865584821952 0.0081719351643778689 0 0.014610585880307374 0.0097894696950171101 0 0.011841049049016662 0.010564211947980169 0 0.014359782017704386 0.0060548178594706905 0 0.0156274528256088 0.0099252825149814643 0 0.017775284860973406 0.0079439573822285628 0 0.0156274528256088 0.0099252825149814643 0 0.017775284860973406 0.0079439573822285628 0 0.018558549147997278 0.0095141018577509732 0 0.021756331407515237 0.0042887395870578517 0 0.017775284860973406 0.0079439573822285628 0 0.015701713031226579 0.0052044790601897782 0 0.014359782017704386 0.0060548178594706905 0 0.017775284860973406 0.0079439573822285628 0 0.015900904139096544 0.0056121184979006037 0 0.020381189205775946 0.0084174784327229902 0 0.020755617827223755 0.0087706704416241222 0 0.021756331407515237 0.0042887395870578517 0 0.020671740300664494 0.0077548217758647486 0 0.017775284860973406 0.0079439573822285628 0 0.020671740300664494 0.0077548217758647486 0 0.017775284860973406 0.0079439573822285628 0 0.018558549147997278 0.0095141018577509732 0 0.020685075521376484 0.0093781200506866547 0 0.019510176173383218 0.010966192777239071 0 0.018558549147997278 0.0095141018577509732 0 0.020671740300664494 0.0077548217758647486 0 0.020685075521376484 0.0093781200506866547 0 0.018558549147997278 0.0095141018577509732 0 0.019510176173383218 0.010966192777239071 0 0.018558549147997278 0.0095141018577509732 0 0.017566879266158582 0.011330996116609484 0 0.019510176173383218 0.010966192777239071 0 0.017566879266158582 0.011330996116609484 0 0.018383246764421303 0.012868165106167978 0 0.019238247353277404 0.014373857073518995 0 0.018383246764421303 0.012868165106167978 0 0.017415768867491323 0.014837749982883324 0 0.018383246764421303 0.012868165106167978 0 0.017415768867491323 0.014837749982883324 0 0.015983622599978983 0.013531484001256483 0 0.017566879266158582 0.011330996116609484 0 0.018383246764421303 0.012868165106167978 0 0.015983622599978983 0.013531484001256483 0 0.019196575033823111 0.009591980234568075 0 0.019049124815125041 0.01015743118153423 0 0.014610585880307374 0.0097894696950171101 0 0.015983622599978983 0.013531484001256483 0 0.013846258801823361 0.014002472441988559 0 0.0156274528256088 0.0099252825149814643 0 0.018558549147997278 0.0095141018577509732 0 0.017566879266158582 0.011330996116609484 0 0.0156274528256088 0.0099252825149814643 0 0.017566879266158582 0.011330996116609484 0 0.015983622599978983 0.013531484001256483 0 0.017500214012799067 0.016338327071083836 0 0.017959383968957753 0.014369743140598792 0 0.014610585880307374 0.0097894696950171101 0 0.013846258801823361 0.014002472441988559 0 0.011841049049016662 0.010564211947980169 0 0.013312173733764823 0.020811636428772994 0 0.013542662780444317 0.021177739432617852 0 0.013035073267316864 0.022513131497629294 0 0.013312173733764823 0.020811636428772994 0 0.013542662780444317 0.021177739432617852 0 0.013426428043343767 0.020792180387262934 0 0.014535253587898568 0.023110560705983618 0 0.013542662780444317 0.021177739432617852 0 0.013035073267316864 0.022513131497629294 0 0.012337844512633494 0.022433010333631261 0 0.013116071721999446 0.02230805366120266 0 0.013024594261939122 0.021134877711025086 0 0.013116071721999446 0.02230805366120266 0 0.013407607674011309 0.021228309397878283 0 0.013024594261939122 0.021134877711025086 0 0.013407607674011309 0.021228309397878283 0 0.013024594261939122 0.021134877711025086 0 0.013405942322328423 0.020537500056735564 0 0.013856575735589094 0.01967050395136943 0 0.013542662780444317 0.021177739432617852 0 0.013405942322328423 0.020537500056735564 0 0.013542662780444317 0.021177739432617852 0 0.013405942322328423 0.020537500056735564 0 0.013426428043343767 0.020792180387262934 0 0.013407607674011309 0.021228309397878283 0 0.013405942322328423 0.020537500056735564 0 0.013426428043343767 0.020792180387262934 0 0.013407607674011309 0.021228309397878283 0 0.013426428043343767 0.020792180387262934 0 0.013787404652999028 0.021075365286111081 0 0.013312173733764823 0.020811636428772994 0 0.013426428043343767 0.020792180387262934 0 0.013787404652999028 0.021075365286111081 0 0.013407607674011309 0.021228309397878283 0 0.013787404652999028 0.021075365286111081 0 0.013935308943533335 0.022038014363819289 0 0.013116071721999446 0.02230805366120266 0 0.013407607674011309 0.021228309397878283 0 0.013935308943533335 0.022038014363819289 0 0.013787404652999028 0.021075365286111081 0 0.013935308943533335 0.022038014363819289 0 0.015029610083365225 0.021196851838405247 0 0.013935308943533335 0.022038014363819289 0 0.015029610083365225 0.021196851838405247 0 0.014852615766753062 0.023209383631954867 0 0.015029610083365225 0.021196851838405247 0 0.017054766651023935 0.022816383023954404 0 0.014852615766753062 0.023209383631954867 0 0.013312173733764823 0.020811636428772994 0 0.013787404652999028 0.021075365286111081 0 0.015029610083365225 0.021196851838405247 0 0.017415768867491323 0.014837749982883324 0 0.015983622599978983 0.013531484001256483 0 0.015382036621990443 0.01782508705438068 0 0.015983622599978983 0.013531484001256483 0 0.013846258801823361 0.014002472441988559 0 0.015382036621990443 0.01782508705438068 0 0.017500214012799067 0.016338327071083836 0 0.017712349806037277 0.018104495574900591 0 0.015382036621990443 0.01782508705438068 0 0.018336892796027661 0.016216009353861045 0 0.018365558921171869 0.018932202181636455 0 0.017415768867491323 0.014837749982883324 0 0.015382036621990443 0.01782508705438068 0 0.018336892796027661 0.016216009353861045 0 0.019238247353277404 0.014373857073518995 0 0.017415768867491323 0.014837749982883324 0 0.018336892796027661 0.016216009353861045 0 0.015382036621990443 0.01782508705438068 0 0.018365558921171869 0.018932202181636455 0 0.017054766651023935 0.022816383023954404 0 0.017712349806037277 0.018104495574900591 0 0.017983947442706108 0.018998032771171236 0 0.018365558921171869 0.018932202181636455 0 0.017054766651023935 0.022816383023954404 0 0.019523247254333402 0.023826254967284397 0 0.017054766651023935 0.022816383023954404 0 0.015755298657374149 0.024202346634153115 0 0.014852615766753062 0.023209383631954867 0 0.017054766651023935 0.022816383023954404 0 0.01678892479978215 0.024970219175590974 0 0.015755298657374149 0.024202346634153115 0 0.017054766651023935 0.022816383023954404 0 0.01678892479978215 0.024970219175590974 0 0.019523247254333402 0.023826254967284397 0 0.01678892479978215 0.024970219175590974 0 0.019523247254333402 0.023826254967284397 0 0.016917140975807102 0.027907942514218166 0 0.01678892479978215 0.024970219175590974 0 0.015039528222340458 0.025649037901245741 0 0.016917140975807102 0.027907942514218166 0 0.01678892479978215 0.024970219175590974 0 0.015039528222340458 0.025649037901245741 0 0.015755298657374149 0.024202346634153115 0 0.015039528222340458 0.025649037901245741 0 0.014271470707697428 0.024539899817265693 0 0.015755298657374149 0.024202346634153115 0 0.015039528222340458 0.025649037901245741 0 0.014271470707697428 0.024539899817265693 0 0.013318040632363221 0.026012246903746643 0 0.014271470707697428 0.024539899817265693 0 0.015755298657374149 0.024202346634153115 0 0.014852615766753062 0.023209383631954867 0 0.013116071721999446 0.02230805366120266 0 0.013935308943533335 0.022038014363819289 0 0.013458863133061589 0.023767530771101407 0 0.014271470707697428 0.024539899817265693 0 0.014852615766753062 0.023209383631954867 0 0.013458863133061589 0.023767530771101407 0 0.013935308943533335 0.022038014363819289 0 0.014852615766753062 0.023209383631954867 0 0.013458863133061589 0.023767530771101407 0 0.014271470707697428 0.024539899817265693 0 0.013458863133061589 0.023767530771101407 0 0.013318040632363221 0.026012246903746643 0 0.013458863133061589 0.023767530771101407 0 0.013318040632363221 0.026012246903746643 0 0.012491188464116192 0.025061386156410456 0 0.013318040632363221 0.026012246903746643 0 0.012491188464116192 0.025061386156410456 0 0.012055763290342582 0.026299747832279608 0 0.012491188464116192 0.025061386156410456 0 0.011279385229371773 0.025738073851200784 0 0.012055763290342582 0.026299747832279608 0 0.012491188464116192 0.025061386156410456 0 0.011279385229371773 0.025738073851200784 0 0.011694232413129762 0.024602773648525304 0 0.012491188464116192 0.025061386156410456 0 0.011694232413129762 0.024602773648525304 0 0.012499385949389432 0.023586258859082724 0 0.011719314940969967 0.023415405214607821 0 0.011694232413129762 0.024602773648525304 0 0.012499385949389432 0.023586258859082724 0 0.013458863133061589 0.023767530771101407 0 0.012491188464116192 0.025061386156410456 0 0.012499385949389432 0.023586258859082724 0 0.013116071721999446 0.02230805366120266 0 0.013458863133061589 0.023767530771101407 0 0.012499385949389432 0.023586258859082724 0 0.012337844512633494 0.022433010333631261 0 0.013116071721999446 0.02230805366120266 0 0.012499385949389432 0.023586258859082724 0 0.012337844512633494 0.022433010333631261 0 0.011719314940969967 0.023415405214607821 0 0.012499385949389432 0.023586258859082724 0 0.022518399837947751 0.019697497059522357 0 0.022620456096199303 0.016598093936867224 0 0.018943492926121033 0.019547279934545688 0 0.022518399837947751 0.019697497059522357 0 0.018943492926121033 0.019547279934545688 0 0.020553419361544818 0.023308787861837162 0 0.022518399837947751 0.019697497059522357 0 0.020553419361544818 0.023308787861837162 0 0.023860084848318818 0.022783864429072955 0 0.022518399837947751 0.019697497059522357 0 0.025461633876603017 0.019912890175161183 0 0.023860084848318818 0.022783864429072955 0 0.027111850411268623 0.023708953754758642 0 0.025461633876603017 0.019912890175161183 0 0.023860084848318818 0.022783864429072955 0 0.022518399837947751 0.019697497059522357 0 0.025461633876603017 0.019912890175161183 0 0.025393711930298924 0.01658403223166887 0 0.028942558611813798 0.018140084016319176 0 0.025461633876603017 0.019912890175161183 0 0.025393711930298924 0.01658403223166887 0 0.02397131803486249 0.014347512452536897 0 0.025393711930298924 0.01658403223166887 0 0.022620456096199303 0.016598093936867224 0 0.02257952893514853 0.013399186445158402 0 0.022620456096199303 0.016598093936867224 0 0.018943492926121033 0.019547279934545688 0 0.022518399837947751 0.019697497059522357 0 0.025393711930298924 0.01658403223166887 0 0.022620456096199303 0.016598093936867224 0 0.019626211498639037 0.020300076173688821 0 0.019231028817424216 0.022260980467699441 0 0.02257952893514853 0.013399186445158402 0 0.01940949880554544 0.017575634824990548 0 0.022117423743630467 0.018605132369830652 0 0.020186344533840311 0.017945325614011746 0 0.019807769739361551 0.019292133246282213 0 0.020645527159092233 0.014467231893069109 0 0.021649548868413485 0.012790089125006905 0 0.02153808572046842 0.017741241004642666 0 0.020645527159092233 0.014467231893069109 0 0.019827209251222808 0.01616915315312932 0 0.02153808572046842 0.017741241004642666 0 0.018365558921171869 0.018932202181636455 0 0.019827209251222808 0.01616915315312932 0 0.02153808572046842 0.017741241004642666 0 0.020645527159092233 0.014467231893069109 0 0.019238247353277404 0.014373857073518995 0 0.019827209251222808 0.01616915315312932 0 0.019238247353277404 0.014373857073518995 0 0.018336892796027661 0.016216009353861045 0 0.019827209251222808 0.01616915315312932 0 0.018336892796027661 0.016216009353861045 0 0.018365558921171869 0.018932202181636455 0 0.019827209251222808 0.01616915315312932 0 0.01940949880554544 0.017575634824990548 0 0.020002224957151808 0.020891774058697958 0 0.017663194786460903 0.02322781223111841 0 0.018365558921171869 0.018932202181636455 0 0.02153808572046842 0.017741241004642666 0 0.019523247254333402 0.023826254967284397 0 0.019807769739361551 0.019292133246282213 0 0.01909726046497625 0.021739358764173423 0 0.01940949880554544 0.017575634824990548 0 0.022117423743630467 0.018605132369830652 0 0.020002224957151808 0.020891774058697958 0 0.022117423743630467 0.018605132369830652 0 0.020002224957151808 0.020891774058697958 0 0.021187318130652409 0.024358214645669746 0 0.020002224957151808 0.020891774058697958 0 0.017663194786460903 0.02322781223111841 0 0.021187318130652409 0.024358214645669746 0 0.019231028817424216 0.022260980467699441 0 0.018394129197195651 0.026344941939454681 0 0.017663194786460903 0.02322781223111841 0 0.018785394775494048 0.026140642183907228 0 0.016917140975807102 0.027907942514218166 0 0.01909726046497625 0.021739358764173423 0 0.018704311468512889 0.023060665032338043 0 0.017663194786460903 0.02322781223111841 0 0.018785394775494048 0.026140642183907228 0 0.021187318130652409 0.024358214645669746 0 0.016035875514175943 0.027471956662879892 0 0.022742261734946388 0.028205403622073608 0 0.018359800414561644 0.031811128775475858 0 0.016035875514175943 0.027471956662879892 0 0.020553419361544818 0.023308787861837162 0 0.022742261734946388 0.028205403622073608 0 0.020553419361544818 0.023308787861837162 0 0.023860084848318818 0.022783864429072955 0 0.022742261734946388 0.028205403622073608 0 0.018943492926121033 0.019547279934545688 0 0.016035875514175943 0.027471956662879892 0 0.020553419361544818 0.023308787861837162 0 0.027111850411268623 0.023708953754758642 0 0.023860084848318818 0.022783864429072955 0 0.022742261734946388 0.028205403622073608 0 0.027111850411268623 0.023708953754758642 0 0.028454129588163624 0.027415061266809978 0 0.022742261734946388 0.028205403622073608 0 0.028454129588163624 0.027415061266809978 0 0.022742261734946388 0.028205403622073608 0 0.022333005897378806 0.034299774886008688 0 0.016163181629427325 0.033917821514530218 0 0.015923665824184273 0.035168464337579593 0 0.0090801194767597734 0.042800088250284245 0 0.011224637029572323 0.041665331399782506 0 0.009619585382780205 0.04168913434790817 0 0.011224637029572323 0.041665331399782506 0 0.010129808256729622 0.040742980470773113 0 0.009619585382780205 0.04168913434790817 0 0.011224637029572323 0.041665331399782506 0 0.010129808256729622 0.040742980470773113 0 0.011459453362522879 0.039856076406457538 0 0.010129808256729622 0.040742980470773113 0 0.011459453362522879 0.039856076406457538 0 0.010030022337627793 0.039780954485088685 0 0.015923665824184273 0.035168464337579593 0 0.015652984477082538 0.035737266197522183 0 0.011224637029572323 0.041665331399782506 0 0.011459453362522879 0.039856076406457538 0 0.014266830771853466 0.039253295266435978 0 0.022333005897378806 0.034299774886008688 0 0.013514908013700569 0.03668420337460384 0 0.014266830771853466 0.039253295266435978 0 0.022742261734946388 0.028205403622073608 0 0.022333005897378806 0.034299774886008688 0 0.018359800414561644 0.031811128775475858 0 0.022333005897378806 0.034299774886008688 0 0.018359800414561644 0.031811128775475858 0 0.013514908013700569 0.03668420337460384 0 0.018394129197195651 0.026344941939454681 0 0.017522575179742639 0.030408152860825495 0 0.016035875514175943 0.027471956662879892 0 0.018359800414561644 0.031811128775475858 0 0.013514908013700569 0.03668420337460384 0 0.018785394775494048 0.026140642183907228 0 0.021187318130652409 0.024358214645669746 0 0.019798510331881243 0.028914176371302499 0 0.018785394775494048 0.026140642183907228 0 0.019798510331881243 0.028914176371302499 0 0.016917140975807102 0.027907942514218166 0 0.017220586737168187 0.030781083652936587 0 0.019798510331881243 0.028914176371302499 0 0.016917140975807102 0.027907942514218166 0 0.013514908013700569 0.03668420337460384 0 0.013827017447657063 0.039644136232562743 0 0.014266830771853466 0.039253295266435978 0 0.017220586737168187 0.030781083652936587 0 0.019798510331881243 0.028914176371302499 0 0.018068560634330724 0.032804954069539857 0 0.013827017447657063 0.039644136232562743 0 0.014266830771853466 0.039253295266435978 0 0.01277012646189696 0.039053028573310306 0 0.017522575179742639 0.030408152860825495 0 0.016918090709710554 0.032888485783863969 0 0.017220586737168187 0.030781083652936587 0 0.018068560634330724 0.032804954069539857 0 0.016086533712528554 0.033617775070072346 0 0.017220586737168187 0.030781083652936587 0 0.016086533712528554 0.033617775070072346 0 0.015484513544659516 0.032590539441141299 0 0.018068560634330724 0.032804954069539857 0 0.016086533712528554 0.033617775070072346 0 0.014364173600416341 0.03627268899564072 0 0.016086533712528554 0.033617775070072346 0 0.015484513544659516 0.032590539441141299 0 0.014973490978356483 0.034616835661375564 0 0.016918090709710554 0.032888485783863969 0 0.016678949970929197 0.03359673082435783 0 0.013827017447657063 0.039644136232562743 0 0.012994809739325352 0.037935577896523485 0 0.012065060681159879 0.038466972634990916 0 0.013827017447657063 0.039644136232562743 0 0.012994809739325352 0.037935577896523485 0 0.014364173600416341 0.03627268899564072 0 0.012994809739325352 0.037935577896523485 0 0.012065060681159879 0.038466972634990916 0 0.011364652697587673 0.037534883321448442 0 0.012065060681159879 0.038466972634990916 0 0.010080196127433109 0.038170028609364956 0 0.011065649871058304 0.03895209850288664 0 0.012065060681159879 0.038466972634990916 0 0.010080196127433109 0.038170028609364956 0 0.011364652697587673 0.037534883321448442 0 0.010080196127433109 0.038170028609364956 0 0.011065649871058304 0.03895209850288664 0 0.0097652572283789645 0.038998043695816782 0 0.011065649871058304 0.03895209850288664 0 0.0097652572283789645 0.038998043695816782 0 0.010030022337627793 0.039780954485088685 0 0.011459453362522879 0.039856076406457538 0 0.011065649871058304 0.03895209850288664 0 0.010030022337627793 0.039780954485088685 0 0.011459453362522879 0.039856076406457538 0 0.011065649871058304 0.03895209850288664 0 0.01277012646189696 0.039053028573310306 0 0.013827017447657063 0.039644136232562743 0 0.012065060681159879 0.038466972634990916 0 0.01277012646189696 0.039053028573310306 0 0.011459453362522879 0.039856076406457538 0 0.014266830771853466 0.039253295266435978 0 0.01277012646189696 0.039053028573310306 0 0.012065060681159879 0.038466972634990916 0 0.011065649871058304 0.03895209850288664 0 0.01277012646189696 0.039053028573310306 0 0.011503528690392317 0.028395918670282731 0 0.012568882675938114 0.029994722211138192 0 0.010784497162351988 0.030617798456332477 0 0.010356845467939227 0.026873629152374616 0 0.011503528690392317 0.028395918670282731 0 0.010784497162351988 0.030617798456332477 0 0.010356845467939227 0.026873629152374616 0 0.011503528690392317 0.028395918670282731 0 0.011440398130614319 0.026933642790843693 0 0.011279385229371773 0.025738073851200784 0 0.011440398130614319 0.026933642790843693 0 0.012055763290342582 0.026299747832279608 0 0.013318040632363221 0.026012246903746643 0 0.012055763290342582 0.026299747832279608 0 0.012008244062955439 0.027452905482892323 0 0.011440398130614319 0.026933642790843693 0 0.012055763290342582 0.026299747832279608 0 0.012008244062955439 0.027452905482892323 0 0.011503528690392317 0.028395918670282731 0 0.011440398130614319 0.026933642790843693 0 0.012008244062955439 0.027452905482892323 0 0.011503528690392317 0.028395918670282731 0 0.012008244062955439 0.027452905482892323 0 0.012928015960082322 0.028054077785894173 0 0.013318040632363221 0.026012246903746643 0 0.012008244062955439 0.027452905482892323 0 0.012928015960082322 0.028054077785894173 0 0.013318040632363221 0.026012246903746643 0 0.012928015960082322 0.028054077785894173 0 0.014452662050063521 0.027569547128482898 0 0.012928015960082322 0.028054077785894173 0 0.013667907630521801 0.029251364209575494 0 0.014452662050063521 0.027569547128482898 0 0.012928015960082322 0.028054077785894173 0 0.013667907630521801 0.029251364209575494 0 0.012568882675938114 0.029994722211138192 0 0.011503528690392317 0.028395918670282731 0 0.012928015960082322 0.028054077785894173 0 0.012568882675938114 0.029994722211138192 0 0.013667907630521801 0.029251364209575494 0 0.012568882675938114 0.029994722211138192 0 0.013789405901963687 0.031093844041014684 0 0.014883297001019497 0.029286673097219652 0 0.015709315783713269 0.030590413344306622 0 0.013789405901963687 0.031093844041014684 0 0.013667907630521801 0.029251364209575494 0 0.014883297001019497 0.029286673097219652 0 0.013789405901963687 0.031093844041014684 0 0.013667907630521801 0.029251364209575494 0 0.014883297001019497 0.029286673097219652 0 0.014452662050063521 0.027569547128482898 0 0.015039528222340458 0.025649037901245741 0 0.013318040632363221 0.026012246903746643 0 0.014452662050063521 0.027569547128482898 0 0.015039528222340458 0.025649037901245741 0 0.014452662050063521 0.027569547128482898 0 0.016917140975807102 0.027907942514218166 0 0.014883297001019497 0.029286673097219652 0 0.014452662050063521 0.027569547128482898 0 0.016917140975807102 0.027907942514218166 0 0.014883297001019497 0.029286673097219652 0 0.016917140975807102 0.027907942514218166 0 0.015709315783713269 0.030590413344306622 0 0.017220586737168187 0.030781083652936587 0 0.016917140975807102 0.027907942514218166 0 0.015709315783713269 0.030590413344306622 0 0.015709315783713269 0.030590413344306622 0 0.015484513544659516 0.032590539441141299 0 0.014329452196518511 0.032887517885245271 0 0.017220586737168187 0.030781083652936587 0 0.015709315783713269 0.030590413344306622 0 0.015484513544659516 0.032590539441141299 0 0.015484513544659516 0.032590539441141299 0 0.014329452196518511 0.032887517885245271 0 0.014973490978356483 0.034616835661375564 0 0.014329452196518511 0.032887517885245271 0 0.014097013391628326 0.034574106069429962 0 0.014973490978356483 0.034616835661375564 0 0.014329452196518511 0.032887517885245271 0 0.013300636659561634 0.033343194757408358 0 0.014097013391628326 0.034574106069429962 0 0.014329452196518511 0.032887517885245271 0 0.013789405901963687 0.031093844041014684 0 0.013300636659561634 0.033343194757408358 0 0.015709315783713269 0.030590413344306622 0 0.014329452196518511 0.032887517885245271 0 0.013789405901963687 0.031093844041014684 0 0.013789405901963687 0.031093844041014684 0 0.012502969384975561 0.031823084119703159 0 0.013300636659561634 0.033343194757408358 0 0.012568882675938114 0.029994722211138192 0 0.013789405901963687 0.031093844041014684 0 0.012502969384975561 0.031823084119703159 0 0.013300636659561634 0.033343194757408358 0 0.011919971215383365 0.03391897933643525 0 0.013408368345676214 0.034716227541636932 0 0.012502969384975561 0.031823084119703159 0 0.013300636659561634 0.033343194757408358 0 0.011919971215383365 0.03391897933643525 0 0.014441165254417005 0.033667301404548551 0 0.013324228932993256 0.033207733548276545 0 0.013561593477460809 0.03099495178676823 0 0.013134965461805896 0.032636842129437613 0 0.012450047072292199 0.030704671501190328 0 0.012502969384975561 0.031823084119703159 0 0.011919971215383365 0.03391897933643525 0 0.010784497162351988 0.030617798456332477 0 0.012668353174470202 0.031816113113200643 0 0.013324228932993256 0.033207733548276545 0 0.013561593477460809 0.03099495178676823 0 0.012568882675938114 0.029994722211138192 0 0.012502969384975561 0.031823084119703159 0 0.010784497162351988 0.030617798456332477 0 0.017577826594409485 0.038292097653062872 0 0.016785494318059584 0.03814247995962769 0 0.017151546765158374 0.036649559203119249 0 0.01735723948408981 0.037439961912799455 0 0.017079209338584901 0.036331335447624499 0 0.018159997918358387 0.033979050422497804 0 0.016775855540834425 0.034683360875057842 0 0.017577826594409485 0.038292097653062872 0 0.017430452623515495 0.039745012053005388 0 0.016785494318059584 0.03814247995962769 0 0.014441165254417005 0.033667301404548551 0 0.013324228932993256 0.033207733548276545 0 0.01427014743506448 0.034840107488824539 0 0.019748600708716847 0.032362844898474956 0 0.018159997918358387 0.033979050422497804 0 0.013134965461805896 0.032636842129437613 0 0.013637361080203908 0.033883162014824504 0 0.011919971215383365 0.03391897933643525 0 0.013408368345676214 0.034716227541636932 0 0.013470850847169672 0.035767773403069462 0 0.014441165254417005 0.033667301404548551 0 0.01427014743506448 0.034840107488824539 0 0.014960301323411277 0.035299185250793452 0 0.013408368345676214 0.034716227541636932 0 0.013470850847169672 0.035767773403069462 0 0.014028581837816072 0.035473231320780896 0 0.01427014743506448 0.034840107488824539 0 0.014960301323411277 0.035299185250793452 0 0.014929896600994608 0.035539011655549124 0 0.013470850847169672 0.035767773403069462 0 0.014028581837816072 0.035473231320780896 0 0.014174010808971455 0.035753285570239886 0 0.014028581837816072 0.035473231320780896 0 0.014118892446513032 0.035765382821499672 0 0.014174010808971455 0.035753285570239886 0 0.013408368345676214 0.034716227541636932 0 0.014028581837816072 0.035473231320780896 0 0.014097013391628326 0.034574106069429962 0 0.013300636659561634 0.033343194757408358 0 0.013408368345676214 0.034716227541636932 0 0.014097013391628326 0.034574106069429962 0 0.014028581837816072 0.035473231320780896 0 0.014097013391628326 0.034574106069429962 0 0.014452401218863565 0.035419760477349044 0 0.014097013391628326 0.034574106069429962 0 0.014973490978356483 0.034616835661375564 0 0.014452401218863565 0.035419760477349044 0 0.014028581837816072 0.035473231320780896 0 0.014452401218863565 0.035419760477349044 0 0.014118892446513032 0.035765382821499672 0 0.014452401218863565 0.035419760477349044 0 0.014118892446513032 0.035765382821499672 0 0.014364173600416341 0.03627268899564072 0 0.014118892446513032 0.035765382821499672 0 0.014028384308856397 0.035587899609233781 0 0.013214682834377099 0.035723959695827576 0 0.014118892446513032 0.035765382821499672 0 0.014028384308856397 0.035587899609233781 0 0.014174010808971455 0.035753285570239886 0 0.014028384308856397 0.035587899609233781 0 0.013610125319531546 0.034999747640872728 0 0.013214682834377099 0.035723959695827576 0 0.014028384308856397 0.035587899609233781 0 0.013610125319531546 0.034999747640872728 0 0.014933305704589027 0.035439387731673593 0 0.013610125319531546 0.034999747640872728 0 0.014933305704589027 0.035439387731673593 0 0.015503599125964392 0.035000231881350333 0 0.014028384308856397 0.035587899609233781 0 0.014933305704589027 0.035439387731673593 0 0.014174010808971455 0.035753285570239886 0 0.013470850847169672 0.035767773403069462 0 0.014933305704589027 0.035439387731673593 0 0.014174010808971455 0.035753285570239886 0 0.013637361080203908 0.033883162014824504 0 0.013816373426537647 0.03425091926153128 0 0.014960301323411277 0.035299185250793452 0 0.014933305704589027 0.035439387731673593 0 0.014929896600994608 0.035539011655549124 0 0.01615393591862432 0.0365783002444462 0 0.015505879175243565 0.034999992673694455 0 0.016745034914303274 0.034999991813538238 0 0.014933305704589027 0.035439387731673593 0 0.014929896600994608 0.035539011655549124 0 0.015503599125964392 0.035000231881350333 0 0.016775855540834425 0.034683360875057842 0 0.015510143835197608 0.034998590203477224 0 0.016745716702968757 0.035002453395129855 0 0.017079209338584901 0.036331335447624499 0 0.018212753820156719 0.036147942766739688 0 0.016745126403576147 0.034999995575127153 0 0.017184318324445488 0.036671547034957945 0 0.01615393591862432 0.0365783002444462 0 0.016745034914303274 0.034999991813538238 0 0.017151546765158374 0.036649559203119249 0 0.016785494318059584 0.03814247995962769 0 0.01615393591862432 0.0365783002444462 0 0.017151546765158374 0.036649559203119249 0 0.010950898124045032 0.036492437633424683 0 0.014364173600416341 0.03627268899564072 0 0.011566618361938263 0.035724481739771038 0 0.010950898124045032 0.036492437633424683 0 0.0092196859992571024 0.035992876666429932 0 0.0095047528433393411 0.037240517229149332 0 0.010950898124045032 0.036492437633424683 0 0.011364652697587673 0.037534883321448442 0 0.0095047528433393411 0.037240517229149332 0 0.010080196127433109 0.038170028609364956 0 0.011364652697587673 0.037534883321448442 0 0.0095047528433393411 0.037240517229149332 0 0.010950898124045032 0.036492437633424683 0 0.011364652697587673 0.037534883321448442 0 0.014364173600416341 0.03627268899564072 0 0.012994809739325352 0.037935577896523485 0 0.011364652697587673 0.037534883321448442 0 0.014364173600416341 0.03627268899564072 0 0.016086533712528554 0.033617775070072346 0 0.014973490978356483 0.034616835661375564 0 0.014364173600416341 0.03627268899564072 0 0.014973490978356483 0.034616835661375564 0 0.014452401218863565 0.035419760477349044 0 0.014364173600416341 0.03627268899564072 0 0.014118892446513032 0.035765382821499672 0 0.014364173600416341 0.03627268899564072 0 0.013214682834377099 0.035723959695827576 0 0.014364173600416341 0.03627268899564072 0 0.013214682834377099 0.035723959695827576 0 0.011566618361938263 0.035724481739771038 0 0.013610125319531546 0.034999747640872728 0 0.013214682834377099 0.035723959695827576 0 0.011714291822401983 0.034999486572154528 0 0.013214682834377099 0.035723959695827576 0 0.011714291822401983 0.034999486572154528 0 0.011566618361938263 0.035724481739771038 0 0.011714291822401983 0.034999486572154528 0 0.011566618361938263 0.035724481739771038 0 0.0098178840216066217 0.034999405205043382 0 0.010950898124045032 0.036492437633424683 0 0.011566618361938263 0.035724481739771038 0 0.0092196859992571024 0.035992876666429932 0 0.0098178840216066217 0.034999405205043382 0 0.0079211921195311355 0.034999651132048962 0 0.0092196859992571024 0.035992876666429932 0 0.011566618361938263 0.035724481739771038 0 0.0098178840216066217 0.034999405205043382 0 0.0092196859992571024 0.035992876666429932 0 0.0079211921195311355 0.034999651132048962 0 0.0071381566551868107 0.035883748799360009 0 0.0092196859992571024 0.035992876666429932 0 0.0079211921195311355 0.034999651132048962 0 0.0071381566551868107 0.035883748799360009 0 0.0060247049292788974 0.034999695938082283 0 0.0071381566551868107 0.035883748799360009 0 0.0061361350657136784 0.036802178766900097 0 0.0080640228132161807 0.036977159422729867 0 0.0071381566551868107 0.035883748799360009 0 0.0092196859992571024 0.035992876666429932 0 0.0080640228132161807 0.036977159422729867 0 0.0060247049292788974 0.034999695938082283 0 0.0051237692232525443 0.035938004470479214 0 0.0041282530479547757 0.034999821004355364 0 0.0071381566551868107 0.035883748799360009 0 0.0060247049292788974 0.034999695938082283 0 0.0051237692232525443 0.035938004470479214 0 0.0071381566551868107 0.035883748799360009 0 0.0051237692232525443 0.035938004470479214 0 0.0061361350657136784 0.036802178766900097 0 0.0051237692232525443 0.035938004470479214 0 0.0045896403882973846 0.03713045856574114 0 0.0061361350657136784 0.036802178766900097 0 0.0037638896217523144 0.036601810231905854 0 0.004088833864246133 0.036949633369138625 0 0.0045896403882973846 0.03713045856574114 0 0.0061361350657136784 0.036802178766900097 0 0.0056856684546537318 0.038314252881739737 0 0.0061361350657136784 0.036802178766900097 0 0.0056856684546537318 0.038314252881739737 0 0.0080640228132161807 0.036977159422729867 0 0.0056856684546537318 0.038314252881739737 0 0.0080640228132161807 0.036977159422729867 0 0.0064427486943214153 0.039030321990431237 0 0.0056856684546537318 0.038314252881739737 0 0.0064427486943214153 0.039030321990431237 0 0.0050666085053829128 0.039244943033732577 0 0.0056856684546537318 0.038314252881739737 0 0.0050666085053829128 0.039244943033732577 0 0.0042253802100230085 0.038339256641879454 0 0.0043886107515954294 0.036999710463402363 0 0.0056856684546537318 0.038314252881739737 0 0.0042253802100230085 0.038339256641879454 0 0.0092196859992571024 0.035992876666429932 0 0.0080640228132161807 0.036977159422729867 0 0.0095047528433393411 0.037240517229149332 0 0.0067199292793674531 0.038109808173568668 0 0.0063189981995584801 0.038579107048099484 0 0.0080640228132161807 0.036977159422729867 0 0.0087644186527736593 0.037917360363425467 0 0.0081384087291698076 0.038177512950633645 0 0.0080640228132161807 0.036977159422729867 0 0.0081384087291698076 0.038177512950633645 0 0.0075249772410282802 0.038000331503950525 0 0.010080196127433109 0.038170028609364956 0 0.0095047528433393411 0.037240517229149332 0 0.0087644186527736593 0.037917360363425467 0 0.0080640228132161807 0.036977159422729867 0 0.0095047528433393411 0.037240517229149332 0 0.0087644186527736593 0.037917360363425467 0 0.010080196127433109 0.038170028609364956 0 0.0087644186527736593 0.037917360363425467 0 0.008903950813881829 0.03862662962065988 0 0.010080196127433109 0.038170028609364956 0 0.008903950813881829 0.03862662962065988 0 0.0097652572283789645 0.038998043695816782 0 0.008903950813881829 0.03862662962065988 0 0.0097652572283789645 0.038998043695816782 0 0.0088810968335126875 0.039463353856475099 0 0.0097652572283789645 0.038998043695816782 0 0.0088810968335126875 0.039463353856475099 0 0.010030022337627793 0.039780954485088685 0 0.0088810968335126875 0.039463353856475099 0 0.0080782217226157103 0.039081582955451381 0 0.0079975749234446215 0.04008196100628391 0 0.0080782217226157103 0.039081582955451381 0 0.0074108007285666726 0.039494659757059215 0 0.0079975749234446215 0.04008196100628391 0 0.008903950813881829 0.03862662962065988 0 0.0088810968335126875 0.039463353856475099 0 0.0080782217226157103 0.039081582955451381 0 0.0080782217226157103 0.039081582955451381 0 0.0081384087291698076 0.038177512950633645 0 0.0074825838520898129 0.038842961909962011 0 0.008903950813881829 0.03862662962065988 0 0.0080782217226157103 0.039081582955451381 0 0.0081384087291698076 0.038177512950633645 0 0.0087644186527736593 0.037917360363425467 0 0.008903950813881829 0.03862662962065988 0 0.0081384087291698076 0.038177512950633645 0 0.0075249772410282802 0.038000331503950525 0 0.0074825838520898129 0.038842961909962011 0 0.0063377938034270857 0.039425825322498102 0 0.0063189981995584801 0.038579107048099484 0 0.0055513211911664044 0.039367402415208107 0 0.0081384087291698076 0.038177512950633645 0 0.0075249772410282802 0.038000331503950525 0 0.0074825838520898129 0.038842961909962011 0 0.0050666085053829128 0.039244943033732577 0 0.0050349788986184625 0.040824862289837352 0 0.0038558836897266404 0.039619582766966657 0 0.0064427486943214153 0.039030321990431237 0 0.0050666085053829128 0.039244943033732577 0 0.0050349788986184625 0.040824862289837352 0 0.0074825838520898129 0.038842961909962011 0 0.0063377938034270857 0.039425825322498102 0 0.0074108007285666726 0.039494659757059215 0 0.0063377938034270857 0.039425825322498102 0 0.0074108007285666726 0.039494659757059215 0 0.0070696599419065101 0.040192708753239915 0 0.0080782217226157103 0.039081582955451381 0 0.0074825838520898129 0.038842961909962011 0 0.0074108007285666726 0.039494659757059215 0 0.0074108007285666726 0.039494659757059215 0 0.0070696599419065101 0.040192708753239915 0 0.0079975749234446215 0.04008196100628391 0 0.0070696599419065101 0.040192708753239915 0 0.0076079459513982029 0.040963986463440433 0 0.0079975749234446215 0.04008196100628391 0 0.0059525494676027982 0.039713596576102017 0 0.0061392545153186239 0.03988182226645233 0 0.0051887764438283039 0.038783374721564047 0 0.0052707690452735113 0.040161010724401702 0 0.0041818806702228501 0.040283279617806526 0 0.0055513211911664044 0.039367402415208107 0 0.005424617824688352 0.039498297636055821 0 0.0055513211911664044 0.039367402415208107 0 0.0059525494676027982 0.039713596576102017 0 0.0051887764438283039 0.038783374721564047 0 0.0063198162173328191 0.039854371237599232 0 0.0052707690452735113 0.040161010724401702 0 0.0063198162173328191 0.039854371237599232 0 0.0052707690452735113 0.040161010724401702 0 0.005665458843893076 0.041025782157818873 0 0.0052707690452735113 0.040161010724401702 0 0.0044558223306313286 0.041277794347832415 0 0.0041818806702228501 0.040283279617806526 0 0.0052707690452735113 0.040161010724401702 0 0.005665458843893076 0.041025782157818873 0 0.0044558223306313286 0.041277794347832415 0 0.005665458843893076 0.041025782157818873 0 0.0051952265782363935 0.041693068082514606 0 0.0062106128096945899 0.041696194922358147 0 0.0045516476507127708 0.04184956834402858 0 0.0051952265782363935 0.041693068082514606 0 0.0044558223306313286 0.041277794347832415 0 0.005665458843893076 0.041025782157818873 0 0.0051952265782363935 0.041693068082514606 0 0.0044558223306313286 0.041277794347832415 0 0.0063198162173328191 0.039854371237599232 0 0.0066913715481719425 0.04119385808063393 0 0.0076079459513982029 0.040963986463440433 0 0.0063198162173328191 0.039854371237599232 0 0.005665458843893076 0.041025782157818873 0 0.0066913715481719425 0.04119385808063393 0 0.0076220747514011344 0.042323093956668813 0 0.0066913715481719425 0.04119385808063393 0 0.0076079459513982029 0.040963986463440433 0 0.005665458843893076 0.041025782157818873 0 0.0066913715481719425 0.04119385808063393 0 0.0062106128096945899 0.041696194922358147 0 0.0076220747514011344 0.042323093956668813 0 0.0066913715481719425 0.04119385808063393 0 0.0062106128096945899 0.041696194922358147 0 0.0065985045973457543 0.042216275417327587 0 0.0071184512343911641 0.042052958412271371 0 0.0076220747514011344 0.042323093956668813 0 0.0076079459513982029 0.040963986463440433 0 0.0086622776950982649 0.0409845336325056 0 0.0076220747514011344 0.042323093956668813 0 0.0086622776950982649 0.0409845336325056 0 0.009619585382780205 0.04168913434790817 0 0.010129808256729622 0.040742980470773113 0 0.0086622776950982649 0.0409845336325056 0 0.009619585382780205 0.04168913434790817 0 0.010129808256729622 0.040742980470773113 0 0.0086622776950982649 0.0409845336325056 0 0.0090989182804152458 0.040280156002183667 0 0.010129808256729622 0.040742980470773113 0 0.010030022337627793 0.039780954485088685 0 0.0090989182804152458 0.040280156002183667 0 0.0088810968335126875 0.039463353856475099 0 0.010030022337627793 0.039780954485088685 0 0.0090989182804152458 0.040280156002183667 0 0.0088810968335126875 0.039463353856475099 0 0.0090989182804152458 0.040280156002183667 0 0.0079975749234446215 0.04008196100628391 0 0.0076079459513982029 0.040963986463440433 0 0.0086622776950982649 0.0409845336325056 0 0.0079975749234446215 0.04008196100628391 0 0.0086622776950982649 0.0409845336325056 0 0.0090989182804152458 0.040280156002183667 0 0.0079975749234446215 0.04008196100628391 0 0.0021475284543370915 0.040814998882398874 0 0.0020645295649562604 0.040153456894116459 0 0.0014693492255744576 0.040601602120070239 0 0.0021475284543370915 0.040814998882398874 0 0.0020645295649562604 0.040153456894116459 0 0.002553717912410193 0.040411556684322038 0 0.0020645295649562604 0.040153456894116459 0 0.002553717912410193 0.040411556684322038 0 0.0027137514106830864 0.039945127214548758 0 0.0020645295649562604 0.040153456894116459 0 0.0014693492255744576 0.040601602120070239 0 0.0014655459567897535 0.039963461365582653 0 0.000942287026696873 0.040326999683074689 0 0.0014693492255744576 0.040601602120070239 0 0.0014655459567897535 0.039963461365582653 0 0.000942287026696873 0.040326999683074689 0 0.00091016946253192721 0.039781337133117052 0 0.00043227172013152843 0.040113938628441995 0 0.000942287026696873 0.040326999683074689 0 0.00091016946253192721 0.039781337133117052 0 0.0014655459567897535 0.039963461365582653 0 0.000942287026696873 0.040326999683074689 0 0.00090661018108985152 0.04089031005077573 0 0.00047589759116448973 0.040618279511598541 0 0.000942287026696873 0.040326999683074689 0 0.0014693492255744576 0.040601602120070239 0 0.00090661018108985152 0.04089031005077573 0 -0.00060970708650933542 0.040794180142067343 0 -0.0021231308828309581 0.040495352268267747 0 0.001398028411013092 0.041540201283503483 0 0.00090661018108985152 0.04089031005077573 0 0.0002777640038873658 0.041257661204089947 0 0.0014693492255744576 0.040601602120070239 0 0.001398028411013092 0.041540201283503483 0 0.00090661018108985152 0.04089031005077573 0 0.0021475284543370915 0.040814998882398874 0 0.001398028411013092 0.041540201283503483 0 0.0027517590392685696 0.041438438402508868 0 -0.00060970708650933542 0.040794180142067343 0 0.001155729825796193 0.040801735973455898 0 0.0033317844776791917 0.041959340814784168 0 0.0016778716870573234 0.041553869238925352 0 0.0030985054938195982 0.041424676512773539 0 0.0021475284543370915 0.040814998882398874 0 0.0014693492255744576 0.040601602120070239 0 0.001398028411013092 0.041540201283503483 0 0.0033317844776791917 0.041959340814784168 0 0.0030985054938195982 0.041424676512773539 0 0.0044558223306313286 0.041277794347832415 0 0.0021475284543370915 0.040814998882398874 0 0.0027517590392685696 0.041438438402508868 0 0.0027428844701673808 0.040810655081280935 0 0.0027517590392685696 0.041438438402508868 0 0.0032888262266103151 0.040950850972208512 0 0.0027428844701673808 0.040810655081280935 0 0.0032888262266103151 0.040950850972208512 0 0.0044558223306313286 0.041277794347832415 0 0.0037292848250810784 0.04073914142177891 0 0.0045516476507127708 0.04184956834402858 0 0.0033317844776791917 0.041959340814784168 0 0.0044558223306313286 0.041277794347832415 0 0.0027517590392685696 0.041438438402508868 0 0.0032888262266103151 0.040950850972208512 0 0.0044558223306313286 0.041277794347832415 0 0.001155729825796193 0.040801735973455898 0 0.0018158295377397871 0.040794857051687401 0 0.0044558223306313286 0.041277794347832415 0 0.0041818806702228501 0.040283279617806526 0 0.0037292848250810784 0.04073914142177891 0 0.0045720463086712324 0.039593640326068082 0 0.0041818806702228501 0.040283279617806526 0 0.0035947407601003064 0.039738890455056144 0 0.0041818806702228501 0.040283279617806526 0 0.0037292848250810784 0.04073914142177891 0 0.0032101062761679916 0.040428302374701776 0 0.0041818806702228501 0.040283279617806526 0 0.0032101062761679916 0.040428302374701776 0 0.0035947407601003064 0.039738890455056144 0 0.0027428844701673808 0.040810655081280935 0 0.002553717912410193 0.040411556684322038 0 0.0032101062761679916 0.040428302374701776 0 0.0021475284543370915 0.040814998882398874 0 0.0027428844701673808 0.040810655081280935 0 0.002553717912410193 0.040411556684322038 0 0.0032888262266103151 0.040950850972208512 0 0.0027428844701673808 0.040810655081280935 0 0.0032101062761679916 0.040428302374701776 0 0.0032888262266103151 0.040950850972208512 0 0.0037292848250810784 0.04073914142177891 0 0.0032101062761679916 0.040428302374701776 0 0.0032101062761679916 0.040428302374701776 0 0.0027137514106830864 0.039945127214548758 0 0.0035947407601003064 0.039738890455056144 0 0.002553717912410193 0.040411556684322038 0 0.0032101062761679916 0.040428302374701776 0 0.0027137514106830864 0.039945127214548758 0 0.0027137514106830864 0.039945127214548758 0 0.0029938549377632531 0.039396197947874037 0 0.002038727975151278 0.039512937447134668 0 0.0029938549377632531 0.039396197947874037 0 0.0025093599582385749 0.038918687363386495 0 0.002038727975151278 0.039512937447134668 0 0.0027137514106830864 0.039945127214548758 0 0.0029938549377632531 0.039396197947874037 0 0.0035947407601003064 0.039738890455056144 0 0.0045720463086712324 0.039593640326068082 0 0.0035947407601003064 0.039738890455056144 0 0.0037027516709250128 0.038883028634852865 0 0.0029938549377632531 0.039396197947874037 0 0.0035947407601003064 0.039738890455056144 0 0.0037027516709250128 0.038883028634852865 0 0.0055513211911664044 0.039367402415208107 0 0.0050071723260161922 0.039074093242344322 0 0.0050666085053829128 0.039244943033732577 0 0.0038558836897266404 0.039619582766966657 0 0.0042253802100230085 0.038339256641879454 0 0.0029938549377632531 0.039396197947874037 0 0.0037027516709250128 0.038883028634852865 0 0.0025093599582385749 0.038918687363386495 0 0.0037027516709250128 0.038883028634852865 0 0.0025093599582385749 0.038918687363386495 0 0.0027902560713595399 0.038295211488097725 0 0.0050071723260161922 0.039074093242344322 0 0.0047605465408406909 0.038909982914084013 0 0.0025093599582385749 0.038918687363386495 0 0.0020039695866873055 0.038528057634368604 0 0.0027902560713595399 0.038295211488097725 0 0.0025093599582385749 0.038918687363386495 0 0.002038727975151278 0.039512937447134668 0 0.0014948422845135984 0.038971960527744737 0 0.0020039695866873055 0.038528057634368604 0 0.0014948422845135984 0.038971960527744737 0 0.0015300659158062509 0.038019905069220504 0 0.0025093599582385749 0.038918687363386495 0 0.0020039695866873055 0.038528057634368604 0 0.0014948422845135984 0.038971960527744737 0 0.002038727975151278 0.039512937447134668 0 0.0013378441486051719 0.039478886418576359 0 0.0014948422845135984 0.038971960527744737 0 0.002038727975151278 0.039512937447134668 0 0.0014655459567897535 0.039963461365582653 0 0.0013378441486051719 0.039478886418576359 0 0.0020645295649562604 0.040153456894116459 0 0.002038727975151278 0.039512937447134668 0 0.0014655459567897535 0.039963461365582653 0 0.0020645295649562604 0.040153456894116459 0 0.0027137514106830864 0.039945127214548758 0 0.002038727975151278 0.039512937447134668 0 0.00091016946253192721 0.039781337133117052 0 0.0014655459567897535 0.039963461365582653 0 0.0013378441486051719 0.039478886418576359 0 0.0013378441486051719 0.039478886418576359 0 0.00078663227391527674 0.039173331037906871 0 0.0014948422845135984 0.038971960527744737 0 0.00091016946253192721 0.039781337133117052 0 0.0013378441486051719 0.039478886418576359 0 0.00078663227391527674 0.039173331037906871 0 0.00078663227391527674 0.039173331037906871 0 0.0014948422845135984 0.038971960527744737 0 0.00058987348158830437 0.038362231304741881 0 0.0014948422845135984 0.038971960527744737 0 0.0015300659158062509 0.038019905069220504 0 0.00058987348158830437 0.038362231304741881 0 0.00087178617804597785 0.037713162702898567 0 0.0015300659158062509 0.038019905069220504 0 0.00058987348158830437 0.038362231304741881 0 0.00087178617804597785 0.037713162702898567 0 0.0015300659158062509 0.038019905069220504 0 0.0016041465817134221 0.03736302633585304 0 0.0020039695866873055 0.038528057634368604 0 0.0021528279588271834 0.037749150103731977 0 0.0015300659158062509 0.038019905069220504 0 0.0020039695866873055 0.038528057634368604 0 0.0021528279588271834 0.037749150103731977 0 0.0027902560713595399 0.038295211488097725 0 0.0021528279588271834 0.037749150103731977 0 0.0015300659158062509 0.038019905069220504 0 0.0016041465817134221 0.03736302633585304 0 0.0021528279588271834 0.037749150103731977 0 0.0016041465817134221 0.03736302633585304 0 0.0020638971745353288 0.0369500601054224 0 0.0016041465817134221 0.03736302633585304 0 0.0020638971745353288 0.0369500601054224 0 0.0014267998070460113 0.036652951120077257 0 0.0016041465817134221 0.03736302633585304 0 0.0010059370940264183 0.037136141731094738 0 0.0014267998070460113 0.036652951120077257 0 0.0010059370940264183 0.037136141731094738 0 0.00092369385456750493 0.036596500462317862 0 0.00022152140717744028 0.03748265338726315 0 0.0010059370940264183 0.037136141731094738 0 0.00092369385456750493 0.036596500462317862 0 0.0014267998070460113 0.036652951120077257 0 0.00087178617804597785 0.037713162702898567 0 0.0010059370940264183 0.037136141731094738 0 0.00022152140717744028 0.03748265338726315 0 0.00087178617804597785 0.037713162702898567 0 0.0016041465817134221 0.03736302633585304 0 0.0010059370940264183 0.037136141731094738 0 0.0038558836897266404 0.039619582766966657 0 0.0042253802100230085 0.038339256641879454 0 0.0027902560713595399 0.038295211488097725 0 0.0042253802100230085 0.038339256641879454 0 0.0027902560713595399 0.038295211488097725 0 0.0030461992771586752 0.037201207875756093 0 0.0021528279588271834 0.037749150103731977 0 0.0027902560713595399 0.038295211488097725 0 0.0030461992771586752 0.037201207875756093 0 0.0021528279588271834 0.037749150103731977 0 0.0020638971745353288 0.0369500601054224 0 0.0030461992771586752 0.037201207875756093 0 0.0020638971745353288 0.0369500601054224 0 0.0030461992771586752 0.037201207875756093 0 0.0025102524000307179 0.036317315046497954 0 0.0043886107515954294 0.036999710463402363 0 0.0042253802100230085 0.038339256641879454 0 0.0030461992771586752 0.037201207875756093 0 0.0051237692232525443 0.035938004470479214 0 0.0045896403882973846 0.03713045856574114 0 0.0034259739552160396 0.036106483116581302 0 0.0043886107515954294 0.036999710463402363 0 0.0030461992771586752 0.037201207875756093 0 0.0032546265420978185 0.035967801220511027 0 0.0037638896217523144 0.036601810231905854 0 0.0030641753929990974 0.03586670278577022 0 0.0030461992771586752 0.037201207875756093 0 0.0032546265420978185 0.035967801220511027 0 0.0025102524000307179 0.036317315046497954 0 0.0030641753929990974 0.03586670278577022 0 0.002233475160742104 0.035001572558207683 0 0.0034259739552160396 0.036106483116581302 0 0.0022319091399533504 0.035000009304164234 0 0.0041282530479547757 0.034999821004355364 0 0.0032546265420978185 0.035967801220511027 0 0.0025102524000307179 0.036317315046497954 0 0.0022314869099659554 0.034999820038010082 0 0.0051237692232525443 0.035938004470479214 0 0.0034259739552160396 0.036106483116581302 0 0.0041282530479547757 0.034999821004355364 0 0.00061267672070180318 0.036089639953318625 0 0.00092369385456750493 0.036596500462317862 0 0.00022152140717744028 0.03748265338726315 0 0.0012224383335554291 0.036124761159156728 0 0.00079983966153132939 0.036131257126480631 0 0.00092369385456750493 0.036596500462317862 0 0.00079983966153132939 0.036131257126480631 0 0.00055656492645284549 0.036088070633454164 0 0.0011379860154703326 0.03563632467920929 0 0.0012224383335554291 0.036124761159156728 0 0.00079983966153132939 0.036131257126480631 0 0.0011379860154703326 0.03563632467920929 0 0.00079983966153132939 0.036131257126480631 0 0.00061267672070180318 0.036089639953318625 0 0.00092369385456750493 0.036596500462317862 0 -0.00025694284921948799 0.035865678366429017 0 -0.00026574709509199405 0.035863779260727979 0 0.0012224383335554291 0.036124761159156728 0 0.00092369385456750493 0.036596500462317862 0 0.0014267998070460113 0.036652951120077257 0 0.0020638971745353288 0.0369500601054224 0 0.0014267998070460113 0.036652951120077257 0 0.001764307272234958 0.036097354022342619 0 0.0020638971745353288 0.0369500601054224 0 0.0025102524000307179 0.036317315046497954 0 0.001764307272234958 0.036097354022342619 0 0.0012224383335554291 0.036124761159156728 0 0.0014267998070460113 0.036652951120077257 0 0.001764307272234958 0.036097354022342619 0 0.0012224383335554291 0.036124761159156728 0 0.001764307272234958 0.036097354022342619 0 0.0011379860154703326 0.03563632467920929 0 0.0022314869099659554 0.034999820038010082 0 0.00067253434984474673 0.034999988241162364 0 0.0011379860154703326 0.03563632467920929 0 0.0025102524000307179 0.036317315046497954 0 0.0022314869099659554 0.034999820038010082 0 0.001764307272234958 0.036097354022342619 0 0.0022314869099659554 0.034999820038010082 0 0.001764307272234958 0.036097354022342619 0 0.0011379860154703326 0.03563632467920929 0 0.00055656492645284549 0.036088070633454164 0 0.00067253434984474673 0.034999988241162364 0 0.0011379860154703326 0.03563632467920929 0 -0.00026574709509199405 0.035863779260727979 0 0.00066847417389359024 0.03500147266075955 0 0.00016970735094421478 0.036275661368708259 0 0.0006717280997168728 0.034999998698830311 0 -0.0010876959599840021 0.034999997152377511 0 0.00016970735094421478 0.036275661368708259 0 -0.0010876959599840021 0.034999997152377511 0 -0.0017312268673210444 0.035891813335928946 0 -0.00026574709509199405 0.035863779260727979 0 -0.0017212546449315931 0.035670862499618886 0 -0.00068443234200459013 0.036166990711344126 0 -0.0020831651919364911 0.036874466707611658 0 -0.0012800700779034878 0.037677606490413254 0 -0.00068443234200459013 0.036166990711344126 0 -0.0020831651919364911 0.036874466707611658 0 -0.002240795124157929 0.035846547890572976 0 -0.0020831651919364911 0.036874466707611658 0 -0.002240795124157929 0.035846547890572976 0 -0.0031276835415620843 0.036668700712580202 0 -0.0010876959599840021 0.034999997152377511 0 -0.0017312268673210444 0.035891813335928946 0 -0.0028471095074144386 0.035000004624818851 0 -0.002240795124157929 0.035846547890572976 0 -0.0038357794828832422 0.035499171568853662 0 -0.0037359744269242663 0.036245276551014102 0 -0.0017212546449315931 0.035670862499618886 0 -0.0029708605039764613 0.035470500288690157 0 -0.0017312268673210444 0.035891813335928946 0 -0.0028471095074144386 0.035000004624818851 0 -0.0036333255242376001 0.035508971857653636 0 -0.0028471095074144386 0.035000004624818851 0 -0.0036333255242376001 0.035508971857653636 0 -0.0046065786843410787 0.034999982631353795 0 -0.0038357794828832422 0.035499171568853662 0 -0.0044713546369646957 0.036040170144822262 0 -0.0037359744269242663 0.036245276551014102 0 -0.0037359744269242663 0.036245276551014102 0 -0.0043631750726028278 0.036859568782880055 0 -0.0031276835415620843 0.036668700712580202 0 -0.0042806500492486247 0.036892768266208444 0 -0.0041421677712063188 0.036870803349313364 0 -0.0044713546369646957 0.036040170144822262 0 -0.0037359744269242663 0.036245276551014102 0 -0.0043631750726028278 0.036859568782880055 0 -0.002240795124157929 0.035846547890572976 0 -0.0037359744269242663 0.036245276551014102 0 -0.0031276835415620843 0.036668700712580202 0 -0.0020831651919364911 0.036874466707611658 0 -0.0031276835415620843 0.036668700712580202 0 -0.003087152719524758 0.038004612653276412 0 -0.0042986717219069262 0.036825710127064926 0 -0.0031276835415620843 0.036668700712580202 0 -0.003087152719524758 0.038004612653276412 0 -0.0042806500492486247 0.036892768266208444 0 -0.0028031995991043561 0.037640224191481865 0 -0.0026074660557361879 0.036531038008214507 0 -0.0023199077020323662 0.038208165086864095 0 -0.0014465466389685635 0.037656708522879695 0 -0.0023199077020323662 0.038208165086864095 0 -0.0014465466389685635 0.037656708522879695 0 -0.0016228823094877527 0.039053418119231367 0 -0.0020831651919364911 0.036874466707611658 0 -0.003087152719524758 0.038004612653276412 0 -0.0012800700779034878 0.037677606490413254 0 -0.0028031995991043561 0.037640224191481865 0 -0.0017376311028509243 0.038060651716733292 0 -0.003087152719524758 0.038004612653276412 0 -0.0012800700779034878 0.037677606490413254 0 -0.001872613920064482 0.039184336884517543 0 -0.00098657317196738405 0.037090398967954921 0 -0.0017376311028509243 0.038060651716733292 0 0.00087178617804597785 0.037713162702898567 0 0.00058987348158830437 0.038362231304741881 0 0.00022152140717744028 0.03748265338726315 0 0.00058987348158830437 0.038362231304741881 0 0.00022152140717744028 0.03748265338726315 0 -0.00026309429727432957 0.038828701001608866 0 -0.00026574709509199405 0.035863779260727979 0 -0.00098657317196738405 0.037090398967954921 0 -0.0085800490078149667 0.036989826786017505 0 -0.0080744961757501961 0.036972934637097249 0 -0.0085296027018185346 0.036328908726174836 0 -0.0080744961757501961 0.036972934637097249 0 -0.0085296027018185346 0.036328908726174836 0 -0.0074832172308309918 0.036496498642008053 0 -0.0085296027018185346 0.036328908726174836 0 -0.0079983717117465773 0.035746704658564936 0 -0.0074832172308309918 0.036496498642008053 0 -0.0078554395914726977 0.03499999022509262 0 -0.0079983717117465773 0.035746704658564936 0 -0.0093448915762520644 0.035000002400870561 0 -0.0085296027018185346 0.036328908726174836 0 -0.0079983717117465773 0.035746704658564936 0 -0.0093448915762520644 0.035000002400870561 0 -0.0078554395914726977 0.03499999022509262 0 -0.0079983717117465773 0.035746704658564936 0 -0.0068507943673942733 0.035812759168800869 0 -0.0079983717117465773 0.035746704658564936 0 -0.0068507943673942733 0.035812759168800869 0 -0.0074832172308309918 0.036496498642008053 0 -0.0078554395914726977 0.03499999022509262 0 -0.0068507943673942733 0.035812759168800869 0 -0.0063660200951827931 0.0349999966238108 0 -0.0064259795987588759 0.036627070260563582 0 -0.0060734377922932138 0.037307281353099984 0 -0.0072638830825334797 0.037464662720640383 0 -0.0068507943673942733 0.035812759168800869 0 -0.0074832172308309918 0.036496498642008053 0 -0.0064259795987588759 0.036627070260563582 0 -0.0080744961757501961 0.036972934637097249 0 -0.0074832172308309918 0.036496498642008053 0 -0.0072638830825334797 0.037464662720640383 0 -0.0074832172308309918 0.036496498642008053 0 -0.0064259795987588759 0.036627070260563582 0 -0.0072638830825334797 0.037464662720640383 0 -0.0068507943673942733 0.035812759168800869 0 -0.0064259795987588759 0.036627070260563582 0 -0.0053230981924491973 0.036028929846237158 0 -0.0064259795987588759 0.036627070260563582 0 -0.0053230981924491973 0.036028929846237158 0 -0.0060772314525054869 0.037297439554380162 0 -0.0055460296806599876 0.03719599972324545 0 -0.0055210801097314256 0.037227486445796744 0 -0.0063659179027044108 0.035000017494071597 0 -0.0055386509753291664 0.035121199064234304 0 -0.0046065786843410787 0.034999982631353795 0 -0.0068507943673942733 0.035812759168800869 0 -0.0063660200951827931 0.0349999966238108 0 -0.0053230981924491973 0.036028929846237158 0 -0.006363705084394532 0.035001930762507967 0 -0.005322627279832833 0.035949495897162002 0 -0.0063659179027044108 0.035000017494071597 0 -0.0055386509753291664 0.035121199064234304 0 -0.0053175021882803679 0.035963588163250723 0 -0.0029708605039764613 0.035470500288690157 0 -0.0035630716973989885 0.035366442867550793 0 -0.0044713546369646957 0.036040170144822262 0 -0.0055386509753291664 0.035121199064234304 0 -0.0053175021882803679 0.035963588163250723 0 -0.0038357794828832422 0.035499171568853662 0 -0.0044713546369646957 0.036040170144822262 0 -0.0055386509753291664 0.035121199064234304 0 -0.0036333255242376001 0.035508971857653636 0 -0.0055386509753291664 0.035121199064234304 0 -0.0046065786843410787 0.034999982631353795 0 -0.0042806500492486247 0.036892768266208444 0 -0.005322627279832833 0.035949495897162002 0 -0.004272603174578571 0.037053889700292608 0 -0.0053230981924491973 0.036028929846237158 0 -0.0060772314525054869 0.037297439554380162 0 -0.0044713546369646957 0.036040170144822262 0 -0.0043631750726028278 0.036859568782880055 0 -0.0053175021882803679 0.035963588163250723 0 -0.0042806500492486247 0.036892768266208444 0 -0.0055210801097314256 0.037227486445796744 0 -0.0026074660557361879 0.036531038008214507 0 -0.0033420992970918315 0.03805199469981968 0 -0.0040326569007290425 0.036723454362015476 0 -0.0026074660557361879 0.036531038008214507 0 -0.0023199077020323662 0.038208165086864095 0 -0.0033420992970918315 0.03805199469981968 0 -0.0059513074889085563 0.03868302048317826 0 -0.0066738324169682631 0.037316972574631686 0 -0.0070919519828857112 0.038305944510739383 0 -0.0059513074889085563 0.03868302048317826 0 -0.0070919519828857112 0.038305944510739383 0 -0.0073840435903490846 0.039490640646833074 0 -0.005170937488151406 0.038387004728751367 0 -0.0055210801097314256 0.037227486445796744 0 -0.0066738324169682631 0.037316972574631686 0 -0.0076135169203182329 0.037456032636463812 0 -0.0070919519828857112 0.038305944510739383 0 -0.0055210801097314256 0.037227486445796744 0 -0.0061544400921141832 0.037309917879620902 0 -0.0076135169203182329 0.037456032636463812 0 -0.0070919519828857112 0.038305944510739383 0 -0.008020195526839493 0.03857775459443695 0 -0.0070919519828857112 0.038305944510739383 0 -0.008020195526839493 0.03857775459443695 0 -0.0073840435903490846 0.039490640646833074 0 -0.008020195526839493 0.03857775459443695 0 -0.0089410608411813666 0.037383896593587006 0 -0.0089503366150345907 0.038027088719837079 0 -0.008020195526839493 0.03857775459443695 0 -0.0086467344744818944 0.039449987039804964 0 -0.0089476341954308255 0.038580120946794638 0 -0.008020195526839493 0.03857775459443695 0 -0.0089503366150345907 0.038027088719837079 0 -0.0089476341954308255 0.038580120946794638 0 -0.008020195526839493 0.03857775459443695 0 -0.0084915134289366197 0.037592336047756962 0 -0.008766624099341546 0.037577794240606421 0 -0.0061544400921141832 0.037309917879620902 0 -0.0064093028911126641 0.037343209190782101 0 -0.0076135169203182329 0.037456032636463812 0 -0.008020195526839493 0.03857775459443695 0 -0.0084915134289366197 0.037592336047756962 0 -0.0091763502837057375 0.037097927257897935 0 -0.0094493287767481934 0.036751478951553944 0 -0.0080744961757501961 0.036972934637097249 0 -0.0072638830825334797 0.037464662720640383 0 -0.0084915134289366197 0.037592336047756962 0 -0.0085800490078149667 0.036989826786017505 0 -0.0084915134289366197 0.037592336047756962 0 -0.008766624099341546 0.037577794240606421 0 -0.0085800490078149667 0.036989826786017505 0 -0.0080744961757501961 0.036972934637097249 0 -0.0084915134289366197 0.037592336047756962 0 -0.008020195526839493 0.03857775459443695 0 -0.0086467344744818944 0.039449987039804964 0 -0.0073840435903490846 0.039490640646833074 0 -0.0085770139184786157 0.040502800900320504 0 -0.0086467344744818944 0.039449987039804964 0 -0.0073840435903490846 0.039490640646833074 0 -0.010582396293132132 0.039181031824295803 0 -0.0092015328109971879 0.039376707940410344 0 -0.0085770139184786157 0.040502800900320504 0 -0.0073840435903490846 0.039490640646833074 0 -0.0071946432347714372 0.040810411323501099 0 -0.0073840435903490846 0.039490640646833074 0 -0.0063203645608580043 0.040037648148401224 0 -0.0071946432347714372 0.040810411323501099 0 -0.0063203645608580043 0.040037648148401224 0 -0.0058513668676748497 0.041125726953965006 0 -0.0071946432347714372 0.040810411323501099 0 -0.0059513074889085563 0.03868302048317826 0 -0.0073840435903490846 0.039490640646833074 0 -0.0063203645608580043 0.040037648148401224 0 -0.005170937488151406 0.038387004728751367 0 -0.0049898830218406244 0.039417150094640266 0 -0.0023199077020323662 0.038208165086864095 0 -0.0033420992970918315 0.03805199469981968 0 -0.0026496165050140462 0.039383362734091487 0 -0.0059513074889085563 0.03868302048317826 0 -0.0063203645608580043 0.040037648148401224 0 -0.0052316922465379702 0.040077183080615281 0 -0.0063203645608580043 0.040037648148401224 0 -0.0058513668676748497 0.041125726953965006 0 -0.0052316922465379702 0.040077183080615281 0 -0.01082723115256411 0.038104936058896859 0 -0.0092453288918875332 0.03919713715321612 0 -0.010333300998985495 0.040565228999781877 0 -0.01082723115256411 0.038104936058896859 0 -0.012431622581684416 0.040102546483747246 0 -0.010333300998985495 0.040565228999781877 0 -0.01082723115256411 0.038104936058896859 0 -0.012431622581684416 0.040102546483747246 0 -0.013155170148200009 0.037961525648068727 0 -0.0074434047596308147 0.039623408775952225 0 -0.0092015328109971879 0.039376707940410344 0 -0.013155170148200009 0.037961525648068727 0 -0.014060522892166492 0.03922005246701437 0 -0.014679624062777834 0.038851033778200532 0 -0.012431622581684416 0.040102546483747246 0 -0.013155170148200009 0.037961525648068727 0 -0.014060522892166492 0.03922005246701437 0 -0.012431622581684416 0.040102546483747246 0 -0.014060522892166492 0.03922005246701437 0 -0.013895871282067866 0.040171758292105272 0 -0.014060522892166492 0.03922005246701437 0 -0.013895871282067866 0.040171758292105272 0 -0.015305656709523382 0.039849462960045455 0 -0.014060522892166492 0.03922005246701437 0 -0.015305656709523382 0.039849462960045455 0 -0.015230720203529804 0.039260115678291595 0 -0.014060522892166492 0.03922005246701437 0 -0.014679624062777834 0.038851033778200532 0 -0.015230720203529804 0.039260115678291595 0 -0.014752876654657222 0.038446136184213317 0 -0.014679624062777834 0.038851033778200532 0 -0.015034474313127931 0.038956959167404909 0 -0.014752876654657222 0.038446136184213317 0 -0.013155170148200009 0.037961525648068727 0 -0.014679624062777834 0.038851033778200532 0 -0.00046951078869087126 0.039283029183093017 0 -0.00084163245116772301 0.039612027325933115 0 -0.00028959539656840232 0.039644566995464703 0 -0.00046951078869087126 0.039283029183093017 0 -0.00028959539656840232 0.039644566995464703 0 -0.00013169025606013754 0.03933264823680168 0 -0.00046951078869087126 0.039283029183093017 0 -0.00013169025606013754 0.03933264823680168 0 -7.2838123454399572e-05 0.039010904147760844 0 -0.00046951078869087126 0.039283029183093017 0 -0.00084163245116772301 0.039612027325933115 0 -0.00093252005479406614 0.038878103309049929 0 -0.00084163245116772301 0.039612027325933115 0 -0.00037687631390049186 0.040087610838423167 0 -0.00087808511984267714 0.040346909216771476 0 -0.00084163245116772301 0.039612027325933115 0 -0.00028959539656840232 0.039644566995464703 0 -0.00037687631390049186 0.040087610838423167 0 -0.00028959539656840232 0.039644566995464703 0 2.6356838110638236e-05 0.039932748327456538 0 -0.00037687631390049186 0.040087610838423167 0 2.6356838110638236e-05 0.039932748327456538 0 0.0004104717052486463 0.039640490070633153 0 5.8523709685606785e-05 0.03956250410890641 0 -0.00028959539656840232 0.039644566995464703 0 2.6356838110638236e-05 0.039932748327456538 0 5.8523709685606785e-05 0.03956250410890641 0 0.00091016946253192721 0.039781337133117052 0 0.0004104717052486463 0.039640490070633153 0 0.00043227172013152843 0.040113938628441995 0 2.6356838110638236e-05 0.039932748327456538 0 0.0004104717052486463 0.039640490070633153 0 0.00043227172013152843 0.040113938628441995 0 0.00091016946253192721 0.039781337133117052 0 0.00078663227391527674 0.039173331037906871 0 0.0004104717052486463 0.039640490070633153 0 0.00078663227391527674 0.039173331037906871 0 0.0004104717052486463 0.039640490070633153 0 0.00025215346250345992 0.039235910384662294 0 -0.00028959539656840232 0.039644566995464703 0 5.8523709685606785e-05 0.03956250410890641 0 -0.00013169025606013754 0.03933264823680168 0 0.0004104717052486463 0.039640490070633153 0 5.8523709685606785e-05 0.03956250410890641 0 0.00025215346250345992 0.039235910384662294 0 5.8523709685606785e-05 0.03956250410890641 0 0.00025215346250345992 0.039235910384662294 0 -0.00013169025606013754 0.03933264823680168 0 -7.2838123454399572e-05 0.039010904147760844 0 0.00027716066157563416 0.038873391899867757 0 -0.00026309429727432957 0.038828701001608866 0 0.00058987348158830437 0.038362231304741881 0 0.00027716066157563416 0.038873391899867757 0 -0.00026309429727432957 0.038828701001608866 0 0.00025215346250345992 0.039235910384662294 0 -0.00013169025606013754 0.03933264823680168 0 -7.2838123454399572e-05 0.039010904147760844 0 0.00078663227391527674 0.039173331037906871 0 0.00058987348158830437 0.038362231304741881 0 0.00027716066157563416 0.038873391899867757 0 0.00025215346250345992 0.039235910384662294 0 -7.2838123454399572e-05 0.039010904147760844 0 0.00027716066157563416 0.038873391899867757 0 0.00078663227391527674 0.039173331037906871 0 0.00025215346250345992 0.039235910384662294 0 0.00027716066157563416 0.038873391899867757 0 -0.0014465466389685635 0.037656708522879695 0 -0.00027906888268477514 0.038787139806639573 0 -0.00093252005479406614 0.038878103309049929 0 -0.00046951078869087126 0.039283029183093017 0 -0.00027906888268477514 0.038787139806639573 0 -0.00093252005479406614 0.038878103309049929 0 -0.00046951078869087126 0.039283029183093017 0 -7.2838123454399572e-05 0.039010904147760844 0 -0.00027453956920461277 0.038813918629230407 0 -0.0017288264284917947 0.038088840174835895 0 -0.0017376311028509243 0.038060651716733292 0 -0.0017196267661851109 0.038075936756124064 0 -0.0017376311028509243 0.038060651716733292 0 -0.0014465466389685635 0.037656708522879695 0 -0.00093252005479406614 0.038878103309049929 0 -0.0016228823094877527 0.039053418119231367 0 -0.00084163245116772301 0.039612027325933115 0 -0.00093252005479406614 0.038878103309049929 0 -0.0016228823094877527 0.039053418119231367 0 -0.0023199077020323662 0.038208165086864095 0 -0.0016228823094877527 0.039053418119231367 0 -0.0026496165050140462 0.039383362734091487 0 -0.0026496165050140462 0.039383362734091487 0 -0.0018926289161932076 0.039769338335472422 0 -0.0019566977649612574 0.040710904729207971 0 -0.0016228823094877527 0.039053418119231367 0 -0.0026496165050140462 0.039383362734091487 0 -0.0018926289161932076 0.039769338335472422 0 -0.00084163245116772301 0.039612027325933115 0 -0.0016228823094877527 0.039053418119231367 0 -0.0013409319480826283 0.039929260201632323 0 -0.0016228823094877527 0.039053418119231367 0 -0.0018926289161932076 0.039769338335472422 0 -0.0013409319480826283 0.039929260201632323 0 -0.00084163245116772301 0.039612027325933115 0 -0.0013409319480826283 0.039929260201632323 0 -0.00087808511984267714 0.040346909216771476 0 -0.0018926289161932076 0.039769338335472422 0 -0.0013409319480826283 0.039929260201632323 0 -0.0019566977649612574 0.040710904729207971 0 -0.0013409319480826283 0.039929260201632323 0 -0.0019566977649612574 0.040710904729207971 0 -0.00087808511984267714 0.040346909216771476 0 -0.0052376055385018839 0.03994758511782983 0 -0.0036691517035872508 0.040208800706640069 0 -0.0019566977649612574 0.040710904729207971 0 -0.00083678868018058632 0.040985476835149304 0 -0.00087808511984267714 0.040346909216771476 0 -0.01082723115256411 0.038104936058896859 0 -0.0083713094190813152 0.03845494394607317 0 -0.0092453288918875332 0.03919713715321612 0 -0.0049898830218406244 0.039417150094640266 0 -0.0052376055385018839 0.03994758511782983 0 -0.0074434047596308147 0.039623408775952225 0 -0.0052376055385018839 0.03994758511782983 0 -0.0058513668676748497 0.041125726953965006 0 -0.0052316922465379702 0.040077183080615281 0 -0.0045209131112350139 0.041452936358504507 0 -0.0052376055385018839 0.03994758511782983 0 -0.00526000009978966 0.039920803806256948 0 -0.0092453288918875332 0.03919713715321612 0 -0.008525349983847956 0.039947893510507919 0 -0.010333300998985495 0.040565228999781877 0 -0.0092453288918875332 0.03919713715321612 0 -0.008525349983847956 0.039947893510507919 0 -0.0080969974629629925 0.038921277007573023 0 -0.0083713094190813152 0.03845494394607317 0 -0.0092453288918875332 0.03919713715321612 0 -0.0080969974629629925 0.038921277007573023 0 -0.0083453627979842397 0.038445808934761308 0 -0.0080969974629629925 0.038921277007573023 0 -0.0063103702877549787 0.03892236623178804 0 -0.0071950743818730862 0.039431440198884435 0 -0.0080969974629629925 0.038921277007573023 0 -0.0063103702877549787 0.03892236623178804 0 -0.008525349983847956 0.039947893510507919 0 -0.0071950743818730862 0.039431440198884435 0 -0.0080969974629629925 0.038921277007573023 0 -0.008525349983847956 0.039947893510507919 0 -0.0071950743818730862 0.039431440198884435 0 -0.0075015848775195956 0.040352480505925555 0 -0.0036691517035872508 0.040208800706640069 0 -0.0021231308828309581 0.040495352268267747 0 -0.0071950743818730862 0.039431440198884435 0 -0.0049346938396231345 0.040151040415126134 0 -0.0075015848775195956 0.040352480505925555 0 -0.0071950743818730862 0.039431440198884435 0 -0.0063103702877549787 0.03892236623178804 0 -0.0049346938396231345 0.040151040415126134 0 -0.0063103702877549787 0.03892236623178804 0 -0.0049346938396231345 0.040151040415126134 0 -0.0043243889809221302 0.039415520524212891 0 -0.00083678868018058632 0.040985476835149304 0 -7.9914236864753784e-05 0.040553270674608365 0 0.0002777640038873658 0.041257661204089947 0 -0.00083678868018058632 0.040985476835149304 0 -0.00087808511984267714 0.040346909216771476 0 -7.9914236864753784e-05 0.040553270674608365 0 -0.00037687631390049186 0.040087610838423167 0 -0.00087808511984267714 0.040346909216771476 0 -7.9914236864753784e-05 0.040553270674608365 0 2.6356838110638236e-05 0.039932748327456538 0 -0.00037687631390049186 0.040087610838423167 0 -7.9914236864753784e-05 0.040553270674608365 0 0.000942287026696873 0.040326999683074689 0 0.00043227172013152843 0.040113938628441995 0 0.00047589759116448973 0.040618279511598541 0 2.6356838110638236e-05 0.039932748327456538 0 0.00043227172013152843 0.040113938628441995 0 -7.9914236864753784e-05 0.040553270674608365 0 0.00043227172013152843 0.040113938628441995 0 -7.9914236864753784e-05 0.040553270674608365 0 0.00047589759116448973 0.040618279511598541 0 -7.9914236864753784e-05 0.040553270674608365 0 0.00047589759116448973 0.040618279511598541 0 0.0002777640038873658 0.041257661204089947 0 0.00090661018108985152 0.04089031005077573 0 0.00047589759116448973 0.040618279511598541 0 0.0002777640038873658 0.041257661204089947 0 -0.00060970708650933542 0.040794180142067343 0 -0.0029356277950956275 0.040770304756793517 0 -0.0023143615195612365 0.03992049704854074 0 -0.0049346938396231345 0.040151040415126134 0 -0.0043243889809221302 0.039415520524212891 0 -0.0044602513044463259 0.039882604043783493 0 -0.0030443182747282287 0.040939413101689644 0 -0.0044465125959838583 0.041834358835024787 0 -0.0013535866533599277 0.039634732314443366 0 -0.0044602513044463259 0.039882604043783493 0 -0.0030443182747282287 0.040939413101689644 0 -0.0030443182747282287 0.040939413101689644 0 -0.0032186583799106872 0.042172484983602751 0 -0.0044465125959838583 0.041834358835024787 0 -0.0029356277950956275 0.040770304756793517 0 -0.0039349952194785371 0.040789400326192743 0 -0.0044602513044463259 0.039882604043783493 0 -0.0059014572639817658 0.041267505785633422 0 -0.0044465125959838583 0.041834358835024787 0 -0.0044602513044463259 0.039882604043783493 0 -0.0059014572639817658 0.041267505785633422 0 -0.0075015848775195956 0.040352480505925555 0 -0.0059657675333306811 0.042995607449514542 0 -0.0044465125959838583 0.041834358835024787 0 -0.0041924410704637649 0.043366686443808221 0 -0.0059014572639817658 0.041267505785633422 0 -0.0059657675333306811 0.042995607449514542 0 -0.0044465125959838583 0.041834358835024787 0 -0.0059014572639817658 0.041267505785633422 0 -0.0059657675333306811 0.042995607449514542 0 -0.007293564479659247 0.041709674671464393 0 -0.0023776242238399427 0.044087883004946538 0 -0.0032186583799106872 0.042172484983602751 0 -0.0041924410704637649 0.043366686443808221 0 -0.0032186583799106872 0.042172484983602751 0 -0.0044465125959838583 0.041834358835024787 0 -0.0041924410704637649 0.043366686443808221 0 -0.0023776242238399427 0.044087883004946538 0 -0.0041924410704637649 0.043366686443808221 0 -0.0051843937983519139 0.045278563984882898 0 -0.0023776242238399427 0.044087883004946538 0 -0.0024393644969373535 0.047542706180598346 0 -0.0051843937983519139 0.045278563984882898 0 -0.0059657675333306811 0.042995607449514542 0 -0.0041924410704637649 0.043366686443808221 0 -0.0051843937983519139 0.045278563984882898 0 -0.0059657675333306811 0.042995607449514542 0 -0.0051843937983519139 0.045278563984882898 0 -0.0077131205594512435 0.044299609742928014 0 -0.0099314408292660427 0.043235552251967346 0 -0.014760174802732293 0.039606503014135971 0 -0.013709139570429976 0.043716531342553405 0 -0.010214767569799171 0.044136122392494342 0 -0.01173892723771121 0.042967740882919381 0 -0.0076609231294815713 0.046388138715759988 0 -0.0077131205594512435 0.044299609742928014 0 -0.0097487776376343847 0.044846327589367428 0 -0.0051843937983519139 0.045278563984882898 0 -0.0076609231294815713 0.046388138715759988 0 -0.0077131205594512435 0.044299609742928014 0 -0.0077131205594512435 0.044299609742928014 0 -0.0095265154675457722 0.043438710927106036 0 -0.0082402233629660822 0.042715170310770573 0 -0.0077131205594512435 0.044299609742928014 0 -0.0095265154675457722 0.043438710927106036 0 -0.0097487776376343847 0.044846327589367428 0 -0.0082402233629660822 0.042715170310770573 0 -0.0087983043501067108 0.041226694079433468 0 -0.010087055885833108 0.042122507209041996 0 -0.0095265154675457722 0.043438710927106036 0 -0.0082402233629660822 0.042715170310770573 0 -0.010087055885833108 0.042122507209041996 0 -0.0082402233629660822 0.042715170310770573 0 -0.007293564479659247 0.041709674671464393 0 -0.0087983043501067108 0.041226694079433468 0 -0.0059657675333306811 0.042995607449514542 0 -0.0077131205594512435 0.044299609742928014 0 -0.0082402233629660822 0.042715170310770573 0 -0.0059657675333306811 0.042995607449514542 0 -0.0082402233629660822 0.042715170310770573 0 -0.007293564479659247 0.041709674671464393 0 -0.0059014572639817658 0.041267505785633422 0 -0.007293564479659247 0.041709674671464393 0 -0.0075015848775195956 0.040352480505925555 0 -0.007293564479659247 0.041709674671464393 0 -0.0075015848775195956 0.040352480505925555 0 -0.0087983043501067108 0.041226694079433468 0 -0.008525349983847956 0.039947893510507919 0 -0.0087983043501067108 0.041226694079433468 0 -0.010333300998985495 0.040565228999781877 0 -0.008525349983847956 0.039947893510507919 0 -0.0075015848775195956 0.040352480505925555 0 -0.0087983043501067108 0.041226694079433468 0 -0.0087983043501067108 0.041226694079433468 0 -0.010333300998985495 0.040565228999781877 0 -0.010087055885833108 0.042122507209041996 0 -0.010333300998985495 0.040565228999781877 0 -0.011693274557829942 0.041511389982379243 0 -0.010087055885833108 0.042122507209041996 0 -0.012431622581684416 0.040102546483747246 0 -0.010333300998985495 0.040565228999781877 0 -0.011693274557829942 0.041511389982379243 0 -0.012431622581684416 0.040102546483747246 0 -0.011693274557829942 0.041511389982379243 0 -0.01369433904463142 0.041585301143898669 0 -0.013158664533707858 0.04191814652703435 0 -0.014098205334728076 0.041201970922284871 0 -0.011693274557829942 0.041511389982379243 0 -0.011807816629867622 0.043213586938048734 0 -0.01369433904463142 0.041585301143898669 0 -0.0095265154675457722 0.043438710927106036 0 -0.011807816629867622 0.043213586938048734 0 -0.010087055885833108 0.042122507209041996 0 -0.011693274557829942 0.041511389982379243 0 -0.011807816629867622 0.043213586938048734 0 -0.010087055885833108 0.042122507209041996 0 -0.015305656709523382 0.039849462960045455 0 -0.015628400816987603 0.040273943458420731 0 -0.01626557225483366 0.040267972308741427 0 -0.013895871282067866 0.040171758292105272 0 -0.015305656709523382 0.039849462960045455 0 -0.01369433904463142 0.041585301143898669 0 -0.014451666470503872 0.040908893488236772 0 -0.014098205334728076 0.041201970922284871 0 -0.012431622581684416 0.040102546483747246 0 -0.013895871282067866 0.040171758292105272 0 -0.01369433904463142 0.041585301143898669 0 -0.017211395599405651 0.039393855586852003 0 -0.01626557225483366 0.040267972308741427 0 -0.016681831297573668 0.039583154642236967 0 -0.01626557225483366 0.040267972308741427 0 -0.016058752807657454 0.039934055582171675 0 -0.016681831297573668 0.039583154642236967 0 -0.015660384032031724 0.038602736099878764 0 -0.015728962980947513 0.038044857186806134 0 -0.015628400816987603 0.040273943458420731 0 -0.016058752807657454 0.039934055582171675 0 -0.015712875224228633 0.039537358094149461 0 -0.015628400816987603 0.040273943458420731 0 -0.01626557225483366 0.040267972308741427 0 -0.016058752807657454 0.039934055582171675 0 -0.016058752807657454 0.039934055582171675 0 -0.015712875224228633 0.039537358094149461 0 -0.016681831297573668 0.039583154642236967 0 -0.015712875224228633 0.039537358094149461 0 -0.016681831297573668 0.039583154642236967 0 -0.016687060751160041 0.03898904363125219 0 -0.016681831297573668 0.039583154642236967 0 -0.016687060751160041 0.03898904363125219 0 -0.017508374029965884 0.039960030965299986 0 -0.015712875224228633 0.039537358094149461 0 -0.016687060751160041 0.03898904363125219 0 -0.015529296729238343 0.038218215002613319 0 -0.015728962980947513 0.038044857186806134 0 -0.015786799535149068 0.037404769621279019 0 -0.017211395599405651 0.039393855586852003 0 -0.014760174802732293 0.039606503014135971 0 -0.017508374029965884 0.039960030965299986 0 -0.013158664533707858 0.04191814652703435 0 -0.01173892723771121 0.042967740882919381 0 -0.0095265154675457722 0.043438710927106036 0 -0.011807816629867622 0.043213586938048734 0 -0.0097487776376343847 0.044846327589367428 0 -0.017211395599405651 0.039393855586852003 0 -0.016681831297573668 0.039583154642236967 0 -0.017508374029965884 0.039960030965299986 0 -0.016687060751160041 0.03898904363125219 0 -0.017508374029965884 0.039960030965299986 0 -0.01751862622626418 0.038532670736400473 0 -0.016832129169796293 0.039680416278953849 0 -0.01679681435727258 0.039536657226501119 0 -0.017508374029965884 0.039960030965299986 0 -0.018936329892269718 0.037633042763420076 0 -0.01751862622626418 0.038532670736400473 0 -0.014760174802732293 0.039606503014135971 0 -0.017508374029965884 0.039960030965299986 0 -0.013709139570429976 0.043716531342553405 0 -0.017508374029965884 0.039960030965299986 0 -0.016844197118680265 0.045455583213265323 0 -0.013709139570429976 0.043716531342553405 0 -0.016844197118680265 0.045455583213265323 0 -0.013709139570429976 0.043716531342553405 0 -0.01354149256580363 0.047719648882989643 0 -0.01751862622626418 0.038532670736400473 0 -0.017794888335651012 0.036913053754035065 0 -0.016855528826841413 0.037694436054337178 0 -0.018936329892269718 0.037633042763420076 0 -0.01751862622626418 0.038532670736400473 0 -0.017794888335651012 0.036913053754035065 0 -0.017794888335651012 0.036913053754035065 0 -0.018807808353788518 0.036286725432622291 0 -0.017957322418358259 0.035412960023932023 0 -0.018936329892269718 0.037633042763420076 0 -0.017794888335651012 0.036913053754035065 0 -0.018807808353788518 0.036286725432622291 0 -0.016844197118680265 0.045455583213265323 0 -0.015519100199210102 0.050430062036031689 0 -0.01354149256580363 0.047719648882989643 0 -0.01679681435727258 0.039536657226501119 0 -0.016775522560966528 0.038460212325109357 0 -0.018936329892269718 0.037633042763420076 0 -0.018807808353788518 0.036286725432622291 0 -0.019583996672725496 0.035613495172407257 0 -0.018807808353788518 0.036286725432622291 0 -0.019786197699801659 0.035598895242290512 0 -0.018924128441621012 0.035464158552986721 0 -0.016927905953486005 0.038316384038046832 0 -0.016775522560966528 0.038460212325109357 0 -0.015519100199210102 0.050430062036031689 0 -0.012345957453389862 0.050494082324639401 0 -0.01354149256580363 0.047719648882989643 0 -0.016687060751160041 0.03898904363125219 0 -0.015529296729238343 0.038218215002613319 0 -0.016855528826841413 0.037694436054337178 0 -0.015529296729238343 0.038218215002613319 0 -0.016855528826841413 0.037694436054337178 0 -0.016779242787349286 0.036287273036480217 0 -0.016687060751160041 0.03898904363125219 0 -0.01751862622626418 0.038532670736400473 0 -0.016855528826841413 0.037694436054337178 0 -0.016779242787349286 0.036287273036480217 0 -0.015886362990776861 0.035489386997893141 0 -0.01672600451542439 0.034951747104638359 0 -0.017794888335651012 0.036913053754035065 0 -0.016779242787349286 0.036287273036480217 0 -0.017957322418358259 0.035412960023932023 0 -0.017794888335651012 0.036913053754035065 0 -0.016855528826841413 0.037694436054337178 0 -0.016779242787349286 0.036287273036480217 0 -0.015786799535149068 0.037404769621279019 0 -0.015815363324052055 0.037054952992758239 0 -0.015529296729238343 0.038218215002613319 0 -0.016779242787349286 0.036287273036480217 0 -0.015886362990776861 0.035489386997893141 0 -0.016099806768309088 0.036002533696577181 0 -0.015886362990776861 0.035489386997893141 0 -0.015847338883398791 0.035355123274400192 0 -0.015886362990776861 0.035489386997893141 0 -0.015623218928955754 0.034732746833226025 0 -0.015847338883398791 0.035355123274400192 0 -0.015886362990776861 0.035489386997893141 0 -0.015623218928955754 0.034732746833226025 0 -0.01672600451542439 0.034951747104638359 0 -0.015623218928955754 0.034732746833226025 0 -0.01672600451542439 0.034951747104638359 0 -0.016296826025949753 0.033948472731112338 0 -0.016779242787349286 0.036287273036480217 0 -0.01672600451542439 0.034951747104638359 0 -0.017957322418358259 0.035412960023932023 0 -0.01672600451542439 0.034951747104638359 0 -0.017957322418358259 0.035412960023932023 0 -0.017855943475496901 0.034058751525480824 0 -0.017245179259220141 0.033630129469538861 0 -0.016296826025949753 0.033948472731112338 0 -0.015540722572597282 0.032242066665845968 0 -0.01672600451542439 0.034951747104638359 0 -0.017245179259220141 0.033630129469538861 0 -0.017855943475496901 0.034058751525480824 0 -0.017245179259220141 0.033630129469538861 0 -0.018116727662429236 0.033117734047855861 0 -0.017493555213770898 0.032015895397310944 0 -0.017245179259220141 0.033630129469538861 0 -0.017855943475496901 0.034058751525480824 0 -0.018116727662429236 0.033117734047855861 0 -0.01672600451542439 0.034951747104638359 0 -0.017245179259220141 0.033630129469538861 0 -0.016296826025949753 0.033948472731112338 0 -0.015623218928955754 0.034732746833226025 0 -0.015891154269713281 0.034903275943700511 0 -0.015500440917437306 0.035276272569534889 0 -0.017646101534145794 0.031210724539618522 0 -0.017994634914992282 0.03016478976185152 0 -0.015623218928955754 0.034732746833226025 0 -0.016296826025949753 0.033948472731112338 0 -0.015540722572597282 0.032242066665845968 0 -0.020071587768911534 0.037603481365561638 0 -0.020782793277903951 0.034429602557551994 0 -0.022679154438473407 0.035203213499928145 0 -0.016775522560966528 0.038460212325109357 0 -0.018094765379550671 0.035333403805878544 0 -0.019208175538071564 0.034540395936225238 0 -0.019786197699801659 0.035598895242290512 0 -0.020475978812282785 0.033447594217170792 0 -0.019208175538071564 0.034540395936225238 0 -0.019786197699801659 0.035598895242290512 0 -0.018924128441621012 0.035464158552986721 0 -0.019208175538071564 0.034540395936225238 0 -0.018924128441621012 0.035464158552986721 0 -0.017957322418358259 0.035412960023932023 0 -0.019208175538071564 0.034540395936225238 0 -0.017957322418358259 0.035412960023932023 0 -0.019079571734303118 0.032773822447678895 0 -0.018807808353788518 0.036286725432622291 0 -0.018924128441621012 0.035464158552986721 0 -0.017957322418358259 0.035412960023932023 0 -0.017957322418358259 0.035412960023932023 0 -0.017855943475496901 0.034058751525480824 0 -0.019485207337245899 0.033058888641330067 0 -0.019418282427587513 0.032683626350525415 0 -0.019779062747312729 0.031915090064616708 0 -0.017855943475496901 0.034058751525480824 0 -0.018116727662429236 0.033117734047855861 0 -0.019485207337245899 0.033058888641330067 0 -0.018116727662429236 0.033117734047855861 0 -0.019485207337245899 0.033058888641330067 0 -0.018552551695013131 0.032361412445730611 0 -0.019208175538071564 0.034540395936225238 0 -0.019079571734303118 0.032773822447678895 0 -0.020475978812282785 0.033447594217170792 0 -0.020782793277903951 0.034429602557551994 0 -0.022679154438473407 0.035203213499928145 0 -0.022758230463897838 0.033025901707141245 0 -0.022679154438473407 0.035203213499928145 0 -0.022758230463897838 0.033025901707141245 0 -0.025251701413523397 0.032809484025690346 0 -0.015519100199210102 0.050430062036031689 0 -0.011674222900093501 0.053328046095010247 0 -0.012345957453389862 0.050494082324639401 0 -0.016775522560966528 0.038460212325109357 0 -0.015173508568462165 0.03890156149294953 0 -0.011674222900093501 0.053328046095010247 0 -0.012345957453389862 0.050494082324639401 0 -0.0099437899842118455 0.051483923214907142 0 -0.012345957453389862 0.050494082324639401 0 -0.0099437899842118455 0.051483923214907142 0 -0.011207390125693275 0.049248823993503991 0 -0.011674222900093501 0.053328046095010247 0 -0.0099437899842118455 0.051483923214907142 0 -0.0086387240587670871 0.053162671782911494 0 -0.0099437899842118455 0.051483923214907142 0 -0.0070498254582213871 0.051630398274718797 0 -0.0080812991562991803 0.04951766935523607 0 -0.0099437899842118455 0.051483923214907142 0 -0.0086387240587670871 0.053162671782911494 0 -0.0070498254582213871 0.051630398274718797 0 -0.0099437899842118455 0.051483923214907142 0 -0.011207390125693275 0.049248823993503991 0 -0.0080812991562991803 0.04951766935523607 0 -0.0086387240587670871 0.053162671782911494 0 -0.0062132730732121803 0.053627664603935761 0 -0.0084953318390752555 0.055664550680808333 0 -0.015173508568462165 0.03890156149294953 0 -0.013905768714195067 0.038017838649844427 0 -0.011674222900093501 0.053328046095010247 0 -0.0086387240587670871 0.053162671782911494 0 -0.0084953318390752555 0.055664550680808333 0 -0.0062132730732121803 0.053627664603935761 0 -0.0084953318390752555 0.055664550680808333 0 -0.0061470443241392241 0.055406763033835182 0 -0.0062132730732121803 0.053627664603935761 0 -0.0042692507274379576 0.054184531180625412 0 -0.0061470443241392241 0.055406763033835182 0 -0.0086387240587670871 0.053162671782911494 0 -0.0062132730732121803 0.053627664603935761 0 -0.0070498254582213871 0.051630398274718797 0 -0.003411142229882765 0.054233808888057934 0 -0.0042692507274379576 0.054184531180625412 0 -0.003782902662902262 0.055783289766257106 0 -0.003411142229882765 0.054233808888057934 0 -0.0042692507274379576 0.054184531180625412 0 -0.0031590405576590432 0.053269106368586339 0 -0.0025419846972660745 0.054185336405476688 0 -0.003411142229882765 0.054233808888057934 0 -0.0031590405576590432 0.053269106368586339 0 -0.0062132730732121803 0.053627664603935761 0 -0.0042692507274379576 0.054184531180625412 0 -0.004309831227539967 0.052693857789497207 0 -0.0062132730732121803 0.053627664603935761 0 -0.004309831227539967 0.052693857789497207 0 -0.0048858343581843619 0.051665701337940038 0 -0.0042692507274379576 0.054184531180625412 0 -0.004309831227539967 0.052693857789497207 0 -0.0031590405576590432 0.053269106368586339 0 -0.004309831227539967 0.052693857789497207 0 -0.0031590405576590432 0.053269106368586339 0 -0.0032407189997285604 0.050856501198949189 0 -0.004309831227539967 0.052693857789497207 0 -0.0048858343581843619 0.051665701337940038 0 -0.0032407189997285604 0.050856501198949189 0 -0.0048858343581843619 0.051665701337940038 0 -0.0032407189997285604 0.050856501198949189 0 -0.0049136753550387087 0.049683013298718152 0 -0.0070498254582213871 0.051630398274718797 0 -0.0049136753550387087 0.049683013298718152 0 -0.0080812991562991803 0.04951766935523607 0 -0.0062132730732121803 0.053627664603935761 0 -0.0048858343581843619 0.051665701337940038 0 -0.0070498254582213871 0.051630398274718797 0 -0.0048858343581843619 0.051665701337940038 0 -0.0070498254582213871 0.051630398274718797 0 -0.0049136753550387087 0.049683013298718152 0 -0.0049136753550387087 0.049683013298718152 0 -0.0059201856615919935 0.047730877753603705 0 -0.0080812991562991803 0.04951766935523607 0 -0.0024393644969373535 0.047542706180598346 0 -0.0049136753550387087 0.049683013298718152 0 -0.0059201856615919935 0.047730877753603705 0 -0.0024393644969373535 0.047542706180598346 0 -0.0032407189997285604 0.050856501198949189 0 -0.0049136753550387087 0.049683013298718152 0 -0.0024393644969373535 0.047542706180598346 0 -0.0051843937983519139 0.045278563984882898 0 -0.0059201856615919935 0.047730877753603705 0 -0.0051843937983519139 0.045278563984882898 0 -0.0076609231294815713 0.046388138715759988 0 -0.0059201856615919935 0.047730877753603705 0 -0.0099314408292660427 0.043235552251967346 0 -0.0059201856615919935 0.047730877753603705 0 -0.010367149916556061 0.046977837200993022 0 -0.010214767569799171 0.044136122392494342 0 -0.0094334864765715769 0.044760723324718275 0 -0.0099314408292660427 0.043235552251967346 0 -0.010367149916556061 0.046977837200993022 0 -0.013709139570429976 0.043716531342553405 0 -0.010367149916556061 0.046977837200993022 0 -0.013709139570429976 0.043716531342553405 0 -0.01354149256580363 0.047719648882989643 0 -0.010367149916556061 0.046977837200993022 0 -0.01354149256580363 0.047719648882989643 0 -0.011207390125693275 0.049248823993503991 0 -0.012345957453389862 0.050494082324639401 0 -0.01354149256580363 0.047719648882989643 0 -0.011207390125693275 0.049248823993503991 0 -0.010367149916556061 0.046977837200993022 0 -0.011207390125693275 0.049248823993503991 0 -0.0080812991562991803 0.04951766935523607 0 -0.0059201856615919935 0.047730877753603705 0 -0.010367149916556061 0.046977837200993022 0 -0.0080812991562991803 0.04951766935523607 0 -0.012822725394039419 0.035613655722549362 0 -0.0099629001546552281 0.036574804905065025 0 -0.010435981494023184 0.033731243628114596 0 -0.012822725394039419 0.035613655722549362 0 -0.010435981494023184 0.033731243628114596 0 -0.012598741436528872 0.033585425043557132 0 -0.012822725394039419 0.035613655722549362 0 -0.012598741436528872 0.033585425043557132 0 -0.014280666421110061 0.033849999553145174 0 -0.013581989720143715 0.035678791340658003 0 -0.013335670171782525 0.036156809563225915 0 -0.014117143189422261 0.036150112726811262 0 -0.013772661399346646 0.034806407309174545 0 -0.013663197824406868 0.034551631772471107 0 -0.013335670171782525 0.036156809563225915 0 -0.012729871398279169 0.036030370437981726 0 -0.013003607421779723 0.036473134486823204 0 -0.013581989720143715 0.035678791340658003 0 -0.013335670171782525 0.036156809563225915 0 -0.012729871398279169 0.036030370437981726 0 -0.013183132707973636 0.027664177727939037 0 -0.013015434628959453 0.02776550604892775 0 -0.01299291035792992 0.027666780107578868 0 -0.0099629001546552281 0.036574804905065025 0 -0.0088248249075041953 0.035672572577496585 0 -0.0072381067582479326 0.037522356503417252 0 -0.013663197824406868 0.034551631772471107 0 -0.016169088494328594 0.033149429010986733 0 -0.01464888762415522 0.032600708497258414 0 -0.016169088494328594 0.033149429010986733 0 -0.013183132707973636 0.027664177727939037 0 -0.01299291035792992 0.027666780107578868 0 -0.01293887651403077 0.02751621957874759 0 -0.013183132707973636 0.027664177727939037 0 -0.013155019569162372 0.027447560959936376 0 -0.01293887651403077 0.02751621957874759 0 -0.0099629001546552281 0.036574804905065025 0 -0.0088248249075041953 0.035672572577496585 0 -0.010435981494023184 0.033731243628114596 0 -0.013183132707973636 0.027664177727939037 0 -0.013155019569162372 0.027447560959936376 0 -0.013473090871118231 0.027509588504212003 0 -0.01464888762415522 0.032600708497258414 0 -0.014292863079281284 0.031546481014952554 0 -0.01319273435128962 0.027256507312060606 0 -0.013155019569162372 0.027447560959936376 0 -0.013473090871118231 0.027509588504212003 0 -0.01319273435128962 0.027256507312060606 0 -0.01339235242156582 0.027149046124080135 0 -0.013473090871118231 0.027509588504212003 0 -0.013155019569162372 0.027447560959936376 0 -0.01293887651403077 0.02751621957874759 0 -0.012922848220200442 0.02720234776215897 0 -0.01319273435128962 0.027256507312060606 0 -0.013155019569162372 0.027447560959936376 0 -0.012922848220200442 0.02720234776215897 0 -0.01319273435128962 0.027256507312060606 0 -0.013018991330343604 0.026922766750265326 0 -0.012922848220200442 0.02720234776215897 0 -0.013018991330343604 0.026922766750265326 0 -0.01339235242156582 0.027149046124080135 0 -0.013243286217874996 0.026853511711591265 0 -0.01319273435128962 0.027256507312060606 0 -0.013018991330343604 0.026922766750265326 0 -0.01339235242156582 0.027149046124080135 0 -0.01339235242156582 0.027149046124080135 0 -0.013473090871118231 0.027509588504212003 0 -0.01396968851005719 0.02735000632676108 0 -0.01339235242156582 0.027149046124080135 0 -0.01396968851005719 0.02735000632676108 0 -0.013572300108020746 0.026798410700079527 0 -0.014292863079281284 0.031546481014952554 0 -0.014551292337351853 0.0303722589546877 0 -0.010435981494023184 0.033731243628114596 0 -0.012598741436528872 0.033585425043557132 0 -0.012040271362326268 0.031718142119575951 0 -0.012598741436528872 0.033585425043557132 0 -0.012040271362326268 0.031718142119575951 0 -0.014167646052554602 0.032516445725805442 0 -0.012040271362326268 0.031718142119575951 0 -0.014167646052554602 0.032516445725805442 0 -0.013693932422910466 0.029424554696380872 0 -0.014167646052554602 0.032516445725805442 0 -0.016052802807773162 0.031316400695041061 0 -0.013693932422910466 0.029424554696380872 0 -0.014167646052554602 0.032516445725805442 0 -0.016052802807773162 0.031316400695041061 0 -0.015804793807750246 0.033271606897320546 0 -0.016052802807773162 0.031316400695041061 0 -0.015804793807750246 0.033271606897320546 0 -0.017066535881978845 0.032459043808674329 0 -0.015804793807750246 0.033271606897320546 0 -0.014280666421110061 0.033849999553145174 0 -0.0160167586152733 0.034383826203142648 0 -0.015804793807750246 0.033271606897320546 0 -0.016090358531079742 0.034538639865941127 0 -0.0160167586152733 0.034383826203142648 0 -0.014167646052554602 0.032516445725805442 0 -0.015804793807750246 0.033271606897320546 0 -0.014280666421110061 0.033849999553145174 0 -0.012598741436528872 0.033585425043557132 0 -0.014167646052554602 0.032516445725805442 0 -0.014280666421110061 0.033849999553145174 0 -0.019736852539437386 0.032213134028137566 0 -0.022136262309608103 0.029778906258536953 0 -0.018480900317298685 0.030565435534486558 0 -0.017349587578525283 0.031374144775068225 0 -0.017994634914992282 0.03016478976185152 0 -0.016052802807773162 0.031316400695041061 0 -0.017066535881978845 0.032459043808674329 0 -0.018480900317298685 0.030565435534486558 0 -0.019736852539437386 0.032213134028137566 0 -0.017066535881978845 0.032459043808674329 0 -0.018480900317298685 0.030565435534486558 0 -0.015804793807750246 0.033271606897320546 0 -0.017066535881978845 0.032459043808674329 0 -0.016090358531079742 0.034538639865941127 0 -0.014967735841202671 0.034583067119503139 0 -0.014578569109378497 0.034669887216191797 0 -0.015891154269713281 0.034903275943700511 0 -0.016090358531079742 0.034538639865941127 0 -0.015958401100665834 0.034743313349345009 0 -0.016090358531079742 0.034538639865941127 0 -0.015958401100665834 0.034743313349345009 0 -0.0160167586152733 0.034383826203142648 0 -0.019736852539437386 0.032213134028137566 0 -0.017066535881978845 0.032459043808674329 0 -0.016090358531079742 0.034538639865941127 0 -0.017349587578525283 0.031374144775068225 0 -0.017045324241296844 0.031838985327841907 0 -0.015623218928955754 0.034732746833226025 0 -0.015958401100665834 0.034743313349345009 0 -0.015847338883398791 0.035355123274400192 0 -0.015623218928955754 0.034732746833226025 0 -0.015891154269713281 0.034903275943700511 0 -0.015958401100665834 0.034743313349345009 0 -0.015958401100665834 0.034743313349345009 0 -0.015847338883398791 0.035355123274400192 0 -0.015400558780249035 0.035366881100722107 0 -0.015847338883398791 0.035355123274400192 0 -0.015400558780249035 0.035366881100722107 0 -0.015566628429762504 0.035722482821501339 0 -0.015400558780249035 0.035366881100722107 0 -0.015566628429762504 0.035722482821501339 0 -0.014806560622119444 0.035717735524752353 0 -0.015958401100665834 0.034743313349345009 0 -0.015400558780249035 0.035366881100722107 0 -0.014488254930913949 0.035239240088990702 0 -0.015139563165406992 0.036130301212322427 0 -0.015566628429762504 0.035722482821501339 0 -0.014806560622119444 0.035717735524752353 0 -0.015139563165406992 0.036130301212322427 0 -0.014806560622119444 0.035717735524752353 0 -0.014669551274511061 0.036281001377001451 0 -0.015139563165406992 0.036130301212322427 0 -0.015566628429762504 0.035722482821501339 0 -0.015599523379753656 0.036448426795565134 0 -0.016099806768309088 0.036002533696577181 0 -0.015847338883398791 0.035355123274400192 0 -0.015566628429762504 0.035722482821501339 0 -0.016099806768309088 0.036002533696577181 0 -0.015566628429762504 0.035722482821501339 0 -0.015599523379753656 0.036448426795565134 0 -0.012822725394039419 0.035613655722549362 0 -0.014280666421110061 0.033849999553145174 0 -0.0160167586152733 0.034383826203142648 0 -0.013772661399346646 0.034806407309174545 0 -0.014578569109378497 0.034669887216191797 0 -0.013581989720143715 0.035678791340658003 0 -0.014488254930913949 0.035239240088990702 0 -0.014292468055757361 0.035703835133661439 0 -0.015400558780249035 0.035366881100722107 0 -0.014488254930913949 0.035239240088990702 0 -0.014806560622119444 0.035717735524752353 0 -0.014488254930913949 0.035239240088990702 0 -0.014806560622119444 0.035717735524752353 0 -0.014292468055757361 0.035703835133661439 0 -0.014806560622119444 0.035717735524752353 0 -0.014087318291672542 0.036199902960858302 0 -0.014669551274511061 0.036281001377001451 0 -0.014806560622119444 0.035717735524752353 0 -0.014117143189422261 0.036150112726811262 0 -0.014292468055757361 0.035703835133661439 0 -0.014011304936588786 0.036262820557149418 0 -0.013850986377510375 0.036371687276908975 0 -0.013581989720143715 0.035678791340658003 0 -0.014117143189422261 0.036150112726811262 0 -0.014292468055757361 0.035703835133661439 0 -0.014087318291672542 0.036199902960858302 0 -0.014436986858174111 0.036907667054942181 0 -0.013711687970872017 0.037178867157363918 0 -0.013850986377510375 0.036371687276908975 0 -0.013531707860898183 0.036590133425182227 0 -0.014669551274511061 0.036281001377001451 0 -0.014436986858174111 0.036907667054942181 0 -0.014967889911601182 0.036602977204948858 0 -0.014087318291672542 0.036199902960858302 0 -0.014669551274511061 0.036281001377001451 0 -0.014436986858174111 0.036907667054942181 0 -0.014436986858174111 0.036907667054942181 0 -0.014987182895076929 0.037347022477345906 0 -0.014181578201123262 0.037576659975282575 0 -0.014436986858174111 0.036907667054942181 0 -0.014181578201123262 0.037576659975282575 0 -0.013711687970872017 0.037178867157363918 0 -0.015973215387614051 0.037063095571466635 0 -0.016099806768309088 0.036002533696577181 0 -0.015599523379753656 0.036448426795565134 0 -0.015139563165406992 0.036130301212322427 0 -0.015599523379753656 0.036448426795565134 0 -0.014967889911601182 0.036602977204948858 0 -0.015139563165406992 0.036130301212322427 0 -0.014669551274511061 0.036281001377001451 0 -0.014967889911601182 0.036602977204948858 0 -0.014436986858174111 0.036907667054942181 0 -0.014967889911601182 0.036602977204948858 0 -0.014987182895076929 0.037347022477345906 0 -0.015599523379753656 0.036448426795565134 0 -0.014967889911601182 0.036602977204948858 0 -0.014987182895076929 0.037347022477345906 0 -0.015973215387614051 0.037063095571466635 0 -0.015599523379753656 0.036448426795565134 0 -0.014987182895076929 0.037347022477345906 0 -0.015730180373087196 0.038116282915370114 0 -0.015973215387614051 0.037063095571466635 0 -0.015355200884154731 0.037827644065804807 0 -0.015973215387614051 0.037063095571466635 0 -0.014987182895076929 0.037347022477345906 0 -0.015355200884154731 0.037827644065804807 0 -0.014987182895076929 0.037347022477345906 0 -0.015355200884154731 0.037827644065804807 0 -0.014705795314608963 0.038160881697695159 0 -0.015355200884154731 0.037827644065804807 0 -0.015476417977256438 0.038287973258612995 0 -0.014705795314608963 0.038160881697695159 0 -0.015044273590312449 0.037700103483656711 0 -0.014902572819510974 0.037646132811587373 0 -0.015476417977256438 0.038287973258612995 0 -0.014520013796877619 0.038706121504505912 0 -0.01494614921538384 0.038837652519382031 0 -0.015476417977256438 0.038287973258612995 0 -0.01527900374454156 0.038794358670869181 0 -0.01494614921538384 0.038837652519382031 0 -0.015730180373087196 0.038116282915370114 0 -0.015476417977256438 0.038287973258612995 0 -0.01527900374454156 0.038794358670869181 0 -0.015730180373087196 0.038116282915370114 0 -0.015355200884154731 0.037827644065804807 0 -0.015476417977256438 0.038287973258612995 0 -0.014181578201123262 0.037576659975282575 0 -0.01384104275776225 0.038150448340181456 0 -0.013440603265574504 0.037673848105543639 0 -0.014181578201123262 0.037576659975282575 0 -0.013440603265574504 0.037673848105543639 0 -0.013711687970872017 0.037178867157363918 0 -0.014987182895076929 0.037347022477345906 0 -0.014181578201123262 0.037576659975282575 0 -0.014705795314608963 0.038160881697695159 0 -0.014902572819510974 0.037646132811587373 0 -0.014816917613635001 0.03743158146745626 0 -0.014181578201123262 0.037576659975282575 0 -0.014705795314608963 0.038160881697695159 0 -0.01384104275776225 0.038150448340181456 0 -0.014520013796877619 0.038706121504505912 0 -0.014332181833611223 0.039187886864571371 0 -0.014309597916192948 0.039098131411239904 0 -0.014332181833611223 0.039187886864571371 0 -0.014857091490640356 0.03960969679446813 0 -0.014682982448653882 0.039341272944897671 0 -0.014816917613635001 0.03743158146745626 0 -0.015195623860503667 0.03694664751757179 0 -0.01384104275776225 0.038150448340181456 0 -0.012999053202375915 0.038156695591156295 0 -0.013440603265574504 0.037673848105543639 0 -0.012999053202375915 0.038156695591156295 0 -0.012882751914259978 0.037652099244233045 0 -0.013440603265574504 0.037673848105543639 0 -0.012882751914259978 0.037652099244233045 0 -0.013440603265574504 0.037673848105543639 0 -0.012920014605255601 0.037053441987370081 0 -0.013440603265574504 0.037673848105543639 0 -0.013711687970872017 0.037178867157363918 0 -0.012920014605255601 0.037053441987370081 0 -0.013711687970872017 0.037178867157363918 0 -0.012920014605255601 0.037053441987370081 0 -0.013483556074004709 0.036644610565528729 0 -0.013220264004615944 0.036803753431700927 0 -0.013531707860898183 0.036590133425182227 0 -0.012962548303497891 0.036973027030085336 0 -0.013003607421779723 0.036473134486823204 0 -0.013532645143768101 0.036559874866227041 0 -0.013335670171782525 0.036156809563225915 0 -0.013003607421779723 0.036473134486823204 0 -0.013532645143768101 0.036559874866227041 0 -0.014087318291672542 0.036199902960858302 0 -0.013711687970872017 0.037178867157363918 0 -0.013483556074004709 0.036644610565528729 0 -0.013335670171782525 0.036156809563225915 0 -0.014117143189422261 0.036150112726811262 0 -0.013532645143768101 0.036559874866227041 0 -0.01245845569295476 0.036650304381552604 0 -0.01197229750695898 0.036965506503489232 0 -0.011867948066953439 0.036360118869618069 0 -0.012729871398279169 0.036030370437981726 0 -0.01245845569295476 0.036650304381552604 0 -0.011867948066953439 0.036360118869618069 0 -0.012729871398279169 0.036030370437981726 0 -0.013003607421779723 0.036473134486823204 0 -0.01245845569295476 0.036650304381552604 0 -0.012962548303497891 0.036973027030085336 0 -0.013003607421779723 0.036473134486823204 0 -0.01245845569295476 0.036650304381552604 0 -0.012962548303497891 0.036973027030085336 0 -0.01245845569295476 0.036650304381552604 0 -0.012379578616109332 0.037400370468032663 0 -0.013220264004615944 0.036803753431700927 0 -0.013072143423212326 0.036905107304932502 0 -0.01245845569295476 0.036650304381552604 0 -0.01197229750695898 0.036965506503489232 0 -0.012379578616109332 0.037400370468032663 0 -0.01197229750695898 0.036965506503489232 0 -0.012379578616109332 0.037400370468032663 0 -0.011770152377374533 0.037486615339717248 0 -0.012379578616109332 0.037400370468032663 0 -0.012124844055508349 0.037767774075332258 0 -0.011770152377374533 0.037486615339717248 0 -0.012379578616109332 0.037400370468032663 0 -0.012528696922242065 0.037845200409319928 0 -0.012124844055508349 0.037767774075332258 0 -0.012882751914259978 0.037652099244233045 0 -0.012379578616109332 0.037400370468032663 0 -0.012528696922242065 0.037845200409319928 0 -0.012882751914259978 0.037652099244233045 0 -0.012920014605255601 0.037053441987370081 0 -0.012379578616109332 0.037400370468032663 0 -0.012999053202375915 0.038156695591156295 0 -0.012882751914259978 0.037652099244233045 0 -0.012528696922242065 0.037845200409319928 0 -0.014857091490640356 0.03960969679446813 0 -0.015997545650825364 0.039592207999821764 0 -0.015244309896901433 0.039535948270653772 0 -0.015195623860503667 0.03694664751757179 0 -0.01663249590090168 0.036022283658345568 0 -0.012999053202375915 0.038156695591156295 0 -0.012528696922242065 0.037845200409319928 0 -0.012177584326101085 0.038189130702875954 0 -0.012124844055508349 0.037767774075332258 0 -0.012177584326101085 0.038189130702875954 0 -0.011765230064900776 0.037908201366656701 0 -0.012528696922242065 0.037845200409319928 0 -0.012124844055508349 0.037767774075332258 0 -0.012177584326101085 0.038189130702875954 0 -0.015997545650825364 0.039592207999821764 0 -0.015792736048299436 0.038734641506529909 0 -0.016537412689324786 0.039001368836195593 0 -0.015651914212526659 0.039276065145661246 0 -0.016289256201482291 0.038884889158686681 0 -0.015690829970374295 0.038933483532705468 0 -0.017283834359061702 0.038773248768370815 0 -0.017938198061227428 0.038240503789922581 0 -0.015792736048299436 0.038734641506529909 0 -0.016537412689324786 0.039001368836195593 0 -0.016528573675514399 0.038565474652215083 0 -0.015792736048299436 0.038734641506529909 0 -0.01643229066793098 0.037863625928309233 0 -0.016528573675514399 0.038565474652215083 0 -0.015325708502976895 0.038951384883801156 0 -0.015258233631878429 0.039198229035772997 0 -0.015011203031041736 0.038968440731579873 0 -0.015325708502976895 0.038951384883801156 0 -0.015258233631878429 0.039198229035772997 0 -0.015690829970374295 0.038933483532705468 0 -0.015651914212526659 0.039276065145661246 0 -0.015258233631878429 0.039198229035772997 0 -0.015690829970374295 0.038933483532705468 0 -0.015997545650825364 0.039592207999821764 0 -0.015792736048299436 0.038734641506529909 0 -0.015244309896901433 0.039535948270653772 0 -0.015258233631878429 0.039198229035772997 0 -0.015244309896901433 0.039535948270653772 0 -0.014989432785962608 0.039367541555593716 0 -0.017283834359061702 0.038773248768370815 0 -0.017043790730949852 0.038980858694847714 0 -0.015651914212526659 0.039276065145661246 0 -0.015258233631878429 0.039198229035772997 0 -0.015244309896901433 0.039535948270653772 0 -0.014857091490640356 0.03960969679446813 0 -0.015244309896901433 0.039535948270653772 0 -0.014989432785962608 0.039367541555593716 0 -0.014857091490640356 0.03960969679446813 0 -0.014682982448653882 0.039341272944897671 0 -0.014989432785962608 0.039367541555593716 0 -0.014682982448653882 0.039341272944897671 0 -0.014499973708902629 0.039166007350065056 0 -0.01492236091828999 0.03921713375601675 0 -0.014682982448653882 0.039341272944897671 0 -0.014989432785962608 0.039367541555593716 0 -0.01492236091828999 0.03921713375601675 0 -0.015258233631878429 0.039198229035772997 0 -0.014989432785962608 0.039367541555593716 0 -0.01492236091828999 0.03921713375601675 0 -0.014332181833611223 0.039187886864571371 0 -0.014682982448653882 0.039341272944897671 0 -0.014499973708902629 0.039166007350065056 0 -0.014499973708902629 0.039166007350065056 0 -0.014336751579742542 0.038954301132117522 0 -0.014280582928217683 0.039065217674939 0 -0.014499973708902629 0.039166007350065056 0 -0.014588731130056279 0.038962308351201125 0 -0.014747864394946436 0.039085036432489499 0 -0.014499973708902629 0.039166007350065056 0 -0.014588731130056279 0.038962308351201125 0 -0.014336751579742542 0.038954301132117522 0 -0.014499973708902629 0.039166007350065056 0 -0.01492236091828999 0.03921713375601675 0 -0.014747864394946436 0.039085036432489499 0 -0.01492236091828999 0.03921713375601675 0 -0.014747864394946436 0.039085036432489499 0 -0.015011203031041736 0.038968440731579873 0 -0.015258233631878429 0.039198229035772997 0 -0.01492236091828999 0.03921713375601675 0 -0.015011203031041736 0.038968440731579873 0 -0.014588731130056279 0.038962308351201125 0 -0.014747864394946436 0.039085036432489499 0 -0.015011203031041736 0.038968440731579873 0 -0.015011203031041736 0.038968440731579873 0 -0.014822787465039617 0.038670726099907439 0 -0.015342935409128743 0.038686623408691743 0 -0.014588731130056279 0.038962308351201125 0 -0.015011203031041736 0.038968440731579873 0 -0.014822787465039617 0.038670726099907439 0 -0.014822787465039617 0.038670726099907439 0 -0.015125919687977499 0.038484484068063984 0 -0.015342935409128743 0.038686623408691743 0 -0.014336751579742542 0.038954301132117522 0 -0.014475390568122465 0.038741863623342573 0 -0.014157162260282611 0.038772618074200786 0 -0.014588731130056279 0.038962308351201125 0 -0.014822787465039617 0.038670726099907439 0 -0.014475390568122465 0.038741863623342573 0 -0.014588731130056279 0.038962308351201125 0 -0.014336751579742542 0.038954301132117522 0 -0.014475390568122465 0.038741863623342573 0 -0.014822787465039617 0.038670726099907439 0 -0.014475390568122465 0.038741863623342573 0 -0.014395927200373018 0.038421127284586992 0 -0.014475390568122465 0.038741863623342573 0 -0.014263790609702537 0.038614256327875213 0 -0.014395927200373018 0.038421127284586992 0 -0.014263790609702537 0.038614256327875213 0 -0.014157162260282611 0.038772618074200786 0 -0.014031154142866098 0.038497179156607643 0 -0.014475390568122465 0.038741863623342573 0 -0.014263790609702537 0.038614256327875213 0 -0.014157162260282611 0.038772618074200786 0 -0.014395927200373018 0.038421127284586992 0 -0.013896624371925613 0.038055965032784134 0 -0.014606989099736317 0.037833987310601759 0 -0.014263790609702537 0.038614256327875213 0 -0.014395927200373018 0.038421127284586992 0 -0.014031154142866098 0.038497179156607643 0 -0.014395927200373018 0.038421127284586992 0 -0.014031154142866098 0.038497179156607643 0 -0.013896624371925613 0.038055965032784134 0 -0.014395927200373018 0.038421127284586992 0 -0.014916007898712572 0.038287805545788485 0 -0.014606989099736317 0.037833987310601759 0 -0.014822787465039617 0.038670726099907439 0 -0.015125919687977499 0.038484484068063984 0 -0.014916007898712572 0.038287805545788485 0 -0.015125919687977499 0.038484484068063984 0 -0.014916007898712572 0.038287805545788485 0 -0.015434299194758163 0.038272574262465227 0 -0.014822787465039617 0.038670726099907439 0 -0.014395927200373018 0.038421127284586992 0 -0.014916007898712572 0.038287805545788485 0 -0.014916007898712572 0.038287805545788485 0 -0.015434299194758163 0.038272574262465227 0 -0.015156300902959503 0.037930037836830646 0 -0.015125919687977499 0.038484484068063984 0 -0.015434299194758163 0.038272574262465227 0 -0.015342935409128743 0.038686623408691743 0 -0.015434299194758163 0.038272574262465227 0 -0.016063165883624966 0.038093266766710307 0 -0.015845116353446823 0.038526188689427678 0 -0.015434299194758163 0.038272574262465227 0 -0.015845116353446823 0.038526188689427678 0 -0.015342935409128743 0.038686623408691743 0 -0.015434299194758163 0.038272574262465227 0 -0.016063165883624966 0.038093266766710307 0 -0.015700040199958118 0.037761258479092341 0 -0.016063165883624966 0.038093266766710307 0 -0.016356417547370865 0.038363048663262393 0 -0.016575524432203167 0.037986569568230794 0 -0.016063165883624966 0.038093266766710307 0 -0.016356417547370865 0.038363048663262393 0 -0.015845116353446823 0.038526188689427678 0 -0.016356417547370865 0.038363048663262393 0 -0.015845116353446823 0.038526188689427678 0 -0.016289256201482291 0.038884889158686681 0 -0.015845116353446823 0.038526188689427678 0 -0.016289256201482291 0.038884889158686681 0 -0.015690829970374295 0.038933483532705468 0 -0.015325708502976895 0.038951384883801156 0 -0.015690829970374295 0.038933483532705468 0 -0.015342935409128743 0.038686623408691743 0 -0.015325708502976895 0.038951384883801156 0 -0.015011203031041736 0.038968440731579873 0 -0.015342935409128743 0.038686623408691743 0 -0.015845116353446823 0.038526188689427678 0 -0.015690829970374295 0.038933483532705468 0 -0.015342935409128743 0.038686623408691743 0 -0.014679624062777834 0.038851033778200532 0 -0.015034474313127931 0.038956959167404909 0 -0.015230720203529804 0.039260115678291595 0 -0.015034474313127931 0.038956959167404909 0 -0.015230720203529804 0.039260115678291595 0 -0.014995141192350207 0.039082221356164168 0 -0.015230720203529804 0.039260115678291595 0 -0.01527900374454156 0.038794358670869181 0 -0.014995141192350207 0.039082221356164168 0 -0.015305656709523382 0.039849462960045455 0 -0.015628400816987603 0.040273943458420731 0 -0.015230720203529804 0.039260115678291595 0 -0.015730180373087196 0.038116282915370114 0 -0.015230720203529804 0.039260115678291595 0 -0.01527900374454156 0.038794358670869181 0 -0.015660384032031724 0.038602736099878764 0 -0.015623202073462777 0.038801252606096091 0 -0.01527900374454156 0.038794358670869181 0 -0.014995141192350207 0.039082221356164168 0 -0.01494614921538384 0.038837652519382031 0 -0.014520013796877619 0.038706121504505912 0 -0.01494614921538384 0.038837652519382031 0 -0.014701919036874575 0.038963650475253166 0 -0.014995141192350207 0.039082221356164168 0 -0.01494614921538384 0.038837652519382031 0 -0.014701919036874575 0.038963650475253166 0 -0.015034474313127931 0.038956959167404909 0 -0.014811603578051212 0.039066991933867742 0 -0.014959542835097107 0.039090495274125676 0 -0.015034474313127931 0.038956959167404909 0 -0.014995141192350207 0.039082221356164168 0 -0.014811603578051212 0.039066991933867742 0 -0.014995141192350207 0.039082221356164168 0 -0.014701919036874575 0.038963650475253166 0 -0.014811603578051212 0.039066991933867742 0 -0.014811603578051212 0.039066991933867742 0 -0.014364565516917557 0.0390626975427893 0 -0.014560718963687829 0.03914788311071031 0 -0.012538363282828506 0.038762584084745887 0 -0.012481481629994634 0.038768061460442503 0 -0.014701919036874575 0.038963650475253166 0 -0.014811603578051212 0.039066991933867742 0 -0.014364565516917557 0.0390626975427893 0 -0.014364565516917557 0.0390626975427893 0 -0.014127678915646879 0.038961850683235932 0 -0.013944312805465027 0.038905584181465051 0 -0.014520013796877619 0.038706121504505912 0 -0.014701919036874575 0.038963650475253166 0 -0.014364565516917557 0.0390626975427893 0 -0.014520013796877619 0.038706121504505912 0 -0.014364565516917557 0.0390626975427893 0 -0.014309597916192948 0.039098131411239904 0 -0.014364565516917557 0.0390626975427893 0 -0.014309597916192948 0.039098131411239904 0 -0.014280582928217683 0.039065217674939 0 -0.014499973708902629 0.039166007350065056 0 -0.014309597916192948 0.039098131411239904 0 -0.014280582928217683 0.039065217674939 0 -0.014332181833611223 0.039187886864571371 0 -0.014499973708902629 0.039166007350065056 0 -0.014309597916192948 0.039098131411239904 0 -0.014364565516917557 0.0390626975427893 0 -0.014280582928217683 0.039065217674939 0 -0.014127678915646879 0.038961850683235932 0 -0.014336751579742542 0.038954301132117522 0 -0.014280582928217683 0.039065217674939 0 -0.014127678915646879 0.038961850683235932 0 -0.014336751579742542 0.038954301132117522 0 -0.014127678915646879 0.038961850683235932 0 -0.014157162260282611 0.038772618074200786 0 -0.014127678915646879 0.038961850683235932 0 -0.013911470954955287 0.038769471565620696 0 -0.014157162260282611 0.038772618074200786 0 -0.014127678915646879 0.038961850683235932 0 -0.013911470954955287 0.038769471565620696 0 -0.013944312805465027 0.038905584181465051 0 -0.013911470954955287 0.038769471565620696 0 -0.013634212845705117 0.038583987382809402 0 -0.013666461480915324 0.038631219100169471 0 -0.013911470954955287 0.038769471565620696 0 -0.013906737299553678 0.03865168561069153 0 -0.013634212845705117 0.038583987382809402 0 -0.013911470954955287 0.038769471565620696 0 -0.013906737299553678 0.03865168561069153 0 -0.014157162260282611 0.038772618074200786 0 -0.013906737299553678 0.03865168561069153 0 -0.014157162260282611 0.038772618074200786 0 -0.014031154142866098 0.038497179156607643 0 -0.013727382306712152 0.038320019876358725 0 -0.013634212845705117 0.038583987382809402 0 -0.01271745928136093 0.03763944656823516 0 -0.013906737299553678 0.03865168561069153 0 -0.014031154142866098 0.038497179156607643 0 -0.013727382306712152 0.038320019876358725 0 -0.014031154142866098 0.038497179156607643 0 -0.013727382306712152 0.038320019876358725 0 -0.013896624371925613 0.038055965032784134 0 -0.013906737299553678 0.03865168561069153 0 -0.013727382306712152 0.038320019876358725 0 -0.013634212845705117 0.038583987382809402 0 -0.013634212845705117 0.038583987382809402 0 -0.013214399382191355 0.038692889031104467 0 -0.01271745928136093 0.03763944656823516 0 -0.011492974720071188 0.039824318252764543 0 -0.010561880899891039 0.039197613217983568 0 -0.01140066920004716 0.03824295068370763 0 -0.012310597834382018 0.038763940678249086 0 -0.011981548094851203 0.037568289822581966 0 -0.012356008458082903 0.038754021803271185 0 -0.012310597834382018 0.038763940678249086 0 -0.014593517356850721 0.039307209129907789 0 -0.014560718963687829 0.03914788311071031 0 -0.014959542835097107 0.039090495274125676 0 -0.013911470954955287 0.038769471565620696 0 -0.013666461480915324 0.038631219100169471 0 -0.013944312805465027 0.038905584181465051 0 -0.012310597834382018 0.038763940678249086 0 -0.012481481629994634 0.038768061460442503 0 -0.012310597834382018 0.038763940678249086 0 -0.011613103771859512 0.038991336284703901 0 -0.014811603578051212 0.039066991933867742 0 -0.014560718963687829 0.03914788311071031 0 -0.014959542835097107 0.039090495274125676 0 -0.01002754329208499 0.040179096813345326 0 -0.010561880899891039 0.039197613217983568 0 -0.009596695496461154 0.038935377869223665 0 -0.011492974720071188 0.039824318252764543 0 -0.01002754329208499 0.040179096813345326 0 -0.010561880899891039 0.039197613217983568 0 -0.0086467344744818944 0.039449987039804964 0 -0.01002754329208499 0.040179096813345326 0 -0.009596695496461154 0.038935377869223665 0 -0.0086467344744818944 0.039449987039804964 0 -0.0089476341954308255 0.038580120946794638 0 -0.009596695496461154 0.038935377869223665 0 -0.0085770139184786157 0.040502800900320504 0 -0.0086467344744818944 0.039449987039804964 0 -0.01002754329208499 0.040179096813345326 0 -0.014752876654657222 0.038446136184213317 0 -0.015034474313127931 0.038956959167404909 0 -0.014959542835097107 0.039090495274125676 0 -0.010582396293132132 0.039181031824295803 0 -0.011613103771859512 0.038991336284703901 0 -0.0089410608411813666 0.037383896593587006 0 -0.0096375434300213451 0.037306681396270906 0 -0.0092898788119980032 0.037636839526620315 0 -0.0096375434300213451 0.037306681396270906 0 -0.0092898788119980032 0.037636839526620315 0 -0.009525320708212031 0.038001449985260567 0 -0.0096375434300213451 0.037306681396270906 0 -0.009525320708212031 0.038001449985260567 0 -0.010299169666570459 0.037461496880962224 0 -0.0089410608411813666 0.037383896593587006 0 -0.0092898788119980032 0.037636839526620315 0 -0.0089503366150345907 0.038027088719837079 0 -0.0092898788119980032 0.037636839526620315 0 -0.0089503366150345907 0.038027088719837079 0 -0.009525320708212031 0.038001449985260567 0 -0.0089503366150345907 0.038027088719837079 0 -0.0089476341954308255 0.038580120946794638 0 -0.009525320708212031 0.038001449985260567 0 -0.0089476341954308255 0.038580120946794638 0 -0.009596695496461154 0.038935377869223665 0 -0.009525320708212031 0.038001449985260567 0 -0.009596695496461154 0.038935377869223665 0 -0.009525320708212031 0.038001449985260567 0 -0.010277332796783931 0.038368487108456265 0 -0.010561880899891039 0.039197613217983568 0 -0.010277332796783931 0.038368487108456265 0 -0.01140066920004716 0.03824295068370763 0 -0.010277332796783931 0.038368487108456265 0 -0.010299169666570459 0.037461496880962224 0 -0.01140066920004716 0.03824295068370763 0 -0.010561880899891039 0.039197613217983568 0 -0.009596695496461154 0.038935377869223665 0 -0.010277332796783931 0.038368487108456265 0 -0.009525320708212031 0.038001449985260567 0 -0.010277332796783931 0.038368487108456265 0 -0.010299169666570459 0.037461496880962224 0 -0.010299169666570459 0.037461496880962224 0 -0.01140066920004716 0.03824295068370763 0 -0.011331032427589054 0.036648422625871299 0 -0.01271745928136093 0.03763944656823516 0 -0.013070281053601576 0.036767716214652697 0 -0.012070915296457907 0.036479696112335272 0 -0.011981548094851203 0.037568289822581966 0 -0.011638716525886725 0.036272796530867464 0 -0.013727382306712152 0.038320019876358725 0 -0.01271745928136093 0.03763944656823516 0 -0.013896624371925613 0.038055965032784134 0 -0.01271745928136093 0.03763944656823516 0 -0.013896624371925613 0.038055965032784134 0 -0.013885120801938157 0.037374347960937068 0 -0.01271745928136093 0.03763944656823516 0 -0.013070281053601576 0.036767716214652697 0 -0.013885120801938157 0.037374347960937068 0 -0.013070281053601576 0.036767716214652697 0 -0.012771576254772557 0.035945362824849329 0 -0.012070915296457907 0.036479696112335272 0 -0.013070281053601576 0.036767716214652697 0 -0.012771576254772557 0.035945362824849329 0 -0.014030319016909138 0.036276383327002427 0 -0.012771576254772557 0.035945362824849329 0 -0.01129135385472417 0.03499994404437104 0 -0.013341971284921896 0.034999882405236465 0 -0.011290148022140904 0.034999944467423813 0 -0.011331032427589054 0.036648422625871299 0 -0.010834550267291874 0.035000043900402816 0 -0.012771576254772557 0.035945362824849329 0 -0.01129135385472417 0.03499994404437104 0 -0.012070915296457907 0.036479696112335272 0 -0.011291459186523497 0.035002065958505177 0 -0.011638716525886725 0.036272796530867464 0 -0.010299169666570459 0.037461496880962224 0 -0.011331032427589054 0.036648422625871299 0 -0.0098721136493102046 0.036204933525628133 0 -0.0096375434300213451 0.037306681396270906 0 -0.010299169666570459 0.037461496880962224 0 -0.0098721136493102046 0.036204933525628133 0 -0.010832862564097899 0.035001867033240937 0 -0.010071117602071493 0.035964711166426098 0 -0.010834336218653654 0.034999995639129929 0 -0.0093448915762520644 0.035000002400870561 0 -0.0097983752942591464 0.036302830292150298 0 -0.011331032427589054 0.036648422625871299 0 -0.010834550267291874 0.035000043900402816 0 -0.0098721136493102046 0.036204933525628133 0 -0.0085296027018185346 0.036328908726174836 0 -0.0093448915762520644 0.035000002400870561 0 -0.0097983752942591464 0.036302830292150298 0 -0.0094493287767481934 0.036751478951553944 0 -0.010071117602071493 0.035964711166426098 0 -0.0089410608411813666 0.037383896593587006 0 -0.0096375434300213451 0.037306681396270906 0 -0.0098721136493102046 0.036204933525628133 0 -0.0085800490078149667 0.036989826786017505 0 -0.0085296027018185346 0.036328908726174836 0 -0.0097983752942591464 0.036302830292150298 0 -0.0085800490078149667 0.036989826786017505 0 -0.008766624099341546 0.037577794240606421 0 -0.0097983752942591464 0.036302830292150298 0 -0.015864452664908182 0.037094548731761219 0 -0.015248419735696841 0.037516541673232977 0 -0.01482859273999399 0.037087984895169603 0 -0.015864452664908182 0.037094548731761219 0 -0.01482859273999399 0.037087984895169603 0 -0.01570988187198899 0.036199299511572414 0 -0.015864452664908182 0.037094548731761219 0 -0.016354709543791351 0.037574535361771168 0 -0.017188688727181736 0.036465473911461148 0 -0.015864452664908182 0.037094548731761219 0 -0.016354709543791351 0.037574535361771168 0 -0.015700040199958118 0.037761258479092341 0 -0.016063165883624966 0.038093266766710307 0 -0.016354709543791351 0.037574535361771168 0 -0.016575524432203167 0.037986569568230794 0 -0.016063165883624966 0.038093266766710307 0 -0.016354709543791351 0.037574535361771168 0 -0.015700040199958118 0.037761258479092341 0 -0.015864452664908182 0.037094548731761219 0 -0.015700040199958118 0.037761258479092341 0 -0.015248419735696841 0.037516541673232977 0 -0.015700040199958118 0.037761258479092341 0 -0.015248419735696841 0.037516541673232977 0 -0.015156300902959503 0.037930037836830646 0 -0.015434299194758163 0.038272574262465227 0 -0.015700040199958118 0.037761258479092341 0 -0.015156300902959503 0.037930037836830646 0 -0.015248419735696841 0.037516541673232977 0 -0.014606989099736317 0.037833987310601759 0 -0.01482859273999399 0.037087984895169603 0 -0.014916007898712572 0.038287805545788485 0 -0.015156300902959503 0.037930037836830646 0 -0.014606989099736317 0.037833987310601759 0 -0.015248419735696841 0.037516541673232977 0 -0.015156300902959503 0.037930037836830646 0 -0.014606989099736317 0.037833987310601759 0 -0.013896624371925613 0.038055965032784134 0 -0.014606989099736317 0.037833987310601759 0 -0.013885120801938157 0.037374347960937068 0 -0.013070281053601576 0.036767716214652697 0 -0.013885120801938157 0.037374347960937068 0 -0.014030319016909138 0.036276383327002427 0 -0.014606989099736317 0.037833987310601759 0 -0.013885120801938157 0.037374347960937068 0 -0.01482859273999399 0.037087984895169603 0 -0.013885120801938157 0.037374347960937068 0 -0.01482859273999399 0.037087984895169603 0 -0.014030319016909138 0.036276383327002427 0 -0.01482859273999399 0.037087984895169603 0 -0.014030319016909138 0.036276383327002427 0 -0.01570988187198899 0.036199299511572414 0 -0.012771576254772557 0.035945362824849329 0 -0.014030319016909138 0.036276383327002427 0 -0.013341971284921896 0.034999882405236465 0 -0.014030319016909138 0.036276383327002427 0 -0.013341971284921896 0.034999882405236465 0 -0.015393162498083012 0.034999864363485803 0 -0.014030319016909138 0.036276383327002427 0 -0.015393162498083012 0.034999864363485803 0 -0.01570988187198899 0.036199299511572414 0 -0.015393162498083012 0.034999864363485803 0 -0.01570988187198899 0.036199299511572414 0 -0.017443084809780154 0.035000049534391973 0 -0.015864452664908182 0.037094548731761219 0 -0.01570988187198899 0.036199299511572414 0 -0.017188688727181736 0.036465473911461148 0 -0.01570988187198899 0.036199299511572414 0 -0.017443084809780154 0.035000049534391973 0 -0.017188688727181736 0.036465473911461148 0 -0.017444425456447376 0.034999989386799935 0 -0.017951179397189057 0.035579348836958638 0 -0.019019572890055778 0.034999980513336637 0 -0.017444425456447376 0.034999989386799935 0 -0.017951179397189057 0.035579348836958638 0 -0.017891867112752004 0.036796200253680647 0 -0.01744585788036274 0.035001732321731781 0 -0.018055577742936861 0.036147707279966336 0 -0.017951179397189057 0.035579348836958638 0 -0.019023416912120339 0.03616781773457662 0 -0.018463242631463678 0.036380902137058975 0 -0.017951179397189057 0.035579348836958638 0 -0.019019572890055778 0.034999980513336637 0 -0.019023416912120339 0.03616781773457662 0 -0.019019572890055778 0.034999980513336637 0 -0.019023416912120339 0.03616781773457662 0 -0.019927175227107234 0.035715170515395661 0 -0.019023416912120339 0.03616781773457662 0 -0.02004217271030739 0.036716380984692175 0 -0.019927175227107234 0.035715170515395661 0 -0.019023416912120339 0.03616781773457662 0 -0.018690886981520882 0.036738635920828704 0 -0.018463242631463678 0.036380902137058975 0 -0.019023416912120339 0.03616781773457662 0 -0.018690886981520882 0.036738635920828704 0 -0.019265895016025571 0.036979629728822801 0 -0.018690886981520882 0.036738635920828704 0 -0.019265895016025571 0.036979629728822801 0 -0.018864908213886658 0.037454717590651866 0 -0.019023416912120339 0.03616781773457662 0 -0.019265895016025571 0.036979629728822801 0 -0.02004217271030739 0.036716380984692175 0 -0.018588695480342123 0.036782199810533378 0 -0.018640267825128745 0.036985406471833147 0 -0.017951179397189057 0.035579348836958638 0 -0.017891867112752004 0.036796200253680647 0 -0.018133374977468163 0.037083969707437735 0 -0.017951179397189057 0.035579348836958638 0 -0.018463242631463678 0.036380902137058975 0 -0.018189619747264716 0.037034040282568376 0 -0.018690886981520882 0.036738635920828704 0 -0.018463242631463678 0.036380902137058975 0 -0.018189619747264716 0.037034040282568376 0 -0.018690886981520882 0.036738635920828704 0 -0.018189619747264716 0.037034040282568376 0 -0.018864908213886658 0.037454717590651866 0 -0.018189619747264716 0.037034040282568376 0 -0.018864908213886658 0.037454717590651866 0 -0.018359230423615272 0.038484245265987781 0 -0.016354709543791351 0.037574535361771168 0 -0.017188688727181736 0.036465473911461148 0 -0.017034031113673628 0.037588810774179693 0 -0.018055577742936861 0.036147707279966336 0 -0.01875114321967988 0.037179593614641661 0 -0.018640267825128745 0.036985406471833147 0 -0.01875114321967988 0.037179593614641661 0 -0.017891867112752004 0.036796200253680647 0 -0.018133374977468163 0.037083969707437735 0 -0.018308018080399675 0.038574267664374835 0 -0.019265895016025571 0.036979629728822801 0 -0.019816180022722483 0.038050769545374952 0 -0.02004217271030739 0.036716380984692175 0 -0.019265895016025571 0.036979629728822801 0 -0.018864908213886658 0.037454717590651866 0 -0.019816180022722483 0.038050769545374952 0 -0.018864908213886658 0.037454717590651866 0 -0.018359230423615272 0.038484245265987781 0 -0.019816180022722483 0.038050769545374952 0 -0.01904971634481141 0.037623292685226684 0 -0.019104448543618799 0.037394910759653073 0 -0.019816180022722483 0.038050769545374952 0 -0.018934425319143945 0.039304317609125138 0 -0.019872042746685324 0.039040653177842999 0 -0.018359230423615272 0.038484245265987781 0 -0.019816180022722483 0.038050769545374952 0 -0.018618494564662993 0.039648660853224153 0 -0.01875114321967988 0.037179593614641661 0 -0.019001758912792977 0.037407707477347008 0 -0.016354709543791351 0.037574535361771168 0 -0.017034031113673628 0.037588810774179693 0 -0.016575524432203167 0.037986569568230794 0 -0.017034031113673628 0.037588810774179693 0 -0.016953939295317053 0.038306405784279296 0 -0.016575524432203167 0.037986569568230794 0 -0.01875114321967988 0.037179593614641661 0 -0.019104448543618799 0.037394910759653073 0 -0.021061421684895821 0.038339667617095841 0 -0.021748074078426428 0.038635795740652505 0 -0.02121464790308486 0.039294933307277811 0 -0.021061421684895821 0.038339667617095841 0 -0.020495269114913815 0.038873234680740498 0 -0.02121464790308486 0.039294933307277811 0 -0.020495269114913815 0.038873234680740498 0 -0.019816180022722483 0.038050769545374952 0 -0.019872042746685324 0.039040653177842999 0 -0.021061421684895821 0.038339667617095841 0 -0.020495269114913815 0.038873234680740498 0 -0.019816180022722483 0.038050769545374952 0 -0.019816180022722483 0.038050769545374952 0 -0.020906557537236775 0.037265181718216932 0 -0.02004217271030739 0.036716380984692175 0 -0.021061421684895821 0.038339667617095841 0 -0.019816180022722483 0.038050769545374952 0 -0.020906557537236775 0.037265181718216932 0 -0.022940811272231531 0.037140293358562018 0 -0.023310036420463042 0.037221494835314506 0 -0.021061421684895821 0.038339667617095841 0 -0.020906557537236775 0.037265181718216932 0 -0.022037328781558917 0.037720898865934473 0 -0.020906557537236775 0.037265181718216932 0 -0.021485819939433728 0.036097123752998124 0 -0.022380898328398763 0.037799327469790631 0 -0.020906557537236775 0.037265181718216932 0 -0.021485819939433728 0.036097123752998124 0 -0.02004217271030739 0.036716380984692175 0 -0.021485819939433728 0.036097123752998124 0 -0.02004217271030739 0.036716380984692175 0 -0.019927175227107234 0.035715170515395661 0 -0.021485819939433728 0.036097123752998124 0 -0.020594756621232207 0.03500000319743049 0 -0.019927175227107234 0.035715170515395661 0 -0.019019572890055778 0.034999980513336637 0 -0.020594756621232207 0.03500000319743049 0 -0.019927175227107234 0.035715170515395661 0 -0.021485819939433728 0.036097123752998124 0 -0.020594756621232207 0.03500000319743049 0 -0.022169834467416653 0.034999909501822531 0 -0.021485819939433728 0.036097123752998124 0 -0.022169834467416653 0.034999909501822531 0 -0.022793280970681746 0.035891175061518753 0 -0.02217226996059507 0.035000903051079502 0 -0.023347869167131212 0.035470205235421985 0 -0.022169834467416653 0.034999909501822531 0 -0.022793280970681746 0.035891175061518753 0 -0.023660180026806317 0.035565866714898295 0 -0.022169947182200785 0.034999997529150999 0 -0.024048251051160784 0.034999999784548333 0 -0.023692070866312531 0.035622767702133004 0 -0.022793280970681746 0.035891175061518753 0 -0.023660180026806317 0.035565866714898295 0 -0.023487538972253301 0.036326170874252994 0 -0.022793280970681746 0.035891175061518753 0 -0.023487538972253301 0.036326170874252994 0 -0.022817331077545387 0.036629208486514235 0 -0.023487538972253301 0.036326170874252994 0 -0.023768738426887006 0.037111059041230438 0 -0.022817331077545387 0.036629208486514235 0 -0.021485819939433728 0.036097123752998124 0 -0.022793280970681746 0.035891175061518753 0 -0.022817331077545387 0.036629208486514235 0 -0.021485819939433728 0.036097123752998124 0 -0.022817331077545387 0.036629208486514235 0 -0.022380898328398763 0.037799327469790631 0 -0.025926633453621669 0.03499996231698764 0 -0.026192966312023658 0.036041423638127221 0 -0.025228978954853678 0.036232504239568343 0 -0.024048251051160784 0.034999999784548333 0 -0.023692070866312531 0.035622767702133004 0 -0.025228978954853678 0.036232504239568343 0 -0.023660180026806317 0.035565866714898295 0 -0.023487538972253301 0.036326170874252994 0 -0.025209305400231349 0.036150447901964915 0 -0.024048251051160784 0.034999999784548333 0 -0.025926633453621669 0.03499996231698764 0 -0.025228978954853678 0.036232504239568343 0 -0.023347869167131212 0.035470205235421985 0 -0.024315945223586193 0.035856086918196153 0 -0.023487538972253301 0.036326170874252994 0 -0.023768738426887006 0.037111059041230438 0 -0.025209305400231349 0.036150447901964915 0 -0.023768738426887006 0.037111059041230438 0 -0.025209305400231349 0.036150447901964915 0 -0.025064195544293677 0.037604433415524129 0 -0.024315945223586193 0.035856086918196153 0 -0.024752636721918606 0.036029707360102192 0 -0.025209305400231349 0.036150447901964915 0 -0.026159332585690174 0.037192059276423328 0 -0.026782599775624021 0.036756437068208997 0 -0.026192966312023658 0.036041423638127221 0 -0.025228978954853678 0.036232504239568343 0 -0.026782599775624021 0.036756437068208997 0 -0.025209305400231349 0.036150447901964915 0 -0.026159332585690174 0.037192059276423328 0 -0.025064195544293677 0.037604433415524129 0 -0.02611640677282865 0.037971396100540858 0 -0.025064195544293677 0.037604433415524129 0 -0.025323434308088828 0.038877504989865148 0 -0.02611640677282865 0.037971396100540858 0 -0.026159332585690174 0.037192059276423328 0 -0.025064195544293677 0.037604433415524129 0 -0.023768738426887006 0.037111059041230438 0 -0.025064195544293677 0.037604433415524129 0 -0.023841580885973372 0.038332994673831514 0 -0.023546203076749452 0.03880126492004321 0 -0.024333340360303549 0.038566134527618923 0 -0.023180498501451922 0.038146031713698049 0 -0.025161271426745072 0.037422404527402794 0 -0.024142489524112885 0.037356503471929578 0 -0.025064195544293677 0.037604433415524129 0 -0.025323434308088828 0.038877504989865148 0 -0.023841580885973372 0.038332994673831514 0 -0.026934668614951782 0.037890344952945104 0 -0.02691388658936901 0.037851896455439363 0 -0.026900172709802862 0.037863255869402611 0 -0.026709200759690275 0.037436920352400906 0 -0.026488145474199965 0.037743617107572111 0 -0.026915484532281889 0.03766278625334956 0 -0.025161271426745072 0.037422404527402794 0 -0.025368442703293081 0.037491838162242608 0 -0.026488145474199965 0.037743617107572111 0 -0.026900172709802862 0.037863255869402611 0 -0.026915484532281889 0.03766278625334956 0 -0.025402736729441187 0.037302913961850426 0 -0.025161271426745072 0.037422404527402794 0 -0.023768738426887006 0.037111059041230438 0 -0.022380898328398763 0.037799327469790631 0 -0.023841580885973372 0.038332994673831514 0 -0.023310036420463042 0.037221494835314506 0 -0.024142489524112885 0.037356503471929578 0 -0.023768738426887006 0.037111059041230438 0 -0.022817331077545387 0.036629208486514235 0 -0.022380898328398763 0.037799327469790631 0 -0.023546203076749452 0.03880126492004321 0 -0.023180498501451922 0.038146031713698049 0 -0.022863714477568065 0.039022179053032957 0 -0.023180498501451922 0.038146031713698049 0 -0.022355971612105313 0.038508692718243122 0 -0.022863714477568065 0.039022179053032957 0 -0.022037328781558917 0.037720898865934473 0 -0.023180498501451922 0.038146031713698049 0 -0.022355971612105313 0.038508692718243122 0 -0.022037328781558917 0.037720898865934473 0 -0.022355971612105313 0.038508692718243122 0 -0.021748074078426428 0.038635795740652505 0 -0.022355971612105313 0.038508692718243122 0 -0.021748074078426428 0.038635795740652505 0 -0.022070677386890527 0.039312188159340691 0 -0.021061421684895821 0.038339667617095841 0 -0.022037328781558917 0.037720898865934473 0 -0.021748074078426428 0.038635795740652505 0 -0.021748074078426428 0.038635795740652505 0 -0.022070677386890527 0.039312188159340691 0 -0.02121464790308486 0.039294933307277811 0 -0.022070677386890527 0.039312188159340691 0 -0.021665859735074618 0.039936262382622913 0 -0.02212036420464469 0.040033840527147375 0 -0.022070677386890527 0.039312188159340691 0 -0.021665859735074618 0.039936262382622913 0 -0.02121464790308486 0.039294933307277811 0 -0.022070677386890527 0.039312188159340691 0 -0.022544551272617393 0.03985952341983344 0 -0.02212036420464469 0.040033840527147375 0 -0.022355971612105313 0.038508692718243122 0 -0.022070677386890527 0.039312188159340691 0 -0.022863714477568065 0.039022179053032957 0 -0.022863714477568065 0.039022179053032957 0 -0.022544551272617393 0.03985952341983344 0 -0.023428630402960199 0.039607552789930486 0 -0.023546203076749452 0.03880126492004321 0 -0.022863714477568065 0.039022179053032957 0 -0.023428630402960199 0.039607552789930486 0 -0.022070677386890527 0.039312188159340691 0 -0.022863714477568065 0.039022179053032957 0 -0.022544551272617393 0.03985952341983344 0 -0.027019825314630107 0.037726909358220186 0 -0.027015874738515896 0.037786404243795403 0 -0.027002982771491605 0.037737645599244828 0 -0.022544551272617393 0.03985952341983344 0 -0.022517182410818619 0.040646736668856202 0 -0.023428630402960199 0.039607552789930486 0 -0.025674793341292558 0.035899326034255899 0 -0.025203572418338798 0.037039324651891588 0 -0.022544551272617393 0.03985952341983344 0 -0.022517182410818619 0.040646736668856202 0 -0.02226161578144251 0.040550067627653175 0 -0.025674793341292558 0.035899326034255899 0 -0.025653381573351036 0.035908519958702353 0 -0.022512727765008195 0.040644075916720854 0 -0.02226161578144251 0.040550067627653175 0 -0.021956889973590108 0.04067524703828039 0 -0.02226161578144251 0.040550067627653175 0 -0.02190668529950263 0.040336587999529556 0 -0.02212036420464469 0.040033840527147375 0 -0.02226161578144251 0.040550067627653175 0 -0.02190668529950263 0.040336587999529556 0 -0.021956889973590108 0.04067524703828039 0 -0.02190668529950263 0.040336587999529556 0 -0.021665859735074618 0.039936262382622913 0 -0.021529082874118883 0.040486996549057262 0 -0.02190668529950263 0.040336587999529556 0 -0.021956889973590108 0.04067524703828039 0 -0.021529082874118883 0.040486996549057262 0 -0.02190668529950263 0.040336587999529556 0 -0.021665859735074618 0.039936262382622913 0 -0.02212036420464469 0.040033840527147375 0 -0.022544551272617393 0.03985952341983344 0 -0.02226161578144251 0.040550067627653175 0 -0.02212036420464469 0.040033840527147375 0 -0.026934668614951782 0.037890344952945104 0 -0.02691388658936901 0.037851896455439363 0 -0.026953187954062277 0.037815767869088031 0 -0.026880591332644827 0.037823912585306679 0 -0.02691388658936901 0.037851896455439363 0 -0.026900172709802862 0.037863255869402611 0 -0.026880591332644827 0.037823912585306679 0 -0.02691388658936901 0.037851896455439363 0 -0.026953187954062277 0.037815767869088031 0 -0.025161271426745072 0.037422404527402794 0 -0.025203572418338798 0.037039324651891588 0 -0.023546203076749452 0.03880126492004321 0 -0.024333340360303549 0.038566134527618923 0 -0.023428630402960199 0.039607552789930486 0 -0.026934668614951782 0.037890344952945104 0 -0.026953187954062277 0.037815767869088031 0 -0.027015874738515896 0.037786404243795403 0 -0.026953187954062277 0.037815767869088031 0 -0.027015874738515896 0.037786404243795403 0 -0.027000159664563605 0.03770881540979247 0 -0.027015874738515896 0.037786404243795403 0 -0.027002982771491605 0.037737645599244828 0 -0.027000159664563605 0.03770881540979247 0 -0.027002982771491605 0.037737645599244828 0 -0.027000159664563605 0.03770881540979247 0 -0.026989679660532735 0.037747655660611619 0 -0.026880591332644827 0.037823912585306679 0 -0.026953187954062277 0.037815767869088031 0 -0.027000159664563605 0.03770881540979247 0 -0.027163052738764903 0.037491409847247983 0 -0.027000159664563605 0.03770881540979247 0 -0.027166688960386941 0.037715824814761323 0 -0.027570922082371517 0.037153325084551811 0 -0.027473793300449398 0.037247852116022162 0 -0.027181268790509163 0.037827657089751568 0 -0.027053400390306209 0.037846862356263715 0 -0.027308799685162165 0.037947637033644552 0 -0.027000159664563605 0.03770881540979247 0 -0.027166688960386941 0.037715824814761323 0 -0.027061054350383584 0.037825863263576641 0 -0.027166688960386941 0.037715824814761323 0 -0.027181268790509163 0.037827657089751568 0 -0.027061054350383584 0.037825863263576641 0 -0.028196879538320757 0.03509015250315424 0 -0.02827666612458947 0.035039452474039008 0 -0.027220914938576576 0.034485166536642166 0 -0.02671785750577042 0.034292111434923479 0 -0.026436735189174315 0.034613493603628302 0 -0.02827666612458947 0.035039452474039008 0 -0.027799067313258517 0.034185426205087063 0 -0.02827666612458947 0.035039452474039008 0 -0.026983173100334913 0.035493676146894068 0 -0.027000159664563605 0.03770881540979247 0 -0.027061054350383584 0.037825863263576641 0 -0.026989679660532735 0.037747655660611619 0 -0.035159519598507848 0.026086640932833791 0 -0.034166012014421633 0.026203557403776695 0 -0.034679567017370565 0.026830783918034524 0 -0.02827666612458947 0.035039452474039008 0 -0.028989135300276914 0.034741517784482381 0 -0.035159519598507848 0.026086640932833791 0 -0.035966521041793174 0.026459239052193221 0 -0.035616588555686647 0.027048728375685997 0 -0.035159519598507848 0.026086640932833791 0 -0.035616588555686647 0.027048728375685997 0 -0.034679567017370565 0.026830783918034524 0 -0.022512727765008195 0.040644075916720854 0 -0.021956889973590108 0.04067524703828039 0 -0.021556268909154554 0.041087565335889233 0 -0.026216638567281753 0.034101989640287128 0 -0.026436735189174315 0.034613493603628302 0 -0.025656288155000657 0.034742212758332822 0 -0.025674793341292558 0.035899326034255899 0 -0.025221355261617541 0.034242621021406419 0 -0.022512727765008195 0.040644075916720854 0 -0.021507527132940893 0.041782001247789594 0 -0.021556268909154554 0.041087565335889233 0 -0.021956889973590108 0.04067524703828039 0 -0.021556268909154554 0.041087565335889233 0 -0.021529082874118883 0.040486996549057262 0 -0.026216638567281753 0.034101989640287128 0 -0.02671785750577042 0.034292111434923479 0 -0.026436735189174315 0.034613493603628302 0 -0.025674793341292558 0.035899326034255899 0 -0.026983173100334913 0.035493676146894068 0 -0.027019825314630107 0.037726909358220186 0 -0.027002982771491605 0.037737645599244828 0 -0.026989679660532735 0.037747655660611619 0 -0.034166012014421633 0.026203557403776695 0 -0.033812004917574946 0.026978163947590322 0 -0.034679567017370565 0.026830783918034524 0 -0.034166012014421633 0.026203557403776695 0 -0.033155801715299214 0.026355887313957497 0 -0.033812004917574946 0.026978163947590322 0 -0.027799067313258517 0.034185426205087063 0 -0.025221355261617541 0.034242621021406419 0 -0.023542479094398269 0.034412225404638778 0 -0.022913891886559217 0.034517010107334732 0 -0.023092740138275631 0.034922338022499021 0 -0.025221355261617541 0.034242621021406419 0 -0.022925686140807387 0.034790995238826644 0 -0.025221355261617541 0.034242621021406419 0 -0.024555093878159299 0.032942839774112095 0 -0.021507527132940893 0.041782001247789594 0 -0.020511089691031145 0.041221279569211872 0 -0.020535645366011022 0.041941545889897763 0 -0.021556268909154554 0.041087565335889233 0 -0.020980309257668847 0.040679398429134629 0 -0.020511089691031145 0.041221279569211872 0 -0.021507527132940893 0.041782001247789594 0 -0.021556268909154554 0.041087565335889233 0 -0.020511089691031145 0.041221279569211872 0 -0.021556268909154554 0.041087565335889233 0 -0.020980309257668847 0.040679398429134629 0 -0.021529082874118883 0.040486996549057262 0 -0.020511089691031145 0.041221279569211872 0 -0.01925170202093417 0.040700457495149729 0 -0.020299655261552786 0.040352991541973408 0 -0.020980309257668847 0.040679398429134629 0 -0.020511089691031145 0.041221279569211872 0 -0.020299655261552786 0.040352991541973408 0 -0.022925686140807387 0.034790995238826644 0 -0.021161236025544372 0.034991807227691976 0 -0.020511089691031145 0.041221279569211872 0 -0.020535645366011022 0.041941545889897763 0 -0.019571108382810634 0.042101008439694276 0 -0.022913891886559217 0.034517010107334732 0 -0.022573344267102082 0.034676792249735182 0 -0.02228566731634022 0.034623978581424394 0 -0.022809119317143498 0.034774125472585245 0 -0.022913891886559217 0.034517010107334732 0 -0.023092740138275631 0.034922338022499021 0 -0.022809119317143498 0.034774125472585245 0 -0.022913891886559217 0.034517010107334732 0 -0.022573344267102082 0.034676792249735182 0 -0.022573344267102082 0.034676792249735182 0 -0.02228566731634022 0.034623978581424394 0 -0.022301833297247727 0.034697707887555815 0 -0.022088545062990472 0.034390412768047669 0 -0.022421374094956838 0.03436605242339183 0 -0.022043179166379281 0.034183922659411788 0 -0.022573344267102082 0.034676792249735182 0 -0.022304269723969004 0.03469597135494263 0 -0.022341405133929883 0.034860750571444443 0 -0.017711502137396876 0.039372255234344275 0 -0.017260441676639877 0.038974557748976506 0 -0.017418053589995108 0.038557027516278736 0 -0.021161236025544372 0.034991807227691976 0 -0.020263904170796199 0.036059421343518326 0 -0.021211175757763746 0.034646042643226058 0 -0.021174788757077637 0.034647795379915469 0 -0.021174788757077637 0.034647795379915469 0 -0.021549511547972827 0.033967777987042737 0 -0.017711502137396876 0.039372255234344275 0 -0.017734021913721486 0.039471580490931857 0 -0.017367168659167355 0.039500480450211241 0 -0.021161236025544372 0.034991807227691976 0 -0.021174788757077637 0.034647795379915469 0 -0.017711502137396876 0.039372255234344275 0 -0.017301125202982753 0.039424069374421354 0 -0.017178649905586936 0.039210772418992741 0 -0.017711502137396876 0.039372255234344275 0 -0.017367168659167355 0.039500480450211241 0 -0.017301125202982753 0.039424069374421354 0 -0.021174788757077637 0.034647795379915469 0 -0.020420645696421279 0.03439045040996775 0 -0.020420645696421279 0.03439045040996775 0 -0.02042090847865102 0.034395470358557508 0 -0.017711502137396876 0.039372255234344275 0 -0.017260441676639877 0.038974557748976506 0 -0.017178649905586936 0.039210772418992741 0 -0.015997545650825364 0.039592207999821764 0 -0.017367720776152572 0.039502338842547453 0 -0.016902189533680525 0.039295425224024849 0 -0.01663249590090168 0.036022283658345568 0 -0.020420645696421279 0.03439045040996775 0 -0.015997545650825364 0.039592207999821764 0 -0.016902189533680525 0.039295425224024849 0 -0.016537412689324786 0.039001368836195593 0 -0.017301125202982753 0.039424069374421354 0 -0.016902189533680525 0.039295425224024849 0 -0.017178649905586936 0.039210772418992741 0 -0.017367720776152572 0.039502338842547453 0 -0.017301125202982753 0.039424069374421354 0 -0.016902189533680525 0.039295425224024849 0 -0.016902189533680525 0.039295425224024849 0 -0.017033085648917871 0.03904361320615353 0 -0.017178649905586936 0.039210772418992741 0 -0.017260441676639877 0.038974557748976506 0 -0.017033085648917871 0.03904361320615353 0 -0.017178649905586936 0.039210772418992741 0 -0.017260441676639877 0.038974557748976506 0 -0.017083056428072219 0.038888026158232301 0 -0.017153422741439123 0.038723835144326445 0 -0.017260441676639877 0.038974557748976506 0 -0.017033085648917871 0.03904361320615353 0 -0.017083056428072219 0.038888026158232301 0 -0.017033085648917871 0.03904361320615353 0 -0.017083056428072219 0.038888026158232301 0 -0.016885925374711154 0.038810250232965027 0 -0.017033085648917871 0.03904361320615353 0 -0.016537412689324786 0.039001368836195593 0 -0.016885925374711154 0.038810250232965027 0 -0.016902189533680525 0.039295425224024849 0 -0.017033085648917871 0.03904361320615353 0 -0.016537412689324786 0.039001368836195593 0 -0.01703653977632226 0.038234188591033787 0 -0.017234858168704202 0.038524010722341212 0 -0.01715500326277597 0.037738709328904475 0 -0.019384268811629496 0.037028399994840006 0 -0.019446735185296733 0.036880963954401207 0 -0.016537412689324786 0.039001368836195593 0 -0.016528573675514399 0.038565474652215083 0 -0.016885925374711154 0.038810250232965027 0 -0.016528573675514399 0.038565474652215083 0 -0.016945188925911459 0.038529992317654485 0 -0.016885925374711154 0.038810250232965027 0 -0.016945188925911459 0.038529992317654485 0 -0.016885925374711154 0.038810250232965027 0 -0.017153422741439123 0.038723835144326445 0 -0.017083056428072219 0.038888026158232301 0 -0.016885925374711154 0.038810250232965027 0 -0.017153422741439123 0.038723835144326445 0 -0.016945188925911459 0.038529992317654485 0 -0.017153422741439123 0.038723835144326445 0 -0.017234858168704202 0.038524010722341212 0 -0.016945188925911459 0.038529992317654485 0 -0.01703653977632226 0.038234188591033787 0 -0.017234858168704202 0.038524010722341212 0 -0.01703653977632226 0.038234188591033787 0 -0.016796701430424336 0.038263708979054997 0 -0.016896138110389789 0.037906179107117167 0 -0.016945188925911459 0.038529992317654485 0 -0.01703653977632226 0.038234188591033787 0 -0.016796701430424336 0.038263708979054997 0 -0.016528573675514399 0.038565474652215083 0 -0.016945188925911459 0.038529992317654485 0 -0.016796701430424336 0.038263708979054997 0 -0.01643229066793098 0.037863625928309233 0 -0.016528573675514399 0.038565474652215083 0 -0.016796701430424336 0.038263708979054997 0 -0.020091971501469661 0.036485240428751654 0 -0.020106699465604616 0.036210606782582311 0 -0.020271132640729272 0.036746148172357336 0 -0.019924326587250206 0.035678010611766765 0 -0.020091971501469661 0.036485240428751654 0 -0.020106699465604616 0.036210606782582311 0 -0.017234858168704202 0.038524010722341212 0 -0.017418053589995108 0.038557027516278736 0 -0.017160865461713512 0.037701873609546056 0 -0.021161236025544372 0.034991807227691976 0 -0.020191476573755689 0.036819906962411865 0 -0.020263904170796199 0.036059421343518326 0 -0.019446735185296733 0.036880963954401207 0 -0.020511089691031145 0.041221279569211872 0 -0.019571108382810634 0.042101008439694276 0 -0.01925170202093417 0.040700457495149729 0 -0.017260441676639877 0.038974557748976506 0 -0.017153422741439123 0.038723835144326445 0 -0.017418053589995108 0.038557027516278736 0 -0.017153422741439123 0.038723835144326445 0 -0.017234858168704202 0.038524010722341212 0 -0.017418053589995108 0.038557027516278736 0 -0.020091971501469661 0.036485240428751654 0 -0.020271132640729272 0.036746148172357336 0 -0.020262843156945407 0.037290930419285939 0 -0.020191476573755689 0.036819906962411865 0 -0.019104448543618799 0.037394910759653073 0 -0.01925170202093417 0.040700457495149729 0 -0.019769006278547302 0.039802709184538376 0 -0.020299655261552786 0.040352991541973408 0 -0.01925170202093417 0.040700457495149729 0 -0.019769006278547302 0.039802709184538376 0 -0.018934425319143945 0.039304317609125138 0 -0.01643229066793098 0.037863625928309233 0 -0.017059110602681428 0.037429082308146962 0 -0.017082432331467605 0.037007703579247556 0 -0.017938198061227428 0.038240503789922581 0 -0.019001758912792977 0.037407707477347008 0 -0.01643229066793098 0.037863625928309233 0 -0.016796701430424336 0.038263708979054997 0 -0.016896138110389789 0.037906179107117167 0 -0.01643229066793098 0.037863625928309233 0 -0.016896138110389789 0.037906179107117167 0 -0.017059110602681428 0.037429082308146962 0 -0.01703653977632226 0.038234188591033787 0 -0.016896138110389789 0.037906179107117167 0 -0.01715500326277597 0.037738709328904475 0 -0.017157778401017388 0.037738986981126349 0 -0.017059110602681428 0.037429082308146962 0 -0.017082432331467605 0.037007703579247556 0 -0.016896138110389789 0.037906179107117167 0 -0.01715500326277597 0.037738709328904475 0 -0.017059110602681428 0.037429082308146962 0 -0.019446735185296733 0.036880963954401207 0 -0.019001758912792977 0.037407707477347008 0 -0.019446735185296733 0.036880963954401207 0 -0.019433175750463764 0.036882989626660839 0 -0.016356417547370865 0.038363048663262393 0 -0.016289256201482291 0.038884889158686681 0 -0.016953939295317053 0.038306405784279296 0 -0.018818678643702 0.037298247830690599 0 -0.018818355420214428 0.037292306331492962 0 -0.01881774266689357 0.037293020773765749 0 -0.020271132640729272 0.036746148172357336 0 -0.020317220661730355 0.037219337252911704 0 -0.020262843156945407 0.037290930419285939 0 -0.019001758912792977 0.037407707477347008 0 -0.019104448543618799 0.037394910759653073 0 -0.016356417547370865 0.038363048663262393 0 -0.016953939295317053 0.038306405784279296 0 -0.016575524432203167 0.037986569568230794 0 -0.019769006278547302 0.039802709184538376 0 -0.018934425319143945 0.039304317609125138 0 -0.019872042746685324 0.039040653177842999 0 -0.019769006278547302 0.039802709184538376 0 -0.019872042746685324 0.039040653177842999 0 -0.020501056925754324 0.039620610815138214 0 -0.020495269114913815 0.038873234680740498 0 -0.019872042746685324 0.039040653177842999 0 -0.020501056925754324 0.039620610815138214 0 -0.020495269114913815 0.038873234680740498 0 -0.020501056925754324 0.039620610815138214 0 -0.02121464790308486 0.039294933307277811 0 -0.021665859735074618 0.039936262382622913 0 -0.02121464790308486 0.039294933307277811 0 -0.021031077761369487 0.040063051813148114 0 -0.020501056925754324 0.039620610815138214 0 -0.02121464790308486 0.039294933307277811 0 -0.021031077761369487 0.040063051813148114 0 -0.021665859735074618 0.039936262382622913 0 -0.021031077761369487 0.040063051813148114 0 -0.021529082874118883 0.040486996549057262 0 -0.020980309257668847 0.040679398429134629 0 -0.021031077761369487 0.040063051813148114 0 -0.021529082874118883 0.040486996549057262 0 -0.020980309257668847 0.040679398429134629 0 -0.021031077761369487 0.040063051813148114 0 -0.020299655261552786 0.040352991541973408 0 -0.019769006278547302 0.039802709184538376 0 -0.020501056925754324 0.039620610815138214 0 -0.020299655261552786 0.040352991541973408 0 -0.020501056925754324 0.039620610815138214 0 -0.021031077761369487 0.040063051813148114 0 -0.020299655261552786 0.040352991541973408 0 -0.034994610041971172 0.034998136459980428 0 -0.034159813753899447 0.03371140583079546 0 -0.035103213819056421 0.030803511446268691 0 -0.034994610041971172 0.034998136459980428 0 -0.034999467197594079 0.029229254948466878 0 -0.035103213819056421 0.030803511446268691 0 -0.034159813753899447 0.03371140583079546 0 -0.034828688100961826 0.032082575267567234 0 -0.035103213819056421 0.030803511446268691 0 -0.035236119888421527 0.030271880010576159 0 -0.035088495798272688 0.029766450683337269 0 -0.034994610041971172 0.034998136459980428 0 -0.034159813753899447 0.03371140583079546 0 -0.031262541867322559 0.034997491195822156 0 -0.034159813753899447 0.03371140583079546 0 -0.033370959989569966 0.033745664763130519 0 -0.034272971672793522 0.032495506031279112 0 -0.034159813753899447 0.03371140583079546 0 -0.031262541867322559 0.034997491195822156 0 -0.033370959989569966 0.033745664763130519 0 -0.031249580471754718 0.034998448697240649 0 -0.031244416997451712 0.034532146535021756 0 -0.031262541867322559 0.034997491195822156 0 -0.033370959989569966 0.033745664763130519 0 -0.035208926264303511 0.033655239612608731 0 -0.033370959989569966 0.033745664763130519 0 -0.034272971672793522 0.032495506031279112 0 -0.035208926264303511 0.033655239612608731 0 -0.034272971672793522 0.032495506031279112 0 -0.034976877037052073 0.030660457270935353 0 -0.035599118924681372 0.031780131500129011 0 -0.035321617601844782 0.030507856576057448 0 -0.035236119888421527 0.030271880010576159 0 -0.034159813753899447 0.03371140583079546 0 -0.034272971672793522 0.032495506031279112 0 -0.034828688100961826 0.032082575267567234 0 -0.03440575901367763 0.03057438716014434 0 -0.034976877037052073 0.030660457270935353 0 -0.034879204966923955 0.029792927032613197 0 -0.034272971672793522 0.032495506031279112 0 -0.03440575901367763 0.03057438716014434 0 -0.034976877037052073 0.030660457270935353 0 -0.034976877037052073 0.030660457270935353 0 -0.036604156181828801 0.030486376622420722 0 -0.035599118924681372 0.031780131500129011 0 -0.034976877037052073 0.030660457270935353 0 -0.036604156181828801 0.030486376622420722 0 -0.035298063886457814 0.029698448367477818 0 -0.036604156181828801 0.030486376622420722 0 -0.037053948634739334 0.031660991146313412 0 -0.035599118924681372 0.031780131500129011 0 -0.030620607640453813 0.034535653106319113 0 -0.029152843647547149 0.035085233271707872 0 -0.036604156181828801 0.030486376622420722 0 -0.037053948634739334 0.031660991146313412 0 -0.037993090404999721 0.029871249449153914 0 -0.029101082649807965 0.037911719680180533 0 -0.028795495066414517 0.037411268566575118 0 -0.030162801656706508 0.036484388115446506 0 -0.029101082649807965 0.037911719680180533 0 -0.028795495066414517 0.037411268566575118 0 -0.028073557662014609 0.03813288810587679 0 -0.034272971672793522 0.032495506031279112 0 -0.035599118924681372 0.031780131500129011 0 -0.035208926264303511 0.033655239612608731 0 -0.037053948634739334 0.031660991146313412 0 -0.035599118924681372 0.031780131500129011 0 -0.035208926264303511 0.033655239612608731 0 -0.030620607640453813 0.034535653106319113 0 -0.031244416997451712 0.034532146535021756 0 -0.031249427191404191 0.034999997330970832 0 -0.030162801656706508 0.036484388115446506 0 -0.029527140604844643 0.034999988882035316 0 -0.029527140604844643 0.034999988882035316 0 -0.028843538296318558 0.036104822859518923 0 -0.02780493180535662 0.03499999574073516 0 -0.030162801656706508 0.036484388115446506 0 -0.029527140604844643 0.034999988882035316 0 -0.028843538296318558 0.036104822859518923 0 -0.028795495066414517 0.037411268566575118 0 -0.030162801656706508 0.036484388115446506 0 -0.028843538296318558 0.036104822859518923 0 -0.028795495066414517 0.037411268566575118 0 -0.028843538296318558 0.036104822859518923 0 -0.027921135262241131 0.036599360245887572 0 -0.027710699273373805 0.036584448420914156 0 -0.026975235412567345 0.036364269548261254 0 -0.027195968727843262 0.037010673050191206 0 -0.027710699273373805 0.036584448420914156 0 -0.02780470639677152 0.035000069640214064 0 -0.027106243069315493 0.035842347366519707 0 -0.028843538296318558 0.036104822859518923 0 -0.027921135262241131 0.036599360245887572 0 -0.02780493180535662 0.03499999574073516 0 -0.028120165890318433 0.03581875291110849 0 -0.027805970840835258 0.035001625021503141 0 -0.025926633453621669 0.03499996231698764 0 -0.02780470639677152 0.035000069640214064 0 -0.027106243069315493 0.035842347366519707 0 -0.025926633453621669 0.03499996231698764 0 -0.026192966312023658 0.036041423638127221 0 -0.027106243069315493 0.035842347366519707 0 -0.026192966312023658 0.036041423638127221 0 -0.026975235412567345 0.036364269548261254 0 -0.026782599775624021 0.036756437068208997 0 -0.026192966312023658 0.036041423638127221 0 -0.027106243069315493 0.035842347366519707 0 -0.026975235412567345 0.036364269548261254 0 -0.027710699273373805 0.036584448420914156 0 -0.027106243069315493 0.035842347366519707 0 -0.026975235412567345 0.036364269548261254 0 -0.026975235412567345 0.036364269548261254 0 -0.026782599775624021 0.036756437068208997 0 -0.027195968727843262 0.037010673050191206 0 -0.026919314259289569 0.036997227219565491 0 -0.026782599775624021 0.036756437068208997 0 -0.027195968727843262 0.037010673050191206 0 -0.026159332585690174 0.037192059276423328 0 -0.026919314259289569 0.036997227219565491 0 -0.026782599775624021 0.036756437068208997 0 -0.02611640677282865 0.037971396100540858 0 -0.026159332585690174 0.037192059276423328 0 -0.026919314259289569 0.036997227219565491 0 -0.025402736729441187 0.037302913961850426 0 -0.025510920886494232 0.037228445309788194 0 -0.026709200759690275 0.037436920352400906 0 -0.027070985218306171 0.037449236138727235 0 -0.026915484532281889 0.03766278625334956 0 -0.026709200759690275 0.037436920352400906 0 -0.026919314259289569 0.036997227219565491 0 -0.027070985218306171 0.037449236138727235 0 -0.026919314259289569 0.036997227219565491 0 -0.027070985218306171 0.037449236138727235 0 -0.027195968727843262 0.037010673050191206 0 -0.028795495066414517 0.037411268566575118 0 -0.027921135262241131 0.036599360245887572 0 -0.028012564997736186 0.038177418065408059 0 -0.028120165890318433 0.03581875291110849 0 -0.028464018045501235 0.036277269238503655 0 -0.027710699273373805 0.036584448420914156 0 -0.027195968727843262 0.037010673050191206 0 -0.027550284027309187 0.037570028278435919 0 -0.028410554298761669 0.036375797501769537 0 -0.028464018045501235 0.036277269238503655 0 -0.027070985218306171 0.037449236138727235 0 -0.027195968727843262 0.037010673050191206 0 -0.027550284027309187 0.037570028278435919 0 -0.029101082649807965 0.037911719680180533 0 -0.028073557662014609 0.03813288810587679 0 -0.028130173712122657 0.039247663694730588 0 -0.028464018045501235 0.036277269238503655 0 -0.029152843647547149 0.035085233271707872 0 -0.027553111944800791 0.037094976285070795 0 -0.027351645652291361 0.037292082871387376 0 -0.027562248018789707 0.03734259944373642 0 -0.028464018045501235 0.036277269238503655 0 -0.027880288478389723 0.036852348993805226 0 -0.027070985218306171 0.037449236138727235 0 -0.026994580107518085 0.037887593634047555 0 -0.026915484532281889 0.03766278625334956 0 -0.027070985218306171 0.037449236138727235 0 -0.027550284027309187 0.037570028278435919 0 -0.026994580107518085 0.037887593634047555 0 -0.026994580107518085 0.037887593634047555 0 -0.026900172709802862 0.037863255869402611 0 -0.026915484532281889 0.03766278625334956 0 -0.027350115196562365 0.037444121220916317 0 -0.027562248018789707 0.03734259944373642 0 -0.027327758072882274 0.03764754992470136 0 -0.027163052738764903 0.037491409847247983 0 -0.027351645652291361 0.037292082871387376 0 -0.027350115196562365 0.037444121220916317 0 -0.026880591332644827 0.037823912585306679 0 -0.026994580107518085 0.037887593634047555 0 -0.026900172709802862 0.037863255869402611 0 -0.027570922082371517 0.037153325084551811 0 -0.027880288478389723 0.036852348993805226 0 -0.027351645652291361 0.037292082871387376 0 -0.027350115196562365 0.037444121220916317 0 -0.027562248018789707 0.03734259944373642 0 -0.029152843647547149 0.035085233271707872 0 -0.028590181602823783 0.035877269686849969 0 -0.029152843647547149 0.035085233271707872 0 -0.029291729014889141 0.034335759500478409 0 -0.027537444094528594 0.037346292534237102 0 -0.027547097429580426 0.037704258728432694 0 -0.027327758072882274 0.03764754992470136 0 -0.027163052738764903 0.037491409847247983 0 -0.027350115196562365 0.037444121220916317 0 -0.027327758072882274 0.03764754992470136 0 -0.027163052738764903 0.037491409847247983 0 -0.027166688960386941 0.037715824814761323 0 -0.027327758072882274 0.03764754992470136 0 -0.027166688960386941 0.037715824814761323 0 -0.027181268790509163 0.037827657089751568 0 -0.027335078157280368 0.037798118589015758 0 -0.027547097429580426 0.037704258728432694 0 -0.027327758072882274 0.03764754992470136 0 -0.027335078157280368 0.037798118589015758 0 -0.027166688960386941 0.037715824814761323 0 -0.027327758072882274 0.03764754992470136 0 -0.027335078157280368 0.037798118589015758 0 -0.027181268790509163 0.037827657089751568 0 -0.027335078157280368 0.037798118589015758 0 -0.027308799685162165 0.037947637033644552 0 -0.027335078157280368 0.037798118589015758 0 -0.027308799685162165 0.037947637033644552 0 -0.027560813517023532 0.038040043814805427 0 -0.028989135300276914 0.034741517784482381 0 -0.028776513364230996 0.034545449070197499 0 -0.035966521041793174 0.026459239052193221 0 -0.036712487568355531 0.026939176872062282 0 -0.036438561236946644 0.027175766235483234 0 -0.028776513364230996 0.034545449070197499 0 -0.028831887377550415 0.034538974592599143 0 -0.03673363845122686 0.027009035916706236 0 -0.036731159270228853 0.02707499306249259 0 -0.036914469536929076 0.02719251890529234 0 -0.028776513364230996 0.034545449070197499 0 -0.028783885211353277 0.034514977345701747 0 -0.027547097429580426 0.037704258728432694 0 -0.027335078157280368 0.037798118589015758 0 -0.027560813517023532 0.038040043814805427 0 -0.029291729014889141 0.034335759500478409 0 -0.028776513364230996 0.034545449070197499 0 -0.037574092291559703 0.0282982532015781 0 -0.036779980783919662 0.027540766796250716 0 -0.036561439169484608 0.028263162861793902 0 -0.037574092291559703 0.0282982532015781 0 -0.037123308692128654 0.027274233174624945 0 -0.036779980783919662 0.027540766796250716 0 -0.036779980783919662 0.027540766796250716 0 -0.036610994749935413 0.027265820638540304 0 -0.036755201931524033 0.02727179614698404 0 -0.036779980783919662 0.027540766796250716 0 -0.036914469536929076 0.02719251890529234 0 -0.036755201931524033 0.02727179614698404 0 -0.037123308692128654 0.027274233174624945 0 -0.036779980783919662 0.027540766796250716 0 -0.036914469536929076 0.02719251890529234 0 -0.036779980783919662 0.027540766796250716 0 -0.036338254736915071 0.027671219614342865 0 -0.036610994749935413 0.027265820638540304 0 -0.036779980783919662 0.027540766796250716 0 -0.036561439169484608 0.028263162861793902 0 -0.036338254736915071 0.027671219614342865 0 -0.036561439169484608 0.028263162861793902 0 -0.036884312164905987 0.029131129172466092 0 -0.035944226380630696 0.029093467330629261 0 -0.037993090404999721 0.029871249449153914 0 -0.037574092291559703 0.0282982532015781 0 -0.036884312164905987 0.029131129172466092 0 -0.037574092291559703 0.0282982532015781 0 -0.036561439169484608 0.028263162861793902 0 -0.036884312164905987 0.029131129172466092 0 -0.036604156181828801 0.030486376622420722 0 -0.037993090404999721 0.029871249449153914 0 -0.036884312164905987 0.029131129172466092 0 -0.036129394772928723 0.029497276227981092 0 -0.035872923222830554 0.02924822339212773 0 -0.036604156181828801 0.030486376622420722 0 -0.036884312164905987 0.029131129172466092 0 -0.035944226380630696 0.029093467330629261 0 -0.034976877037052073 0.030660457270935353 0 -0.035298063886457814 0.029698448367477818 0 -0.034879204966923955 0.029792927032613197 0 -0.035298063886457814 0.029698448367477818 0 -0.034879204966923955 0.029792927032613197 0 -0.035257314601780859 0.029064261055866267 0 -0.035872923222830554 0.02924822339212773 0 -0.035498230940141214 0.02885105516182063 0 -0.035944226380630696 0.029093467330629261 0 -0.035683119274232088 0.028265787113340456 0 -0.036059457823241763 0.028157695971031328 0 -0.036561439169484608 0.028263162861793902 0 -0.035944226380630696 0.029093467330629261 0 -0.036059457823241763 0.028157695971031328 0 -0.036561439169484608 0.028263162861793902 0 -0.036059457823241763 0.028157695971031328 0 -0.036338254736915071 0.027671219614342865 0 -0.036059457823241763 0.028157695971031328 0 -0.036338254736915071 0.027671219614342865 0 -0.035898830192708397 0.027658785420295682 0 -0.036338254736915071 0.027671219614342865 0 -0.036185267399056406 0.027304287595640117 0 -0.036610994749935413 0.027265820638540304 0 -0.036338254736915071 0.027671219614342865 0 -0.035898830192708397 0.027658785420295682 0 -0.036185267399056406 0.027304287595640117 0 -0.035898830192708397 0.027658785420295682 0 -0.035697214353815988 0.026893375187711566 0 -0.036185267399056406 0.027304287595640117 0 -0.035683119274232088 0.028265787113340456 0 -0.036059457823241763 0.028157695971031328 0 -0.035898830192708397 0.027658785420295682 0 -0.035498230940141214 0.02885105516182063 0 -0.035316994260261796 0.028644745896985888 0 -0.035683119274232088 0.028265787113340456 0 -0.035898830192708397 0.027658785420295682 0 -0.035401817034203989 0.027732238743129009 0 -0.035898830192708397 0.027658785420295682 0 -0.035401817034203989 0.027732238743129009 0 -0.035697214353815988 0.026893375187711566 0 -0.034999637231078497 0.026325099189731766 0 -0.035401817034203989 0.027732238743129009 0 -0.035697214353815988 0.026893375187711566 0 -0.034999637231078497 0.026325099189731766 0 -0.034999678421298051 0.027773749192158526 0 -0.035401817034203989 0.027732238743129009 0 -0.034999678421298051 0.027773749192158526 0 -0.035401817034203989 0.027732238743129009 0 -0.034999001132629166 0.029223501546970815 0 -0.035257314601780859 0.029064261055866267 0 -0.034999001132629166 0.029223501546970815 0 -0.034771753685471703 0.029660488456833774 0 -0.035257314601780859 0.029064261055866267 0 -0.035401817034203989 0.027732238743129009 0 -0.034999001132629166 0.029223501546970815 0 -0.034879204966923955 0.029792927032613197 0 -0.035257314601780859 0.029064261055866267 0 -0.034771753685471703 0.029660488456833774 0 -0.03440575901367763 0.03057438716014434 0 -0.034879204966923955 0.029792927032613197 0 -0.034771753685471703 0.029660488456833774 0 -0.034999603363802916 0.029225995800104789 0 -0.035088495798272688 0.029766450683337269 0 -0.034999980196030379 0.022550770757912435 0 -0.03675435011565753 0.023554123645805589 0 -0.036285270116074887 0.021676690890890301 0 -0.03675435011565753 0.023554123645805589 0 -0.037620353784726161 0.02225048813863376 0 -0.036285270116074887 0.021676690890890301 0 -0.034999980196030379 0.022550770757912435 0 -0.03675435011565753 0.023554123645805589 0 -0.034999973222094451 0.024436705853288117 0 -0.034999988033665039 0.026322701951954141 0 -0.034999973222094451 0.024436705853288117 0 -0.036748105255102463 0.025522669968565212 0 -0.035001313482231552 0.026322444187388886 0 -0.035883654717229999 0.026020091999774963 0 -0.03675435011565753 0.023554123645805589 0 -0.034999973222094451 0.024436705853288117 0 -0.036748105255102463 0.025522669968565212 0 -0.03675435011565753 0.023554123645805589 0 -0.036748105255102463 0.025522669968565212 0 -0.038459395990114435 0.024708179352889444 0 -0.035883654717229999 0.026020091999774963 0 -0.036773020016998392 0.025660533043513439 0 -0.035697214353815988 0.026893375187711566 0 -0.036185267399056406 0.027304287595640117 0 -0.036286734709400296 0.027044111410434602 0 -0.036185267399056406 0.027304287595640117 0 -0.036286734709400296 0.027044111410434602 0 -0.036610994749935413 0.027265820638540304 0 -0.038459395990114435 0.024708179352889444 0 -0.038425910762552161 0.023317401378176488 0 -0.040111978709587701 0.023858940606790981 0 -0.03675435011565753 0.023554123645805589 0 -0.038459395990114435 0.024708179352889444 0 -0.038425910762552161 0.023317401378176488 0 -0.03675435011565753 0.023554123645805589 0 -0.038425910762552161 0.023317401378176488 0 -0.037620353784726161 0.02225048813863376 0 -0.038425910762552161 0.023317401378176488 0 -0.037620353784726161 0.02225048813863376 0 -0.039374206706950556 0.022348278432731225 0 -0.037620353784726161 0.02225048813863376 0 -0.039374206706950556 0.022348278432731225 0 -0.038580531472078759 0.021289869740310805 0 -0.039374206706950556 0.022348278432731225 0 -0.040921878966741598 0.022173337223533186 0 -0.04037036579895599 0.020956144959644787 0 -0.040921878966741598 0.022173337223533186 0 -0.040111978709587701 0.023858940606790981 0 -0.041583230204587859 0.022972934979822883 0 -0.037440375850318293 0.025300452831303451 0 -0.037701970939144153 0.024969092669786391 0 -0.038425910762552161 0.023317401378176488 0 -0.039374206706950556 0.022348278432731225 0 -0.040111978709587701 0.023858940606790981 0 -0.039374206706950556 0.022348278432731225 0 -0.040921878966741598 0.022173337223533186 0 -0.040111978709587701 0.023858940606790981 0 -0.036286734709400296 0.027044111410434602 0 -0.036756760228723498 0.027311854683651254 0 -0.036610994749935413 0.027265820638540304 0 -0.036773020016998392 0.025660533043513439 0 -0.037440375850318293 0.025300452831303451 0 -0.036610994749935413 0.027265820638540304 0 -0.036755201931524033 0.02727179614698404 0 -0.036743597190725848 0.027292514156442009 0 -0.036781823177389365 0.027210491720775172 0 -0.036755201931524033 0.02727179614698404 0 -0.036743597190725848 0.027292514156442009 0 -0.036914469536929076 0.02719251890529234 0 -0.036781823177389365 0.027210491720775172 0 -0.036755201931524033 0.02727179614698404 0 -0.036731159270228853 0.02707499306249259 0 -0.036914469536929076 0.02719251890529234 0 -0.036781823177389365 0.027210491720775172 0 -0.036781823177389365 0.027210491720775172 0 -0.036743597190725848 0.027292514156442009 0 -0.036676153511682436 0.027197458324973878 0 -0.036756760228723498 0.027311854683651254 0 -0.036743597190725848 0.027292514156442009 0 -0.036518955494293563 0.027510920390023494 0 -0.036756760228723498 0.027311854683651254 0 -0.036610994749935413 0.027265820638540304 0 -0.036743597190725848 0.027292514156442009 0 -0.036756760228723498 0.027311854683651254 0 -0.036518955494293563 0.027510920390023494 0 -0.036459310949346894 0.027971314820332407 0 -0.036518955494293563 0.027510920390023494 0 -0.036161096102840053 0.027526450253532245 0 -0.036459310949346894 0.027971314820332407 0 -0.036518955494293563 0.027510920390023494 0 -0.036438561236946644 0.027175766235483234 0 -0.036161096102840053 0.027526450253532245 0 -0.036743597190725848 0.027292514156442009 0 -0.036438561236946644 0.027175766235483234 0 -0.036676153511682436 0.027197458324973878 0 -0.036743597190725848 0.027292514156442009 0 -0.036518955494293563 0.027510920390023494 0 -0.036438561236946644 0.027175766235483234 0 -0.036731159270228853 0.02707499306249259 0 -0.036438561236946644 0.027175766235483234 0 -0.036676153511682436 0.027197458324973878 0 -0.036712487568355531 0.026939176872062282 0 -0.036731159270228853 0.02707499306249259 0 -0.036438561236946644 0.027175766235483234 0 -0.036731159270228853 0.02707499306249259 0 -0.036781823177389365 0.027210491720775172 0 -0.036676153511682436 0.027197458324973878 0 -0.035966521041793174 0.026459239052193221 0 -0.036438561236946644 0.027175766235483234 0 -0.035616588555686647 0.027048728375685997 0 -0.036438561236946644 0.027175766235483234 0 -0.036161096102840053 0.027526450253532245 0 -0.035616588555686647 0.027048728375685997 0 -0.036161096102840053 0.027526450253532245 0 -0.036459310949346894 0.027971314820332407 0 -0.035611747239983345 0.027847535027160943 0 -0.036161096102840053 0.027526450253532245 0 -0.035616588555686647 0.027048728375685997 0 -0.035611747239983345 0.027847535027160943 0 -0.037701970939144153 0.024969092669786391 0 -0.037367049829154418 0.024680996700434644 0 -0.036459310949346894 0.027971314820332407 0 -0.035611747239983345 0.027847535027160943 0 -0.035575776827766671 0.028564748363764138 0 -0.040921878966741598 0.022173337223533186 0 -0.041583230204587859 0.022972934979822883 0 -0.042061961249104655 0.021483027206748342 0 -0.041583230204587859 0.022972934979822883 0 -0.042061961249104655 0.021483027206748342 0 -0.04251217513284155 0.022166170187145427 0 -0.042061961249104655 0.021483027206748342 0 -0.04251217513284155 0.022166170187145427 0 -0.042403652315294596 0.021619371192632381 0 -0.042061961249104655 0.021483027206748342 0 -0.042324961632621567 0.021430809540829744 0 -0.042403652315294596 0.021619371192632381 0 -0.040921878966741598 0.022173337223533186 0 -0.042061961249104655 0.021483027206748342 0 -0.04037036579895599 0.020956144959644787 0 -0.042061961249104655 0.021483027206748342 0 -0.041693625770283085 0.020334223068750101 0 -0.04037036579895599 0.020956144959644787 0 -0.041693625770283085 0.020334223068750101 0 -0.041639202754290193 0.019354867406212395 0 -0.040860019237443534 0.019899723749745805 0 -0.041693625770283085 0.020334223068750101 0 -0.043080619632221505 0.020229849957538459 0 -0.042343209526966644 0.01963722585023207 0 -0.042061961249104655 0.021483027206748342 0 -0.041693625770283085 0.020334223068750101 0 -0.043080619632221505 0.020229849957538459 0 -0.040979442089304111 0.017158318424431638 0 -0.041201399463762736 0.016507343249632943 0 -0.043080619632221505 0.020229849957538459 0 -0.042968256573578903 0.019310066669664769 0 -0.042343209526966644 0.01963722585023207 0 -0.042968256573578903 0.019310066669664769 0 -0.042343209526966644 0.01963722585023207 0 -0.042342182483803177 0.01897951960678344 0 -0.042968256573578903 0.019310066669664769 0 -0.042342182483803177 0.01897951960678344 0 -0.042929173342239196 0.018613914895289928 0 -0.042342182483803177 0.01897951960678344 0 -0.042929173342239196 0.018613914895289928 0 -0.042257754398138794 0.018118081449468745 0 -0.042929173342239196 0.018613914895289928 0 -0.042257754398138794 0.018118081449468745 0 -0.043120680436140202 0.017645682279850784 0 -0.041534005485078053 0.017727312476364641 0 -0.041572352209048674 0.018592342421571737 0 -0.040597574184357069 0.018059686416170204 0 -0.042257754398138794 0.018118081449468745 0 -0.041534005485078053 0.017727312476364641 0 -0.042024197614673499 0.017191308869875358 0 -0.042257754398138794 0.018118081449468745 0 -0.041534005485078053 0.017727312476364641 0 -0.041572352209048674 0.018592342421571737 0 -0.042342182483803177 0.01897951960678344 0 -0.042257754398138794 0.018118081449468745 0 -0.041572352209048674 0.018592342421571737 0 -0.041572352209048674 0.018592342421571737 0 -0.041639202754290193 0.019354867406212395 0 -0.040871307664213319 0.019060510247007466 0 -0.042342182483803177 0.01897951960678344 0 -0.041572352209048674 0.018592342421571737 0 -0.041639202754290193 0.019354867406212395 0 -0.041693625770283085 0.020334223068750101 0 -0.042343209526966644 0.01963722585023207 0 -0.041639202754290193 0.019354867406212395 0 -0.042343209526966644 0.01963722585023207 0 -0.042342182483803177 0.01897951960678344 0 -0.041639202754290193 0.019354867406212395 0 -0.041639202754290193 0.019354867406212395 0 -0.040871307664213319 0.019060510247007466 0 -0.040860019237443534 0.019899723749745805 0 -0.040871307664213319 0.019060510247007466 0 -0.040597574184357069 0.018059686416170204 0 -0.039894834027633261 0.019278394742643416 0 -0.040871307664213319 0.019060510247007466 0 -0.039894834027633261 0.019278394742643416 0 -0.040860019237443534 0.019899723749745805 0 -0.041572352209048674 0.018592342421571737 0 -0.040871307664213319 0.019060510247007466 0 -0.040597574184357069 0.018059686416170204 0 -0.041534005485078053 0.017727312476364641 0 -0.040597574184357069 0.018059686416170204 0 -0.040871723663102683 0.017400475970617717 0 -0.040597574184357069 0.018059686416170204 0 -0.039422786918242421 0.017971818679971711 0 -0.04012325128372822 0.017331553601759975 0 -0.040597574184357069 0.018059686416170204 0 -0.039422786918242421 0.017971818679971711 0 -0.039894834027633261 0.019278394742643416 0 -0.039422786918242421 0.017971818679971711 0 -0.039894834027633261 0.019278394742643416 0 -0.03846468813198281 0.018787420816427317 0 -0.039894834027633261 0.019278394742643416 0 -0.04037036579895599 0.020956144959644787 0 -0.038819214314422784 0.020005065651844879 0 -0.04037036579895599 0.020956144959644787 0 -0.038580531472078759 0.021289869740310805 0 -0.038819214314422784 0.020005065651844879 0 -0.041693625770283085 0.020334223068750101 0 -0.040860019237443534 0.019899723749745805 0 -0.04037036579895599 0.020956144959644787 0 -0.039894834027633261 0.019278394742643416 0 -0.040860019237443534 0.019899723749745805 0 -0.04037036579895599 0.020956144959644787 0 -0.039374206706950556 0.022348278432731225 0 -0.04037036579895599 0.020956144959644787 0 -0.038580531472078759 0.021289869740310805 0 -0.037620353784726161 0.02225048813863376 0 -0.038580531472078759 0.021289869740310805 0 -0.03729991813207182 0.020217194284749877 0 -0.038580531472078759 0.021289869740310805 0 -0.03729991813207182 0.020217194284749877 0 -0.038819214314422784 0.020005065651844879 0 -0.039894834027633261 0.019278394742643416 0 -0.038819214314422784 0.020005065651844879 0 -0.03846468813198281 0.018787420816427317 0 -0.03729991813207182 0.020217194284749877 0 -0.038819214314422784 0.020005065651844879 0 -0.03846468813198281 0.018787420816427317 0 -0.039422786918242421 0.017971818679971711 0 -0.03846468813198281 0.018787420816427317 0 -0.038278191857009765 0.017247256734460474 0 -0.03846468813198281 0.018787420816427317 0 -0.037218182057185953 0.018170544176150251 0 -0.038278191857009765 0.017247256734460474 0 -0.03729991813207182 0.020217194284749877 0 -0.03846468813198281 0.018787420816427317 0 -0.037218182057185953 0.018170544176150251 0 -0.03729991813207182 0.020217194284749877 0 -0.037218182057185953 0.018170544176150251 0 -0.036301571072578309 0.019074936051289064 0 -0.037218182057185953 0.018170544176150251 0 -0.036301571072578309 0.019074936051289064 0 -0.036047091950474307 0.01771877019567563 0 -0.037218182057185953 0.018170544176150251 0 -0.036047091950474307 0.01771877019567563 0 -0.036745485403565106 0.016829567239520025 0 -0.036047091950474307 0.01771877019567563 0 -0.034999969813713033 0.018778906487878763 0 -0.034999980618371576 0.016892972483179707 0 -0.036301571072578309 0.019074936051289064 0 -0.036047091950474307 0.01771877019567563 0 -0.034999969813713033 0.018778906487878763 0 -0.036301571072578309 0.019074936051289064 0 -0.034999969813713033 0.018778906487878763 0 -0.034999988533053472 0.02066483409297103 0 -0.03729991813207182 0.020217194284749877 0 -0.036301571072578309 0.019074936051289064 0 -0.034999988533053472 0.02066483409297103 0 -0.03729991813207182 0.020217194284749877 0 -0.034999988533053472 0.02066483409297103 0 -0.036285270116074887 0.021676690890890301 0 -0.037620353784726161 0.02225048813863376 0 -0.03729991813207182 0.020217194284749877 0 -0.036285270116074887 0.021676690890890301 0 -0.034999980196030379 0.022550770757912435 0 -0.034999988533053472 0.02066483409297103 0 -0.036285270116074887 0.021676690890890301 0 -0.031204731866916482 0.027748232630151189 0 -0.032260918222026723 0.027721578051068948 0 -0.03093823551405521 0.026218439475026112 0 -0.031204731866916482 0.027748232630151189 0 -0.031032408410457846 0.028145588824893021 0 -0.030650981800097975 0.026554058470499037 0 -0.022823002456788859 0.029561275171141852 0 -0.022047284228953398 0.032576615940154159 0 -0.022823002456788859 0.029561275171141852 0 -0.023280991915148413 0.029419047822155781 0 -0.031204731866916482 0.027748232630151189 0 -0.031032408410457846 0.028145588824893021 0 -0.031754630970366113 0.027886144745316008 0 -0.031094686479766553 0.028122949786341073 0 -0.031754630970366113 0.027886144745316008 0 -0.031775122705750045 0.028515125978706053 0 -0.032876055989279972 0.028309503490225325 0 -0.032809150223042462 0.027795618805310441 0 -0.033336614305391997 0.027903477483222527 0 -0.032260918222026723 0.027721578051068948 0 -0.031754630970366113 0.027886144745316008 0 -0.032306664106736036 0.028430761715190586 0 -0.031204731866916482 0.027748232630151189 0 -0.032260918222026723 0.027721578051068948 0 -0.031754630970366113 0.027886144745316008 0 -0.031775122705750045 0.028515125978706053 0 -0.032306664106736036 0.028430761715190586 0 -0.032379556614564764 0.028905977988073171 0 -0.032306664106736036 0.028430761715190586 0 -0.032379556614564764 0.028905977988073171 0 -0.03352361583523817 0.029204149584263702 0 -0.032260918222026723 0.027721578051068948 0 -0.032306664106736036 0.028430761715190586 0 -0.03352361583523817 0.029204149584263702 0 -0.031754630970366113 0.027886144745316008 0 -0.031775122705750045 0.028515125978706053 0 -0.032306664106736036 0.028430761715190586 0 -0.032379556614564764 0.028905977988073171 0 -0.031352485653042522 0.029238156875007235 0 -0.03232904642949775 0.029484543356188202 0 -0.031775122705750045 0.028515125978706053 0 -0.032379556614564764 0.028905977988073171 0 -0.031352485653042522 0.029238156875007235 0 -0.012856903808352783 0.027792971379226223 0 -0.012879368715806685 0.027733474000773091 0 -0.01283511342673917 0.027711329271255584 0 -0.031094686479766553 0.028122949786341073 0 -0.031775122705750045 0.028515125978706053 0 -0.031352485653042522 0.029238156875007235 0 -0.022823002456788859 0.029561275171141852 0 -0.025251743858428089 0.027413654420566043 0 -0.022823002456788859 0.029561275171141852 0 -0.019116179092624794 0.031371440669401986 0 -0.012856903808352783 0.027792971379226223 0 -0.012879368715806685 0.027733474000773091 0 -0.012926939319025459 0.02777028223035332 0 -0.012879368715806685 0.027733474000773091 0 -0.012926939319025459 0.02777028223035332 0 -0.012900875088041859 0.027689343084065701 0 -0.012926939319025459 0.02777028223035332 0 -0.012949732501508169 0.027713028174180754 0 -0.012900875088041859 0.027689343084065701 0 -0.019116179092624794 0.031371440669401986 0 -0.016169088494328594 0.033149429010986733 0 -0.012926939319025459 0.02777028223035332 0 -0.013015434628959453 0.02776550604892775 0 -0.012949732501508169 0.027713028174180754 0 -0.020159482874490674 0.031670508579019853 0 -0.018988603986775432 0.032085852514537244 0 -0.019998673839457564 0.030936286609372476 0 -0.016169088494328594 0.033149429010986733 0 -0.018543916230112183 0.033322315134128047 0 -0.01197229750695898 0.036965506503489232 0 -0.011399561074107752 0.036928700314208453 0 -0.011770152377374533 0.037486615339717248 0 -0.01197229750695898 0.036965506503489232 0 -0.011867948066953439 0.036360118869618069 0 -0.011399561074107752 0.036928700314208453 0 -0.021321898087146161 0.031254754954432411 0 -0.020159482874490674 0.031670508579019853 0 -0.019998673839457564 0.030936286609372476 0 -0.018543916230112183 0.033322315134128047 0 -0.022047284228953398 0.032576615940154159 0 -0.021321898087146161 0.031254754954432411 0 -0.019998673839457564 0.030936286609372476 0 -0.021000026909495106 0.029793642328167801 0 -0.011399561074107752 0.036928700314208453 0 -0.011328470170122167 0.037473007155701281 0 -0.010940556575515136 0.037481792070300571 0 -0.011328470170122167 0.037473007155701281 0 -0.011026941395855682 0.037867528033238659 0 -0.010940556575515136 0.037481792070300571 0 -0.021806321675434098 0.033370581634132535 0 -0.022047284228953398 0.032576615940154159 0 -0.011399561074107752 0.036928700314208453 0 -0.011328470170122167 0.037473007155701281 0 -0.011770152377374533 0.037486615339717248 0 -0.011328470170122167 0.037473007155701281 0 -0.011770152377374533 0.037486615339717248 0 -0.011407854212538662 0.03786387280469234 0 -0.012177584326101085 0.038189130702875954 0 -0.011343032034680111 0.038241159976236012 0 -0.011765230064900776 0.037908201366656701 0 -0.012124844055508349 0.037767774075332258 0 -0.011770152377374533 0.037486615339717248 0 -0.011765230064900776 0.037908201366656701 0 -0.011770152377374533 0.037486615339717248 0 -0.011765230064900776 0.037908201366656701 0 -0.011407854212538662 0.03786387280469234 0 -0.011343032034680111 0.038241159976236012 0 -0.011765230064900776 0.037908201366656701 0 -0.011407854212538662 0.03786387280469234 0 -0.021622937275846316 0.033334324068984282 0 -0.021539269790824576 0.0332355081475285 0 -0.021439174714138677 0.032504354101142711 0 -0.021817214347634853 0.033413282539082836 0 -0.021777761024809779 0.033366083986790376 0 -0.021871995418323371 0.033668625202057177 0 -0.021806321675434098 0.033370581634132535 0 -0.021997199264330015 0.033255109185512534 0 -0.011328470170122167 0.037473007155701281 0 -0.011026941395855682 0.037867528033238659 0 -0.011407854212538662 0.03786387280469234 0 -0.011343032034680111 0.038241159976236012 0 -0.011026941395855682 0.037867528033238659 0 -0.011407854212538662 0.03786387280469234 0 -0.021806321675434098 0.033370581634132535 0 -0.021549511547972827 0.033967777987042737 0 -0.022421374094956838 0.03436605242339183 0 -0.021964085908995616 0.033823137634106437 0 -0.022043179166379281 0.034183922659411788 0 -0.020420645696421279 0.03439045040996775 0 -0.021806321675434098 0.033370581634132535 0 -0.021997199264330015 0.033255109185512534 0 -0.021549511547972827 0.033967777987042737 0 -0.022573344267102082 0.034676792249735182 0 -0.022341405133929883 0.034860750571444443 0 -0.022656543027717604 0.034979733981348904 0 -0.032167164295765723 0.027479604183391293 0 -0.032858993900717774 0.027489902685269917 0 -0.032656601959434137 0.026917857638211393 0 -0.022451600030061185 0.035200447847394192 0 -0.022341405133929883 0.034860750571444443 0 -0.022656543027717604 0.034979733981348904 0 -0.022809119317143498 0.034774125472585245 0 -0.022573344267102082 0.034676792249735182 0 -0.022656543027717604 0.034979733981348904 0 -0.022809119317143498 0.034774125472585245 0 -0.022656543027717604 0.034979733981348904 0 -0.023092740138275631 0.034922338022499021 0 -0.022656543027717604 0.034979733981348904 0 -0.022646588005524212 0.035429402008405782 0 -0.023092740138275631 0.034922338022499021 0 -0.022875670128948283 0.032646132322286477 0 -0.024555093878159299 0.032942839774112095 0 -0.022451600030061185 0.035200447847394192 0 -0.022656543027717604 0.034979733981348904 0 -0.022646588005524212 0.035429402008405782 0 -0.021997199264330015 0.033255109185512534 0 -0.022875670128948283 0.032646132322286477 0 -0.021997199264330015 0.033255109185512534 0 -0.022347653829905837 0.03260262262479853 0 -0.022671582950732103 0.032062542054397049 0 -0.022347653829905837 0.03260262262479853 0 -0.031204731866916482 0.027748232630151189 0 -0.030751942070013173 0.026436261183375016 0 -0.030650981800097975 0.026554058470499037 0 -0.021539269790824576 0.0332355081475285 0 -0.021341924131818592 0.032616683632761746 0 -0.021439174714138677 0.032504354101142711 0 -0.025787505891920259 0.032369682330351569 0 -0.022875670128948283 0.032646132322286477 0 -0.021406565488476872 0.03373771946411723 0 -0.02096825445502698 0.032364083601284427 0 -0.02060120468292154 0.032787573674269516 0 -0.031204731866916482 0.027748232630151189 0 -0.030762912713951176 0.026421828480841066 0 -0.03093823551405521 0.026218439475026112 0 -0.022347653829905837 0.03260262262479853 0 -0.022875670128948283 0.032646132322286477 0 -0.022347653829905837 0.03260262262479853 0 -0.022047284228953398 0.032576615940154159 0 -0.032858993900717774 0.027489902685269917 0 -0.033257513578876678 0.027195293505119147 0 -0.033336614305391997 0.027903477483222527 0 -0.032167164295765723 0.027479604183391293 0 -0.032809150223042462 0.027795618805310441 0 -0.032858993900717774 0.027489902685269917 0 -0.032876055989279972 0.028309503490225325 0 -0.032167164295765723 0.027479604183391293 0 -0.032809150223042462 0.027795618805310441 0 -0.032809150223042462 0.027795618805310441 0 -0.032858993900717774 0.027489902685269917 0 -0.033336614305391997 0.027903477483222527 0 -0.033155801715299214 0.026355887313957497 0 -0.032656601959434137 0.026917857638211393 0 -0.033257513578876678 0.027195293505119147 0 -0.032858993900717774 0.027489902685269917 0 -0.032656601959434137 0.026917857638211393 0 -0.033257513578876678 0.027195293505119147 0 -0.033155801715299214 0.026355887313957497 0 -0.033257513578876678 0.027195293505119147 0 -0.033812004917574946 0.026978163947590322 0 -0.033257513578876678 0.027195293505119147 0 -0.033812004917574946 0.026978163947590322 0 -0.033719425635392923 0.027515402036271241 0 -0.033812004917574946 0.026978163947590322 0 -0.034355662453690802 0.027476869196268988 0 -0.033719425635392923 0.027515402036271241 0 -0.033812004917574946 0.026978163947590322 0 -0.034355662453690802 0.027476869196268988 0 -0.034679567017370565 0.026830783918034524 0 -0.034355662453690802 0.027476869196268988 0 -0.034755960615682917 0.028142085964741537 0 -0.033975126965523302 0.028070817454245573 0 -0.034355662453690802 0.027476869196268988 0 -0.033719425635392923 0.027515402036271241 0 -0.033975126965523302 0.028070817454245573 0 -0.033336614305391997 0.027903477483222527 0 -0.033719425635392923 0.027515402036271241 0 -0.033975126965523302 0.028070817454245573 0 -0.033257513578876678 0.027195293505119147 0 -0.033336614305391997 0.027903477483222527 0 -0.033719425635392923 0.027515402036271241 0 -0.035616588555686647 0.027048728375685997 0 -0.034679567017370565 0.026830783918034524 0 -0.035035476171670507 0.027429472811276692 0 -0.034355662453690802 0.027476869196268988 0 -0.034679567017370565 0.026830783918034524 0 -0.035035476171670507 0.027429472811276692 0 -0.034355662453690802 0.027476869196268988 0 -0.035035476171670507 0.027429472811276692 0 -0.034755960615682917 0.028142085964741537 0 -0.035035476171670507 0.027429472811276692 0 -0.035611747239983345 0.027847535027160943 0 -0.034755960615682917 0.028142085964741537 0 -0.035616588555686647 0.027048728375685997 0 -0.035035476171670507 0.027429472811276692 0 -0.035611747239983345 0.027847535027160943 0 -0.035611747239983345 0.027847535027160943 0 -0.034755960615682917 0.028142085964741537 0 -0.035575776827766671 0.028564748363764138 0 -0.042585162411009299 0.021628689697057897 0 -0.04251217513284155 0.022166170187145427 0 -0.042560359505348311 0.021698050594633329 0 -0.036158538872272626 0.024479020350324527 0 -0.037367049829154418 0.024680996700434644 0 -0.034755960615682917 0.028142085964741537 0 -0.034577353939251702 0.029063951473360435 0 -0.035575776827766671 0.028564748363764138 0 -0.04251217513284155 0.022166170187145427 0 -0.042403652315294596 0.021619371192632381 0 -0.042560359505348311 0.021698050594633329 0 -0.033336614305391997 0.027903477483222527 0 -0.033547881538790784 0.02844790267187073 0 -0.033975126965523302 0.028070817454245573 0 -0.032876055989279972 0.028309503490225325 0 -0.033336614305391997 0.027903477483222527 0 -0.033547881538790784 0.02844790267187073 0 -0.034755960615682917 0.028142085964741537 0 -0.033975126965523302 0.028070817454245573 0 -0.034077922595713517 0.028610436706874107 0 -0.033547881538790784 0.02844790267187073 0 -0.033975126965523302 0.028070817454245573 0 -0.034077922595713517 0.028610436706874107 0 -0.034577353939251702 0.029063951473360435 0 -0.034077922595713517 0.028610436706874107 0 -0.03352361583523817 0.029204149584263702 0 -0.034755960615682917 0.028142085964741537 0 -0.034577353939251702 0.029063951473360435 0 -0.034077922595713517 0.028610436706874107 0 -0.033547881538790784 0.02844790267187073 0 -0.034077922595713517 0.028610436706874107 0 -0.03352361583523817 0.029204149584263702 0 -0.025787505891920259 0.032369682330351569 0 -0.02679002249814446 0.032396688652431539 0 -0.032379556614564764 0.028905977988073171 0 -0.03352361583523817 0.029204149584263702 0 -0.032907858746229764 0.029309165866912457 0 -0.032876055989279972 0.028309503490225325 0 -0.033547881538790784 0.02844790267187073 0 -0.03352361583523817 0.029204149584263702 0 -0.03352361583523817 0.029204149584263702 0 -0.033380296261999988 0.029640803350534421 0 -0.032907858746229764 0.029309165866912457 0 -0.033380296261999988 0.029640803350534421 0 -0.032907858746229764 0.029309165866912457 0 -0.03232904642949775 0.029484543356188202 0 -0.042585162411009299 0.021628689697057897 0 -0.042084997781474141 0.021667058045017947 0 -0.042561910992696003 0.021670252123065718 0 -0.042084997781474141 0.021667058045017947 0 -0.042088936636999766 0.021855121713220464 0 -0.042561910992696003 0.021670252123065718 0 -0.034577353939251702 0.029063951473360435 0 -0.03352361583523817 0.029204149584263702 0 -0.033380296261999988 0.029640803350534421 0 -0.035194574951065954 0.023143686515875544 0 -0.037151759935601249 0.022746731412813359 0 -0.036158538872272626 0.024479020350324527 0 -0.033475310918146289 0.024498195788273173 0 -0.041957558253353802 0.021661888548958792 0 -0.042260055178677501 0.021769709657058239 0 -0.042561910992696003 0.021670252123065718 0 -0.042260055178677501 0.021769709657058239 0 -0.04244419848976725 0.021747649942276855 0 -0.042561910992696003 0.021670252123065718 0 -0.042260055178677501 0.021769709657058239 0 -0.04244419848976725 0.021747649942276855 0 -0.042452257062194056 0.021894401393198697 0 -0.04244419848976725 0.021747649942276855 0 -0.042452257062194056 0.021894401393198697 0 -0.042552398157439837 0.021683747636401646 0 -0.042260055178677501 0.021769709657058239 0 -0.042452257062194056 0.021894401393198697 0 -0.042307270716315175 0.02207603418688131 0 -0.042260055178677501 0.021769709657058239 0 -0.042045674138381881 0.021906530144931727 0 -0.042307270716315175 0.02207603418688131 0 -0.042045674138381881 0.021906530144931727 0 -0.041847707469280279 0.021841296972890761 0 -0.041733443641933654 0.022046022970511579 0 -0.041957558253353802 0.021661888548958792 0 -0.041847707469280279 0.021841296972890761 0 -0.042027872482984903 0.02179431856421369 0 -0.042260055178677501 0.021769709657058239 0 -0.042045674138381881 0.021906530144931727 0 -0.042027872482984903 0.02179431856421369 0 -0.041957558253353802 0.021661888548958792 0 -0.042260055178677501 0.021769709657058239 0 -0.042027872482984903 0.02179431856421369 0 -0.042045674138381881 0.021906530144931727 0 -0.041847707469280279 0.021841296972890761 0 -0.042027872482984903 0.02179431856421369 0 -0.042403652315294596 0.021619371192632381 0 -0.042508533903420125 0.021610266274144436 0 -0.042560359505348311 0.021698050594633329 0 -0.042403652315294596 0.021619371192632381 0 -0.042508533903420125 0.021610266274144436 0 -0.042429779400401366 0.021531894875813362 0 -0.042550549162023409 0.021645254727932071 0 -0.042560359505348311 0.021698050594633329 0 -0.042561910992696003 0.021670252123065718 0 -0.042550549162023409 0.021645254727932071 0 -0.042552398157439837 0.021683747636401646 0 -0.042525750930040761 0.021565109390846826 0 -0.042508533903420125 0.021610266274144436 0 -0.042550549162023409 0.021645254727932071 0 -0.042560359505348311 0.021698050594633329 0 -0.042508533903420125 0.021610266274144436 0 -0.042550549162023409 0.021645254727932071 0 -0.042525750930040761 0.021565109390846826 0 -0.042585162411009299 0.021628689697057897 0 -0.042560359505348311 0.021698050594633329 0 -0.042561910992696003 0.021670252123065718 0 -0.042550549162023409 0.021645254727932071 0 -0.042561910992696003 0.021670252123065718 0 -0.042552398157439837 0.021683747636401646 0 -0.04244419848976725 0.021747649942276855 0 -0.042561910992696003 0.021670252123065718 0 -0.042552398157439837 0.021683747636401646 0 -0.042552398157439837 0.021683747636401646 0 -0.042525750930040761 0.021565109390846826 0 -0.042549302561795788 0.021398975879757143 0 -0.042452257062194056 0.021894401393198697 0 -0.042552398157439837 0.021683747636401646 0 -0.042746516865843104 0.022037858699424366 0 -0.042452257062194056 0.021894401393198697 0 -0.042746516865843104 0.022037858699424366 0 -0.042307270716315175 0.02207603418688131 0 -0.041883113693372886 0.016642988928550373 0 -0.041472290658312275 0.015781474828085246 0 -0.042525750930040761 0.021565109390846826 0 -0.042492208743464766 0.021458274673682512 0 -0.042549302561795788 0.021398975879757143 0 -0.041437516289689814 0.015869491478296142 0 -0.041472290658312275 0.015781474828085246 0 -0.042324961632621567 0.021430809540829744 0 -0.042403652315294596 0.021619371192632381 0 -0.042429779400401366 0.021531894875813362 0 -0.042324961632621567 0.021430809540829744 0 -0.042492208743464766 0.021458274673682512 0 -0.042463839533395879 0.0212643353155395 0 -0.042490249538139381 0.021541550754581005 0 -0.042492208743464766 0.021458274673682512 0 -0.042429779400401366 0.021531894875813362 0 -0.042508533903420125 0.021610266274144436 0 -0.042490249538139381 0.021541550754581005 0 -0.042429779400401366 0.021531894875813362 0 -0.042508533903420125 0.021610266274144436 0 -0.042525750930040761 0.021565109390846826 0 -0.042490249538139381 0.021541550754581005 0 -0.042525750930040761 0.021565109390846826 0 -0.042490249538139381 0.021541550754581005 0 -0.042492208743464766 0.021458274673682512 0 -0.042324961632621567 0.021430809540829744 0 -0.042492208743464766 0.021458274673682512 0 -0.042429779400401366 0.021531894875813362 0 -0.041201399463762736 0.016507343249632943 0 -0.041852660481023214 0.014519604059355406 0 -0.043080619632221505 0.020229849957538459 0 -0.042968256573578903 0.019310066669664769 0 -0.043963677278749148 0.01902330074585637 0 -0.042492208743464766 0.021458274673682512 0 -0.042463839533395879 0.0212643353155395 0 -0.042540615030483231 0.021391767303835189 0 -0.042968256573578903 0.019310066669664769 0 -0.042929173342239196 0.018613914895289928 0 -0.043963677278749148 0.01902330074585637 0 -0.041852660481023214 0.014519604059355406 0 -0.041472290658312275 0.015781474828085246 0 -0.041472290658312275 0.015781474828085246 0 -0.039537176781541207 0.014526941430848579 0 -0.042521237093167984 0.0099962172470246958 0 -0.04346938135564573 0.011546423242778917 0 -0.045624127713122915 0.0086345699528099906 0 -0.042746516865843104 0.022037858699424366 0 -0.042307270716315175 0.02207603418688131 0 -0.042397428831888039 0.022471817841034827 0 -0.041852660481023214 0.014519604059355406 0 -0.043838355012347369 0.011189824098556459 0 -0.042521237093167984 0.0099962172470246958 0 -0.044546577295520598 0.0072493351318186853 0 -0.045624127713122915 0.0086345699528099906 0 -0.043289487739458656 0.008996292210726814 0 -0.044937194053922415 0.006756816321316938 0 -0.04341364675045345 0.0061037248806761705 0 -0.042929173342239196 0.018613914895289928 0 -0.043963677278749148 0.01902330074585637 0 -0.043120680436140202 0.017645682279850784 0 -0.043289487739458656 0.008996292210726814 0 -0.04341364675045345 0.0061037248806761705 0 -0.041831669677816014 0.0066023965453862717 0 -0.041852660481023214 0.014519604059355406 0 -0.04145568102520248 0.012775982251299478 0 -0.042045674138381881 0.021906530144931727 0 -0.041942401150546926 0.022366171887936572 0 -0.042307270716315175 0.02207603418688131 0 -0.042045674138381881 0.021906530144931727 0 -0.041942401150546926 0.022366171887936572 0 -0.041733443641933654 0.022046022970511579 0 -0.041942401150546926 0.022366171887936572 0 -0.042307270716315175 0.02207603418688131 0 -0.042397428831888039 0.022471817841034827 0 -0.039537176781541207 0.014526941430848579 0 -0.036259400098804961 0.013918801499594667 0 -0.041942401150546926 0.022366171887936572 0 -0.042397428831888039 0.022471817841034827 0 -0.042035559379451318 0.022894462588707601 0 -0.044546577295520598 0.0072493351318186853 0 -0.045624127713122915 0.0086345699528099906 0 -0.047702354286736352 0.0057472752362807767 0 -0.041942401150546926 0.022366171887936572 0 -0.041600328329104451 0.022816253930932374 0 -0.042035559379451318 0.022894462588707601 0 -0.028648424446245158 0.022991797525053755 0 -0.029338711007898602 0.020453569456677059 0 -0.012350336476423073 0.026907685580906466 0 -0.01216719186115341 0.027178698728540417 0 -0.012098335140261401 0.02674688638662779 0 -0.041942401150546926 0.022366171887936572 0 -0.041488928267304104 0.022316308555433605 0 -0.041600328329104451 0.022816253930932374 0 -0.012350336476423073 0.026907685580906466 0 -0.012443323017852231 0.027125948567171942 0 -0.01216719186115341 0.027178698728540417 0 -0.012350336476423073 0.026907685580906466 0 -0.012443323017852231 0.027125948567171942 0 -0.012534125011845429 0.026871698824048523 0 -0.012443323017852231 0.027125948567171942 0 -0.012408113801615304 0.027352841870397111 0 -0.01216719186115341 0.027178698728540417 0 -0.012408113801615304 0.027352841870397111 0 -0.01216719186115341 0.027178698728540417 0 -0.012265858500202688 0.027598803476206427 0 -0.012443323017852231 0.027125948567171942 0 -0.012408113801615304 0.027352841870397111 0 -0.012576787685974701 0.027282586174698129 0 -0.041942401150546926 0.022366171887936572 0 -0.041488928267304104 0.022316308555433605 0 -0.041733443641933654 0.022046022970511579 0 -0.041488928267304104 0.022316308555433605 0 -0.041733443641933654 0.022046022970511579 0 -0.041352075579195402 0.021787216731572263 0 -0.028648424446245158 0.022991797525053755 0 -0.028093692352919999 0.024586379224985199 0 -0.035194574951065954 0.023143686515875544 0 -0.028093692352919999 0.024586379224985199 0 -0.041847707469280279 0.021841296972890761 0 -0.041733443641933654 0.022046022970511579 0 -0.041352075579195402 0.021787216731572263 0 -0.041957558253353802 0.021661888548958792 0 -0.041847707469280279 0.021841296972890761 0 -0.041352075579195402 0.021787216731572263 0 -0.042088936636999766 0.021855121713220464 0 -0.041242556489031461 0.022030803299648846 0 -0.041225621031356331 0.021948272051066309 0 -0.012408113801615304 0.027352841870397111 0 -0.012458132712572493 0.027561409318988307 0 -0.012265858500202688 0.027598803476206427 0 -0.012408113801615304 0.027352841870397111 0 -0.012458132712572493 0.027561409318988307 0 -0.012583049387481386 0.027543201759175014 0 -0.025627854454509966 0.025446102594584959 0 -0.027897745732593102 0.025105846224870904 0 -0.01286612508704299 0.02760547039162433 0 -0.012823778359376514 0.027628744255812392 0 -0.012864626149633466 0.027667280981928586 0 -0.026599312500838034 0.024726165193292349 0 -0.028400463659430171 0.024359679743289796 0 -0.028316035857071008 0.023978320284076923 0 -0.025627854454509966 0.025446102594584959 0 -0.028093692352919999 0.024586379224985199 0 -0.028093692352919999 0.024586379224985199 0 -0.027897745732593102 0.025105846224870904 0 -0.027897745732593102 0.025105846224870904 0 -0.025251743858428089 0.027413654420566043 0 -0.012823778359376514 0.027628744255812392 0 -0.012864626149633466 0.027667280981928586 0 -0.01283511342673917 0.027711329271255584 0 -0.031606312144648596 0.030387156350708946 0 -0.031352485653042522 0.029238156875007235 0 -0.03232904642949775 0.029484543356188202 0 -0.012879368715806685 0.027733474000773091 0 -0.012864626149633466 0.027667280981928586 0 -0.01283511342673917 0.027711329271255584 0 -0.033380296261999988 0.029640803350534421 0 -0.031606312144648596 0.030387156350708946 0 -0.03232904642949775 0.029484543356188202 0 -0.042084997781474141 0.021667058045017947 0 -0.042088936636999766 0.021855121713220464 0 -0.041225621031356331 0.021948272051066309 0 -0.033475310918146289 0.024498195788273173 0 -0.027897745732593102 0.025105846224870904 0 -0.032379556614564764 0.028905977988073171 0 -0.032907858746229764 0.029309165866912457 0 -0.03232904642949775 0.029484543356188202 0 -0.012922847248758973 0.0276363224721425 0 -0.01299291035792992 0.027666780107578868 0 -0.012949732501508169 0.027713028174180754 0 -0.013015434628959453 0.02776550604892775 0 -0.01299291035792992 0.027666780107578868 0 -0.012949732501508169 0.027713028174180754 0 -0.012922847248758973 0.0276363224721425 0 -0.012949732501508169 0.027713028174180754 0 -0.012900875088041859 0.027689343084065701 0 -0.012879368715806685 0.027733474000773091 0 -0.012864626149633466 0.027667280981928586 0 -0.012900875088041859 0.027689343084065701 0 -0.01286612508704299 0.02760547039162433 0 -0.012864626149633466 0.027667280981928586 0 -0.012888644230464248 0.027637788426156974 0 -0.012864626149633466 0.027667280981928586 0 -0.012900875088041859 0.027689343084065701 0 -0.012888644230464248 0.027637788426156974 0 -0.012922847248758973 0.0276363224721425 0 -0.012900875088041859 0.027689343084065701 0 -0.012888644230464248 0.027637788426156974 0 -0.012922847248758973 0.0276363224721425 0 -0.012888644230464248 0.027637788426156974 0 -0.012890082329159799 0.027594629217461714 0 -0.025627854454509966 0.025446102594584959 0 -0.023641065784976 0.025827104534065753 0 -0.01286612508704299 0.02760547039162433 0 -0.012888644230464248 0.027637788426156974 0 -0.012890082329159799 0.027594629217461714 0 -0.023641065784976 0.025827104534065753 0 -0.021719793830237009 0.026194184518987303 0 -0.012922847248758973 0.0276363224721425 0 -0.012890082329159799 0.027594629217461714 0 -0.01293887651403077 0.02751621957874759 0 -0.012922847248758973 0.0276363224721425 0 -0.01299291035792992 0.027666780107578868 0 -0.01293887651403077 0.02751621957874759 0 -0.012583049387481386 0.027543201759175014 0 -0.01293887651403077 0.02751621957874759 0 -0.012776586281161658 0.027279557684659728 0 -0.01293887651403077 0.02751621957874759 0 -0.012776586281161658 0.027279557684659728 0 -0.012922848220200442 0.02720234776215897 0 -0.012776586281161658 0.027279557684659728 0 -0.012922848220200442 0.02720234776215897 0 -0.012684257359639805 0.027104365686339105 0 -0.012443323017852231 0.027125948567171942 0 -0.012576787685974701 0.027282586174698129 0 -0.012684257359639805 0.027104365686339105 0 -0.012583049387481386 0.027543201759175014 0 -0.012776586281161658 0.027279557684659728 0 -0.012576787685974701 0.027282586174698129 0 -0.012408113801615304 0.027352841870397111 0 -0.012583049387481386 0.027543201759175014 0 -0.012576787685974701 0.027282586174698129 0 -0.012776586281161658 0.027279557684659728 0 -0.012576787685974701 0.027282586174698129 0 -0.012684257359639805 0.027104365686339105 0 -0.012443323017852231 0.027125948567171942 0 -0.012684257359639805 0.027104365686339105 0 -0.012534125011845429 0.026871698824048523 0 -0.012684257359639805 0.027104365686339105 0 -0.012534125011845429 0.026871698824048523 0 -0.012760978331588717 0.02680708049851234 0 -0.013018991330343604 0.026922766750265326 0 -0.012922848220200442 0.02720234776215897 0 -0.012760978331588717 0.02680708049851234 0 -0.012922848220200442 0.02720234776215897 0 -0.012684257359639805 0.027104365686339105 0 -0.012760978331588717 0.02680708049851234 0 -0.013018991330343604 0.026922766750265326 0 -0.012760978331588717 0.02680708049851234 0 -0.012875724169503047 0.026562142359617139 0 -0.012760978331588717 0.02680708049851234 0 -0.012706439860636128 0.026464271779950477 0 -0.012875724169503047 0.026562142359617139 0 -0.012760978331588717 0.02680708049851234 0 -0.012568906340963949 0.026607036768814075 0 -0.012706439860636128 0.026464271779950477 0 -0.012534125011845429 0.026871698824048523 0 -0.012760978331588717 0.02680708049851234 0 -0.012568906340963949 0.026607036768814075 0 -0.012534125011845429 0.026871698824048523 0 -0.012568906340963949 0.026607036768814075 0 -0.012384662198977025 0.026687124916770055 0 -0.012564709706425731 0.026443556284418513 0 -0.012680691385521119 0.026316215264984611 0 -0.012485849654093923 0.02637422455672183 0 -0.012568906340963949 0.026607036768814075 0 -0.012564709706425731 0.026443556284418513 0 -0.012706439860636128 0.026464271779950477 0 -0.012564709706425731 0.026443556284418513 0 -0.012706439860636128 0.026464271779950477 0 -0.012680691385521119 0.026316215264984611 0 -0.012706439860636128 0.026464271779950477 0 -0.01283681362679456 0.026386504226707061 0 -0.012875724169503047 0.026562142359617139 0 -0.012706439860636128 0.026464271779950477 0 -0.01283681362679456 0.026386504226707061 0 -0.012680691385521119 0.026316215264984611 0 -0.01452946591287463 0.026846868090946985 0 -0.015765668056860773 0.025872660829984132 0 -0.015603188968674842 0.028123697890501884 0 -0.018620763772048788 0.019344629397920823 0 -0.017513899187667038 0.019780561209065382 0 -0.01283681362679456 0.026386504226707061 0 -0.012680691385521119 0.026316215264984611 0 -0.012994408415725051 0.026212965593699268 0 -0.01452946591287463 0.026846868090946985 0 -0.015765668056860773 0.025872660829984132 0 -0.013503597865862386 0.026296901259351919 0 -0.015765668056860773 0.025872660829984132 0 -0.013503597865862386 0.026296901259351919 0 -0.012994408415725051 0.026212965593699268 0 -0.01452946591287463 0.026846868090946985 0 -0.015603188968674842 0.028123697890501884 0 -0.01294082924227951 0.026914235260011424 0 -0.020483535105871011 0.016275379688343965 0 -0.018308129614805432 0.018412710377298538 0 -0.018620763772048788 0.019344629397920823 0 -0.022110703426662451 0.017985311813482344 0 -0.015765668056860773 0.025872660829984132 0 -0.017930735415269492 0.026749421990194037 0 -0.018766254900230071 0.025672282470944406 0 -0.015765668056860773 0.025872660829984132 0 -0.017930735415269492 0.026749421990194037 0 -0.017494847790634739 0.027739612926681936 0 -0.015765668056860773 0.025872660829984132 0 -0.017494847790634739 0.027739612926681936 0 -0.015603188968674842 0.028123697890501884 0 -0.020483535105871011 0.016275379688343965 0 -0.024136400006618021 0.01405868432359754 0 -0.017053627263224538 0.011735463954379584 0 -0.017250422327467933 0.011821594491501297 0 -0.017079896883634763 0.011852879966033632 0 -0.017494847790634739 0.027739612926681936 0 -0.015603188968674842 0.028123697890501884 0 -0.018439269592272739 0.029414438175422584 0 -0.017053627263224538 0.011735463954379584 0 -0.01686778353261284 0.011658466739031788 0 -0.016929275787738823 0.011785613851917315 0 -0.017053627263224538 0.011735463954379584 0 -0.016999406638203474 0.011830974550191975 0 -0.017079896883634763 0.011852879966033632 0 -0.017053627263224538 0.011735463954379584 0 -0.016999406638203474 0.011830974550191975 0 -0.016929275787738823 0.011785613851917315 0 -0.016999406638203474 0.011830974550191975 0 -0.016929275787738823 0.011785613851917315 0 -0.016929766568535301 0.011856506861598146 0 -0.029583860455168996 0.0091239589596441174 0 -0.028096661775490216 0.0083862902552812191 0 -0.029050067057405867 0.0079274516124175371 0 -0.029583860455168996 0.0091239589596441174 0 -0.029050067057405867 0.0079274516124175371 0 -0.029942432875116814 0.0078213013916106459 0 -0.029583860455168996 0.0091239589596441174 0 -0.028096661775490216 0.0083862902552812191 0 -0.028066851828316263 0.0099332164476630021 0 -0.028096661775490216 0.0083862902552812191 0 -0.028066851828316263 0.0099332164476630021 0 -0.027026081984209999 0.0091721926134518371 0 -0.028096661775490216 0.0083862902552812191 0 -0.028327019077600143 0.0072393552872922875 0 -0.02653327340831154 0.0069276615113323297 0 -0.028096661775490216 0.0083862902552812191 0 -0.028327019077600143 0.0072393552872922875 0 -0.029050067057405867 0.0079274516124175371 0 -0.028327019077600143 0.0072393552872922875 0 -0.029050067057405867 0.0079274516124175371 0 -0.029262394518817545 0.0069280547617419667 0 -0.029050067057405867 0.0079274516124175371 0 -0.029856508386825503 0.0073913226441419261 0 -0.029942432875116814 0.0078213013916106459 0 -0.029262394518817545 0.0069280547617419667 0 -0.029856508386825503 0.0073913226441419261 0 -0.030031965219984698 0.0068187966790969291 0 -0.029050067057405867 0.0079274516124175371 0 -0.029262394518817545 0.0069280547617419667 0 -0.029856508386825503 0.0073913226441419261 0 -0.026436311976892227 0.015207854412350388 0 -0.024412521664675738 0.013874859915111261 0 -0.029583860455168996 0.0091239589596441174 0 -0.029942432875116814 0.0078213013916106459 0 -0.031280859495246192 0.0068428676809922694 0 -0.029856508386825503 0.0073913226441419261 0 -0.029942432875116814 0.0078213013916106459 0 -0.031280859495246192 0.0068428676809922694 0 -0.029856508386825503 0.0073913226441419261 0 -0.031280859495246192 0.0068428676809922694 0 -0.030031965219984698 0.0068187966790969291 0 -0.024136400006618021 0.01405868432359754 0 -0.023627739815372265 0.014863139933009731 0 -0.018439269592272739 0.029414438175422584 0 -0.01846092148597062 0.02823911401380803 0 -0.019398708789656886 0.028149938073857197 0 -0.018479995698815605 0.029344195142409588 0 -0.019398708789656886 0.028149938073857197 0 -0.018770125487196698 0.029480626353116303 0 -0.024136400006618021 0.01405868432359754 0 -0.024412521664675738 0.013874859915111261 0 -0.017494847790634739 0.027739612926681936 0 -0.018439269592272739 0.029414438175422584 0 -0.01846092148597062 0.02823911401380803 0 -0.018512573597220666 0.027653955920773271 0 -0.019398708789656886 0.028149938073857197 0 -0.019133341427934943 0.027078366632916965 0 -0.01846092148597062 0.02823911401380803 0 -0.018512573597220666 0.027653955920773271 0 -0.019398708789656886 0.028149938073857197 0 -0.017494847790634739 0.027739612926681936 0 -0.01846092148597062 0.02823911401380803 0 -0.018512573597220666 0.027653955920773271 0 -0.02024129699994719 0.027552951602473969 0 -0.019398708789656886 0.028149938073857197 0 -0.018770125487196698 0.029480626353116303 0 -0.02024129699994719 0.027552951602473969 0 -0.019398708789656886 0.028149938073857197 0 -0.019133341427934943 0.027078366632916965 0 -0.02024129699994719 0.027552951602473969 0 -0.019133341427934943 0.027078366632916965 0 -0.019701909488860161 0.026676261454890927 0 -0.019133341427934943 0.027078366632916965 0 -0.019701909488860161 0.026676261454890927 0 -0.018766254900230071 0.025672282470944406 0 -0.02024129699994719 0.027552951602473969 0 -0.019701909488860161 0.026676261454890927 0 -0.020271059943369772 0.026226894030279498 0 -0.017930735415269492 0.026749421990194037 0 -0.019133341427934943 0.027078366632916965 0 -0.018766254900230071 0.025672282470944406 0 -0.017930735415269492 0.026749421990194037 0 -0.018512573597220666 0.027653955920773271 0 -0.019133341427934943 0.027078366632916965 0 -0.017930735415269492 0.026749421990194037 0 -0.017494847790634739 0.027739612926681936 0 -0.018512573597220666 0.027653955920773271 0 -0.019701909488860161 0.026676261454890927 0 -0.018766254900230071 0.025672282470944406 0 -0.020271059943369772 0.026226894030279498 0 -0.022110703426662451 0.017985311813482344 0 -0.029163480163425789 0.015502524262598608 0 -0.018766254900230071 0.025672282470944406 0 -0.020271059943369772 0.026226894030279498 0 -0.021770318846498965 0.025524962035811748 0 -0.02024129699994719 0.027552951602473969 0 -0.020271059943369772 0.026226894030279498 0 -0.021770318846498965 0.025524962035811748 0 -0.026436311976892227 0.015207854412350388 0 -0.029163480163425789 0.015502524262598608 0 -0.028066851828316263 0.0099332164476630021 0 -0.027525194007775824 0.011422951483687362 0 -0.027026081984209999 0.0091721926134518371 0 -0.029583860455168996 0.0091239589596441174 0 -0.028066851828316263 0.0099332164476630021 0 -0.027894187243855954 0.011406492136405204 0 -0.028066851828316263 0.0099332164476630021 0 -0.027894187243855954 0.011406492136405204 0 -0.027525194007775824 0.011422951483687362 0 -0.029163480163425789 0.015502524262598608 0 -0.030130914023169718 0.015012655604317755 0 -0.035897411172431809 0.01059684801016166 0 -0.02946836175655335 0.01088107806260603 0 -0.030916620505594242 0.017161022756476782 0 -0.029997903244664986 0.015350822161357745 0 -0.029338711007898602 0.020453569456677059 0 -0.012416165497836414 0.026376679950940243 0 -0.01241220722158385 0.026383802633291372 0 -0.01245315869062091 0.026443198245475613 0 -0.029997903244664986 0.015350822161357745 0 -0.025224603373262652 0.01563725844347694 0 -0.012046632803866961 0.026347006459163082 0 -0.012307282140918975 0.026487549385549682 0 -0.012098335140261401 0.02674688638662779 0 -0.030130914023169718 0.015012655604317755 0 -0.029997903244664986 0.015350822161357745 0 -0.029163480163425789 0.015502524262598608 0 -0.029997903244664986 0.015350822161357745 0 -0.023820572672338596 0.015790852318592192 0 -0.025224603373262652 0.01563725844347694 0 -0.012564709706425731 0.026443556284418513 0 -0.012485849654093923 0.02637422455672183 0 -0.01245315869062091 0.026443198245475613 0 -0.012568906340963949 0.026607036768814075 0 -0.012564709706425731 0.026443556284418513 0 -0.01245315869062091 0.026443198245475613 0 -0.012485849654093923 0.02637422455672183 0 -0.012416165497836414 0.026376679950940243 0 -0.01245315869062091 0.026443198245475613 0 -0.012568906340963949 0.026607036768814075 0 -0.012307282140918975 0.026487549385549682 0 -0.012384662198977025 0.026687124916770055 0 -0.012350336476423073 0.026907685580906466 0 -0.012384662198977025 0.026687124916770055 0 -0.012098335140261401 0.02674688638662779 0 -0.012307282140918975 0.026487549385549682 0 -0.012384662198977025 0.026687124916770055 0 -0.012098335140261401 0.02674688638662779 0 -0.012350336476423073 0.026907685580906466 0 -0.012534125011845429 0.026871698824048523 0 -0.012384662198977025 0.026687124916770055 0 -0.041692411312246179 0.023299941299585264 0 -0.041600328329104451 0.022816253930932374 0 -0.042035559379451318 0.022894462588707601 0 -0.043838355012347369 0.011189824098556459 0 -0.044581469975771372 0.0099802359606506099 0 -0.044546577295520598 0.0072493351318186853 0 -0.047702354286736352 0.0057472752362807767 0 -0.046560985076582455 0.0045759856850768601 0 -0.047702354286736352 0.0057472752362807767 0 -0.046560985076582455 0.0045759856850768601 0 -0.047828104172655685 0.003758123343055207 0 -0.046560985076582455 0.0045759856850768601 0 -0.045680247200418127 0.0034178474251275975 0 -0.045128048934020892 0.0041932695576699566 0 -0.046560985076582455 0.0045759856850768601 0 -0.045680247200418127 0.0034178474251275975 0 -0.046524845203323548 0.003241036840595052 0 -0.045680247200418127 0.0034178474251275975 0 -0.046524845203323548 0.003241036840595052 0 -0.045463825841233374 0.0025170608108921731 0 -0.046524845203323548 0.003241036840595052 0 -0.047828104172655685 0.003758123343055207 0 -0.04781474978118317 0.0029642417901376448 0 -0.046560985076582455 0.0045759856850768601 0 -0.046524845203323548 0.003241036840595052 0 -0.047828104172655685 0.003758123343055207 0 -0.049493949167873974 0.0031703590405246038 0 -0.047702354286736352 0.0057472752362807767 0 -0.047828104172655685 0.003758123343055207 0 -0.029997903244664986 0.015350822161357745 0 -0.036259400098804961 0.013918801499594667 0 -0.047828104172655685 0.003758123343055207 0 -0.048906258884749823 0.0029080577420983415 0 -0.04781474978118317 0.0029642417901376448 0 -0.049493949167873974 0.0031703590405246038 0 -0.047828104172655685 0.003758123343055207 0 -0.048906258884749823 0.0029080577420983415 0 -0.029997903244664986 0.015350822161357745 0 -0.031143958921471919 0.014614626700207111 0 -0.042401513462081895 0.0051477308553475052 0 -0.04341364675045345 0.0061037248806761705 0 -0.041831669677816014 0.0066023965453862717 0 -0.042401513462081895 0.0051477308553475052 0 -0.04341364675045345 0.0061037248806761705 0 -0.043781710761182327 0.0044975966009788539 0 -0.044937194053922415 0.006756816321316938 0 -0.046560985076582455 0.0045759856850768601 0 -0.044769885752941628 0.0052246231902624224 0 -0.04341364675045345 0.0061037248806761705 0 -0.044769885752941628 0.0052246231902624224 0 -0.043781710761182327 0.0044975966009788539 0 -0.044937194053922415 0.006756816321316938 0 -0.04341364675045345 0.0061037248806761705 0 -0.044769885752941628 0.0052246231902624224 0 -0.046560985076582455 0.0045759856850768601 0 -0.044769885752941628 0.0052246231902624224 0 -0.045128048934020892 0.0041932695576699566 0 -0.045680247200418127 0.0034178474251275975 0 -0.044584229538698436 0.0032512182230788108 0 -0.045463825841233374 0.0025170608108921731 0 -0.045680247200418127 0.0034178474251275975 0 -0.045128048934020892 0.0041932695576699566 0 -0.044584229538698436 0.0032512182230788108 0 -0.044584229538698436 0.0032512182230788108 0 -0.043345630850747038 0.0035606766646317351 0 -0.043644675025557744 0.0026790191018879026 0 -0.044584229538698436 0.0032512182230788108 0 -0.043781710761182327 0.0044975966009788539 0 -0.043345630850747038 0.0035606766646317351 0 -0.045128048934020892 0.0041932695576699566 0 -0.044584229538698436 0.0032512182230788108 0 -0.043781710761182327 0.0044975966009788539 0 -0.044769885752941628 0.0052246231902624224 0 -0.045128048934020892 0.0041932695576699566 0 -0.043781710761182327 0.0044975966009788539 0 -0.043781710761182327 0.0044975966009788539 0 -0.043345630850747038 0.0035606766646317351 0 -0.042451287547505184 0.0039977737338040067 0 -0.043345630850747038 0.0035606766646317351 0 -0.042451287547505184 0.0039977737338040067 0 -0.042397471015037803 0.0027358392369272217 0 -0.042451287547505184 0.0039977737338040067 0 -0.042397471015037803 0.0027358392369272217 0 -0.041319344321838702 0.0033785010087893749 0 -0.042401513462081895 0.0051477308553475052 0 -0.042451287547505184 0.0039977737338040067 0 -0.041865659809630515 0.0043818176281542574 0 -0.042401513462081895 0.0051477308553475052 0 -0.043781710761182327 0.0044975966009788539 0 -0.042451287547505184 0.0039977737338040067 0 -0.042397471015037803 0.0027358392369272217 0 -0.04310880358485128 0.0015421783015418557 0 -0.041873525809818173 0.0013761812908176325 0 -0.043345630850747038 0.0035606766646317351 0 -0.042397471015037803 0.0027358392369272217 0 -0.043644675025557744 0.0026790191018879026 0 -0.043644675025557744 0.0026790191018879026 0 -0.04310880358485128 0.0015421783015418557 0 -0.044534349337544528 0.002065847780833345 0 -0.042397471015037803 0.0027358392369272217 0 -0.043644675025557744 0.0026790191018879026 0 -0.04310880358485128 0.0015421783015418557 0 -0.037132323346700212 0.0076881157762443558 0 -0.035896030940371727 0.0096633391543046853 0 -0.044534349337544528 0.002065847780833345 0 -0.04413019733786757 0.00067332347680227798 0 -0.046268020399934731 0.0017224026451140221 0 -0.04310880358485128 0.0015421783015418557 0 -0.044534349337544528 0.002065847780833345 0 -0.04413019733786757 0.00067332347680227798 0 -0.044584229538698436 0.0032512182230788108 0 -0.043644675025557744 0.0026790191018879026 0 -0.044534349337544528 0.002065847780833345 0 -0.044534349337544528 0.002065847780833345 0 -0.045463825841233374 0.0025170608108921731 0 -0.046268020399934731 0.0017224026451140221 0 -0.044584229538698436 0.0032512182230788108 0 -0.044534349337544528 0.002065847780833345 0 -0.045463825841233374 0.0025170608108921731 0 -0.040840840210627019 -0.0019363998606413192 0 -0.040588073155158159 -0.0018684021452929857 0 -0.040984640883008128 -0.001681802403808658 0 -0.040840840210627019 -0.0019363998606413192 0 -0.040704543901382825 -0.0021261022293035995 0 -0.041007493229396626 -0.0021667624263734695 0 -0.040840840210627019 -0.0019363998606413192 0 -0.040704543901382825 -0.0021261022293035995 0 -0.040588073155158159 -0.0018684021452929857 0 -0.04310880358485128 0.0015421783015418557 0 -0.041873525809818173 0.0013761812908176325 0 -0.041970787461390803 -0.00048579573054179938 0 -0.040704543901382825 -0.0021261022293035995 0 -0.040588073155158159 -0.0018684021452929857 0 -0.040208798725401174 -0.0019261708443158658 0 -0.037132323346700212 0.0076881157762443558 0 -0.037443621535356561 0.0064060624928937784 0 -0.04310880358485128 0.0015421783015418557 0 -0.04413019733786757 0.00067332347680227798 0 -0.041970787461390803 -0.00048579573054179938 0 -0.031143958921471919 0.014614626700207111 0 -0.035896030940371727 0.0096633391543046853 0 -0.031230796302881305 0.012175148017424753 0 -0.030986362197938131 0.012058032188533005 0 -0.03124230787486712 0.012002993739557755 0 -0.04884988148101771 0.0029219589667141919 0 -0.04781474978118317 0.0029642417901376448 0 -0.046237388873460232 0.0017440671452451527 0 -0.030130914023169718 0.015012655604317755 0 -0.031907945202095965 0.011046486986448348 0 -0.031277645930557534 0.012173783488811929 0 -0.031230796302881305 0.012175148017424753 0 -0.03124230787486712 0.012002993739557755 0 -0.030130914023169718 0.015012655604317755 0 -0.031143958921471919 0.014614626700207111 0 -0.029839057419163505 0.01396192603046025 0 -0.030044749129087393 0.014855869372057502 0 -0.028243189771630723 0.014032153039344559 0 -0.031143958921471919 0.014614626700207111 0 -0.031806347014079125 0.01447943436635743 0 -0.046524845203323548 0.003241036840595052 0 -0.04781474978118317 0.0029642417901376448 0 -0.046237388873460232 0.0017440671452451527 0 -0.046524845203323548 0.003241036840595052 0 -0.045463825841233374 0.0025170608108921731 0 -0.046237388873460232 0.0017440671452451527 0 -0.036291223743034985 0.0092987028516797118 0 -0.035896030940371727 0.0096633391543046853 0 -0.040840840210627019 -0.0019363998606413192 0 -0.040984640883008128 -0.001681802403808658 0 -0.041007493229396626 -0.0021667624263734695 0 -0.035896030940371727 0.0096633391543046853 0 -0.033884241235231802 0.0072891687289869537 0 -0.040984640883008128 -0.001681802403808658 0 -0.041007493229396626 -0.0021667624263734695 0 -0.041482212173754057 -0.0021868373193361314 0 -0.030986362197938131 0.012058032188533005 0 -0.03124230787486712 0.012002993739557755 0 -0.03120670568455779 0.011833056105467256 0 -0.031907945202095965 0.011046486986448348 0 -0.033884241235231802 0.0072891687289869537 0 -0.028096661775490216 0.0083862902552812191 0 -0.027026081984209999 0.0091721926134518371 0 -0.02653327340831154 0.0069276615113323297 0 -0.041482212173754057 -0.0021868373193361314 0 -0.041154727080692018 -0.002458536494887253 0 -0.041255920898962677 -0.0028657032732807928 0 -0.041200006143462441 -0.0030908367178157929 0 -0.0411699434465067 -0.002990002344848074 0 -0.041255920898962677 -0.0028657032732807928 0 -0.033884241235231802 0.0072891687289869537 0 -0.034023088643626097 0.0057146315985881317 0 -0.041007493229396626 -0.0021667624263734695 0 -0.041482212173754057 -0.0021868373193361314 0 -0.041154727080692018 -0.002458536494887253 0 -0.040955357794667718 -0.0025731282746980981 0 -0.041154727080692018 -0.002458536494887253 0 -0.041255920898962677 -0.0028657032732807928 0 -0.040704543901382825 -0.0021261022293035995 0 -0.041007493229396626 -0.0021667624263734695 0 -0.040955357794667718 -0.0025731282746980981 0 -0.041007493229396626 -0.0021667624263734695 0 -0.040955357794667718 -0.0025731282746980981 0 -0.041154727080692018 -0.002458536494887253 0 -0.040955357794667718 -0.0025731282746980981 0 -0.040970022071551523 -0.002876407115288505 0 -0.041204725333643312 -0.0029713050811390465 0 -0.040955357794667718 -0.0025731282746980981 0 -0.041255920898962677 -0.0028657032732807928 0 -0.041204725333643312 -0.0029713050811390465 0 -0.041255920898962677 -0.0028657032732807928 0 -0.041204725333643312 -0.0029713050811390465 0 -0.041164294545987148 -0.0030299621626715132 0 -0.0411699434465067 -0.002990002344848074 0 -0.041255920898962677 -0.0028657032732807928 0 -0.041164294545987148 -0.0030299621626715132 0 -0.040704543901382825 -0.0021261022293035995 0 -0.040594767414313421 -0.0023524381803885007 0 -0.040208798725401174 -0.0019261708443158658 0 -0.040594767414313421 -0.0023524381803885007 0 -0.040361174032208812 -0.0024377899486270264 0 -0.040208798725401174 -0.0019261708443158658 0 -0.040361174032208812 -0.0024377899486270264 0 -0.040208798725401174 -0.0019261708443158658 0 -0.040079559733525588 -0.0022995762484997956 0 -0.040704543901382825 -0.0021261022293035995 0 -0.040955357794667718 -0.0025731282746980981 0 -0.040594767414313421 -0.0023524381803885007 0 -0.040955357794667718 -0.0025731282746980981 0 -0.040594767414313421 -0.0023524381803885007 0 -0.040691930017071311 -0.0026721713100783628 0 -0.040955357794667718 -0.0025731282746980981 0 -0.040691930017071311 -0.0026721713100783628 0 -0.040970022071551523 -0.002876407115288505 0 -0.040594767414313421 -0.0023524381803885007 0 -0.040691930017071311 -0.0026721713100783628 0 -0.040361174032208812 -0.0024377899486270264 0 -0.040691930017071311 -0.0026721713100783628 0 -0.040388847072007621 -0.0027543270889738162 0 -0.040361174032208812 -0.0024377899486270264 0 -0.040388847072007621 -0.0027543270889738162 0 -0.040361174032208812 -0.0024377899486270264 0 -0.04014648878473389 -0.0025905335941556235 0 -0.040401177879451251 -0.0030123930210640046 0 -0.040714168940603965 -0.0030653855058493103 0 -0.040269694093645239 -0.0032536012256787349 0 -0.040691930017071311 -0.0026721713100783628 0 -0.040388847072007621 -0.0027543270889738162 0 -0.040714168940603965 -0.0030653855058493103 0 -0.040401177879451251 -0.0030123930210640046 0 -0.040269694093645239 -0.0032536012256787349 0 -0.04005780859528664 -0.0029119647671755184 0 -0.040388847072007621 -0.0027543270889738162 0 -0.040401177879451251 -0.0030123930210640046 0 -0.04005780859528664 -0.0029119647671755184 0 -0.040388847072007621 -0.0027543270889738162 0 -0.040401177879451251 -0.0030123930210640046 0 -0.040714168940603965 -0.0030653855058493103 0 -0.040970022071551523 -0.002876407115288505 0 -0.040714168940603965 -0.0030653855058493103 0 -0.041167324823352461 -0.0030790916964679041 0 -0.040691930017071311 -0.0026721713100783628 0 -0.040970022071551523 -0.002876407115288505 0 -0.040714168940603965 -0.0030653855058493103 0 -0.040973890978106962 -0.0032071438410286365 0 -0.040534744709724159 -0.0034204769969838227 0 -0.040864952600291278 -0.0034966665474063805 0 -0.040714168940603965 -0.0030653855058493103 0 -0.040973890978106962 -0.0032071438410286365 0 -0.041167324823352461 -0.0030790916964679041 0 -0.040714168940603965 -0.0030653855058493103 0 -0.040973890978106962 -0.0032071438410286365 0 -0.040534744709724159 -0.0034204769969838227 0 -0.040973890978106962 -0.0032071438410286365 0 -0.041321464276260919 -0.003214028283566186 0 -0.040864952600291278 -0.0034966665474063805 0 -0.040714168940603965 -0.0030653855058493103 0 -0.040534744709724159 -0.0034204769969838227 0 -0.040269694093645239 -0.0032536012256787349 0 -0.040534744709724159 -0.0034204769969838227 0 -0.040269694093645239 -0.0032536012256787349 0 -0.039981356279496519 -0.0034832212584670272 0 -0.041177850004398844 -0.0030932497010939405 0 -0.041204725333643312 -0.0029713050811390465 0 -0.041164294545987148 -0.0030299621626715132 0 -0.041237166035404761 -0.0030817704306668595 0 -0.041177850004398844 -0.0030932497010939405 0 -0.041186143099517472 -0.0031236273351937004 0 -0.041237166035404761 -0.0030817704306668595 0 -0.041177850004398844 -0.0030932497010939405 0 -0.041204725333643312 -0.0029713050811390465 0 -0.040970022071551523 -0.002876407115288505 0 -0.041204725333643312 -0.0029713050811390465 0 -0.041167324823352461 -0.0030790916964679041 0 -0.041237166035404761 -0.0030817704306668595 0 -0.041204725333643312 -0.0029713050811390465 0 -0.041167324823352461 -0.0030790916964679041 0 -0.041237166035404761 -0.0030817704306668595 0 -0.041167324823352461 -0.0030790916964679041 0 -0.041331967219259018 -0.0031348777635273484 0 -0.041167324823352461 -0.0030790916964679041 0 -0.041321464276260919 -0.003214028283566186 0 -0.041331967219259018 -0.0031348777635273484 0 -0.040973890978106962 -0.0032071438410286365 0 -0.041167324823352461 -0.0030790916964679041 0 -0.041321464276260919 -0.003214028283566186 0 -0.041321464276260919 -0.003214028283566186 0 -0.041331967219259018 -0.0031348777635273484 0 -0.041486012656862276 -0.0030489917951811926 0 -0.041237166035404761 -0.0030817704306668595 0 -0.041331967219259018 -0.0031348777635273484 0 -0.041186143099517472 -0.0031236273351937004 0 -0.041331967219259018 -0.0031348777635273484 0 -0.041203594653341398 -0.0030564116573919284 0 -0.041414596541694576 -0.0029574675360571623 0 -0.041331967219259018 -0.0031348777635273484 0 -0.041186143099517472 -0.0031236273351937004 0 -0.041203594653341398 -0.0030564116573919284 0 -0.041203594653341398 -0.0030564116573919284 0 -0.040988675291209441 -0.0031384739518462998 0 -0.04099053707698877 -0.0029789221667310267 0 -0.040988675291209441 -0.0031384739518462998 0 -0.040772287617657971 -0.0030913114266144163 0 -0.04099053707698877 -0.0029789221667310267 0 -0.041186143099517472 -0.0031236273351937004 0 -0.041203594653341398 -0.0030564116573919284 0 -0.040988675291209441 -0.0031384739518462998 0 -0.041186143099517472 -0.0031236273351937004 0 -0.040988675291209441 -0.0031384739518462998 0 -0.041071305618490303 -0.0031444920040604582 0 -0.041177850004398844 -0.0030932497010939405 0 -0.041186143099517472 -0.0031236273351937004 0 -0.041071305618490303 -0.0031444920040604582 0 -0.041071305618490303 -0.0031444920040604582 0 -0.041013924528715592 -0.0031451862418658354 0 -0.040916117693802698 -0.0031943711318386308 0 -0.040988675291209441 -0.0031384739518462998 0 -0.041071305618490303 -0.0031444920040604582 0 -0.040916117693802698 -0.0031943711318386308 0 -0.041071305618490303 -0.0031444920040604582 0 -0.041013924528715592 -0.0031451862418658354 0 -0.041164294545987148 -0.0030299621626715132 0 -0.041177850004398844 -0.0030932497010939405 0 -0.041071305618490303 -0.0031444920040604582 0 -0.041164294545987148 -0.0030299621626715132 0 -0.041013924528715592 -0.0031451862418658354 0 -0.040820484053184038 -0.0032577408318809503 0 -0.040916117693802698 -0.0031943711318386308 0 -0.040820484053184038 -0.0032577408318809503 0 -0.040916117693802698 -0.0031943711318386308 0 -0.040721247648114384 -0.003219248906536242 0 -0.040988675291209441 -0.0031384739518462998 0 -0.040916117693802698 -0.0031943711318386308 0 -0.040721247648114384 -0.003219248906536242 0 -0.040988675291209441 -0.0031384739518462998 0 -0.040721247648114384 -0.003219248906536242 0 -0.040772287617657971 -0.0030913114266144163 0 -0.040721247648114384 -0.003219248906536242 0 -0.040499050761666301 -0.0031577270321032774 0 -0.040772287617657971 -0.0030913114266144163 0 -0.040820484053184038 -0.0032577408318809503 0 -0.040721247648114384 -0.003219248906536242 0 -0.040391236285717919 -0.0032721612190082607 0 -0.040966866176791461 -0.0062395306900788804 0 -0.040288857567906532 -0.0048330458532837095 0 -0.039912354478570201 -0.0052110700176197467 0 -0.040721247648114384 -0.003219248906536242 0 -0.040391236285717919 -0.0032721612190082607 0 -0.040499050761666301 -0.0031577270321032774 0 -0.040288857567906532 -0.0048330458532837095 0 -0.039912354478570201 -0.0052110700176197467 0 -0.038746025579057992 -0.0041271485472313676 0 -0.034025648963200129 -0.0002951324887857143 0 -0.035491033430046462 -0.00077715736958954397 0 -0.035968847359555987 -0.0020299984430120111 0 -0.037183714438721219 -0.00068875876805462558 0 -0.037495931842086674 -0.0013233053745301978 0 -0.034025648963200129 -0.0002951324887857143 0 -0.035491033430046462 -0.00077715736958954397 0 -0.034877257391645614 0.00052553127008405981 0 -0.035491033430046462 -0.00077715736958954397 0 -0.036025626729715342 0.00050295311406347643 0 -0.034877257391645614 0.00052553127008405981 0 -0.026240769225911641 0.0076844014648386706 0 -0.02554795889129673 0.01014410473715021 0 -0.036025626729715342 0.00050295311406347643 0 -0.034422519465259059 0.0016777065757867852 0 -0.033865509490120516 0.0036759921654930081 0 -0.016919751621276437 0.012184965154010343 0 -0.017087732407722222 0.012011257832938676 0 -0.016937511604822927 0.012052128202631109 0 -0.036025626729715342 0.00050295311406347643 0 -0.034877257391645614 0.00052553127008405981 0 -0.034422519465259059 0.0016777065757867852 0 -0.034025648963200129 -0.0002951324887857143 0 -0.034877257391645614 0.00052553127008405981 0 -0.034422519465259059 0.0016777065757867852 0 -0.031880905150453692 0.001759767998748568 0 -0.034025648963200129 -0.0002951324887857143 0 -0.034422519465259059 0.0016777065757867852 0 -0.031880905150453692 0.001759767998748568 0 -0.034422519465259059 0.0016777065757867852 0 -0.033535768819561745 0.0025753782879365285 0 -0.036576153662865596 0.00050780641645651724 0 -0.03778746795133725 -0.0014737448679334492 0 -0.036576153662865596 0.00050780641645651724 0 -0.037183714438721219 -0.00068875876805462558 0 -0.031880905150453692 0.001759767998748568 0 -0.032847828160162414 0.0031863538780715203 0 -0.031706473785822462 0.003738006060774692 0 -0.031880905150453692 0.001759767998748568 0 -0.032847828160162414 0.0031863538780715203 0 -0.033535768819561745 0.0025753782879365285 0 -0.032847828160162414 0.0031863538780715203 0 -0.033535768819561745 0.0025753782879365285 0 -0.033865509490120516 0.0036759921654930081 0 -0.034422519465259059 0.0016777065757867852 0 -0.033535768819561745 0.0025753782879365285 0 -0.033865509490120516 0.0036759921654930081 0 -0.032847828160162414 0.0031863538780715203 0 -0.033865509490120516 0.0036759921654930081 0 -0.032999373095497227 0.0042053888831237165 0 -0.032847828160162414 0.0031863538780715203 0 -0.032999373095497227 0.0042053888831237165 0 -0.031706473785822462 0.003738006060774692 0 -0.032999373095497227 0.0042053888831237165 0 -0.031921477938341311 0.0044509431654146921 0 -0.031706473785822462 0.003738006060774692 0 -0.017087732407722222 0.012011257832938676 0 -0.016937511604822927 0.012052128202631109 0 -0.01700946001001722 0.011974126099815706 0 -0.017087732407722222 0.012011257832938676 0 -0.01700946001001722 0.011974126099815706 0 -0.017083055988505957 0.011922203692448591 0 -0.016937511604822927 0.012052128202631109 0 -0.01700946001001722 0.011974126099815706 0 -0.016937286300244093 0.011973514090306711 0 -0.016995610334928628 0.011917025926617544 0 -0.01689331312487714 0.011920726404730145 0 -0.016929766568535301 0.011856506861598146 0 -0.016937286300244093 0.011973514090306711 0 -0.016995610334928628 0.011917025926617544 0 -0.01689331312487714 0.011920726404730145 0 -0.01700946001001722 0.011974126099815706 0 -0.016937286300244093 0.011973514090306711 0 -0.016995610334928628 0.011917025926617544 0 -0.01700946001001722 0.011974126099815706 0 -0.016995610334928628 0.011917025926617544 0 -0.017083055988505957 0.011922203692448591 0 -0.016995610334928628 0.011917025926617544 0 -0.017083055988505957 0.011922203692448591 0 -0.017079896883634763 0.011852879966033632 0 -0.016995610334928628 0.011917025926617544 0 -0.016999406638203474 0.011830974550191975 0 -0.017079896883634763 0.011852879966033632 0 -0.016995610334928628 0.011917025926617544 0 -0.016999406638203474 0.011830974550191975 0 -0.016929766568535301 0.011856506861598146 0 -0.017250422327467933 0.011821594491501297 0 -0.017083055988505957 0.011922203692448591 0 -0.017079896883634763 0.011852879966033632 0 -0.024136400006618021 0.01405868432359754 0 -0.02554795889129673 0.01014410473715021 0 -0.017250422327467933 0.011821594491501297 0 -0.017087732407722222 0.012011257832938676 0 -0.017083055988505957 0.011922203692448591 0 -0.032999373095497227 0.0042053888831237165 0 -0.03115331303390061 0.0067318246226303405 0 -0.031655635357019291 0.0051479580111040476 0 -0.031287860695257262 0.0071605178648509685 0 -0.033865509490120516 0.0036759921654930081 0 -0.032999373095497227 0.0042053888831237165 0 -0.026011568852970315 0.011845977252301534 0 -0.024412521664675738 0.013874859915111261 0 -0.032999373095497227 0.0042053888831237165 0 -0.031921477938341311 0.0044509431654146921 0 -0.031655635357019291 0.0051479580111040476 0 -0.03115331303390061 0.0067318246226303405 0 -0.030956301026115709 0.0057961420063064742 0 -0.031655635357019291 0.0051479580111040476 0 -0.031287860695257262 0.0071605178648509685 0 -0.032999373095497227 0.0042053888831237165 0 -0.030943066346215489 0.0070023079594963228 0 -0.03115331303390061 0.0067318246226303405 0 -0.030956301026115709 0.0057961420063064742 0 -0.030566161015878009 0.0061254149376444586 0 -0.031321540885059319 0.0047119609324209333 0 -0.03004394689604413 0.0055117195686698369 0 -0.031706473785822462 0.003738006060774692 0 -0.030956301026115709 0.0057961420063064742 0 -0.031655635357019291 0.0051479580111040476 0 -0.03094315058304363 0.0052449676271145041 0 -0.031655635357019291 0.0051479580111040476 0 -0.03094315058304363 0.0052449676271145041 0 -0.031321540885059319 0.0047119609324209333 0 -0.031921477938341311 0.0044509431654146921 0 -0.031655635357019291 0.0051479580111040476 0 -0.031321540885059319 0.0047119609324209333 0 -0.03094315058304363 0.0052449676271145041 0 -0.031321540885059319 0.0047119609324209333 0 -0.03004394689604413 0.0055117195686698369 0 -0.03094315058304363 0.0052449676271145041 0 -0.030604132676199162 0.0055743532862727657 0 -0.03004394689604413 0.0055117195686698369 0 -0.030956301026115709 0.0057961420063064742 0 -0.03094315058304363 0.0052449676271145041 0 -0.030604132676199162 0.0055743532862727657 0 -0.030604132676199162 0.0055743532862727657 0 -0.03004394689604413 0.0055117195686698369 0 -0.03041942122875373 0.0058645963009069232 0 -0.031280859495246192 0.0068428676809922694 0 -0.030031965219984698 0.0068187966790969291 0 -0.029728963196804868 0.006113362954493138 0 -0.03115331303390061 0.0067318246226303405 0 -0.030566161015878009 0.0061254149376444586 0 -0.029728963196804868 0.006113362954493138 0 -0.03041942122875373 0.0058645963009069232 0 -0.030566161015878009 0.0061254149376444586 0 -0.029728963196804868 0.006113362954493138 0 -0.03004394689604413 0.0055117195686698369 0 -0.03041942122875373 0.0058645963009069232 0 -0.029728963196804868 0.006113362954493138 0 -0.024412521664675738 0.013874859915111261 0 -0.024584691463986993 0.013796778414416148 0 -0.030956301026115709 0.0057961420063064742 0 -0.03041942122875373 0.0058645963009069232 0 -0.030566161015878009 0.0061254149376444586 0 -0.030956301026115709 0.0057961420063064742 0 -0.030604132676199162 0.0055743532862727657 0 -0.03041942122875373 0.0058645963009069232 0 -0.02653327340831154 0.0069276615113323297 0 -0.02860102475397782 0.0060428933504738831 0 -0.029289094617392684 0.0041754248871580073 0 -0.029262394518817545 0.0069280547617419667 0 -0.030031965219984698 0.0068187966790969291 0 -0.029728963196804868 0.006113362954493138 0 -0.028327019077600143 0.0072393552872922875 0 -0.029262394518817545 0.0069280547617419667 0 -0.02860102475397782 0.0060428933504738831 0 -0.041200006143462441 -0.0030908367178157929 0 -0.0411699434465067 -0.002990002344848074 0 -0.041077696417069556 -0.0030642602013604948 0 -0.029262394518817545 0.0069280547617419667 0 -0.02860102475397782 0.0060428933504738831 0 -0.029728963196804868 0.006113362954493138 0 -0.033884241235231802 0.0072891687289869537 0 -0.035527598272176115 0.0033386197713285155 0 -0.03004394689604413 0.0055117195686698369 0 -0.029728963196804868 0.006113362954493138 0 -0.029417364609517965 0.0054634006384074703 0 -0.02860102475397782 0.0060428933504738831 0 -0.029728963196804868 0.006113362954493138 0 -0.029417364609517965 0.0054634006384074703 0 -0.028327019077600143 0.0072393552872922875 0 -0.02653327340831154 0.0069276615113323297 0 -0.02860102475397782 0.0060428933504738831 0 -0.02860102475397782 0.0060428933504738831 0 -0.029417364609517965 0.0054634006384074703 0 -0.029289094617392684 0.0041754248871580073 0 -0.03004394689604413 0.0055117195686698369 0 -0.029417364609517965 0.0054634006384074703 0 -0.029289094617392684 0.0041754248871580073 0 -0.0411699434465067 -0.002990002344848074 0 -0.041077696417069556 -0.0030642602013604948 0 -0.041164294545987148 -0.0030299621626715132 0 -0.041013924528715592 -0.0031451862418658354 0 -0.041077696417069556 -0.0030642602013604948 0 -0.041164294545987148 -0.0030299621626715132 0 -0.032126231478401004 0.0013934873038268993 0 -0.03004394689604413 0.0055117195686698369 0 -0.029289094617392684 0.0041754248871580073 0 -0.036576153662865596 0.00050780641645651724 0 -0.035527598272176115 0.0033386197713285155 0 -0.041013924528715592 -0.0031451862418658354 0 -0.040820484053184038 -0.0032577408318809503 0 -0.041077696417069556 -0.0030642602013604948 0 -0.036576153662865596 0.00050780641645651724 0 -0.035342755079871439 0.0021529376243931376 0 -0.031880905150453692 0.001759767998748568 0 -0.03004394689604413 0.0055117195686698369 0 -0.031706473785822462 0.003738006060774692 0 -0.031921477938341311 0.0044509431654146921 0 -0.031321540885059319 0.0047119609324209333 0 -0.031706473785822462 0.003738006060774692 0 -0.034999973192001488 0.01500694069427284 0 -0.036057108713509776 0.014339080106159545 0 -0.03499999653652907 0.013120930763429794 0 -0.036063324521896901 0.013382285957634694 0 -0.036057108713509776 0.014339080106159545 0 -0.03499999653652907 0.013120930763429794 0 -0.036063324521896901 0.013382285957634694 0 -0.037018003528829779 0.014246082884293269 0 -0.037544071360332693 0.013551742946729083 0 -0.036063324521896901 0.013382285957634694 0 -0.037018003528829779 0.014246082884293269 0 -0.036057108713509776 0.014339080106159545 0 -0.036966539847775995 0.015239148625902508 0 -0.036057108713509776 0.014339080106159545 0 -0.036104822736655579 0.015629299975789535 0 -0.037018003528829779 0.014246082884293269 0 -0.036966539847775995 0.015239148625902508 0 -0.036057108713509776 0.014339080106159545 0 -0.034999973192001488 0.01500694069427284 0 -0.036057108713509776 0.014339080106159545 0 -0.036104822736655579 0.015629299975789535 0 -0.034999973192001488 0.01500694069427284 0 -0.035879563597362732 0.016573616711440142 0 -0.034999980618371576 0.016892972483179707 0 -0.034999973192001488 0.01500694069427284 0 -0.035879563597362732 0.016573616711440142 0 -0.036104822736655579 0.015629299975789535 0 -0.036047091950474307 0.01771877019567563 0 -0.035879563597362732 0.016573616711440142 0 -0.034999980618371576 0.016892972483179707 0 -0.036047091950474307 0.01771877019567563 0 -0.035879563597362732 0.016573616711440142 0 -0.036745485403565106 0.016829567239520025 0 -0.036745485403565106 0.016829567239520025 0 -0.036104822736655579 0.015629299975789535 0 -0.037669672281610868 0.01593053605683771 0 -0.036966539847775995 0.015239148625902508 0 -0.036104822736655579 0.015629299975789535 0 -0.037719203639420079 0.015746367436588856 0 -0.035879563597362732 0.016573616711440142 0 -0.036745485403565106 0.016829567239520025 0 -0.036104822736655579 0.015629299975789535 0 -0.03796362011600124 0.01481122689586444 0 -0.038376585122005299 0.014781812434539061 0 -0.036966539847775995 0.015239148625902508 0 -0.037719203639420079 0.015746367436588856 0 -0.038544375608398206 0.015297406476649573 0 -0.037218182057185953 0.018170544176150251 0 -0.036745485403565106 0.016829567239520025 0 -0.037509605893049608 0.016962106201911152 0 -0.037669672281610868 0.01593053605683771 0 -0.037509605893049608 0.016962106201911152 0 -0.038278191857009765 0.017247256734460474 0 -0.037218182057185953 0.018170544176150251 0 -0.037509605893049608 0.016962106201911152 0 -0.038278191857009765 0.017247256734460474 0 -0.036745485403565106 0.016829567239520025 0 -0.037669672281610868 0.01593053605683771 0 -0.037509605893049608 0.016962106201911152 0 -0.038278191857009765 0.017247256734460474 0 -0.039193584194313201 0.016174186835648537 0 -0.039396724877044445 0.017087035851873034 0 -0.039422786918242421 0.017971818679971711 0 -0.038278191857009765 0.017247256734460474 0 -0.039396724877044445 0.017087035851873034 0 -0.038376585122005299 0.014781812434539061 0 -0.039202992501881279 0.014634824601797401 0 -0.038544375608398206 0.015297406476649573 0 -0.039563395620522614 0.014890595523820511 0 -0.039250895090160151 0.015890964279785209 0 -0.037719203639420079 0.015746367436588856 0 -0.038544375608398206 0.015297406476649573 0 -0.039250895090160151 0.015890964279785209 0 -0.037669672281610868 0.01593053605683771 0 -0.038278191857009765 0.017247256734460474 0 -0.039193584194313201 0.016174186835648537 0 -0.038688021038955446 0.014370350071716925 0 -0.038544375608398206 0.015297406476649573 0 -0.039563395620522614 0.014890595523820511 0 -0.037864438251241736 0.012097788822379267 0 -0.038439412644977633 0.011510866178568018 0 -0.036966539847775995 0.015239148625902508 0 -0.038688021038955446 0.014370350071716925 0 -0.038544375608398206 0.015297406476649573 0 -0.037018003528829779 0.014246082884293269 0 -0.036966539847775995 0.015239148625902508 0 -0.038797096319562054 0.014278913784791115 0 -0.037018003528829779 0.014246082884293269 0 -0.038797096319562054 0.014278913784791115 0 -0.037544071360332693 0.013551742946729083 0 -0.038797096319562054 0.014278913784791115 0 -0.039831243443865114 0.012903392578308822 0 -0.039081867713734363 0.012981540547362155 0 -0.038797096319562054 0.014278913784791115 0 -0.038423065488078272 0.013219394528767303 0 -0.039081867713734363 0.012981540547362155 0 -0.038797096319562054 0.014278913784791115 0 -0.037544071360332693 0.013551742946729083 0 -0.038423065488078272 0.013219394528767303 0 -0.038688021038955446 0.014370350071716925 0 -0.040366719195479558 0.013523569445312734 0 -0.039796502880725046 0.014393326646262951 0 -0.038439412644977633 0.011510866178568018 0 -0.039650410574792065 0.0099463709905192269 0 -0.038797096319562054 0.014278913784791115 0 -0.040611648589045715 0.013340747767708909 0 -0.039831243443865114 0.012903392578308822 0 -0.040366719195479558 0.013523569445312734 0 -0.040565462095289301 0.014787795112427232 0 -0.039796502880725046 0.014393326646262951 0 -0.040072477255513064 0.008877922230048756 0 -0.040379467682657127 0.0097391101757040872 0 -0.039650410574792065 0.0099463709905192269 0 -0.039897151637778877 0.012595485720407917 0 -0.040170276142741747 0.013508416288187924 0 -0.040550354121291148 0.013316427700503543 0 -0.040396238865509443 0.014936129088901321 0 -0.040550354121291148 0.013316427700503543 0 -0.040396238865509443 0.014936129088901321 0 -0.041451285916342881 0.014801685247086679 0 -0.039650410574792065 0.0099463709905192269 0 -0.040072477255513064 0.008877922230048756 0 -0.040396238865509443 0.014936129088901321 0 -0.04116374725790075 0.015701850474293642 0 -0.041451285916342881 0.014801685247086679 0 -0.040565462095289301 0.014787795112427232 0 -0.039796502880725046 0.014393326646262951 0 -0.039563395620522614 0.014890595523820511 0 -0.040565462095289301 0.014787795112427232 0 -0.039563395620522614 0.014890595523820511 0 -0.040048327681692052 0.015346670772732095 0 -0.038688021038955446 0.014370350071716925 0 -0.039796502880725046 0.014393326646262951 0 -0.039563395620522614 0.014890595523820511 0 -0.039563395620522614 0.014890595523820511 0 -0.040048327681692052 0.015346670772732095 0 -0.039250895090160151 0.015890964279785209 0 -0.039193584194313201 0.016174186835648537 0 -0.039964096355610629 0.016719654473505093 0 -0.040700904418035241 0.016372871723499251 0 -0.039202992501881279 0.014634824601797401 0 -0.039968826386246714 0.014280873097058331 0 -0.040048327681692052 0.015346670772732095 0 -0.039250895090160151 0.015890964279785209 0 -0.040763866675611431 0.016047208502714783 0 -0.039193584194313201 0.016174186835648537 0 -0.039396724877044445 0.017087035851873034 0 -0.039964096355610629 0.016719654473505093 0 -0.039396724877044445 0.017087035851873034 0 -0.039964096355610629 0.016719654473505093 0 -0.04012325128372822 0.017331553601759975 0 -0.039422786918242421 0.017971818679971711 0 -0.039396724877044445 0.017087035851873034 0 -0.04012325128372822 0.017331553601759975 0 -0.040597574184357069 0.018059686416170204 0 -0.04012325128372822 0.017331553601759975 0 -0.040871723663102683 0.017400475970617717 0 -0.04012325128372822 0.017331553601759975 0 -0.040871723663102683 0.017400475970617717 0 -0.040758826923044604 0.016756284486782163 0 -0.039964096355610629 0.016719654473505093 0 -0.040758826923044604 0.016756284486782163 0 -0.040700904418035241 0.016372871723499251 0 -0.039964096355610629 0.016719654473505093 0 -0.04012325128372822 0.017331553601759975 0 -0.040758826923044604 0.016756284486782163 0 -0.040871723663102683 0.017400475970617717 0 -0.040758826923044604 0.016756284486782163 0 -0.041353479501375676 0.017132998809173041 0 -0.039897151637778877 0.012595485720407917 0 -0.039968826386246714 0.014280873097058331 0 -0.040758826923044604 0.016756284486782163 0 -0.040694132319404309 0.016361748119705775 0 -0.041266883882651546 0.016414711961644762 0 -0.040625163385485177 0.016346272588806405 0 -0.04116374725790075 0.015701850474293642 0 -0.041266883882651546 0.016414711961644762 0 -0.039968826386246714 0.014280873097058331 0 -0.040017968968101607 0.014305962825928477 0 -0.040396238865509443 0.014936129088901321 0 -0.040625163385485177 0.016346272588806405 0 -0.04116374725790075 0.015701850474293642 0 -0.040565462095289301 0.014787795112427232 0 -0.040048327681692052 0.015346670772732095 0 -0.040763866675611431 0.016047208502714783 0 -0.039977457834686876 0.014323937675943647 0 -0.039968826386246714 0.014280873097058331 0 -0.04116374725790075 0.015701850474293642 0 -0.042306745799059263 0.016263965144821795 0 -0.041451285916342881 0.014801685247086679 0 -0.04116374725790075 0.015701850474293642 0 -0.041266883882651546 0.016414711961644762 0 -0.042306745799059263 0.016263965144821795 0 -0.040907177295477187 0.011123715764082436 0 -0.040379467682657127 0.0097391101757040872 0 -0.041266883882651546 0.016414711961644762 0 -0.042024197614673499 0.017191308869875358 0 -0.041353479501375676 0.017132998809173041 0 -0.040758826923044604 0.016756284486782163 0 -0.041266883882651546 0.016414711961644762 0 -0.041353479501375676 0.017132998809173041 0 -0.041266883882651546 0.016414711961644762 0 -0.042024197614673499 0.017191308869875358 0 -0.042306745799059263 0.016263965144821795 0 -0.041534005485078053 0.017727312476364641 0 -0.040871723663102683 0.017400475970617717 0 -0.041353479501375676 0.017132998809173041 0 -0.041534005485078053 0.017727312476364641 0 -0.042024197614673499 0.017191308869875358 0 -0.041353479501375676 0.017132998809173041 0 -0.04145568102520248 0.012775982251299478 0 -0.040907177295477187 0.011123715764082436 0 -0.042024197614673499 0.017191308869875358 0 -0.043120680436140202 0.017645682279850784 0 -0.042306745799059263 0.016263965144821795 0 -0.041831669677816014 0.0066023965453862717 0 -0.041263154691597692 0.0049645307661607746 0 -0.040525894313611664 0.0044359721934795508 0 -0.042257754398138794 0.018118081449468745 0 -0.042024197614673499 0.017191308869875358 0 -0.043120680436140202 0.017645682279850784 0 -0.042401513462081895 0.0051477308553475052 0 -0.041831669677816014 0.0066023965453862717 0 -0.041263154691597692 0.0049645307661607746 0 -0.041263154691597692 0.0049645307661607746 0 -0.041865659809630515 0.0043818176281542574 0 -0.041319344321838702 0.0033785010087893749 0 -0.041263154691597692 0.0049645307661607746 0 -0.041319344321838702 0.0033785010087893749 0 -0.039653211076032466 0.0018560439971384607 0 -0.041263154691597692 0.0049645307661607746 0 -0.040525894313611664 0.0044359721934795508 0 -0.040053597524084307 0.0025775430254145579 0 -0.042401513462081895 0.0051477308553475052 0 -0.041263154691597692 0.0049645307661607746 0 -0.041865659809630515 0.0043818176281542574 0 -0.039438435989134421 0.0050509270488408023 0 -0.039352979817694582 0.0052524280544501535 0 -0.042451287547505184 0.0039977737338040067 0 -0.041865659809630515 0.0043818176281542574 0 -0.041319344321838702 0.0033785010087893749 0 -0.042397471015037803 0.0027358392369272217 0 -0.041319344321838702 0.0033785010087893749 0 -0.041181470319949072 0.0020497112659134476 0 -0.042397471015037803 0.0027358392369272217 0 -0.041181470319949072 0.0020497112659134476 0 -0.041873525809818173 0.0013761812908176325 0 -0.041181470319949072 0.0020497112659134476 0 -0.041873525809818173 0.0013761812908176325 0 -0.040615771907923238 0.00090638036941328927 0 -0.041181470319949072 0.0020497112659134476 0 -0.039653211076032466 0.0018560439971384607 0 -0.040615771907923238 0.00090638036941328927 0 -0.041319344321838702 0.0033785010087893749 0 -0.041181470319949072 0.0020497112659134476 0 -0.039653211076032466 0.0018560439971384607 0 -0.040525894313611664 0.0044359721934795508 0 -0.039380448926420654 0.0025244647284689377 0 -0.040053597524084307 0.0025775430254145579 0 -0.039352979817694582 0.0052524280544501535 0 -0.039918762267895591 0.007602947321573651 0 -0.039653211076032466 0.0018560439971384607 0 -0.038828461677883459 -0.00040268377088315568 0 -0.040615771907923238 0.00090638036941328927 0 -0.038303868159175289 0.00078608203406225043 0 -0.040053597524084307 0.0025775430254145579 0 -0.038987479687586028 0.00044312101885779352 0 -0.038828461677883459 -0.00040268377088315568 0 -0.040439526099201352 -0.00030318695553007341 0 -0.040615771907923238 0.00090638036941328927 0 -0.039653211076032466 0.0018560439971384607 0 -0.038828461677883459 -0.00040268377088315568 0 -0.038040452188304541 -0.0014810677800975328 0 -0.038303868159175289 0.00078608203406225043 0 -0.039380448926420654 0.0025244647284689377 0 -0.040053597524084307 0.0025775430254145579 0 -0.038828461677883459 -0.00040268377088315568 0 -0.039663368797896649 -0.00082418201601333911 0 -0.040439526099201352 -0.00030318695553007341 0 -0.038828461677883459 -0.00040268377088315568 0 -0.039663368797896649 -0.00082418201601333911 0 -0.038703887659934849 -0.0018513832017392417 0 -0.039663368797896649 -0.00082418201601333911 0 -0.040439526099201352 -0.00030318695553007341 0 -0.039640218180189223 -0.0018352217444748005 0 -0.040439526099201352 -0.00030318695553007341 0 -0.041970787461390803 -0.00048579573054179938 0 -0.039640218180189223 -0.0018352217444748005 0 -0.041873525809818173 0.0013761812908176325 0 -0.041970787461390803 -0.00048579573054179938 0 -0.040615771907923238 0.00090638036941328927 0 -0.040439526099201352 -0.00030318695553007341 0 -0.041970787461390803 -0.00048579573054179938 0 -0.040615771907923238 0.00090638036941328927 0 -0.040208798725401174 -0.0019261708443158658 0 -0.039887533306494923 -0.0021316019985548294 0 -0.040079559733525588 -0.0022995762484997956 0 -0.037443621535356561 0.0064060624928937784 0 -0.037421035626627561 0.0059379406806361768 0 -0.040208798725401174 -0.0019261708443158658 0 -0.039887533306494923 -0.0021316019985548294 0 -0.039640218180189223 -0.0018352217444748005 0 -0.039887533306494923 -0.0021316019985548294 0 -0.039563442451137611 -0.0021161649419754128 0 -0.039817060086425993 -0.0025383881442677691 0 -0.039887533306494923 -0.0021316019985548294 0 -0.040079559733525588 -0.0022995762484997956 0 -0.039817060086425993 -0.0025383881442677691 0 -0.039887533306494923 -0.0021316019985548294 0 -0.039640218180189223 -0.0018352217444748005 0 -0.039563442451137611 -0.0021161649419754128 0 -0.03940460085332359 -0.0020324761941226534 0 -0.039563442451137611 -0.0021161649419754128 0 -0.039408229466423757 -0.0026934881200053403 0 -0.039663368797896649 -0.00082418201601333911 0 -0.039640218180189223 -0.0018352217444748005 0 -0.038703887659934849 -0.0018513832017392417 0 -0.039640218180189223 -0.0018352217444748005 0 -0.038703887659934849 -0.0018513832017392417 0 -0.039563442451137611 -0.0021161649419754128 0 -0.039605641102439589 0.0072525702567126579 0 -0.039661226700395034 0.0071692125636396561 0 -0.039550786347351319 0.0068305229912646124 0 -0.039605641102439589 0.0072525702567126579 0 -0.038828461677883459 -0.00040268377088315568 0 -0.038040452188304541 -0.0014810677800975328 0 -0.038637361555624916 -0.0017796237882536712 0 -0.039918762267895591 0.007602947321573651 0 -0.039605641102439589 0.0072525702567126579 0 -0.039563442451137611 -0.0021161649419754128 0 -0.039408229466423757 -0.0026934881200053403 0 -0.039817060086425993 -0.0025383881442677691 0 -0.039605641102439589 0.0072525702567126579 0 -0.039788949235541202 0.0056862513223544017 0 -0.039408229466423757 -0.0026934881200053403 0 -0.039817060086425993 -0.0025383881442677691 0 -0.039692375768426033 -0.0029713989260062327 0 -0.040079559733525588 -0.0022995762484997956 0 -0.039817060086425993 -0.0025383881442677691 0 -0.04014648878473389 -0.0025905335941556235 0 -0.040361174032208812 -0.0024377899486270264 0 -0.040079559733525588 -0.0022995762484997956 0 -0.04014648878473389 -0.0025905335941556235 0 -0.040388847072007621 -0.0027543270889738162 0 -0.04014648878473389 -0.0025905335941556235 0 -0.04005780859528664 -0.0029119647671755184 0 -0.039817060086425993 -0.0025383881442677691 0 -0.04014648878473389 -0.0025905335941556235 0 -0.04005780859528664 -0.0029119647671755184 0 -0.039817060086425993 -0.0025383881442677691 0 -0.04005780859528664 -0.0029119647671755184 0 -0.039692375768426033 -0.0029713989260062327 0 -0.04005780859528664 -0.0029119647671755184 0 -0.039956388934364942 -0.0032023720906910694 0 -0.039692375768426033 -0.0029713989260062327 0 -0.040269694093645239 -0.0032536012256787349 0 -0.04005780859528664 -0.0029119647671755184 0 -0.039956388934364942 -0.0032023720906910694 0 -0.040269694093645239 -0.0032536012256787349 0 -0.039956388934364942 -0.0032023720906910694 0 -0.039981356279496519 -0.0034832212584670272 0 -0.039956388934364942 -0.0032023720906910694 0 -0.039981356279496519 -0.0034832212584670272 0 -0.039671727088645511 -0.0032480559638006089 0 -0.039643710141960602 -0.003472728721437118 0 -0.039671727088645511 -0.0032480559638006089 0 -0.039373034662077991 -0.0032836839075482136 0 -0.039643710141960602 -0.003472728721437118 0 -0.039373034662077991 -0.0032836839075482136 0 -0.039340259039820261 -0.0035037030963551885 0 -0.039981356279496519 -0.0034832212584670272 0 -0.039643710141960602 -0.003472728721437118 0 -0.039671727088645511 -0.0032480559638006089 0 -0.039956388934364942 -0.0032023720906910694 0 -0.039671727088645511 -0.0032480559638006089 0 -0.039692375768426033 -0.0029713989260062327 0 -0.039671727088645511 -0.0032480559638006089 0 -0.039692375768426033 -0.0029713989260062327 0 -0.039361795397189148 -0.0032919100594048867 0 -0.039926512355731178 0.0050095170933516283 0 -0.0400233448701185 0.0051795356310383256 0 -0.039408229466423757 -0.0026934881200053403 0 -0.039692375768426033 -0.0029713989260062327 0 -0.039361795397189148 -0.0032919100594048867 0 -0.039788949235541202 0.0056862513223544017 0 -0.0400233448701185 0.0051795356310383256 0 -0.040985402278622962 0.010657874482253514 0 -0.040567715397628587 0.010479199505812683 0 -0.04059830096310537 0.010077511528036136 0 -0.040985402278622962 0.010657874482253514 0 -0.04059830096310537 0.010077511528036136 0 -0.040885944381173295 0.0095579722862996989 0 -0.040567715397628587 0.010479199505812683 0 -0.040309926598662678 0.010353642676990337 0 -0.04059830096310537 0.010077511528036136 0 -0.040309926598662678 0.010353642676990337 0 -0.040181144676940797 0.010700676103022638 0 -0.040336895865835894 0.010578124814681317 0 -0.040567715397628587 0.010479199505812683 0 -0.040309926598662678 0.010353642676990337 0 -0.040336895865835894 0.010578124814681317 0 -0.040309926598662678 0.010353642676990337 0 -0.04059830096310537 0.010077511528036136 0 -0.039992124876708154 0.010061028207347351 0 -0.04059830096310537 0.010077511528036136 0 -0.040885944381173295 0.0095579722862996989 0 -0.040344338365912537 0.0094383719775696841 0 -0.04059830096310537 0.010077511528036136 0 -0.040344338365912537 0.0094383719775696841 0 -0.039992124876708154 0.010061028207347351 0 -0.0400233448701185 0.0051795356310383256 0 -0.039457874055447387 0.0056817625472091052 0 -0.038482961152254844 0.0079508945354614547 0 -0.039097450203195487 0.0075700647560586806 0 -0.038734412302176668 0.0071681335294176366 0 -0.039457874055447387 0.0056817625472091052 0 -0.040182419583410713 0.0048481439301341677 0 -0.039383341963026737 0.0051529892159366221 0 -0.04115024912093173 0.0054128014546363989 0 -0.039564424436844527 0.0064469116561189053 0 -0.0400233448701185 0.0051795356310383256 0 -0.040182419583410713 0.0048481439301341677 0 -0.040344338365912537 0.0094383719775696841 0 -0.039992124876708154 0.010061028207347351 0 -0.039069997873734837 0.010209792393494892 0 -0.039457874055447387 0.0056817625472091052 0 -0.037977644263569595 0.0068278917651934876 0 -0.038482961152254844 0.0079508945354614547 0 -0.037106524553447109 0.0077766701652867958 0 -0.037712839295920252 0.0071081770264141021 0 -0.039457874055447387 0.0056817625472091052 0 -0.039102300603806713 0.0062401484987486917 0 -0.040554212713923711 0.0092348541591005667 0 -0.039069997873734837 0.010209792393494892 0 -0.038702861334546639 0.0089684372365041991 0 -0.040309926598662678 0.010353642676990337 0 -0.039992124876708154 0.010061028207347351 0 -0.040181144676940797 0.010700676103022638 0 -0.040077155873175285 0.010064010892600762 0 -0.040073107430755872 0.010026227262128666 0 -0.039992124876708154 0.010061028207347351 0 -0.039570021777664978 0.010766399335751478 0 -0.039069997873734837 0.010209792393494892 0 -0.039992124876708154 0.010061028207347351 0 -0.039570021777664978 0.010766399335751478 0 -0.040240387353608374 0.011146900239854932 0 -0.039570021777664978 0.010766399335751478 0 -0.039704043115924056 0.011228091405789446 0 -0.03903886813093975 0.011559301517298727 0 -0.040239358545456461 0.01195991606940568 0 -0.040240387353608374 0.011146900239854932 0 -0.040445897616281062 0.012284157751940281 0 -0.039570021777664978 0.010766399335751478 0 -0.039704043115924056 0.011228091405789446 0 -0.040240387353608374 0.011146900239854932 0 -0.040073107430755872 0.010026227262128666 0 -0.04003084301600348 0.0097406375757955049 0 -0.039789738237460778 0.011602104332839685 0 -0.039616774206815919 0.012221937391529046 0 -0.03903886813093975 0.011559301517298727 0 -0.039704043115924056 0.011228091405789446 0 -0.039789738237460778 0.011602104332839685 0 -0.03903886813093975 0.011559301517298727 0 -0.039789738237460778 0.011602104332839685 0 -0.040239358545456461 0.01195991606940568 0 -0.039616774206815919 0.012221937391529046 0 -0.039789738237460778 0.011602104332839685 0 -0.040239358545456461 0.01195991606940568 0 -0.040240387353608374 0.011146900239854932 0 -0.039704043115924056 0.011228091405789446 0 -0.039789738237460778 0.011602104332839685 0 -0.040240387353608374 0.011146900239854932 0 -0.040336895865835894 0.010578124814681317 0 -0.040637707677661151 0.010807032904594229 0 -0.040646078031738739 0.011167918413455021 0 -0.041105832744446097 0.011644217327901519 0 -0.040985402278622962 0.010657874482253514 0 -0.040646078031738739 0.011167918413455021 0 -0.040181144676940797 0.010700676103022638 0 -0.040336895865835894 0.010578124814681317 0 -0.040524743616247576 0.011013485340019499 0 -0.040315995300564081 0.008651289822901486 0 -0.040233635572619858 0.0084248662159151153 0 -0.040181144676940797 0.010700676103022638 0 -0.040524743616247576 0.011013485340019499 0 -0.040269523101208272 0.011173746025598822 0 -0.040567715397628587 0.010479199505812683 0 -0.040336895865835894 0.010578124814681317 0 -0.040637707677661151 0.010807032904594229 0 -0.040985402278622962 0.010657874482253514 0 -0.040567715397628587 0.010479199505812683 0 -0.040637707677661151 0.010807032904594229 0 -0.040985402278622962 0.010657874482253514 0 -0.040637707677661151 0.010807032904594229 0 -0.040646078031738739 0.011167918413455021 0 -0.040524743616247576 0.011013485340019499 0 -0.040269523101208272 0.011173746025598822 0 -0.040499427369537051 0.011279084296812293 0 -0.039918762267895591 0.007602947321573651 0 -0.040233635572619858 0.0084248662159151153 0 -0.040923028350773945 0.011735517956631483 0 -0.041105832744446097 0.011644217327901519 0 -0.040646078031738739 0.011167918413455021 0 -0.040711539273329371 0.011407103288871951 0 -0.040524743616247576 0.011013485340019499 0 -0.040499427369537051 0.011279084296812293 0 -0.040072477255513064 0.008877922230048756 0 -0.039918762267895591 0.007602947321573651 0 -0.040489890371254632 0.01152003132576177 0 -0.040711539273329371 0.011407103288871951 0 -0.040499427369537051 0.011279084296812293 0 -0.040072477255513064 0.008877922230048756 0 -0.04003084301600348 0.0097406375757955049 0 -0.039650410574792065 0.0099463709905192269 0 -0.04003084301600348 0.0097406375757955049 0 -0.040489890371254632 0.01152003132576177 0 -0.040269523101208272 0.011173746025598822 0 -0.040499427369537051 0.011279084296812293 0 -0.040442347762969101 0.0076433767556284464 0 -0.03968750628999039 0.0080244570092734991 0 -0.040786811491753415 0.0098128397253799717 0 -0.040611648589045715 0.013340747767708909 0 -0.040442872579034429 0.01228641210405888 0 -0.039831243443865114 0.012903392578308822 0 -0.039831243443865114 0.012903392578308822 0 -0.039616774206815919 0.012221937391529046 0 -0.039081867713734363 0.012981540547362155 0 -0.039831243443865114 0.012903392578308822 0 -0.039616774206815919 0.012221937391529046 0 -0.04002369444449505 0.012321288006187125 0 -0.040239358545456461 0.01195991606940568 0 -0.039616774206815919 0.012221937391529046 0 -0.04002369444449505 0.012321288006187125 0 -0.040442872579034429 0.01228641210405888 0 -0.039831243443865114 0.012903392578308822 0 -0.04002369444449505 0.012321288006187125 0 -0.040239358545456461 0.01195991606940568 0 -0.040442872579034429 0.01228641210405888 0 -0.04002369444449505 0.012321288006187125 0 -0.040043862632592131 0.0097686767603978996 0 -0.04003084301600348 0.0097406375757955049 0 -0.038777208235942807 0.012424107778339771 0 -0.037724139092562045 0.012139693429197459 0 -0.03903886813093975 0.011559301517298727 0 -0.039616774206815919 0.012221937391529046 0 -0.038777208235942807 0.012424107778339771 0 -0.039081867713734363 0.012981540547362155 0 -0.039616774206815919 0.012221937391529046 0 -0.038777208235942807 0.012424107778339771 0 -0.03903886813093975 0.011559301517298727 0 -0.038423065488078272 0.013219394528767303 0 -0.038777208235942807 0.012424107778339771 0 -0.039081867713734363 0.012981540547362155 0 -0.038423065488078272 0.013219394528767303 0 -0.038777208235942807 0.012424107778339771 0 -0.037724139092562045 0.012139693429197459 0 -0.037544071360332693 0.013551742946729083 0 -0.038423065488078272 0.013219394528767303 0 -0.037724139092562045 0.012139693429197459 0 -0.037544071360332693 0.013551742946729083 0 -0.037724139092562045 0.012139693429197459 0 -0.036271124492857826 0.012381259963782703 0 -0.037724139092562045 0.012139693429197459 0 -0.038368442828730011 0.010867737902302237 0 -0.037217961149474711 0.010761716591688966 0 -0.037724139092562045 0.012139693429197459 0 -0.03903886813093975 0.011559301517298727 0 -0.038368442828730011 0.010867737902302237 0 -0.039570021777664978 0.010766399335751478 0 -0.03903886813093975 0.011559301517298727 0 -0.038368442828730011 0.010867737902302237 0 -0.039570021777664978 0.010766399335751478 0 -0.038368442828730011 0.010867737902302237 0 -0.039069997873734837 0.010209792393494892 0 -0.038368442828730011 0.010867737902302237 0 -0.039069997873734837 0.010209792393494892 0 -0.038024760867178528 0.0098972817964220073 0 -0.039069997873734837 0.010209792393494892 0 -0.038702861334546639 0.0089684372365041991 0 -0.038024760867178528 0.0098972817964220073 0 -0.037977644263569595 0.0068278917651934876 0 -0.036433504179456601 0.0076764841593822668 0 -0.038702861334546639 0.0089684372365041991 0 -0.038024760867178528 0.0098972817964220073 0 -0.036850678285202609 0.0087028939334698931 0 -0.037217961149474711 0.010761716591688966 0 -0.038024760867178528 0.0098972817964220073 0 -0.036850678285202609 0.0087028939334698931 0 -0.038368442828730011 0.010867737902302237 0 -0.037217961149474711 0.010761716591688966 0 -0.038024760867178528 0.0098972817964220073 0 -0.037217961149474711 0.010761716591688966 0 -0.036054268941280075 0.010528899117604336 0 -0.036850678285202609 0.0087028939334698931 0 -0.034999997019299858 0.0098323810411512884 0 -0.036054268941280075 0.010528899117604336 0 -0.036850678285202609 0.0087028939334698931 0 -0.034999997019299858 0.0098323810411512884 0 -0.034999996248653194 0.0084298026108684931 0 -0.036850678285202609 0.0087028939334698931 0 -0.034999997019299858 0.0098323810411512884 0 -0.036054268941280075 0.010528899117604336 0 -0.034999999750974467 0.011234926546320127 0 -0.035001410409222097 0.011236248924825464 0 -0.035725181138190044 0.011894733469689752 0 -0.036054268941280075 0.010528899117604336 0 -0.034999999750974467 0.011234926546320127 0 -0.036271124492857826 0.012381259963782703 0 -0.037724139092562045 0.012139693429197459 0 -0.037217961149474711 0.010761716591688966 0 -0.036271124492857826 0.012381259963782703 0 -0.037217961149474711 0.010761716591688966 0 -0.036054268941280075 0.010528899117604336 0 -0.036271124492857826 0.012381259963782703 0 -0.036078977359440566 0.012216629052067962 0 -0.035725181138190044 0.011894733469689752 0 -0.036063324521896901 0.013382285957634694 0 -0.037544071360332693 0.013551742946729083 0 -0.036274193030255523 0.012405303676125837 0 -0.034999996287622959 0.011234981336073275 0 -0.036274193030255523 0.012405303676125837 0 -0.03499999653652907 0.013120930763429794 0 -0.036063324521896901 0.013382285957634694 0 -0.036274193030255523 0.012405303676125837 0 -0.03499999653652907 0.013120930763429794 0 -0.035940190786232673 0.0050288737069881457 0 -0.034999981992970913 0.0048399463663410204 0 -0.035741794315916127 0.0057854071680611087 0 -0.035940190786232673 0.0050288737069881457 0 -0.036469719082405372 0.0055608077695890141 0 -0.035741794315916127 0.0057854071680611087 0 -0.035940190786232673 0.0050288737069881457 0 -0.035725859479137624 0.0043770873598803807 0 -0.036265666288229019 0.0045202077789199633 0 -0.035940190786232673 0.0050288737069881457 0 -0.034999981992970913 0.0048399463663410204 0 -0.035725859479137624 0.0043770873598803807 0 -0.037087592063149863 0.0050904035199884536 0 -0.036469719082405372 0.0055608077695890141 0 -0.037656920342079223 0.0057167424783783243 0 -0.038014721808493183 0.0045829831009708763 0 -0.036610017654443563 0.0040704339831289871 0 -0.036656822295699179 0.0042931283634655218 0 -0.035940190786232673 0.0050288737069881457 0 -0.036265666288229019 0.0045202077789199633 0 -0.036495350982407353 0.0049224487451112213 0 -0.036265666288229019 0.0045202077789199633 0 -0.036592611720742692 0.0046079035452884377 0 -0.036656822295699179 0.0042931283634655218 0 -0.036265666288229019 0.0045202077789199633 0 -0.036592611720742692 0.0046079035452884377 0 -0.036495350982407353 0.0049224487451112213 0 -0.036592611720742692 0.0046079035452884377 0 -0.036955227327514294 0.0046999109978034855 0 -0.036656822295699179 0.0042931283634655218 0 -0.036592611720742692 0.0046079035452884377 0 -0.036955227327514294 0.0046999109978034855 0 -0.036495350982407353 0.0049224487451112213 0 -0.036955227327514294 0.0046999109978034855 0 -0.037087592063149863 0.0050904035199884536 0 -0.036495350982407353 0.0049224487451112213 0 -0.037087592063149863 0.0050904035199884536 0 -0.036495350982407353 0.0049224487451112213 0 -0.036469719082405372 0.0055608077695890141 0 -0.035940190786232673 0.0050288737069881457 0 -0.036495350982407353 0.0049224487451112213 0 -0.036469719082405372 0.0055608077695890141 0 -0.036033041224877271 0.0066430981748486356 0 -0.036970526489335589 0.0055030722420772423 0 -0.035584794406131569 0.0065414990921426669 0 -0.036296346049631861 0.0062387131267191212 0 -0.03633935111972382 0.0053617873202123486 0 -0.036469719082405372 0.0055608077695890141 0 -0.035741794315916127 0.0057854071680611087 0 -0.036324274037658089 0.0067720202017718398 0 -0.036469719082405372 0.0055608077695890141 0 -0.036324274037658089 0.0067720202017718398 0 -0.037656920342079223 0.0057167424783783243 0 -0.034999983773808835 0.006352516219248306 0 -0.035741794315916127 0.0057854071680611087 0 -0.036324274037658089 0.0067720202017718398 0 -0.034999981992970913 0.0048399463663410204 0 -0.034999983773808835 0.006352516219248306 0 -0.035741794315916127 0.0057854071680611087 0 -0.034999523103358819 0.007865377004506055 0 -0.035562997262273598 0.0075181309419968742 0 -0.035584794406131569 0.0065414990921426669 0 -0.034999983773808835 0.006352516219248306 0 -0.035000001790639244 0.0078650470052327292 0 -0.036324274037658089 0.0067720202017718398 0 -0.035001648595147442 0.0078623173452627062 0 -0.036033041224877271 0.0066430981748486356 0 -0.034999523103358819 0.007865377004506055 0 -0.035000078434342489 0.0084285370304140721 0 -0.035562997262273598 0.0075181309419968742 0 -0.035000078434342489 0.0084285370304140721 0 -0.035562997262273598 0.0075181309419968742 0 -0.035958468132217529 0.0077923933715591601 0 -0.035002438087658391 0.0084269923875452454 0 -0.036433504179456601 0.0076764841593822668 0 -0.035562997262273598 0.0075181309419968742 0 -0.035958468132217529 0.0077923933715591601 0 -0.036371940202048758 0.0069536109591536157 0 -0.035584794406131569 0.0065414990921426669 0 -0.036296346049631861 0.0062387131267191212 0 -0.036371940202048758 0.0069536109591536157 0 -0.035562997262273598 0.0075181309419968742 0 -0.035584794406131569 0.0065414990921426669 0 -0.036371940202048758 0.0069536109591536157 0 -0.036296346049631861 0.0062387131267191212 0 -0.036371940202048758 0.0069536109591536157 0 -0.036926119293036921 0.0060763746024675757 0 -0.037106524553447109 0.0077766701652867958 0 -0.035958468132217529 0.0077923933715591601 0 -0.036371940202048758 0.0069536109591536157 0 -0.037106524553447109 0.0077766701652867958 0 -0.037299824155868008 0.0066851686050898185 0 -0.037712839295920252 0.0071081770264141021 0 -0.037106524553447109 0.0077766701652867958 0 -0.036371940202048758 0.0069536109591536157 0 -0.037299824155868008 0.0066851686050898185 0 -0.036371940202048758 0.0069536109591536157 0 -0.037299824155868008 0.0066851686050898185 0 -0.036926119293036921 0.0060763746024675757 0 -0.037299824155868008 0.0066851686050898185 0 -0.037512087170699621 0.0057747555164685219 0 -0.037832056497273212 0.0060996276379503087 0 -0.037299824155868008 0.0066851686050898185 0 -0.036926119293036921 0.0060763746024675757 0 -0.037512087170699621 0.0057747555164685219 0 -0.036926119293036921 0.0060763746024675757 0 -0.037512087170699621 0.0057747555164685219 0 -0.037161799279547672 0.0052783855556182901 0 -0.036926119293036921 0.0060763746024675757 0 -0.037161799279547672 0.0052783855556182901 0 -0.03633935111972382 0.0053617873202123486 0 -0.037512087170699621 0.0057747555164685219 0 -0.037161799279547672 0.0052783855556182901 0 -0.037757589889719639 0.0049184024845098425 0 -0.036296346049631861 0.0062387131267191212 0 -0.036926119293036921 0.0060763746024675757 0 -0.03633935111972382 0.0053617873202123486 0 -0.038014721808493183 0.0045829831009708763 0 -0.039368069591047473 0.004441801425170179 0 -0.037689685640815297 0.0035615954768174465 0 -0.036176181160913812 0.0033679124849800481 0 -0.035829121970570491 0.0031846494907036191 0 -0.036955227327514294 0.0046999109978034855 0 -0.038014721808493183 0.0045829831009708763 0 -0.036656822295699179 0.0042931283634655218 0 -0.037656920342079223 0.0057167424783783243 0 -0.038014721808493183 0.0045829831009708763 0 -0.039368069591047473 0.004441801425170179 0 -0.037087592063149863 0.0050904035199884536 0 -0.037656920342079223 0.0057167424783783243 0 -0.038014721808493183 0.0045829831009708763 0 -0.036955227327514294 0.0046999109978034855 0 -0.037087592063149863 0.0050904035199884536 0 -0.038014721808493183 0.0045829831009708763 0 -0.036970526489335589 0.0055030722420772423 0 -0.037780880711698918 0.0044528722938401736 0 -0.037161799279547672 0.0052783855556182901 0 -0.03633935111972382 0.0053617873202123486 0 -0.037272981701750675 0.0042386512612185446 0 -0.037161799279547672 0.0052783855556182901 0 -0.037272981701750675 0.0042386512612185446 0 -0.037757589889719639 0.0049184024845098425 0 -0.038057595491817468 0.0041562265065213135 0 -0.038431790532943176 0.0045597836273355164 0 -0.037757589889719639 0.0049184024845098425 0 -0.037272981701750675 0.0042386512612185446 0 -0.038057595491817468 0.0041562265065213135 0 -0.037757589889719639 0.0049184024845098425 0 -0.038431790532943176 0.0045597836273355164 0 -0.039185065968592309 0.0041720791755053849 0 -0.038577373631670291 0.0037974021286241947 0 -0.038057595491817468 0.0041562265065213135 0 -0.038431790532943176 0.0045597836273355164 0 -0.038577373631670291 0.0037974021286241947 0 -0.038431790532943176 0.0045597836273355164 0 -0.038888908521267355 0.0052121986959711777 0 -0.039185065968592309 0.0041720791755053849 0 -0.038431790532943176 0.0045597836273355164 0 -0.038888908521267355 0.0052121986959711777 0 -0.038184954405816353 0.005463221548237235 0 -0.038888908521267355 0.0052121986959711777 0 -0.038581028287962969 0.0056873485740068829 0 -0.038850826657971335 0.0059769567995918487 0 -0.038888908521267355 0.0052121986959711777 0 -0.038184954405816353 0.005463221548237235 0 -0.038581028287962969 0.0056873485740068829 0 -0.038184954405816353 0.005463221548237235 0 -0.038240589558460839 0.0059810682069213906 0 -0.038581028287962969 0.0056873485740068829 0 -0.038431790532943176 0.0045597836273355164 0 -0.038184954405816353 0.005463221548237235 0 -0.037757589889719639 0.0049184024845098425 0 -0.037512087170699621 0.0057747555164685219 0 -0.038184954405816353 0.005463221548237235 0 -0.037757589889719639 0.0049184024845098425 0 -0.037512087170699621 0.0057747555164685219 0 -0.038184954405816353 0.005463221548237235 0 -0.037832056497273212 0.0060996276379503087 0 -0.037832056497273212 0.0060996276379503087 0 -0.038240589558460839 0.0059810682069213906 0 -0.037949631138484763 0.0065357939568181167 0 -0.038184954405816353 0.005463221548237235 0 -0.037832056497273212 0.0060996276379503087 0 -0.038240589558460839 0.0059810682069213906 0 -0.037949631138484763 0.0065357939568181167 0 -0.038198337174701336 0.0068195059474263457 0 -0.038448936286234019 0.0063693682948905003 0 -0.038240589558460839 0.0059810682069213906 0 -0.037949631138484763 0.0065357939568181167 0 -0.038448936286234019 0.0063693682948905003 0 -0.037299824155868008 0.0066851686050898185 0 -0.037832056497273212 0.0060996276379503087 0 -0.037949631138484763 0.0065357939568181167 0 -0.037949631138484763 0.0065357939568181167 0 -0.037712839295920252 0.0071081770264141021 0 -0.038198337174701336 0.0068195059474263457 0 -0.038482961152254844 0.0079508945354614547 0 -0.037712839295920252 0.0071081770264141021 0 -0.038348213334060771 0.0072137280050053225 0 -0.037299824155868008 0.0066851686050898185 0 -0.037949631138484763 0.0065357939568181167 0 -0.037712839295920252 0.0071081770264141021 0 -0.037712839295920252 0.0071081770264141021 0 -0.038198337174701336 0.0068195059474263457 0 -0.038348213334060771 0.0072137280050053225 0 -0.038198337174701336 0.0068195059474263457 0 -0.038348213334060771 0.0072137280050053225 0 -0.038554217091564078 0.0068493877635161368 0 -0.039097450203195487 0.0075700647560586806 0 -0.038734412302176668 0.0071681335294176366 0 -0.038996912625060276 0.0066826720922323907 0 -0.040182419583410713 0.0048481439301341677 0 -0.040301870379747508 0.0045509961317787831 0 -0.038482961152254844 0.0079508945354614547 0 -0.038348213334060771 0.0072137280050053225 0 -0.038734412302176668 0.0071681335294176366 0 -0.038734412302176668 0.0071681335294176366 0 -0.038554217091564078 0.0068493877635161368 0 -0.038996912625060276 0.0066826720922323907 0 -0.038348213334060771 0.0072137280050053225 0 -0.038734412302176668 0.0071681335294176366 0 -0.038554217091564078 0.0068493877635161368 0 -0.038198337174701336 0.0068195059474263457 0 -0.038554217091564078 0.0068493877635161368 0 -0.038448936286234019 0.0063693682948905003 0 -0.038554217091564078 0.0068493877635161368 0 -0.038996912625060276 0.0066826720922323907 0 -0.038698418583561392 0.0064752617740807547 0 -0.038996912625060276 0.0066826720922323907 0 -0.038698418583561392 0.0064752617740807547 0 -0.038850826657971335 0.0059769567995918487 0 -0.040301870379747508 0.0045509961317787831 0 -0.040291768502243919 0.0046230703497296957 0 -0.038897653324873695 0.0063746130305023536 0 -0.038850826657971335 0.0059769567995918487 0 -0.039300136604176708 0.0061049436763066277 0 -0.038554217091564078 0.0068493877635161368 0 -0.038698418583561392 0.0064752617740807547 0 -0.038448936286234019 0.0063693682948905003 0 -0.038698418583561392 0.0064752617740807547 0 -0.038448936286234019 0.0063693682948905003 0 -0.038850826657971335 0.0059769567995918487 0 -0.038448936286234019 0.0063693682948905003 0 -0.038581028287962969 0.0056873485740068829 0 -0.038850826657971335 0.0059769567995918487 0 -0.038240589558460839 0.0059810682069213906 0 -0.038448936286234019 0.0063693682948905003 0 -0.038581028287962969 0.0056873485740068829 0 -0.038888908521267355 0.0052121986959711777 0 -0.038850826657971335 0.0059769567995918487 0 -0.03949026859611296 0.0056422482748863462 0 -0.03949026859611296 0.0056422482748863462 0 -0.039300136604176708 0.0061049436763066277 0 -0.040018156233707476 0.0064659421729585526 0 -0.038850826657971335 0.0059769567995918487 0 -0.03949026859611296 0.0056422482748863462 0 -0.039300136604176708 0.0061049436763066277 0 -0.038897653324873695 0.0063746130305023536 0 -0.039300136604176708 0.0061049436763066277 0 -0.040018156233707476 0.0064659421729585526 0 -0.040182419583410713 0.0048481439301341677 0 -0.040525180924745399 0.0042064816404080172 0 -0.040301870379747508 0.0045509961317787831 0 -0.040525180924745399 0.0042064816404080172 0 -0.040449983978917671 0.0041724049794539635 0 -0.040488642978606319 0.0044478136250191867 0 -0.040081340365750916 0.004412432938792594 0 -0.039643710141960602 -0.003472728721437118 0 -0.039340259039820261 -0.0035037030963551885 0 -0.039860682209560176 -0.0038491088002296091 0 -0.039981356279496519 -0.0034832212584670272 0 -0.039860682209560176 -0.0038491088002296091 0 -0.040522089406213095 -0.003795308481638338 0 -0.040525180924745399 0.0042064816404080172 0 -0.040448733663855457 0.0028187174132307657 0 -0.039981356279496519 -0.0034832212584670272 0 -0.039643710141960602 -0.003472728721437118 0 -0.039860682209560176 -0.0038491088002296091 0 -0.040525180924745399 0.0042064816404080172 0 -0.040439916828035882 0.0044312467550285768 0 -0.040018156233707476 0.0064659421729585526 0 -0.040271376819250554 0.005236471915773323 0 -0.04131410073864978 0.0055672194511946571 0 -0.03949026859611296 0.0056422482748863462 0 -0.040018156233707476 0.0064659421729585526 0 -0.040271376819250554 0.005236471915773323 0 -0.040271376819250554 0.005236471915773323 0 -0.039570810747653729 0.0048992217340784938 0 -0.040061806629511108 0.0042218399905250359 0 -0.040271376819250554 0.005236471915773323 0 -0.040061806629511108 0.0042218399905250359 0 -0.040887065055854696 0.0043255320301118288 0 -0.03949026859611296 0.0056422482748863462 0 -0.040271376819250554 0.005236471915773323 0 -0.039570810747653729 0.0048992217340784938 0 -0.038888908521267355 0.0052121986959711777 0 -0.039570810747653729 0.0048992217340784938 0 -0.039185065968592309 0.0041720791755053849 0 -0.038888908521267355 0.0052121986959711777 0 -0.03949026859611296 0.0056422482748863462 0 -0.039570810747653729 0.0048992217340784938 0 -0.039185065968592309 0.0041720791755053849 0 -0.040061806629511108 0.0042218399905250359 0 -0.039859496742306162 0.0032552829927370618 0 -0.039570810747653729 0.0048992217340784938 0 -0.039185065968592309 0.0041720791755053849 0 -0.040061806629511108 0.0042218399905250359 0 -0.040061806629511108 0.0042218399905250359 0 -0.040624253471127997 0.0032482722034010152 0 -0.039859496742306162 0.0032552829927370618 0 -0.040061806629511108 0.0042218399905250359 0 -0.040624253471127997 0.0032482722034010152 0 -0.040887065055854696 0.0043255320301118288 0 -0.040624253471127997 0.0032482722034010152 0 -0.040077924230851124 0.0021180456166474092 0 -0.040890659911296201 0.0018126835016532197 0 -0.040624253471127997 0.0032482722034010152 0 -0.039859496742306162 0.0032552829927370618 0 -0.040077924230851124 0.0021180456166474092 0 -0.039859496742306162 0.0032552829927370618 0 -0.039424824020641847 0.0023178246391453603 0 -0.03887696373222399 0.0027199733567890251 0 -0.039185065968592309 0.0041720791755053849 0 -0.039859496742306162 0.0032552829927370618 0 -0.039077397440060703 0.0033799555843913812 0 -0.038740511231868169 0.0036533881025919168 0 -0.038575983709847411 0.003638250724754604 0 -0.039424824020641847 0.0023178246391453603 0 -0.038887876942034251 0.0019867257967312382 0 -0.03887696373222399 0.0027199733567890251 0 -0.039859496742306162 0.0032552829927370618 0 -0.039424824020641847 0.0023178246391453603 0 -0.040077924230851124 0.0021180456166474092 0 -0.039424824020641847 0.0023178246391453603 0 -0.03944209343277387 0.0014444389913394026 0 -0.040077924230851124 0.0021180456166474092 0 -0.039424824020641847 0.0023178246391453603 0 -0.03944209343277387 0.0014444389913394026 0 -0.038887876942034251 0.0019867257967312382 0 -0.03944209343277387 0.0014444389913394026 0 -0.040077924230851124 0.0021180456166474092 0 -0.040179304073256407 0.0010086223266625861 0 -0.040077924230851124 0.0021180456166474092 0 -0.040179304073256407 0.0010086223266625861 0 -0.040890659911296201 0.0018126835016532197 0 -0.040179304073256407 0.0010086223266625861 0 -0.03974449484663773 9.9338210350777842e-05 0 -0.041006250571254323 0.0004820705371944342 0 -0.040331588908593959 -0.0006350799654571683 0 -0.03974449484663773 9.9338210350777842e-05 0 -0.041006250571254323 0.0004820705371944342 0 -0.03944209343277387 0.0014444389913394026 0 -0.03974449484663773 9.9338210350777842e-05 0 -0.038459371895261489 0.0013121164102854669 0 -0.03944209343277387 0.0014444389913394026 0 -0.040179304073256407 0.0010086223266625861 0 -0.03974449484663773 9.9338210350777842e-05 0 -0.03974449484663773 9.9338210350777842e-05 0 -0.038459371895261489 0.0013121164102854669 0 -0.038169771604880227 0.00041219180302328682 0 -0.039252078776382121 -0.0008331578719278426 0 -0.03974449484663773 9.9338210350777842e-05 0 -0.038635600628027976 1.1015566049943497e-05 0 -0.038582383079897281 0.00022164805858076715 0 -0.038170349571648977 0.00026046643994804202 0 -0.038170349571648977 0.00026046643994804202 0 -0.03743421457726389 0.00033163120356881744 0 -0.038459371895261489 0.0013121164102854669 0 -0.038169771604880227 0.00041219180302328682 0 -0.037516803696196366 0.0012017568338200399 0 -0.038169771604880227 0.00041219180302328682 0 -0.037516803696196366 0.0012017568338200399 0 -0.036998376300384973 0.00060266975444956349 0 -0.038459371895261489 0.0013121164102854669 0 -0.037516803696196366 0.0012017568338200399 0 -0.03786409742004853 0.0017607199151235392 0 -0.03786409742004853 0.0017607199151235392 0 -0.038098707018767358 0.0022610598812742282 0 -0.037011539774048398 0.0018320686440444227 0 -0.03786409742004853 0.0017607199151235392 0 -0.038298454580660453 0.0021511509572480583 0 -0.038098707018767358 0.0022610598812742282 0 -0.03944209343277387 0.0014444389913394026 0 -0.038459371895261489 0.0013121164102854669 0 -0.038887876942034251 0.0019867257967312382 0 -0.038459371895261489 0.0013121164102854669 0 -0.03786409742004853 0.0017607199151235392 0 -0.038298454580660453 0.0021511509572480583 0 -0.038459371895261489 0.0013121164102854669 0 -0.038887876942034251 0.0019867257967312382 0 -0.038298454580660453 0.0021511509572480583 0 -0.038575983709847411 0.003638250724754604 0 -0.03824252233093816 0.0036329465105651316 0 -0.038298454580660453 0.0021511509572480583 0 -0.03887696373222399 0.0027199733567890251 0 -0.038034157415781991 0.0023570807806146611 0 -0.039077397440060703 0.0033799555843913812 0 -0.038577373631670291 0.0037974021286241947 0 -0.038258365778504021 0.0032744870148007799 0 -0.038253089482985468 0.0036174740616558522 0 -0.03824252233093816 0.0036329465105651316 0 -0.038887876942034251 0.0019867257967312382 0 -0.038298454580660453 0.0021511509572480583 0 -0.03887696373222399 0.0027199733567890251 0 -0.039185065968592309 0.0041720791755053849 0 -0.039077397440060703 0.0033799555843913812 0 -0.038577373631670291 0.0037974021286241947 0 -0.03824252233093816 0.0036329465105651316 0 -0.037740038628602326 0.0031872815323992221 0 -0.037780880711698918 0.0044528722938401736 0 -0.03824252233093816 0.0036329465105651316 0 -0.037272981701750675 0.0042386512612185446 0 -0.038057595491817468 0.0041562265065213135 0 -0.038258365778504021 0.0032744870148007799 0 -0.038057595491817468 0.0041562265065213135 0 -0.038577373631670291 0.0037974021286241947 0 -0.038258365778504021 0.0032744870148007799 0 -0.039368069591047473 0.004441801425170179 0 -0.041241525400809186 0.0029304713446523193 0 -0.038638925285290886 0.0022927932212638228 0 -0.039368069591047473 0.004441801425170179 0 -0.037689685640815297 0.0035615954768174465 0 -0.038638925285290886 0.0022927932212638228 0 -0.037689685640815297 0.0035615954768174465 0 -0.037011480908824688 0.0026590845875824752 0 -0.038638925285290886 0.0022927932212638228 0 -0.038014721808493183 0.0045829831009708763 0 -0.037689685640815297 0.0035615954768174465 0 -0.036040308591380327 0.0036811218166756393 0 -0.037689685640815297 0.0035615954768174465 0 -0.037011480908824688 0.0026590845875824752 0 -0.036617430939735393 0.003108327937180137 0 -0.037740038628602326 0.0031872815323992221 0 -0.037324767954925016 0.0029849773642480677 0 -0.037011480908824688 0.0026590845875824752 0 -0.038638925285290886 0.0022927932212638228 0 -0.0359639701375997 0.0016027500003149076 0 -0.037011539774048398 0.0018320686440444227 0 -0.036729386661350311 0.0012396981952311366 0 -0.0359639701375997 0.0016027500003149076 0 -0.037516803696196366 0.0012017568338200399 0 -0.03786409742004853 0.0017607199151235392 0 -0.037011539774048398 0.0018320686440444227 0 -0.037516803696196366 0.0012017568338200399 0 -0.037011539774048398 0.0018320686440444227 0 -0.036729386661350311 0.0012396981952311366 0 -0.037516803696196366 0.0012017568338200399 0 -0.036998376300384973 0.00060266975444956349 0 -0.036729386661350311 0.0012396981952311366 0 -0.03759105328935311 -0.00097748271925569602 0 -0.038635600628027976 1.1015566049943497e-05 0 -0.037409003966865285 0.00015625958024666718 0 -0.037409003966865285 0.00015625958024666718 0 -0.035847656508703384 0.00049568673311158322 0 -0.036297939484918176 -7.3276262424131383e-05 0 -0.036662639587337148 -0.00067473776311204959 0 -0.037409003966865285 0.00015625958024666718 0 -0.036297939484918176 -7.3276262424131383e-05 0 -0.03759105328935311 -0.00097748271925569602 0 -0.036662639587337148 -0.00067473776311204959 0 -0.037409003966865285 0.00015625958024666718 0 -0.03743421457726389 0.00033163120356881744 0 -0.03701339247777654 0.00037131830161733938 0 -0.036998376300384973 0.00060266975444956349 0 -0.036729386661350311 0.0012396981952311366 0 -0.03609384922167639 0.0010117809123259673 0 -0.036998376300384973 0.00060266975444956349 0 -0.03609384922167639 0.0010117809123259673 0 -0.035847656508703384 0.00049568673311158322 0 -0.035847656508703384 0.00049568673311158322 0 -0.03556920462518836 0.00022800661683242016 0 -0.035683033270861045 0.001442094367662846 0 -0.035630707636683051 0.00098141576813775655 0 -0.035751913107805761 0.0020947136907433403 0 -0.03609384922167639 0.0010117809123259673 0 -0.035847656508703384 0.00049568673311158322 0 -0.035683033270861045 0.001442094367662846 0 -0.035847656508703384 0.00049568673311158322 0 -0.036297939484918176 -7.3276262424131383e-05 0 -0.03556920462518836 0.00022800661683242016 0 -0.035972200066066606 -0.00057459612989337972 0 -0.036297939484918176 -7.3276262424131383e-05 0 -0.03556920462518836 0.00022800661683242016 0 -0.036662639587337148 -0.00067473776311204959 0 -0.035972200066066606 -0.00057459612989337972 0 -0.036297939484918176 -7.3276262424131383e-05 0 -0.035433352092175956 -0.0011230652069383607 0 -0.035972200066066606 -0.00057459612989337972 0 -0.03556920462518836 0.00022800661683242016 0 -0.03551278622779544 6.9778444596020476e-05 0 -0.035630707636683051 0.00098141576813775655 0 -0.034999992346957567 -0.00080433302294354752 0 -0.036041906314253358 0.00089210479716189629 0 -0.034999998519984803 0.0012615896071681118 0 -0.034999998519984803 0.0012615896071681118 0 -0.035766688966304819 0.0017733453377770446 0 -0.034999998100209352 0.0033274163511218479 0 -0.036041906314253358 0.00089210479716189629 0 -0.035766688966304819 0.0017733453377770446 0 -0.03634230248332828 0.002493120668564892 0 -0.036041906314253358 0.00089210479716189629 0 -0.034999998519984803 0.0012615896071681118 0 -0.035766688966304819 0.0017733453377770446 0 -0.035766688966304819 0.0017733453377770446 0 -0.03634230248332828 0.002493120668564892 0 -0.034999998100209352 0.0033274163511218479 0 -0.036729386661350311 0.0012396981952311366 0 -0.03609384922167639 0.0010117809123259673 0 -0.0359639701375997 0.0016027500003149076 0 -0.03609384922167639 0.0010117809123259673 0 -0.0359639701375997 0.0016027500003149076 0 -0.035683033270861045 0.001442094367662846 0 -0.037011480908824688 0.0026590845875824752 0 -0.0359639701375997 0.0016027500003149076 0 -0.036225942599928222 0.0024772595323654637 0 -0.035683033270861045 0.001442094367662846 0 -0.036225942599928222 0.0024772595323654637 0 -0.036131546452481192 0.0028149280944982751 0 -0.0359639701375997 0.0016027500003149076 0 -0.035683033270861045 0.001442094367662846 0 -0.036225942599928222 0.0024772595323654637 0 -0.037689685640815297 0.0035615954768174465 0 -0.036617430939735393 0.003108327937180137 0 -0.036040308591380327 0.0036811218166756393 0 -0.035683033270861045 0.001442094367662846 0 -0.036131546452481192 0.0028149280944982751 0 -0.036040308591380327 0.0036811218166756393 0 -0.035751913107805761 0.0020947136907433403 0 -0.035829121970570491 0.0031846494907036191 0 -0.037011480908824688 0.0026590845875824752 0 -0.036225942599928222 0.0024772595323654637 0 -0.036617430939735393 0.003108327937180137 0 -0.036131546452481192 0.0028149280944982751 0 -0.036617430939735393 0.003108327937180137 0 -0.036040308591380327 0.0036811218166756393 0 -0.036225942599928222 0.0024772595323654637 0 -0.036131546452481192 0.0028149280944982751 0 -0.036617430939735393 0.003108327937180137 0 -0.035829121970570491 0.0031846494907036191 0 -0.035831086225979907 0.0031905867391492848 0 -0.035725859479137624 0.0043770873598803807 0 -0.036265666288229019 0.0045202077789199633 0 -0.03661977800196304 0.0040794213569714088 0 -0.036265666288229019 0.0045202077789199633 0 -0.03661977800196304 0.0040794213569714088 0 -0.036656822295699179 0.0042931283634655218 0 -0.034999981992970913 0.0048399463663410204 0 -0.035725859479137624 0.0043770873598803807 0 -0.035000000008448967 0.003327459625932584 0 -0.035829121970570491 0.0031846494907036191 0 -0.035001952608917086 0.0033265717557347668 0 -0.03634230248332828 0.002493120668564892 0 -0.036642026633868389 0.0040874725309987796 0 -0.034999998100209352 0.0033274163511218479 0 -0.035725859479137624 0.0043770873598803807 0 -0.03661977800196304 0.0040794213569714088 0 -0.035000000008448967 0.003327459625932584 0 -0.040949883903519606 -0.0020742675853502568 0 -0.041340200994644923 -0.0011812770958373677 0 -0.040733775761850409 -0.0014920487315556704 0 -0.040949883903519606 -0.0020742675853502568 0 -0.040238785385399642 -0.0021342191095363896 0 -0.040522223265068394 -0.0026090824717821134 0 -0.040949883903519606 -0.0020742675853502568 0 -0.040733775761850409 -0.0014920487315556704 0 -0.040238785385399642 -0.0021342191095363896 0 -0.040949883903519606 -0.0020742675853502568 0 -0.041437337384392772 -0.0018661853401054499 0 -0.041340200994644923 -0.0011812770958373677 0 -0.040949883903519606 -0.0020742675853502568 0 -0.041437337384392772 -0.0018661853401054499 0 -0.041306416587644959 -0.0024199319151106922 0 -0.041340200994644923 -0.0011812770958373677 0 -0.040733775761850409 -0.0014920487315556704 0 -0.040932163301831852 -0.00073631761389012244 0 -0.040733775761850409 -0.0014920487315556704 0 -0.04011209388031136 -0.0010391131396802116 0 -0.040932163301831852 -0.00073631761389012244 0 -0.04011209388031136 -0.0010391131396802116 0 -0.040183581388540453 -0.0016332228397537615 0 -0.039592101205403199 -0.0018699232236172628 0 -0.040733775761850409 -0.0014920487315556704 0 -0.04011209388031136 -0.0010391131396802116 0 -0.040183581388540453 -0.0016332228397537615 0 -0.04011209388031136 -0.0010391131396802116 0 -0.039304685589016973 -0.0013613079432468192 0 -0.039592101205403199 -0.0018699232236172628 0 -0.039304685589016973 -0.0013613079432468192 0 -0.039004724863725131 -0.00091218721951050782 0 -0.038595844862146352 -0.0014161067730087441 0 -0.04011209388031136 -0.0010391131396802116 0 -0.039304685589016973 -0.0013613079432468192 0 -0.039572499552044484 -0.00085327302809487873 0 -0.039304685589016973 -0.0013613079432468192 0 -0.039004724863725131 -0.00091218721951050782 0 -0.039572499552044484 -0.00085327302809487873 0 -0.039304685589016973 -0.0013613079432468192 0 -0.038798376217817128 -0.0019437115247068991 0 -0.039592101205403199 -0.0018699232236172628 0 -0.039304685589016973 -0.0013613079432468192 0 -0.038798376217817128 -0.0019437115247068991 0 -0.038595844862146352 -0.0014161067730087441 0 -0.038798376217817128 -0.0019437115247068991 0 -0.039592101205403199 -0.0018699232236172628 0 -0.038848892844340011 -0.0024472802180789317 0 -0.039592101205403199 -0.0018699232236172628 0 -0.038848892844340011 -0.0024472802180789317 0 -0.039483393704796955 -0.0025365483409486599 0 -0.040733775761850409 -0.0014920487315556704 0 -0.040183581388540453 -0.0016332228397537615 0 -0.040238785385399642 -0.0021342191095363896 0 -0.040183581388540453 -0.0016332228397537615 0 -0.039592101205403199 -0.0018699232236172628 0 -0.040238785385399642 -0.0021342191095363896 0 -0.039592101205403199 -0.0018699232236172628 0 -0.040238785385399642 -0.0021342191095363896 0 -0.039483393704796955 -0.0025365483409486599 0 -0.040238785385399642 -0.0021342191095363896 0 -0.040038261141127872 -0.0027205176122854467 0 -0.040522223265068394 -0.0026090824717821134 0 -0.040238785385399642 -0.0021342191095363896 0 -0.040038261141127872 -0.0027205176122854467 0 -0.039483393704796955 -0.0025365483409486599 0 -0.040038261141127872 -0.0027205176122854467 0 -0.039550247788195471 -0.0032454466069028643 0 -0.04027182404412176 -0.0030135035810406937 0 -0.040038261141127872 -0.0027205176122854467 0 -0.04027182404412176 -0.0030135035810406937 0 -0.040522223265068394 -0.0026090824717821134 0 -0.038848892844340011 -0.0024472802180789317 0 -0.038856162855343143 -0.0028262578845795819 0 -0.039483393704796955 -0.0025365483409486599 0 -0.040038261141127872 -0.0027205176122854467 0 -0.039483393704796955 -0.0025365483409486599 0 -0.039550247788195471 -0.0032454466069028643 0 -0.038856162855343143 -0.0028262578845795819 0 -0.039483393704796955 -0.0025365483409486599 0 -0.039550247788195471 -0.0032454466069028643 0 -0.038856162855343143 -0.0028262578845795819 0 -0.039550247788195471 -0.0032454466069028643 0 -0.038550645180427418 -0.0032594762644064371 0 -0.040288857567906532 -0.0048330458532837095 0 -0.039550247788195471 -0.0032454466069028643 0 -0.038746025579057992 -0.0041271485472313676 0 -0.039550247788195471 -0.0032454466069028643 0 -0.038746025579057992 -0.0041271485472313676 0 -0.038550645180427418 -0.0032594762644064371 0 -0.03778746795133725 -0.0014737448679334492 0 -0.03807063800611668 -0.0019170749479239242 0 -0.040391236285717919 -0.0032721612190082607 0 -0.039550247788195471 -0.0032454466069028643 0 -0.040189673640985524 -0.003184509110443929 0 -0.039550247788195471 -0.0032454466069028643 0 -0.04027182404412176 -0.0030135035810406937 0 -0.040189673640985524 -0.003184509110443929 0 -0.04027182404412176 -0.0030135035810406937 0 -0.040189673640985524 -0.003184509110443929 0 -0.040499050761666301 -0.0031577270321032774 0 -0.040391236285717919 -0.0032721612190082607 0 -0.040189673640985524 -0.003184509110443929 0 -0.040499050761666301 -0.0031577270321032774 0 -0.040499050761666301 -0.0031577270321032774 0 -0.040772287617657971 -0.0030913114266144163 0 -0.040675356965910243 -0.0029272797162754921 0 -0.040772287617657971 -0.0030913114266144163 0 -0.040675356965910243 -0.0029272797162754921 0 -0.04099053707698877 -0.0029789221667310267 0 -0.040675356965910243 -0.0029272797162754921 0 -0.040963484482841518 -0.0026548789217743182 0 -0.04099053707698877 -0.0029789221667310267 0 -0.04027182404412176 -0.0030135035810406937 0 -0.040499050761666301 -0.0031577270321032774 0 -0.040675356965910243 -0.0029272797162754921 0 -0.04027182404412176 -0.0030135035810406937 0 -0.040675356965910243 -0.0029272797162754921 0 -0.040522223265068394 -0.0026090824717821134 0 -0.040949883903519606 -0.0020742675853502568 0 -0.040522223265068394 -0.0026090824717821134 0 -0.040963484482841518 -0.0026548789217743182 0 -0.040675356965910243 -0.0029272797162754921 0 -0.040522223265068394 -0.0026090824717821134 0 -0.040963484482841518 -0.0026548789217743182 0 -0.040949883903519606 -0.0020742675853502568 0 -0.041306416587644959 -0.0024199319151106922 0 -0.040963484482841518 -0.0026548789217743182 0 -0.041306416587644959 -0.0024199319151106922 0 -0.040963484482841518 -0.0026548789217743182 0 -0.041229821559543703 -0.0028132819413466694 0 -0.040963484482841518 -0.0026548789217743182 0 -0.041229821559543703 -0.0028132819413466694 0 -0.04099053707698877 -0.0029789221667310267 0 -0.041203594653341398 -0.0030564116573919284 0 -0.041229821559543703 -0.0028132819413466694 0 -0.04099053707698877 -0.0029789221667310267 0 -0.041203594653341398 -0.0030564116573919284 0 -0.041229821559543703 -0.0028132819413466694 0 -0.041414596541694576 -0.0029574675360571623 0 -0.041229821559543703 -0.0028132819413466694 0 -0.041414596541694576 -0.0029574675360571623 0 -0.041461136259964164 -0.0026531471433117971 0 -0.041414596541694576 -0.0029574675360571623 0 -0.041701407337785268 -0.0026854789404916414 0 -0.041461136259964164 -0.0026531471433117971 0 -0.041414596541694576 -0.0029574675360571623 0 -0.041580636690009991 -0.0029053347422027119 0 -0.041701407337785268 -0.0026854789404916414 0 -0.041414596541694576 -0.0029574675360571623 0 -0.041486012656862276 -0.0030489917951811926 0 -0.041580636690009991 -0.0029053347422027119 0 -0.041331967219259018 -0.0031348777635273484 0 -0.041414596541694576 -0.0029574675360571623 0 -0.041486012656862276 -0.0030489917951811926 0 -0.041321464276260919 -0.003214028283566186 0 -0.041486012656862276 -0.0030489917951811926 0 -0.041780548724577184 -0.0029067917715577284 0 -0.041486012656862276 -0.0030489917951811926 0 -0.041780548724577184 -0.0029067917715577284 0 -0.041740431515587491 -0.0029088956996011039 0 -0.041486012656862276 -0.0030489917951811926 0 -0.041580636690009991 -0.0029053347422027119 0 -0.041740431515587491 -0.0029088956996011039 0 -0.040063805866564974 0.0012042611332926906 0 -0.040046123356089328 0.0016461739028004745 0 -0.041321464276260919 -0.003214028283566186 0 -0.041283488191771189 -0.0037287175956504438 0 -0.040864952600291278 -0.0034966665474063805 0 -0.040046123356089328 0.0016461739028004745 0 -0.040050015170663956 0.0016432600063594292 0 -0.041580636690009991 -0.0029053347422027119 0 -0.041740431515587491 -0.0029088956996011039 0 -0.041701407337785268 -0.0026854789404916414 0 -0.041842770854255203 -0.0028996658363404947 0 -0.041740431515587491 -0.0029088956996011039 0 -0.041701407337785268 -0.0026854789404916414 0 -0.040046123356089328 0.0016461739028004745 0 -0.040732079011183919 0.0016021873430968842 0 -0.041842770854255203 -0.0028996658363404947 0 -0.041701407337785268 -0.0026854789404916414 0 -0.042271990032778962 -0.002076747304441772 0 -0.041701407337785268 -0.0026854789404916414 0 -0.041714719689342997 -0.002242899348386371 0 -0.042271990032778962 -0.002076747304441772 0 -0.042969916971903471 0.0067273685924971625 0 -0.042176437764063657 0.0059025805394306123 0 -0.042907150918022642 0.0053078138323400803 0 -0.041437337384392772 -0.0018661853401054499 0 -0.041306416587644959 -0.0024199319151106922 0 -0.041714719689342997 -0.002242899348386371 0 -0.041306416587644959 -0.0024199319151106922 0 -0.041229821559543703 -0.0028132819413466694 0 -0.041461136259964164 -0.0026531471433117971 0 -0.041306416587644959 -0.0024199319151106922 0 -0.041714719689342997 -0.002242899348386371 0 -0.041461136259964164 -0.0026531471433117971 0 -0.041701407337785268 -0.0026854789404916414 0 -0.041714719689342997 -0.002242899348386371 0 -0.041461136259964164 -0.0026531471433117971 0 -0.040534744709724159 -0.0034204769969838227 0 -0.039981356279496519 -0.0034832212584670272 0 -0.040522089406213095 -0.003795308481638338 0 -0.041283488191771189 -0.0037287175956504438 0 -0.040522089406213095 -0.003795308481638338 0 -0.040864952600291278 -0.0034966665474063805 0 -0.040046123356089328 0.0016461739028004745 0 -0.040448733663855457 0.0028187174132307657 0 -0.042969916971903471 0.0067273685924971625 0 -0.041444246102536775 0.0065942801543513131 0 -0.042176437764063657 0.0059025805394306123 0 -0.040534744709724159 -0.0034204769969838227 0 -0.040522089406213095 -0.003795308481638338 0 -0.040864952600291278 -0.0034966665474063805 0 -0.039939080700447598 0.0064609505645568457 0 -0.041444246102536775 0.0065942801543513131 0 -0.04131410073864978 0.0055672194511946571 0 -0.041444246102536775 0.0065942801543513131 0 -0.042176437764063657 0.0059025805394306123 0 -0.04131410073864978 0.0055672194511946571 0 -0.040271376819250554 0.005236471915773323 0 -0.04131410073864978 0.0055672194511946571 0 -0.040887065055854696 0.0043255320301118288 0 -0.04131410073864978 0.0055672194511946571 0 -0.041945619912164882 0.0046816703655182248 0 -0.040887065055854696 0.0043255320301118288 0 -0.042176437764063657 0.0059025805394306123 0 -0.04131410073864978 0.0055672194511946571 0 -0.041945619912164882 0.0046816703655182248 0 -0.041945619912164882 0.0046816703655182248 0 -0.042907150918022642 0.0053078138323400803 0 -0.042828057802917832 0.0038026033766664609 0 -0.042176437764063657 0.0059025805394306123 0 -0.041945619912164882 0.0046816703655182248 0 -0.042907150918022642 0.0053078138323400803 0 -0.041945619912164882 0.0046816703655182248 0 -0.042828057802917832 0.0038026033766664609 0 -0.041583011066616861 0.0030506973726092631 0 -0.041945619912164882 0.0046816703655182248 0 -0.040887065055854696 0.0043255320301118288 0 -0.041583011066616861 0.0030506973726092631 0 -0.040624253471127997 0.0032482722034010152 0 -0.040887065055854696 0.0043255320301118288 0 -0.041583011066616861 0.0030506973726092631 0 -0.041437337384392772 -0.0018661853401054499 0 -0.041714719689342997 -0.002242899348386371 0 -0.041867295953268338 -0.0014957372708292692 0 -0.042271990032778962 -0.002076747304441772 0 -0.042493651891874477 -0.0010766840919254944 0 -0.041867295953268338 -0.0014957372708292692 0 -0.040732079011183919 0.0016021873430968842 0 -0.041151428970905575 0.0014219971623325267 0 -0.041714719689342997 -0.002242899348386371 0 -0.042271990032778962 -0.002076747304441772 0 -0.041867295953268338 -0.0014957372708292692 0 -0.042493651891874477 -0.0010766840919254944 0 -0.041867295953268338 -0.0014957372708292692 0 -0.041940084864981207 -0.00045924013996077786 0 -0.041340200994644923 -0.0011812770958373677 0 -0.041867295953268338 -0.0014957372708292692 0 -0.041940084864981207 -0.00045924013996077786 0 -0.041437337384392772 -0.0018661853401054499 0 -0.041340200994644923 -0.0011812770958373677 0 -0.041867295953268338 -0.0014957372708292692 0 -0.041151428970905575 0.0014219971623325267 0 -0.04136073585187814 0.0012225326771346178 0 -0.042493651891874477 -0.0010766840919254944 0 -0.041940084864981207 -0.00045924013996077786 0 -0.042452123234680887 -0.00013039395428801764 0 -0.041940084864981207 -0.00045924013996077786 0 -0.042071301941648112 0.00019350612952306063 0 -0.042452123234680887 -0.00013039395428801764 0 -0.042071301941648112 0.00019350612952306063 0 -0.042452123234680887 -0.00013039395428801764 0 -0.042086871013946883 0.00054075481017713291 0 -0.04136073585187814 0.0012225326771346178 0 -0.041414650428874017 0.0011162790347935573 0 -0.041940084864981207 -0.00045924013996077786 0 -0.042071301941648112 0.00019350612952306063 0 -0.04184218365905315 0.00016789934975192518 0 -0.041940084864981207 -0.00045924013996077786 0 -0.04184218365905315 0.00016789934975192518 0 -0.041494905748913034 -0.00025542151901701598 0 -0.040624253471127997 0.0032482722034010152 0 -0.041583011066616861 0.0030506973726092631 0 -0.040890659911296201 0.0018126835016532197 0 -0.042828057802917832 0.0038026033766664609 0 -0.04263435072012281 0.0021942985667517205 0 -0.041583011066616861 0.0030506973726092631 0 -0.04263435072012281 0.0021942985667517205 0 -0.041698907375757231 0.0014541150861931437 0 -0.042086871013946883 0.00054075481017713291 0 -0.04263435072012281 0.0021942985667517205 0 -0.041583011066616861 0.0030506973726092631 0 -0.041698907375757231 0.0014541150861931437 0 -0.041583011066616861 0.0030506973726092631 0 -0.041698907375757231 0.0014541150861931437 0 -0.040890659911296201 0.0018126835016532197 0 -0.040179304073256407 0.0010086223266625861 0 -0.040890659911296201 0.0018126835016532197 0 -0.041006250571254323 0.0004820705371944342 0 -0.041698907375757231 0.0014541150861931437 0 -0.040890659911296201 0.0018126835016532197 0 -0.041006250571254323 0.0004820705371944342 0 -0.041698907375757231 0.0014541150861931437 0 -0.041006250571254323 0.0004820705371944342 0 -0.042086871013946883 0.00054075481017713291 0 -0.041342370609641917 -0.0003812330665857917 0 -0.041006250571254323 0.0004820705371944342 0 -0.042086871013946883 0.00054075481017713291 0 -0.041860431352037639 -0.00013416436322101887 0 -0.041342370609641917 -0.0003812330665857917 0 -0.042086871013946883 0.00054075481017713291 0 -0.041342370609641917 -0.0003812330665857917 0 -0.040331588908593959 -0.0006350799654571683 0 -0.041006250571254323 0.0004820705371944342 0 -0.04184218365905315 0.00016789934975192518 0 -0.041959440374537742 0.00041870649290388467 0 -0.041674113173320017 0.00043994197940092062 0 -0.042071301941648112 0.00019350612952306063 0 -0.04184218365905315 0.00016789934975192518 0 -0.041959440374537742 0.00041870649290388467 0 -0.041959440374537742 0.00041870649290388467 0 -0.041842528543378568 0.00046095767428215752 0 -0.041674113173320017 0.00043994197940092062 0 -0.042071301941648112 0.00019350612952306063 0 -0.041959440374537742 0.00041870649290388467 0 -0.042086871013946883 0.00054075481017713291 0 -0.041860431352037639 -0.00013416436322101887 0 -0.041959440374537742 0.00041870649290388467 0 -0.042086871013946883 0.00054075481017713291 0 -0.041860431352037639 -0.00013416436322101887 0 -0.041959440374537742 0.00041870649290388467 0 -0.041842528543378568 0.00046095767428215752 0 -0.04180657563858315 -2.6418479704880456e-05 0 -0.041842528543378568 0.00046095767428215752 0 -0.041834004041393702 0.00052608023522721927 0 -0.041842528543378568 0.00046095767428215752 0 -0.041834004041393702 0.00052608023522721927 0 -0.041658932358123041 0.00079998577356246562 0 -0.041834004041393702 0.00052608023522721927 0 -0.041791123044787867 0.0010217110710653711 0 -0.041658932358123041 0.00079998577356246562 0 -0.042002237910741036 0.00031150955262832137 0 -0.041834004041393702 0.00052608023522721927 0 -0.041791123044787867 0.0010217110710653711 0 -0.041791123044787867 0.0010217110710653711 0 -0.041658932358123041 0.00079998577356246562 0 -0.041444513493047438 0.0011177566991417338 0 -0.041658932358123041 0.00079998577356246562 0 -0.041330239899809273 0.00059628211774925355 0 -0.041674113173320017 0.00043994197940092062 0 -0.041658932358123041 0.00079998577356246562 0 -0.041330239899809273 0.00059628211774925355 0 -0.041444513493047438 0.0011177566991417338 0 -0.041842528543378568 0.00046095767428215752 0 -0.041658932358123041 0.00079998577356246562 0 -0.041674113173320017 0.00043994197940092062 0 -0.04184218365905315 0.00016789934975192518 0 -0.041674113173320017 0.00043994197940092062 0 -0.041494905748913034 -0.00025542151901701598 0 -0.041674113173320017 0.00043994197940092062 0 -0.041160683726788237 1.6211964523474332e-05 0 -0.041494905748913034 -0.00025542151901701598 0 -0.041330239899809273 0.00059628211774925355 0 -0.041674113173320017 0.00043994197940092062 0 -0.041160683726788237 1.6211964523474332e-05 0 -0.041330239899809273 0.00059628211774925355 0 -0.041160683726788237 1.6211964523474332e-05 0 -0.040852586322658098 0.00025672458477306082 0 -0.041160683726788237 1.6211964523474332e-05 0 -0.040555683127960353 -0.00038495953766123063 0 -0.040852586322658098 0.00025672458477306082 0 -0.041160683726788237 1.6211964523474332e-05 0 -0.040932163301831852 -0.00073631761389012244 0 -0.040555683127960353 -0.00038495953766123063 0 -0.041160683726788237 1.6211964523474332e-05 0 -0.040932163301831852 -0.00073631761389012244 0 -0.041494905748913034 -0.00025542151901701598 0 -0.041340200994644923 -0.0011812770958373677 0 -0.040932163301831852 -0.00073631761389012244 0 -0.041494905748913034 -0.00025542151901701598 0 -0.041340200994644923 -0.0011812770958373677 0 -0.041940084864981207 -0.00045924013996077786 0 -0.041494905748913034 -0.00025542151901701598 0 -0.03938324030793524 -0.00045526789351061264 0 -0.039748472715337942 3.9944129694669218e-05 0 -0.039109584806706114 2.2128756654259094e-05 0 -0.03938324030793524 -0.00045526789351061264 0 -0.039971294394719303 -0.00045508759577664673 0 -0.039748472715337942 3.9944129694669218e-05 0 -0.03938324030793524 -0.00045526789351061264 0 -0.039109584806706114 2.2128756654259094e-05 0 -0.038689377906711418 -0.00039098454696214602 0 -0.03938324030793524 -0.00045526789351061264 0 -0.039004724863725131 -0.00091218721951050782 0 -0.038689377906711418 -0.00039098454696214602 0 -0.03938324030793524 -0.00045526789351061264 0 -0.039572499552044484 -0.00085327302809487873 0 -0.039971294394719303 -0.00045508759577664673 0 -0.03938324030793524 -0.00045526789351061264 0 -0.039004724863725131 -0.00091218721951050782 0 -0.039572499552044484 -0.00085327302809487873 0 -0.04011209388031136 -0.0010391131396802116 0 -0.039572499552044484 -0.00085327302809487873 0 -0.039971294394719303 -0.00045508759577664673 0 -0.04011209388031136 -0.0010391131396802116 0 -0.040932163301831852 -0.00073631761389012244 0 -0.040555683127960353 -0.00038495953766123063 0 -0.04011209388031136 -0.0010391131396802116 0 -0.040555683127960353 -0.00038495953766123063 0 -0.039971294394719303 -0.00045508759577664673 0 -0.039971294394719303 -0.00045508759577664673 0 -0.040349648668408795 -3.3439838587420891e-06 0 -0.039748472715337942 3.9944129694669218e-05 0 -0.040555683127960353 -0.00038495953766123063 0 -0.039971294394719303 -0.00045508759577664673 0 -0.040349648668408795 -3.3439838587420891e-06 0 -0.040349648668408795 -3.3439838587420891e-06 0 -0.040081534346718704 0.00070204868458534592 0 -0.039748472715337942 3.9944129694669218e-05 0 -0.040555683127960353 -0.00038495953766123063 0 -0.040349648668408795 -3.3439838587420891e-06 0 -0.040852586322658098 0.00025672458477306082 0 -0.040349648668408795 -3.3439838587420891e-06 0 -0.040852586322658098 0.00025672458477306082 0 -0.040820003076163958 0.0007110962415993803 0 -0.041330239899809273 0.00059628211774925355 0 -0.040852586322658098 0.00025672458477306082 0 -0.040820003076163958 0.0007110962415993803 0 -0.040349648668408795 -3.3439838587420891e-06 0 -0.040081534346718704 0.00070204868458534592 0 -0.040820003076163958 0.0007110962415993803 0 -0.039515125307421926 0.0004683927187904191 0 -0.040081534346718704 0.00070204868458534592 0 -0.039748472715337942 3.9944129694669218e-05 0 -0.039515125307421926 0.0004683927187904191 0 -0.040081534346718704 0.00070204868458534592 0 -0.039002587638018928 0.00097618409010700178 0 -0.039515125307421926 0.0004683927187904191 0 -0.039748472715337942 3.9944129694669218e-05 0 -0.039109584806706114 2.2128756654259094e-05 0 -0.039109584806706114 2.2128756654259094e-05 0 -0.039002587638018928 0.00097618409010700178 0 -0.038381151461699722 0.00027604278427863259 0 -0.039515125307421926 0.0004683927187904191 0 -0.039109584806706114 2.2128756654259094e-05 0 -0.039002587638018928 0.00097618409010700178 0 -0.040081534346718704 0.00070204868458534592 0 -0.03990815781783566 0.0014431948977971663 0 -0.040861169284399021 0.0012516038108488687 0 -0.040081534346718704 0.00070204868458534592 0 -0.039002587638018928 0.00097618409010700178 0 -0.03990815781783566 0.0014431948977971663 0 -0.039002587638018928 0.00097618409010700178 0 -0.03990815781783566 0.0014431948977971663 0 -0.039065832422810316 0.0020846636012339355 0 -0.041330239899809273 0.00059628211774925355 0 -0.040820003076163958 0.0007110962415993803 0 -0.041444513493047438 0.0011177566991417338 0 -0.040081534346718704 0.00070204868458534592 0 -0.040820003076163958 0.0007110962415993803 0 -0.040861169284399021 0.0012516038108488687 0 -0.040861169284399021 0.0012516038108488687 0 -0.041444513493047438 0.0011177566991417338 0 -0.041613084177274426 0.0016862490130546968 0 -0.040820003076163958 0.0007110962415993803 0 -0.040861169284399021 0.0012516038108488687 0 -0.041444513493047438 0.0011177566991417338 0 -0.04055442689222178 0.0049076255693137798 0 -0.041613084177274426 0.0016862490130546968 0 -0.040236882001821239 0.0027357493140856021 0 -0.041791123044787867 0.0010217110710653711 0 -0.041444513493047438 0.0011177566991417338 0 -0.041613084177274426 0.0016862490130546968 0 -0.040861169284399021 0.0012516038108488687 0 -0.041613084177274426 0.0016862490130546968 0 -0.040236882001821239 0.0027357493140856021 0 -0.042306767019454947 0.00076836518909526854 0 -0.041791123044787867 0.0010217110710653711 0 -0.041613084177274426 0.0016862490130546968 0 -0.039065832422810316 0.0020846636012339355 0 -0.040236882001821239 0.0027357493140856021 0 -0.038923012898333019 0.0031246538173427623 0 -0.03990815781783566 0.0014431948977971663 0 -0.040861169284399021 0.0012516038108488687 0 -0.040236882001821239 0.0027357493140856021 0 -0.03990815781783566 0.0014431948977971663 0 -0.039065832422810316 0.0020846636012339355 0 -0.040236882001821239 0.0027357493140856021 0 -0.039365222199750992 0.003742107415924139 0 -0.040236882001821239 0.0027357493140856021 0 -0.038923012898333019 0.0031246538173427623 0 -0.039365222199750992 0.003742107415924139 0 -0.03870827392525434 0.0040663765584806593 0 -0.038923012898333019 0.0031246538173427623 0 -0.038923012898333019 0.0031246538173427623 0 -0.038168164982392547 0.0035610512968003581 0 -0.038019874973132278 0.0027285474430897537 0 -0.03870827392525434 0.0040663765584806593 0 -0.038923012898333019 0.0031246538173427623 0 -0.038168164982392547 0.0035610512968003581 0 -0.039065832422810316 0.0020846636012339355 0 -0.038923012898333019 0.0031246538173427623 0 -0.038019874973132278 0.0027285474430897537 0 -0.038019874973132278 0.0027285474430897537 0 -0.036684170892800322 0.003041068948756867 0 -0.037474202505992607 0.0020516586278298866 0 -0.038168164982392547 0.0035610512968003581 0 -0.038019874973132278 0.0027285474430897537 0 -0.0372638954097732 0.0037823380351680478 0 -0.035931074224263115 0.0041832895336711444 0 -0.036684170892800322 0.003041068948756867 0 -0.0349571162622941 0.0033095050362826153 0 -0.035931074224263115 0.0041832895336711444 0 -0.0372638954097732 0.0037823380351680478 0 -0.036684170892800322 0.003041068948756867 0 -0.036684170892800322 0.003041068948756867 0 -0.036193196942777263 0.0021588798544153525 0 -0.0349571162622941 0.0033095050362826153 0 -0.038019874973132278 0.0027285474430897537 0 -0.0372638954097732 0.0037823380351680478 0 -0.036684170892800322 0.003041068948756867 0 -0.036684170892800322 0.003041068948756867 0 -0.036193196942777263 0.0021588798544153525 0 -0.037474202505992607 0.0020516586278298866 0 -0.036193196942777263 0.0021588798544153525 0 -0.036996212883891627 0.0014771152527519656 0 -0.03644919360038916 0.00094329494594503282 0 -0.036193196942777263 0.0021588798544153525 0 -0.036996212883891627 0.0014771152527519656 0 -0.037474202505992607 0.0020516586278298866 0 -0.036996212883891627 0.0014771152527519656 0 -0.037474202505992607 0.0020516586278298866 0 -0.038006210253481471 0.0010568769887404784 0 -0.038346414495682629 0.0017562850226478224 0 -0.037474202505992607 0.0020516586278298866 0 -0.038006210253481471 0.0010568769887404784 0 -0.039002587638018928 0.00097618409010700178 0 -0.038346414495682629 0.0017562850226478224 0 -0.038006210253481471 0.0010568769887404784 0 -0.039002587638018928 0.00097618409010700178 0 -0.039065832422810316 0.0020846636012339355 0 -0.038346414495682629 0.0017562850226478224 0 -0.039065832422810316 0.0020846636012339355 0 -0.038019874973132278 0.0027285474430897537 0 -0.038346414495682629 0.0017562850226478224 0 -0.038019874973132278 0.0027285474430897537 0 -0.038346414495682629 0.0017562850226478224 0 -0.037474202505992607 0.0020516586278298866 0 -0.033248083872683784 0.0046468228040407403 0 -0.033343273776397925 0.0034296681161599275 0 -0.0349571162622941 0.0033095050362826153 0 -0.033343273776397925 0.0034296681161599275 0 -0.0349571162622941 0.0033095050362826153 0 -0.034143762330943378 0.0026884489799809002 0 -0.036193196942777263 0.0021588798544153525 0 -0.0349571162622941 0.0033095050362826153 0 -0.034946967441434641 0.0017682133637143267 0 -0.0349571162622941 0.0033095050362826153 0 -0.034946967441434641 0.0017682133637143267 0 -0.034143762330943378 0.0026884489799809002 0 -0.036193196942777263 0.0021588798544153525 0 -0.034946967441434641 0.0017682133637143267 0 -0.03644919360038916 0.00094329494594503282 0 -0.034946967441434641 0.0017682133637143267 0 -0.034143762330943378 0.0026884489799809002 0 -0.03334856712457783 0.0022158159031918996 0 -0.033343273776397925 0.0034296681161599275 0 -0.034143762330943378 0.0026884489799809002 0 -0.03334856712457783 0.0022158159031918996 0 -0.033343273776397925 0.0034296681161599275 0 -0.03334856712457783 0.0022158159031918996 0 -0.032212171194404685 0.0030813054830561106 0 -0.03334856712457783 0.0022158159031918996 0 -0.033906688633049131 0.00073097737359068221 0 -0.031723434642800453 0.0019825368150970363 0 -0.034946967441434641 0.0017682133637143267 0 -0.03334856712457783 0.0022158159031918996 0 -0.033906688633049131 0.00073097737359068221 0 -0.033906688633049131 0.00073097737359068221 0 -0.035633836039423036 0.00055757838024241739 0 -0.035206969091912829 -0.00044534664047346593 0 -0.034946967441434641 0.0017682133637143267 0 -0.033906688633049131 0.00073097737359068221 0 -0.035633836039423036 0.00055757838024241739 0 -0.034946967441434641 0.0017682133637143267 0 -0.035633836039423036 0.00055757838024241739 0 -0.03644919360038916 0.00094329494594503282 0 -0.035633836039423036 0.00055757838024241739 0 -0.035206969091912829 -0.00044534664047346593 0 -0.036229499302420552 -0.00028482663509940515 0 -0.036110274337649018 -0.00095828486782456612 0 -0.035206969091912829 -0.00044534664047346593 0 -0.036229499302420552 -0.00028482663509940515 0 -0.036110274337649018 -0.00095828486782456612 0 -0.035206969091912829 -0.00044534664047346593 0 -0.034943153687696224 -0.0013794259772615949 0 -0.035206969091912829 -0.00044534664047346593 0 -0.033993714938560196 -0.00048796185058377201 0 -0.034943153687696224 -0.0013794259772615949 0 -0.033906688633049131 0.00073097737359068221 0 -0.033993714938560196 -0.00048796185058377201 0 -0.032097934228733797 -0.00010125276046142171 0 -0.033906688633049131 0.00073097737359068221 0 -0.035206969091912829 -0.00044534664047346593 0 -0.033993714938560196 -0.00048796185058377201 0 -0.037583855343524014 0.00050665226006487839 0 -0.038381151461699722 0.00027604278427863259 0 -0.037882441599652511 -0.00032366364555990861 0 -0.037583855343524014 0.00050665226006487839 0 -0.037027405598615275 0.00017893226668980625 0 -0.037882441599652511 -0.00032366364555990861 0 -0.039002587638018928 0.00097618409010700178 0 -0.038381151461699722 0.00027604278427863259 0 -0.038006210253481471 0.0010568769887404784 0 -0.037583855343524014 0.00050665226006487839 0 -0.038381151461699722 0.00027604278427863259 0 -0.038006210253481471 0.0010568769887404784 0 -0.036996212883891627 0.0014771152527519656 0 -0.037583855343524014 0.00050665226006487839 0 -0.038006210253481471 0.0010568769887404784 0 -0.036996212883891627 0.0014771152527519656 0 -0.037583855343524014 0.00050665226006487839 0 -0.03644919360038916 0.00094329494594503282 0 -0.035633836039423036 0.00055757838024241739 0 -0.03644919360038916 0.00094329494594503282 0 -0.037027405598615275 0.00017893226668980625 0 -0.037583855343524014 0.00050665226006487839 0 -0.03644919360038916 0.00094329494594503282 0 -0.037027405598615275 0.00017893226668980625 0 -0.037027405598615275 0.00017893226668980625 0 -0.037113058479110395 -0.00072425367804897732 0 -0.037882441599652511 -0.00032366364555990861 0 -0.037027405598615275 0.00017893226668980625 0 -0.036229499302420552 -0.00028482663509940515 0 -0.037113058479110395 -0.00072425367804897732 0 -0.035633836039423036 0.00055757838024241739 0 -0.037027405598615275 0.00017893226668980625 0 -0.036229499302420552 -0.00028482663509940515 0 -0.036110274337649018 -0.00095828486782456612 0 -0.037113058479110395 -0.00072425367804897732 0 -0.036750195916667679 -0.001195068246830524 0 -0.036110274337649018 -0.00095828486782456612 0 -0.036229499302420552 -0.00028482663509940515 0 -0.037113058479110395 -0.00072425367804897732 0 -0.037113058479110395 -0.00072425367804897732 0 -0.037736213723007436 -0.00095764456697537974 0 -0.037882441599652511 -0.00032366364555990861 0 -0.037736213723007436 -0.00095764456697537974 0 -0.037882441599652511 -0.00032366364555990861 0 -0.038333997635486422 -0.00090197610391788761 0 -0.039109584806706114 2.2128756654259094e-05 0 -0.038381151461699722 0.00027604278427863259 0 -0.038689377906711418 -0.00039098454696214602 0 -0.038381151461699722 0.00027604278427863259 0 -0.037882441599652511 -0.00032366364555990861 0 -0.038689377906711418 -0.00039098454696214602 0 -0.039004724863725131 -0.00091218721951050782 0 -0.038689377906711418 -0.00039098454696214602 0 -0.038333997635486422 -0.00090197610391788761 0 -0.037882441599652511 -0.00032366364555990861 0 -0.038689377906711418 -0.00039098454696214602 0 -0.038333997635486422 -0.00090197610391788761 0 -0.039004724863725131 -0.00091218721951050782 0 -0.038333997635486422 -0.00090197610391788761 0 -0.038595844862146352 -0.0014161067730087441 0 -0.038333997635486422 -0.00090197610391788761 0 -0.038595844862146352 -0.0014161067730087441 0 -0.037931111024099233 -0.0014391663172904693 0 -0.037736213723007436 -0.00095764456697537974 0 -0.038333997635486422 -0.00090197610391788761 0 -0.037931111024099233 -0.0014391663172904693 0 -0.037736213723007436 -0.00095764456697537974 0 -0.037931111024099233 -0.0014391663172904693 0 -0.037309060021431022 -0.0012856114603759211 0 -0.037931111024099233 -0.0014391663172904693 0 -0.038154824031873334 -0.0019019755406395307 0 -0.037401078757634688 -0.0019128693448582023 0 -0.038798376217817128 -0.0019437115247068991 0 -0.038595844862146352 -0.0014161067730087441 0 -0.038154824031873334 -0.0019019755406395307 0 -0.038595844862146352 -0.0014161067730087441 0 -0.037931111024099233 -0.0014391663172904693 0 -0.038154824031873334 -0.0019019755406395307 0 -0.038798376217817128 -0.0019437115247068991 0 -0.038848892844340011 -0.0024472802180789317 0 -0.03828324700889562 -0.0023315933787612536 0 -0.038798376217817128 -0.0019437115247068991 0 -0.038154824031873334 -0.0019019755406395307 0 -0.03828324700889562 -0.0023315933787612536 0 -0.038154824031873334 -0.0019019755406395307 0 -0.03828324700889562 -0.0023315933787612536 0 -0.037760185771370934 -0.0022847684558556839 0 -0.038154824031873334 -0.0019019755406395307 0 -0.037760185771370934 -0.0022847684558556839 0 -0.037401078757634688 -0.0019128693448582023 0 -0.03828324700889562 -0.0023315933787612536 0 -0.037852344013288103 -0.0026375020710338146 0 -0.038276145147567352 -0.0027227915346165581 0 -0.03828324700889562 -0.0023315933787612536 0 -0.037760185771370934 -0.0022847684558556839 0 -0.037852344013288103 -0.0026375020710338146 0 -0.037760185771370934 -0.0022847684558556839 0 -0.037852344013288103 -0.0026375020710338146 0 -0.037442762982790978 -0.0027676341606928047 0 -0.037852344013288103 -0.0026375020710338146 0 -0.037442762982790978 -0.0027676341606928047 0 -0.037829465478923255 -0.0029854774246016783 0 -0.037852344013288103 -0.0026375020710338146 0 -0.038276145147567352 -0.0027227915346165581 0 -0.037829465478923255 -0.0029854774246016783 0 -0.038848892844340011 -0.0024472802180789317 0 -0.03828324700889562 -0.0023315933787612536 0 -0.038276145147567352 -0.0027227915346165581 0 -0.036849888305446492 -0.002627620286682853 0 -0.036834228698478938 -0.0029827182453281511 0 -0.037442762982790978 -0.0027676341606928047 0 -0.036849888305446492 -0.002627620286682853 0 -0.036834228698478938 -0.0029827182453281511 0 -0.036324416765316933 -0.0027249475790859941 0 -0.036834228698478938 -0.0029827182453281511 0 -0.036324416765316933 -0.0027249475790859941 0 -0.036347705388538369 -0.0030331341619933799 0 -0.036834228698478938 -0.0029827182453281511 0 -0.036347705388538369 -0.0030331341619933799 0 -0.036604730325202527 -0.0032876928543794466 0 -0.036834228698478938 -0.0029827182453281511 0 -0.037442762982790978 -0.0027676341606928047 0 -0.037598008319648844 -0.0033377907131779709 0 -0.036849888305446492 -0.002627620286682853 0 -0.037442762982790978 -0.0027676341606928047 0 -0.037138021254775611 -0.0023523817359111126 0 -0.037760185771370934 -0.0022847684558556839 0 -0.037138021254775611 -0.0023523817359111126 0 -0.037401078757634688 -0.0019128693448582023 0 -0.037760185771370934 -0.0022847684558556839 0 -0.037442762982790978 -0.0027676341606928047 0 -0.037138021254775611 -0.0023523817359111126 0 -0.037138021254775611 -0.0023523817359111126 0 -0.03685857906953087 -0.0020293489351531136 0 -0.037401078757634688 -0.0019128693448582023 0 -0.037138021254775611 -0.0023523817359111126 0 -0.036462889392678451 -0.0022988496101857556 0 -0.03685857906953087 -0.0020293489351531136 0 -0.036849888305446492 -0.002627620286682853 0 -0.037138021254775611 -0.0023523817359111126 0 -0.036462889392678451 -0.0022988496101857556 0 -0.036849888305446492 -0.002627620286682853 0 -0.036462889392678451 -0.0022988496101857556 0 -0.036324416765316933 -0.0027249475790859941 0 -0.036462889392678451 -0.0022988496101857556 0 -0.03685857906953087 -0.0020293489351531136 0 -0.036183174434884509 -0.0017707850809244076 0 -0.036864120459291147 -0.0016405461626383862 0 -0.036750195916667679 -0.001195068246830524 0 -0.036183174434884509 -0.0017707850809244076 0 -0.03685857906953087 -0.0020293489351531136 0 -0.036864120459291147 -0.0016405461626383862 0 -0.036183174434884509 -0.0017707850809244076 0 -0.037931111024099233 -0.0014391663172904693 0 -0.037401078757634688 -0.0019128693448582023 0 -0.037309060021431022 -0.0012856114603759211 0 -0.036864120459291147 -0.0016405461626383862 0 -0.037401078757634688 -0.0019128693448582023 0 -0.037309060021431022 -0.0012856114603759211 0 -0.03685857906953087 -0.0020293489351531136 0 -0.036864120459291147 -0.0016405461626383862 0 -0.037401078757634688 -0.0019128693448582023 0 -0.037113058479110395 -0.00072425367804897732 0 -0.037736213723007436 -0.00095764456697537974 0 -0.037309060021431022 -0.0012856114603759211 0 -0.037113058479110395 -0.00072425367804897732 0 -0.037309060021431022 -0.0012856114603759211 0 -0.036750195916667679 -0.001195068246830524 0 -0.036864120459291147 -0.0016405461626383862 0 -0.037309060021431022 -0.0012856114603759211 0 -0.036750195916667679 -0.001195068246830524 0 -0.036110274337649018 -0.00095828486782456612 0 -0.036750195916667679 -0.001195068246830524 0 -0.036183174434884509 -0.0017707850809244076 0 -0.036110274337649018 -0.00095828486782456612 0 -0.034943153687696224 -0.0013794259772615949 0 -0.036183174434884509 -0.0017707850809244076 0 -0.034943153687696224 -0.0013794259772615949 0 -0.036183174434884509 -0.0017707850809244076 0 -0.035379045139132072 -0.002217486706381961 0 -0.034943153687696224 -0.0013794259772615949 0 -0.034075545733947124 -0.0024834223736108036 0 -0.035379045139132072 -0.002217486706381961 0 -0.033993714938560196 -0.00048796185058377201 0 -0.034943153687696224 -0.0013794259772615949 0 -0.033486716457384845 -0.001270751342331229 0 -0.034943153687696224 -0.0013794259772615949 0 -0.033486716457384845 -0.001270751342331229 0 -0.034075545733947124 -0.0024834223736108036 0 -0.034075545733947124 -0.0024834223736108036 0 -0.034014700943611094 -0.0036921160907474448 0 -0.032116588562009364 -0.0035530618596110379 0 -0.034075545733947124 -0.0024834223736108036 0 -0.035524928948803373 -0.0029407388548984325 0 -0.034014700943611094 -0.0036921160907474448 0 -0.035524928948803373 -0.0029407388548984325 0 -0.036064293193773994 -0.003696447471612966 0 -0.034014700943611094 -0.0036921160907474448 0 -0.036462889392678451 -0.0022988496101857556 0 -0.036183174434884509 -0.0017707850809244076 0 -0.035951158044665948 -0.0024665484574295021 0 -0.035951158044665948 -0.0024665484574295021 0 -0.035379045139132072 -0.002217486706381961 0 -0.035524928948803373 -0.0029407388548984325 0 -0.036183174434884509 -0.0017707850809244076 0 -0.035951158044665948 -0.0024665484574295021 0 -0.035379045139132072 -0.002217486706381961 0 -0.036462889392678451 -0.0022988496101857556 0 -0.035951158044665948 -0.0024665484574295021 0 -0.036324416765316933 -0.0027249475790859941 0 -0.034075545733947124 -0.0024834223736108036 0 -0.035379045139132072 -0.002217486706381961 0 -0.035524928948803373 -0.0029407388548984325 0 -0.035951158044665948 -0.0024665484574295021 0 -0.035524928948803373 -0.0029407388548984325 0 -0.036324416765316933 -0.0027249475790859941 0 -0.035524928948803373 -0.0029407388548984325 0 -0.036324416765316933 -0.0027249475790859941 0 -0.036347705388538369 -0.0030331341619933799 0 -0.035524928948803373 -0.0029407388548984325 0 -0.036347705388538369 -0.0030331341619933799 0 -0.036019649531534088 -0.003214755069094005 0 -0.035524928948803373 -0.0029407388548984325 0 -0.036019649531534088 -0.003214755069094005 0 -0.036064293193773994 -0.003696447471612966 0 -0.036347705388538369 -0.0030331341619933799 0 -0.036171887232483498 -0.003393547019865602 0 -0.036604730325202527 -0.0032876928543794466 0 -0.036347705388538369 -0.0030331341619933799 0 -0.036019649531534088 -0.003214755069094005 0 -0.036171887232483498 -0.003393547019865602 0 -0.036171887232483498 -0.003393547019865602 0 -0.036064293193773994 -0.003696447471612966 0 -0.036604730325202527 -0.0032876928543794466 0 -0.036019649531534088 -0.003214755069094005 0 -0.036171887232483498 -0.003393547019865602 0 -0.036064293193773994 -0.003696447471612966 0 -0.026049401911422472 0.005291563433811302 0 -0.026295217493623922 0.0048046788928366958 0 -0.016613730677438866 0.012425144601798577 0 -0.016550452008936657 0.012373970162628367 0 -0.016511743249227266 0.01240647182452876 0 -0.016613730677438866 0.012425144601798577 0 -0.016598849239743148 0.012372095092537826 0 -0.016648705032706147 0.012350884793544766 0 -0.016613730677438866 0.012425144601798577 0 -0.016550452008936657 0.012373970162628367 0 -0.016598849239743148 0.012372095092537826 0 -0.016511743249227266 0.01240647182452876 0 -0.016461461696384787 0.012317011240824009 0 -0.016425237826186413 0.012284024394664273 0 -0.016550452008936657 0.012373970162628367 0 -0.016511743249227266 0.01240647182452876 0 -0.016461461696384787 0.012317011240824009 0 -0.016461461696384787 0.012317011240824009 0 -0.016471111407716753 0.012323332367771287 0 -0.016563594906408512 0.01233489135683496 0 -0.016550452008936657 0.012373970162628367 0 -0.016461461696384787 0.012317011240824009 0 -0.016563594906408512 0.01233489135683496 0 -0.016461461696384787 0.012317011240824009 0 -0.016471111407716753 0.012323332367771287 0 -0.016362494242667378 0.01235249468087439 0 -0.016598849239743148 0.012372095092537826 0 -0.016563594906408512 0.01233489135683496 0 -0.016648705032706147 0.012350884793544766 0 -0.016550452008936657 0.012373970162628367 0 -0.016598849239743148 0.012372095092537826 0 -0.016563594906408512 0.01233489135683496 0 -0.016563594906408512 0.01233489135683496 0 -0.016648705032706147 0.012350884793544766 0 -0.016666224737321579 0.012277158617446235 0 -0.016648705032706147 0.012350884793544766 0 -0.016747875794357096 0.012332205162773727 0 -0.016666224737321579 0.012277158617446235 0 -0.016613730677438866 0.012425144601798577 0 -0.016648705032706147 0.012350884793544766 0 -0.016747875794357096 0.012332205162773727 0 -0.035968847359555987 -0.0020299984430120111 0 -0.037711318161660047 -0.0022059020620206035 0 -0.037541969948068903 -0.0031484151688300414 0 -0.035491033430046462 -0.00077715736958954397 0 -0.035968847359555987 -0.0020299984430120111 0 -0.037711318161660047 -0.0022059020620206035 0 -0.038746025579057992 -0.0041271485472313676 0 -0.037541969948068903 -0.0031484151688300414 0 -0.038550645180427418 -0.0032594762644064371 0 -0.037495931842086674 -0.0013233053745301978 0 -0.037590946755364132 -0.0015192077981131462 0 -0.038856162855343143 -0.0028262578845795819 0 -0.038550645180427418 -0.0032594762644064371 0 -0.038149556450374135 -0.002989142354555037 0 -0.037541969948068903 -0.0031484151688300414 0 -0.038550645180427418 -0.0032594762644064371 0 -0.038149556450374135 -0.002989142354555037 0 -0.038856162855343143 -0.0028262578845795819 0 -0.038149556450374135 -0.002989142354555037 0 -0.038276145147567352 -0.0027227915346165581 0 -0.038848892844340011 -0.0024472802180789317 0 -0.038856162855343143 -0.0028262578845795819 0 -0.038276145147567352 -0.0027227915346165581 0 -0.037541969948068903 -0.0031484151688300414 0 -0.038149556450374135 -0.002989142354555037 0 -0.037829465478923255 -0.0029854774246016783 0 -0.038149556450374135 -0.002989142354555037 0 -0.038276145147567352 -0.0027227915346165581 0 -0.037829465478923255 -0.0029854774246016783 0 -0.037541969948068903 -0.0031484151688300414 0 -0.037829465478923255 -0.0029854774246016783 0 -0.037598008319648844 -0.0033377907131779709 0 -0.037442762982790978 -0.0027676341606928047 0 -0.037829465478923255 -0.0029854774246016783 0 -0.037598008319648844 -0.0033377907131779709 0 -0.026049401911422472 0.005291563433811302 0 -0.026434895499501457 0.0061035345735151953 0 -0.038141651548286977 -0.0034721117219485955 0 -0.037711318161660047 -0.0022059020620206035 0 -0.037541969948068903 -0.0031484151688300414 0 -0.038141651548286977 -0.0034721117219485955 0 -0.037541969948068903 -0.0031484151688300414 0 -0.037598008319648844 -0.0033377907131779709 0 -0.036834228698478938 -0.0029827182453281511 0 -0.037598008319648844 -0.0033377907131779709 0 -0.036604730325202527 -0.0032876928543794466 0 -0.036064293193773994 -0.003696447471612966 0 -0.037598008319648844 -0.0033377907131779709 0 -0.036604730325202527 -0.0032876928543794466 0 -0.026049401911422472 0.005291563433811302 0 -0.027088496839865427 0.0050161917691831075 0 -0.023366005667356013 0.0093700115951148785 0 -0.020597596337706619 0.0082009199700111765 0 -0.02495771016828183 0.0066376142095989901 0 -0.023366005667356013 0.0093700115951148785 0 -0.020597596337706619 0.0082009199700111765 0 -0.02152639492647548 0.011051869627855076 0 -0.020597596337706619 0.0082009199700111765 0 -0.02495771016828183 0.0066376142095989901 0 -0.02103451111576389 0.0045399636383944494 0 -0.02495771016828183 0.0066376142095989901 0 -0.027594080309090288 0.006697969582430869 0 -0.028783728960477949 0.0033893232433050073 0 -0.027594080309090288 0.006697969582430869 0 -0.029797434907069275 0.0066092768319332747 0 -0.028783728960477949 0.0033893232433050073 0 -0.029797434907069275 0.0066092768319332747 0 -0.026846381566789958 0.010086598693945958 0 -0.030937934754258975 0.010756542682463977 0 -0.027594080309090288 0.006697969582430869 0 -0.029797434907069275 0.0066092768319332747 0 -0.026846381566789958 0.010086598693945958 0 -0.02495771016828183 0.0066376142095989901 0 -0.027594080309090288 0.006697969582430869 0 -0.026846381566789958 0.010086598693945958 0 -0.023366005667356013 0.0093700115951148785 0 -0.02495771016828183 0.0066376142095989901 0 -0.026846381566789958 0.010086598693945958 0 -0.026846381566789958 0.010086598693945958 0 -0.02317498929183814 0.012082281976556926 0 -0.025668330332543149 0.01524576797389126 0 -0.026846381566789958 0.010086598693945958 0 -0.028844160635696153 0.013428164580579065 0 -0.025668330332543149 0.01524576797389126 0 -0.026846381566789958 0.010086598693945958 0 -0.028844160635696153 0.013428164580579065 0 -0.030937934754258975 0.010756542682463977 0 -0.021884364807953072 0.014082882694894371 0 -0.02317498929183814 0.012082281976556926 0 -0.025668330332543149 0.01524576797389126 0 -0.021884364807953072 0.014082882694894371 0 -0.02317498929183814 0.012082281976556926 0 -0.021131403157277889 0.012909164725352361 0 -0.023366005667356013 0.0093700115951148785 0 -0.02317498929183814 0.012082281976556926 0 -0.02152639492647548 0.011051869627855076 0 -0.023366005667356013 0.0093700115951148785 0 -0.026846381566789958 0.010086598693945958 0 -0.02317498929183814 0.012082281976556926 0 -0.020597596337706619 0.0082009199700111765 0 -0.02152639492647548 0.011051869627855076 0 -0.019886711602731033 0.012625316897380164 0 -0.02317498929183814 0.012082281976556926 0 -0.02152639492647548 0.011051869627855076 0 -0.021131403157277889 0.012909164725352361 0 -0.02152639492647548 0.011051869627855076 0 -0.019886711602731033 0.012625316897380164 0 -0.021131403157277889 0.012909164725352361 0 -0.019886711602731033 0.012625316897380164 0 -0.021131403157277889 0.012909164725352361 0 -0.020108515188093749 0.014615681097270574 0 -0.021884364807953072 0.014082882694894371 0 -0.021131403157277889 0.012909164725352361 0 -0.020108515188093749 0.014615681097270574 0 -0.021884364807953072 0.014082882694894371 0 -0.020108515188093749 0.014615681097270574 0 -0.021218021543075023 0.016189408970059382 0 -0.018648445230258118 0.012935557486801122 0 -0.017893050305848545 0.014032638702569319 0 -0.019140971062303971 0.014459086779456242 0 -0.018397008334268074 0.013991421041485819 0 -0.018543060587514988 0.0161266136226185 0 -0.020597596337706619 0.0082009199700111765 0 -0.016413779701605281 0.012650296193445628 0 -0.016425256965042358 0.012051757337779977 0 -0.020597596337706619 0.0082009199700111765 0 -0.018397008334268074 0.013991421041485819 0 -0.016198577725095923 0.015266688686333208 0 -0.020597596337706619 0.0082009199700111765 0 -0.019886711602731033 0.012625316897380164 0 -0.018397008334268074 0.013991421041485819 0 -0.019886711602731033 0.012625316897380164 0 -0.019140971062303971 0.014459086779456242 0 -0.018397008334268074 0.013991421041485819 0 -0.019886711602731033 0.012625316897380164 0 -0.020108515188093749 0.014615681097270574 0 -0.019140971062303971 0.014459086779456242 0 -0.018397008334268074 0.013991421041485819 0 -0.016198577725095923 0.015266688686333208 0 -0.017428136776608705 0.015723989376736386 0 -0.016461461696384787 0.012317011240824009 0 -0.016362494242667378 0.01235249468087439 0 -0.016416459044483876 0.012239681100410564 0 -0.016425256965042358 0.012051757337779977 0 -0.016362494242667378 0.01235249468087439 0 -0.016416459044483876 0.012239681100410564 0 -0.016413779701605281 0.012650296193445628 0 -0.016425256965042358 0.012051757337779977 0 -0.016362494242667378 0.01235249468087439 0 -0.016425256965042358 0.012051757337779977 0 -0.016416459044483876 0.012239681100410564 0 -0.016425237826186413 0.012284024394664273 0 -0.016461461696384787 0.012317011240824009 0 -0.016416459044483876 0.012239681100410564 0 -0.016425237826186413 0.012284024394664273 0 -0.016511743249227266 0.01240647182452876 0 -0.016425237826186413 0.012284024394664273 0 -0.016344300221641715 0.012440747785009571 0 -0.026199677897812322 0.0061182494493974733 0 -0.027052374665534638 0.0043317786703900669 0 -0.026295217493623922 0.0048046788928366958 0 -0.027052374665534638 0.0043317786703900669 0 -0.016425256965042358 0.012051757337779977 0 -0.016425237826186413 0.012284024394664273 0 -0.016344300221641715 0.012440747785009571 0 -0.020597596337706619 0.0082009199700111765 0 -0.01557801163231411 0.0055282469718119665 0 -0.02103451111576389 0.0045399636383944494 0 -0.020597596337706619 0.0082009199700111765 0 -0.016425256965042358 0.012051757337779977 0 -0.01557801163231411 0.0055282469718119665 0 -0.029734274595670348 0.0020309693195383199 0 -0.029964486864646284 0.001786131577930091 0 -0.029543214135682807 0.0018838992712623046 0 -0.029734274595670348 0.0020309693195383199 0 -0.029964486864646284 0.001786131577930091 0 -0.030042951248045843 0.0019804436181552528 0 -0.027052374665534638 0.0043317786703900669 0 -0.026978566219879818 0.0041801148609419241 0 -0.034075545733947124 -0.0024834223736108036 0 -0.032116588562009364 -0.0035530618596110379 0 -0.032223088523636312 -0.0017787487902553255 0 -0.027052374665534638 0.0043317786703900669 0 -0.027856395061701421 0.0028668333827984302 0 -0.033486716457384845 -0.001270751342331229 0 -0.032223088523636312 -0.0017787487902553255 0 -0.032097934228733797 -0.00010125276046142171 0 -0.033486716457384845 -0.001270751342331229 0 -0.034075545733947124 -0.0024834223736108036 0 -0.032223088523636312 -0.0017787487902553255 0 -0.029734274595670348 0.0020309693195383199 0 -0.030042951248045843 0.0019804436181552528 0 -0.030042009504873173 0.0019532624703565414 0 -0.030042951248045843 0.0019804436181552528 0 -0.030042009504873173 0.0019532624703565414 0 -0.030488962804394445 0.0018662222067870001 0 -0.029734274595670348 0.0020309693195383199 0 -0.030042009504873173 0.0019532624703565414 0 -0.029798229941547738 0.0019894352890355085 0 -0.029798229941547738 0.0019894352890355085 0 -0.029515352427458064 0.0020054972794868679 0 -0.029487279371302501 0.0020868792827372783 0 -0.029798229941547738 0.0019894352890355085 0 -0.029515352427458064 0.0020054972794868679 0 -0.029809504690931448 0.0019797412734984796 0 -0.029515352427458064 0.0020054972794868679 0 -0.029487279371302501 0.0020868792827372783 0 -0.02927833455453753 0.0021920012791048029 0 -0.029734274595670348 0.0020309693195383199 0 -0.029798229941547738 0.0019894352890355085 0 -0.029487279371302501 0.0020868792827372783 0 -0.02495771016828183 0.0066376142095989901 0 -0.02103451111576389 0.0045399636383944494 0 -0.028783728960477949 0.0033893232433050073 0 -0.029734274595670348 0.0020309693195383199 0 -0.029300957948227128 0.0022546687173780264 0 -0.029543214135682807 0.0018838992712623046 0 -0.026978566219879818 0.0041801148609419241 0 -0.027306554159302006 0.0041071323796547932 0 -0.029734274595670348 0.0020309693195383199 0 -0.029487279371302501 0.0020868792827372783 0 -0.029300957948227128 0.0022546687173780264 0 -0.029300957948227128 0.0022546687173780264 0 -0.029543214135682807 0.0018838992712623046 0 -0.028783728960477949 0.0033893232433050073 0 -0.029487279371302501 0.0020868792827372783 0 -0.029300957948227128 0.0022546687173780264 0 -0.02927833455453753 0.0021920012791048029 0 -0.029797434907069275 0.0066092768319332747 0 -0.028783728960477949 0.0033893232433050073 0 -0.029700702326465749 0.0018794109021389052 0 -0.029300957948227128 0.0022546687173780264 0 -0.028783728960477949 0.0033893232433050073 0 -0.02927833455453753 0.0021920012791048029 0 -0.028783728960477949 0.0033893232433050073 0 -0.02927833455453753 0.0021920012791048029 0 -0.029700702326465749 0.0018794109021389052 0 -0.0015525593884165661 0.010582650626157224 0 -0.0016573792940251574 0.011712242706474661 0 -0.0020445660169224997 0.012273193620580203 0 -0.014102471201740246 0.0089481864570689507 0 -0.013576138768686285 0.0085890755848575771 0 -0.029515352427458064 0.0020054972794868679 0 -0.029700702326465749 0.0018794109021389052 0 -0.029612068034013426 0.0019854337073019986 0 -0.0015525593884165661 0.010582650626157224 0 -0.0013994463845942392 0.011516037315233379 0 -0.0016573792940251574 0.011712242706474661 0 -0.029515352427458064 0.0020054972794868679 0 -0.02927833455453753 0.0021920012791048029 0 -0.029700702326465749 0.0018794109021389052 0 -0.0013994463845942392 0.011516037315233379 0 -0.0016573792940251574 0.011712242706474661 0 -0.0016691097502700037 0.012436381572441405 0 -0.0016691097502700037 0.012436381572441405 0 -0.0020445660169224997 0.012273193620580203 0 -0.001965261719495401 0.013743276306845013 0 -0.0020390662570613327 0.012969255343553709 0 -0.001759628310655211 0.013367455157739157 0 -0.0011574544866362745 0.012898927747532034 0 -0.0016573792940251574 0.011712242706474661 0 -0.0016691097502700037 0.012436381572441405 0 -0.0020445660169224997 0.012273193620580203 0 -0.029515352427458064 0.0020054972794868679 0 -0.029612068034013426 0.0019854337073019986 0 -0.029809504690931448 0.0019797412734984796 0 -0.029798229941547738 0.0019894352890355085 0 -0.029809504690931448 0.0019797412734984796 0 -0.030137825966933741 0.0019463655369475236 0 -0.029961408854551379 0.0020280256170052235 0 -0.030137825966933741 0.0019463655369475236 0 -0.030209269254393548 0.002008295959540472 0 -0.029809504690931448 0.0019797412734984796 0 -0.029961408854551379 0.0020280256170052235 0 -0.030137825966933741 0.0019463655369475236 0 -0.029612068034013426 0.0019854337073019986 0 -0.029809504690931448 0.0019797412734984796 0 -0.029961408854551379 0.0020280256170052235 0 -0.029612068034013426 0.0019854337073019986 0 -0.029961408854551379 0.0020280256170052235 0 -0.03012480174937943 0.0021363125035634197 0 -0.0020445660169224997 0.012273193620580203 0 -0.001965261719495401 0.013743276306845013 0 -0.0020083447783148995 0.013816460704801468 0 -0.0020390662570613327 0.012969255343553709 0 -0.001965261719495401 0.013743276306845013 0 -0.0019320433938612496 0.013608216192576987 0 -0.0014119540455472162 0.012182474653433469 0 -0.0016389041816463584 0.012476322346478864 0 -0.013576138768686285 0.0085890755848575771 0 -0.012788680256184353 0.0088269542308657845 0 -0.029961408854551379 0.0020280256170052235 0 -0.030147210392576274 0.0020596642691867364 0 -0.03012480174937943 0.0021363125035634197 0 -0.029961408854551379 0.0020280256170052235 0 -0.030147210392576274 0.0020596642691867364 0 -0.030209269254393548 0.002008295959540472 0 -0.030147210392576274 0.0020596642691867364 0 -0.03012480174937943 0.0021363125035634197 0 -0.030319172125622882 0.0020826485925544399 0 -0.001965261719495401 0.013743276306845013 0 -0.0019043299471940614 0.013776807697144042 0 -0.001915979817402657 0.013800490626401958 0 -0.001965261719495401 0.013743276306845013 0 -0.0020083447783148995 0.013816460704801468 0 -0.001915979817402657 0.013800490626401958 0 -0.001965261719495401 0.013743276306845013 0 -0.0019043299471940614 0.013776807697144042 0 -0.0019320433938612496 0.013608216192576987 0 -0.0019043299471940614 0.013776807697144042 0 -0.0019320433938612496 0.013608216192576987 0 -0.0018535345327145237 0.013814742383526712 0 -0.0020390662570613327 0.012969255343553709 0 -0.0019320433938612496 0.013608216192576987 0 -0.0019010127123021399 0.013573200122264368 0 -0.0019320433938612496 0.013608216192576987 0 -0.0019010127123021399 0.013573200122264368 0 -0.0018535345327145237 0.013814742383526712 0 -0.0017929161650052673 0.01396351510817178 0 -0.0019010127123021399 0.013573200122264368 0 -0.0018535345327145237 0.013814742383526712 0 -0.0017929161650052673 0.01396351510817178 0 -0.001759628310655211 0.013367455157739157 0 -0.0019010127123021399 0.013573200122264368 0 -0.0020390662570613327 0.012969255343553709 0 -0.001759628310655211 0.013367455157739157 0 -0.0019010127123021399 0.013573200122264368 0 -0.027856395061701421 0.0028668333827984302 0 -0.028353395674142565 0.0025358116225918134 0 -0.033993714938560196 -0.00048796185058377201 0 -0.033486716457384845 -0.001270751342331229 0 -0.032097934228733797 -0.00010125276046142171 0 -0.030042009504873173 0.0019532624703565414 0 -0.030488962804394445 0.0018662222067870001 0 -0.030137825966933741 0.0019463655369475236 0 -0.030488962804394445 0.0018662222067870001 0 -0.030137825966933741 0.0019463655369475236 0 -0.030601839909799696 0.0019442650138242032 0 -0.030042009504873173 0.0019532624703565414 0 -0.029798229941547738 0.0019894352890355085 0 -0.030137825966933741 0.0019463655369475236 0 -0.030209269254393548 0.002008295959540472 0 -0.030319172125622882 0.0020826485925544399 0 -0.030601839909799696 0.0019442650138242032 0 -0.030137825966933741 0.0019463655369475236 0 -0.030209269254393548 0.002008295959540472 0 -0.030601839909799696 0.0019442650138242032 0 -0.030147210392576274 0.0020596642691867364 0 -0.030209269254393548 0.002008295959540472 0 -0.030319172125622882 0.0020826485925544399 0 -0.03012480174937943 0.0021363125035634197 0 -0.030386506370884581 0.0021747814000043367 0 -0.030666593532884659 0.0024511942246992001 0 -0.030319172125622882 0.0020826485925544399 0 -0.03055501868319958 0.0021358609779383018 0 -0.030601839909799696 0.0019442650138242032 0 -0.03012480174937943 0.0021363125035634197 0 -0.030319172125622882 0.0020826485925544399 0 -0.030386506370884581 0.0021747814000043367 0 -0.030319172125622882 0.0020826485925544399 0 -0.030386506370884581 0.0021747814000043367 0 -0.03055501868319958 0.0021358609779383018 0 -0.030386506370884581 0.0021747814000043367 0 -0.03055501868319958 0.0021358609779383018 0 -0.030666593532884659 0.0024511942246992001 0 -0.031000041967152146 0.0021481006464307635 0 -0.030601839909799696 0.0019442650138242032 0 -0.031723434642800453 0.0019825368150970363 0 -0.03055501868319958 0.0021358609779383018 0 -0.031000041967152146 0.0021481006464307635 0 -0.030601839909799696 0.0019442650138242032 0 -0.030488962804394445 0.0018662222067870001 0 -0.030601839909799696 0.0019442650138242032 0 -0.031723434642800453 0.0019825368150970363 0 -0.033906688633049131 0.00073097737359068221 0 -0.032097934228733797 -0.00010125276046142171 0 -0.031723434642800453 0.0019825368150970363 0 -0.028353395674142565 0.0025358116225918134 0 -0.028530481899906989 0.0025714576106184591 0 -0.03334856712457783 0.0022158159031918996 0 -0.032212171194404685 0.0030813054830561106 0 -0.031723434642800453 0.0019825368150970363 0 -0.031000041967152146 0.0021481006464307635 0 -0.031723434642800453 0.0019825368150970363 0 -0.031439826315717338 0.0026915442144377563 0 -0.032212171194404685 0.0030813054830561106 0 -0.031439826315717338 0.0026915442144377563 0 -0.031132609457384046 0.0033139326953933968 0 -0.032212171194404685 0.0030813054830561106 0 -0.031723434642800453 0.0019825368150970363 0 -0.031439826315717338 0.0026915442144377563 0 -0.0020083447783148995 0.013816460704801468 0 -0.0014698348168151899 0.013707701093864978 0 -0.0017883257765315829 0.013778059174969435 0 -0.03012480174937943 0.0021363125035634197 0 -0.030666593532884659 0.0024511942246992001 0 -0.030956796598963953 0.0034476193894690107 0 -0.030982910820380568 0.0028786156368169466 0 -0.030666593532884659 0.0024511942246992001 0 -0.030956796598963953 0.0034476193894690107 0 -0.012788680256184353 0.0088269542308657845 0 -0.011233618680019588 0.0090033344556301135 0 -0.031439826315717338 0.0026915442144377563 0 -0.030982910820380568 0.0028786156368169466 0 -0.031132609457384046 0.0033139326953933968 0 -0.031439826315717338 0.0026915442144377563 0 -0.030982910820380568 0.0028786156368169466 0 -0.030979501726520618 0.0025128645212203495 0 -0.031000041967152146 0.0021481006464307635 0 -0.031439826315717338 0.0026915442144377563 0 -0.030979501726520618 0.0025128645212203495 0 -0.030982910820380568 0.0028786156368169466 0 -0.030979501726520618 0.0025128645212203495 0 -0.030666593532884659 0.0024511942246992001 0 -0.03055501868319958 0.0021358609779383018 0 -0.031000041967152146 0.0021481006464307635 0 -0.030666593532884659 0.0024511942246992001 0 -0.031000041967152146 0.0021481006464307635 0 -0.030979501726520618 0.0025128645212203495 0 -0.030666593532884659 0.0024511942246992001 0 -0.0014698348168151899 0.013707701093864978 0 -0.0016787468672400088 0.013747149348965914 0 -0.0017883257765315829 0.013778059174969435 0 -0.0014698348168151899 0.013707701093864978 0 -0.0016787468672400088 0.013747149348965914 0 -0.0015367998787973749 0.013641291146129249 0 -0.030982910820380568 0.0028786156368169466 0 -0.030956796598963953 0.0034476193894690107 0 -0.031132609457384046 0.0033139326953933968 0 -0.030935063747867211 0.0035452853520815393 0 -0.031132609457384046 0.0033139326953933968 0 -0.031872025720468107 0.0040813492678437192 0 -0.011233618680019588 0.0090033344556301135 0 -0.011322443062345587 0.0089296915700568993 0 -0.013032834748187819 0.0085269961995829372 0 -0.011233618680019588 0.0090033344556301135 0 -0.031939026843384809 0.005102790531443936 0 -0.030935063747867211 0.0035452853520815393 0 -0.031872025720468107 0.0040813492678437192 0 -0.032212171194404685 0.0030813054830561106 0 -0.031132609457384046 0.0033139326953933968 0 -0.031872025720468107 0.0040813492678437192 0 -0.033248083872683784 0.0046468228040407403 0 -0.033343273776397925 0.0034296681161599275 0 -0.031872025720468107 0.0040813492678437192 0 -0.033343273776397925 0.0034296681161599275 0 -0.032212171194404685 0.0030813054830561106 0 -0.031872025720468107 0.0040813492678437192 0 -0.0017877159450111462 0.013825262914253256 0 -0.0018046477693284878 0.013883267761361062 0 -0.0016699045719553722 0.013742945319534603 0 -0.0017929161650052673 0.01396351510817178 0 -0.0018046477693284878 0.013883267761361062 0 -0.0018535345327145237 0.013814742383526712 0 -0.0017877159450111462 0.013825262914253256 0 -0.0018046477693284878 0.013883267761361062 0 -0.0018535345327145237 0.013814742383526712 0 -0.0019043299471940614 0.013776807697144042 0 -0.0018535345327145237 0.013814742383526712 0 -0.0018206130548290643 0.013808424549862062 0 -0.0017877159450111462 0.013825262914253256 0 -0.0018535345327145237 0.013814742383526712 0 -0.0018206130548290643 0.013808424549862062 0 -0.0019043299471940614 0.013776807697144042 0 -0.0018206130548290643 0.013808424549862062 0 -0.001915979817402657 0.013800490626401958 0 -0.0020083447783148995 0.013816460704801468 0 -0.001915979817402657 0.013800490626401958 0 -0.0017883257765315829 0.013778059174969435 0 -0.0018206130548290643 0.013808424549862062 0 -0.001915979817402657 0.013800490626401958 0 -0.0017883257765315829 0.013778059174969435 0 -0.0018206130548290643 0.013808424549862062 0 -0.0016787468672400088 0.013747149348965914 0 -0.0016699045719553722 0.013742945319534603 0 -0.0018206130548290643 0.013808424549862062 0 -0.0016787468672400088 0.013747149348965914 0 -0.0017883257765315829 0.013778059174969435 0 -0.0017877159450111462 0.013825262914253256 0 -0.0018206130548290643 0.013808424549862062 0 -0.0016699045719553722 0.013742945319534603 0 -0.0013294523464395711 0.013320375487356293 0 -0.0016699045719553722 0.013742945319534603 0 -0.0015367998787973749 0.013641291146129249 0 -0.0013294523464395711 0.013320375487356293 0 -0.0014698348168151899 0.013707701093864978 0 -0.0015367998787973749 0.013641291146129249 0 -0.0013294523464395711 0.013320375487356293 0 -0.0016699045719553722 0.013742945319534603 0 -0.0016852790674854812 0.013624752294949896 0 -0.0016787468672400088 0.013747149348965914 0 -0.0016699045719553722 0.013742945319534603 0 -0.0015367998787973749 0.013641291146129249 0 -0.0018046477693284878 0.013883267761361062 0 -0.0016699045719553722 0.013742945319534603 0 -0.0016852790674854812 0.013624752294949896 0 -0.0018046477693284878 0.013883267761361062 0 -0.0016852790674854812 0.013624752294949896 0 -0.0020542872172378398 0.013820987428003024 0 -0.0018046477693284878 0.013883267761361062 0 -0.0020542872172378398 0.013820987428003024 0 -0.0021987564591768264 0.014086368171100793 0 -0.0017929161650052673 0.01396351510817178 0 -0.0018046477693284878 0.013883267761361062 0 -0.0021987564591768264 0.014086368171100793 0 -0.0021987564591768264 0.014086368171100793 0 -0.002363196347240565 0.014288169301489446 0 -0.0022926513520407734 0.01442680369055664 0 -0.0023977326518889353 0.013798903653504708 0 -0.0020542872172378398 0.013820987428003024 0 -0.002363196347240565 0.014288169301489446 0 -0.0020542872172378398 0.013820987428003024 0 -0.0021987564591768264 0.014086368171100793 0 -0.002363196347240565 0.014288169301489446 0 -0.002363196347240565 0.014288169301489446 0 -0.0025864381768707497 0.014187195834414671 0 -0.0019844284588398484 0.01527720594832158 0 -0.0023977326518889353 0.013798903653504708 0 -0.002363196347240565 0.014288169301489446 0 -0.0025864381768707497 0.014187195834414671 0 -0.0025864381768707497 0.014187195834414671 0 -0.0032972904721198589 0.014245695337541924 0 -0.0019844284588398484 0.01527720594832158 0 -0.0031451106188272646 0.013771897215649651 0 -0.0025864381768707497 0.014187195834414671 0 -0.0032972904721198589 0.014245695337541924 0 -0.00014063493071101566 0.014848703062494374 0 -0.000226576140636654 0.014828512639976282 0 -0.00078748425663826519 0.018242515874447449 0 -0.0019844284588398484 0.01527720594832158 0 0.0001176514624047319 0.01625222019706634 0 -0.0019844284588398484 0.01527720594832158 0 0.0001176514624047319 0.01625222019706634 0 -0.00015750351177215536 0.01438212132641771 0 -0.0019844284588398484 0.01527720594832158 0 -0.0022926513520407734 0.01442680369055664 0 -0.00015750351177215536 0.01438212132641771 0 -0.002363196347240565 0.014288169301489446 0 -0.0019844284588398484 0.01527720594832158 0 -0.0022926513520407734 0.01442680369055664 0 -0.0022926513520407734 0.01442680369055664 0 -0.0015196760759713949 0.013044105849414709 0 -0.0024702293645800103 0.014122065313156852 0 0.00072622096989546708 0.012909201975080968 0 -0.00022310535888329396 0.013256061909268218 0 -0.0022926513520407734 0.01442680369055664 0 -0.0015196760759713949 0.013044105849414709 0 -0.00015750351177215536 0.01438212132641771 0 0.0018729094601507162 0.012847948799920614 0 0.003686882191131217 0.012139406253845148 0 0.0024685643056374788 0.011204174541994787 0 0.0018729094601507162 0.012847948799920614 0 7.919555375191869e-07 0.013522094542028747 0 0.00080057499173001308 0.011479033745264114 0 -0.00032694219794351606 0.012301566072243674 0 -0.0011574544866362745 0.012898927747532034 0 7.919555375191869e-07 0.013522094542028747 0 -0.00032694219794351606 0.012301566072243674 0 7.919555375191869e-07 0.013522094542028747 0 0.00080057499173001308 0.011479033745264114 0 -0.0020390662570613327 0.012969255343553709 0 -0.0011574544866362745 0.012898927747532034 0 -0.00095062623959690101 0.011271902400333236 0 -0.00032694219794351606 0.012301566072243674 0 -0.0011574544866362745 0.012898927747532034 0 -0.00095062623959690101 0.011271902400333236 0 -0.0017929161650052673 0.01396351510817178 0 -0.001759628310655211 0.013367455157739157 0 -0.0011574544866362745 0.012898927747532034 0 -0.0017929161650052673 0.01396351510817178 0 -0.0011574544866362745 0.012898927747532034 0 7.919555375191869e-07 0.013522094542028747 0 -0.0017929161650052673 0.01396351510817178 0 -0.0021987564591768264 0.014086368171100793 0 -0.0024702293645800103 0.014122065313156852 0 -0.00060230531449170788 0.013393582480391426 0 -0.00022310535888329396 0.013256061909268218 0 -0.0021987564591768264 0.014086368171100793 0 -0.0022926513520407734 0.01442680369055664 0 -0.0024702293645800103 0.014122065313156852 0 0.0085572037589909979 0.015153250505311659 0 0.0066807208708638257 0.017540475715117763 0 0.0065050340126450766 0.014152756585186622 0 0.0063979722642317121 0.018979520194507628 0 0.0077320144382578334 0.018749957478561879 0 0.0066807208708638257 0.017540475715117763 0 0.0066807208708638257 0.017540475715117763 0 0.0045226088609879658 0.016083852096199024 0 0.0036647742823817408 0.018857305936354866 0 0.0023998698656552604 0.015182801679060796 0 0.001605459270869808 0.015190690511878737 0 0.0063979722642317121 0.018979520194507628 0 0.0066807208708638257 0.017540475715117763 0 0.0043882876601128457 0.018716291947474172 0 0.0066807208708638257 0.017540475715117763 0 0.0045226088609879658 0.016083852096199024 0 0.0065050340126450766 0.014152756585186622 0 0.0045226088609879658 0.016083852096199024 0 0.0021408324266512309 0.01614249149950546 0 0.0035019455133136436 0.013994737264888651 0 0.0045226088609879658 0.016083852096199024 0 0.0021408324266512309 0.01614249149950546 0 0.0036647742823817408 0.018857305936354866 0 0.0021408324266512309 0.01614249149950546 0 0.0036647742823817408 0.018857305936354866 0 0.0011544193901568787 0.017978352879407807 0 0.00038769482031954878 0.020406918846468648 0 -0.00078748425663826519 0.018242515874447449 0 0.0011544193901568787 0.017978352879407807 0 -0.00078748425663826519 0.018242515874447449 0 0.0011544193901568787 0.017978352879407807 0 0.0001176514624047319 0.01625222019706634 0 0.0021408324266512309 0.01614249149950546 0 0.0001176514624047319 0.01625222019706634 0 -0.00015750351177215536 0.01438212132641771 0 0.0021408324266512309 0.01614249149950546 0 0.0011544193901568787 0.017978352879407807 0 0.0001176514624047319 0.01625222019706634 0 -0.00015750351177215536 0.01438212132641771 0 0.0015008556863729881 0.011934161361146649 0 0.0035019455133136436 0.013994737264888651 0 0.00072622096989546708 0.012909201975080968 0 0.0018480674404318502 0.01252372294367079 0 -0.0015196760759713949 0.013044105849414709 0 -0.00015750351177215536 0.01438212132641771 0 0.0015008556863729881 0.011934161361146649 0 0.0018480674404318502 0.01252372294367079 0 0.0024602318187628034 0.01232882552283183 0 0.0015008556863729881 0.011934161361146649 0 0.0035019455133136436 0.013994737264888651 0 0.0052816749195233725 0.011527084431578556 0 0.0021408324266512309 0.01614249149950546 0 -0.00015750351177215536 0.01438212132641771 0 0.0035019455133136436 0.013994737264888651 0 0.0045226088609879658 0.016083852096199024 0 0.0035019455133136436 0.013994737264888651 0 0.0065050340126450766 0.014152756585186622 0 0.0035019455133136436 0.013994737264888651 0 0.0065050340126450766 0.014152756585186622 0 0.0052816749195233725 0.011527084431578556 0 0.0088755349404426916 0.013319525465406249 0 0.0065050340126450766 0.014152756585186622 0 0.0076538995242441754 0.011750140920134178 0 0.0065050340126450766 0.014152756585186622 0 0.0076538995242441754 0.011750140920134178 0 0.0052816749195233725 0.011527084431578556 0 0.006891384245988212 0.00994937256936748 0 0.0052816749195233725 0.011527084431578556 0 0.0053547627190883166 0.0091084587216074576 0 0.0084941083408787837 0.010320881864262816 0 0.006891384245988212 0.00994937256936748 0 0.0076538995242441754 0.011750140920134178 0 0.0084941083408787837 0.010320881864262816 0 0.0081063033939094923 0.0089406996154578408 0 0.006891384245988212 0.00994937256936748 0 0.006891384245988212 0.00994937256936748 0 0.0076538995242441754 0.011750140920134178 0 0.0052816749195233725 0.011527084431578556 0 0.0052816749195233725 0.011527084431578556 0 0.0041793073558456942 0.010518835321896148 0 0.0053547627190883166 0.0091084587216074576 0 0.0041793073558456942 0.010518835321896148 0 0.0040780437143506897 0.0090976871553191032 0 0.0053547627190883166 0.0091084587216074576 0 0.003686882191131217 0.012139406253845148 0 0.0052816749195233725 0.011527084431578556 0 0.0041793073558456942 0.010518835321896148 0 0.003686882191131217 0.012139406253845148 0 0.0041793073558456942 0.010518835321896148 0 0.0024685643056374788 0.011204174541994787 0 0.0041793073558456942 0.010518835321896148 0 0.0029902891684951615 0.0097016369246135329 0 0.0024685643056374788 0.011204174541994787 0 0.0041793073558456942 0.010518835321896148 0 0.0029902891684951615 0.0097016369246135329 0 0.0040780437143506897 0.0090976871553191032 0 0.0029902891684951615 0.0097016369246135329 0 0.0032121802902026859 0.0083533379134437518 0 0.0040780437143506897 0.0090976871553191032 0 0.0032121802902026859 0.0083533379134437518 0 0.0023041687470664258 0.0077859818542793816 0 0.0033487638728847279 0.0070076490097714314 0 0.0032121802902026859 0.0083533379134437518 0 0.0046784326200973239 0.0077783539690648926 0 0.0033487638728847279 0.0070076490097714314 0 0.0046784326200973239 0.0077783539690648926 0 0.0044558106062611517 0.0067299030949767424 0 0.0033487638728847279 0.0070076490097714314 0 0.0046784326200973239 0.0077783539690648926 0 0.0059070924991405935 0.0066411545279775825 0 0.0044558106062611517 0.0067299030949767424 0 0.0032121802902026859 0.0083533379134437518 0 0.0046784326200973239 0.0077783539690648926 0 0.0040780437143506897 0.0090976871553191032 0 0.0046784326200973239 0.0077783539690648926 0 0.0040780437143506897 0.0090976871553191032 0 0.0053547627190883166 0.0091084587216074576 0 0.0046784326200973239 0.0077783539690648926 0 0.0053547627190883166 0.0091084587216074576 0 0.0067267325792983177 0.0078819313755183681 0 0.006891384245988212 0.00994937256936748 0 0.0053547627190883166 0.0091084587216074576 0 0.0067267325792983177 0.0078819313755183681 0 0.0046784326200973239 0.0077783539690648926 0 0.0067267325792983177 0.0078819313755183681 0 0.0059070924991405935 0.0066411545279775825 0 0.0082846404687870346 0.0072778830486783319 0 0.0076899194396350011 0.0061387266527764533 0 0.0067267325792983177 0.0078819313755183681 0 0.0081063033939094923 0.0089406996154578408 0 0.006891384245988212 0.00994937256936748 0 0.0067267325792983177 0.0078819313755183681 0 0.0082846404687870346 0.0072778830486783319 0 0.0081063033939094923 0.0089406996154578408 0 0.0067267325792983177 0.0078819313755183681 0 0.00043640793724867536 0.0096942599355608512 0 -0.00063638710042318266 0.010033142223042748 0 -0.00070706711852006239 0.011107957640420571 0 0.00043640793724867536 0.0096942599355608512 0 -0.00095062623959690101 0.011271902400333236 0 0.00080057499173001308 0.011479033745264114 0 -0.00060671954448430696 0.011224278916991239 0 -0.00091259566523496638 0.011578741314408879 0 -0.0015525593884165661 0.010582650626157224 0 -0.00063638710042318266 0.010033142223042748 0 -0.0007729145392029338 0.0096701134629777665 0 -0.0015525593884165661 0.010582650626157224 0 -0.0010217167236916654 0.010694294296566603 0 -0.0011957434934725595 0.011034911521275273 0 -0.0015525593884165661 0.010582650626157224 0 -0.00063638710042318266 0.010033142223042748 0 -0.0010217167236916654 0.010694294296566603 0 -0.00063638710042318266 0.010033142223042748 0 -0.0010217167236916654 0.010694294296566603 0 -0.00070706711852006239 0.011107957640420571 0 -0.0013994463845942392 0.011516037315233379 0 -0.0016691097502700037 0.012436381572441405 0 -0.00070706711852006239 0.011107957640420571 0 -0.0014119540455472162 0.012182474653433469 0 -0.00091259566523496638 0.011578741314408879 0 -0.0013994463845942392 0.011516037315233379 0 -0.00070706711852006239 0.011107957640420571 0 -0.0011957434934725595 0.011034911521275273 0 -0.0010217167236916654 0.010694294296566603 0 -0.00070706711852006239 0.011107957640420571 0 -0.0011957434934725595 0.011034911521275273 0 -0.0015525593884165661 0.010582650626157224 0 -0.0013994463845942392 0.011516037315233379 0 -0.0011957434934725595 0.011034911521275273 0 -0.00032694219794351606 0.012301566072243674 0 -0.00095062623959690101 0.011271902400333236 0 0.00080057499173001308 0.011479033745264114 0 0.0018729094601507162 0.012847948799920614 0 0.00080057499173001308 0.011479033745264114 0 0.0024685643056374788 0.011204174541994787 0 0.00080057499173001308 0.011479033745264114 0 0.0024685643056374788 0.011204174541994787 0 0.0016169589644542261 0.0099221845793143158 0 0.0029902891684951615 0.0097016369246135329 0 0.0024685643056374788 0.011204174541994787 0 0.0016169589644542261 0.0099221845793143158 0 0.00043640793724867536 0.0096942599355608512 0 0.00080057499173001308 0.011479033745264114 0 0.0016169589644542261 0.0099221845793143158 0 0.00043640793724867536 0.0096942599355608512 0 0.0016169589644542261 0.0099221845793143158 0 0.00077116425694291157 0.0088307977997509196 0 0.0016169589644542261 0.0099221845793143158 0 0.00077116425694291157 0.0088307977997509196 0 0.0020249406175088785 0.0087009645857040654 0 0.00077116425694291157 0.0088307977997509196 0 0.0020249406175088785 0.0087009645857040654 0 0.0014251739830649661 0.0079700411985095133 0 0.0029902891684951615 0.0097016369246135329 0 0.0016169589644542261 0.0099221845793143158 0 0.0020249406175088785 0.0087009645857040654 0 0.0029902891684951615 0.0097016369246135329 0 0.0032121802902026859 0.0083533379134437518 0 0.0020249406175088785 0.0087009645857040654 0 0.0023041687470664258 0.0077859818542793816 0 0.0015429043933282665 0.0069772924488092029 0 0.0033487638728847279 0.0070076490097714314 0 0.0032121802902026859 0.0083533379134437518 0 0.0020249406175088785 0.0087009645857040654 0 0.0023041687470664258 0.0077859818542793816 0 0.0020249406175088785 0.0087009645857040654 0 0.0023041687470664258 0.0077859818542793816 0 0.0014251739830649661 0.0079700411985095133 0 0.0023041687470664258 0.0077859818542793816 0 0.0014251739830649661 0.0079700411985095133 0 0.0015429043933282665 0.0069772924488092029 0 0.00077116425694291157 0.0088307977997509196 0 0.0014251739830649661 0.0079700411985095133 0 0.00054693948915335202 0.0077492177977319908 0 -0.0066012728245299834 0.010344599962919478 0 -0.0090030488786899225 0.0117541639669804 0 0.0014251739830649661 0.0079700411985095133 0 0.00054693948915335202 0.0077492177977319908 0 0.0015429043933282665 0.0069772924488092029 0 -0.033979193136135184 0.0085709290067807337 0 -0.034436034545504618 0.013473656938181387 0 -0.038718216657945004 0.016768201882296323 0 -0.014592035270280928 0.010291847394207288 0 -0.014460166841110853 0.011784308390575199 0 0.00077116425694291157 0.0088307977997509196 0 0.00054693948915335202 0.0077492177977319908 0 -0.00041821728986569034 0.0085755134678981403 0 -0.00041821728986569034 0.0085755134678981403 0 -0.00074041425454207351 0.0087945283669669701 0 -7.9972082902210121e-05 0.0076198603827736886 0 0.0001943616428967077 0.0081242234503990356 0 -0.00041821728986569034 0.0085755134678981403 0 -7.9972082902210121e-05 0.0076198603827736886 0 -0.0066012728245299834 0.010344599962919478 0 -0.0059112919314086064 0.009950141894116438 0 0.00043640793724867536 0.0096942599355608512 0 -0.00063638710042318266 0.010033142223042748 0 -0.00018190395048174322 0.009279922250560636 0 0.00077116425694291157 0.0088307977997509196 0 -0.00041821728986569034 0.0085755134678981403 0 -0.00018190395048174322 0.009279922250560636 0 -0.00041821728986569034 0.0085755134678981403 0 -0.00018190395048174322 0.009279922250560636 0 -0.00074041425454207351 0.0087945283669669701 0 -0.00063638710042318266 0.010033142223042748 0 -0.00018190395048174322 0.009279922250560636 0 -0.0007729145392029338 0.0096701134629777665 0 0.00043640793724867536 0.0096942599355608512 0 0.00077116425694291157 0.0088307977997509196 0 -0.00018190395048174322 0.009279922250560636 0 -0.014102471201740246 0.0089481864570689507 0 -0.014592035270280928 0.010291847394207288 0 -0.029797434907069275 0.0066092768319332747 0 -0.029700702326465749 0.0018794109021389052 0 -0.033979193136135184 0.0085709290067807337 0 -0.0015525593884165661 0.010582650626157224 0 -0.0007729145392029338 0.0096701134629777665 0 -0.00074041425454207351 0.0087945283669669701 0 -0.00018190395048174322 0.009279922250560636 0 -0.0007729145392029338 0.0096701134629777665 0 -0.00074041425454207351 0.0087945283669669701 0 -0.029797434907069275 0.0066092768319332747 0 -0.033979193136135184 0.0085709290067807337 0 -0.030937934754258975 0.010756542682463977 0 -0.033979193136135184 0.0085709290067807337 0 -0.030937934754258975 0.010756542682463977 0 -0.034436034545504618 0.013473656938181387 0 -0.028844160635696153 0.013428164580579065 0 -0.030928569952369558 0.013791991009801625 0 -0.029491080289696801 0.017525410480644682 0 -0.034436034545504618 0.013473656938181387 0 -0.030928569952369558 0.013791991009801625 0 -0.029491080289696801 0.017525410480644682 0 -0.028844160635696153 0.013428164580579065 0 -0.030937934754258975 0.010756542682463977 0 -0.030928569952369558 0.013791991009801625 0 -0.030937934754258975 0.010756542682463977 0 -0.034436034545504618 0.013473656938181387 0 -0.030928569952369558 0.013791991009801625 0 -0.034436034545504618 0.013473656938181387 0 -0.038718216657945004 0.016768201882296323 0 -0.029491080289696801 0.017525410480644682 0 -0.014460166841110853 0.011784308390575199 0 -0.019549869051461357 0.012849327946319588 0 -0.022544775192966923 0.0198902738066839 0 -0.022834902168197915 0.019423278187966811 0 -0.021562262402171049 0.01858158726667794 0 -0.021610644258753149 0.019562806571830946 0 -0.022544775192966923 0.0198902738066839 0 -0.021562262402171049 0.01858158726667794 0 -0.022544775192966923 0.0198902738066839 0 -0.021934070579022469 0.020209684148225781 0 -0.022586303231300054 0.020638211238176416 0 -0.021610644258753149 0.019562806571830946 0 -0.021934070579022469 0.020209684148225781 0 -0.021179416248843386 0.020202260831495702 0 -0.021610644258753149 0.019562806571830946 0 -0.022544775192966923 0.0198902738066839 0 -0.021934070579022469 0.020209684148225781 0 -0.022544775192966923 0.0198902738066839 0 -0.023210517501612203 0.019752882538745801 0 -0.023372456312235348 0.020756288177092869 0 -0.021681029130475021 0.022210528648709371 0 -0.021542468267744433 0.02260157073441485 0 -0.022544775192966923 0.0198902738066839 0 -0.022834902168197915 0.019423278187966811 0 -0.023210517501612203 0.019752882538745801 0 -0.022834902168197915 0.019423278187966811 0 -0.023156279822873507 0.018854863549129415 0 -0.021562262402171049 0.01858158726667794 0 -0.022834902168197915 0.019423278187966811 0 -0.023156279822873507 0.018854863549129415 0 -0.023210517501612203 0.019752882538745801 0 -0.023279795487064155 0.020622096052005535 0 -0.023237018967297653 0.020603270920029278 0 -0.023241988320739565 0.020626467755186079 0 0.0001943616428967077 0.0081242234503990356 0 -7.9972082902210121e-05 0.0076198603827736886 0 0.00078331698188446549 0.0077206136852528409 0 -0.014460166841110853 0.011784308390575199 0 -0.0090030488786899225 0.0117541639669804 0 -0.0090030488786899225 0.0117541639669804 0 -0.0063731274235575893 0.011585426521089556 0 0.0014164999324784101 0.0068760443600990899 0 0.0033487638728847279 0.0070076490097714314 0 0.0034086298489587564 0.0055645417127822916 0 -0.023237018967297653 0.020603270920029278 0 -0.023241988320739565 0.020626467755186079 0 -0.023340146490437984 0.020635691531971416 0 -0.0090030488786899225 0.0117541639669804 0 -0.008564644985281842 0.013362124102133117 0 -0.023241988320739565 0.020626467755186079 0 -0.023194866163527134 0.020812706940821431 0 -0.023340146490437984 0.020635691531971416 0 -0.023241988320739565 0.020626467755186079 0 -0.023333506844231969 0.020530489239138708 0 -0.023194866163527134 0.020812706940821431 0 -0.014460166841110853 0.011784308390575199 0 -0.016521033464433722 0.014746738775769791 0 -0.023156279822873507 0.018854863549129415 0 -0.023210517501612203 0.019752882538745801 0 -0.023333506844231969 0.020530489239138708 0 -0.023210517501612203 0.019752882538745801 0 -0.023333506844231969 0.020530489239138708 0 -0.022938301722914483 0.020717626459730198 0 -0.023279795487064155 0.020622096052005535 0 -0.023241988320739565 0.020626467755186079 0 -0.023333506844231969 0.020530489239138708 0 -0.023333506844231969 0.020530489239138708 0 -0.023134710651905914 0.020804493073157296 0 -0.022938301722914483 0.020717626459730198 0 -0.023333506844231969 0.020530489239138708 0 -0.023134710651905914 0.020804493073157296 0 -0.023262084077717762 0.020755317481122144 0 -0.023134710651905914 0.020804493073157296 0 -0.023262084077717762 0.020755317481122144 0 -0.023190565618988929 0.02090454326235958 0 -0.023333506844231969 0.020530489239138708 0 -0.023194866163527134 0.020812706940821431 0 -0.023262084077717762 0.020755317481122144 0 -0.023262084077717762 0.020755317481122144 0 -0.023231384408351857 0.02084088975724711 0 -0.023190565618988929 0.02090454326235958 0 -0.023194866163527134 0.020812706940821431 0 -0.023262084077717762 0.020755317481122144 0 -0.023231384408351857 0.02084088975724711 0 -0.023194866163527134 0.020812706940821431 0 -0.023231384408351857 0.02084088975724711 0 -0.023003771807258655 0.021177061810879177 0 -0.021598092428681808 0.023654913740223275 0 -0.021510869902997998 0.023604258481117156 0 -0.021140597610068805 0.02199133614139227 0 -0.021391957398944315 0.023649201248266229 0 -0.018557372977812327 0.023401386190907342 0 -0.021391957398944315 0.023649201248266229 0 -0.018557372977812327 0.023401386190907342 0 -0.020857877197640241 0.025310733201185653 0 -0.021598092428681808 0.023654913740223275 0 -0.020991156063313299 0.024212652073444373 0 -0.021140597610068805 0.02199133614139227 0 -0.021391957398944315 0.023649201248266229 0 -0.022506543659647535 0.022383126141418869 0 -0.021354889604755099 0.023871751127458693 0 -0.021345887251077653 0.023909639227571545 0 -0.021473963742880051 0.023879405944219084 0 -0.021510869902997998 0.023604258481117156 0 -0.021127566113921258 0.02370908332296157 0 -0.023134710651905914 0.020804493073157296 0 -0.023190565618988929 0.02090454326235958 0 -0.022912089566921763 0.021019535170157751 0 -0.021220559389973311 0.023938870727111601 0 -0.021354889604755099 0.023871751127458693 0 -0.021345887251077653 0.023909639227571545 0 -0.020991156063313299 0.024212652073444373 0 -0.020684669175782249 0.024736123067541894 0 -0.021354889604755099 0.023871751127458693 0 -0.021473963742880051 0.023879405944219084 0 -0.021492369715947039 0.023802671000599702 0 -0.023292343920303871 0.022313067951360878 0 -0.022100363772211064 0.021940779116814198 0 -0.022728709884672738 0.021353974538042969 0 -0.021127566113921258 0.02370908332296157 0 -0.020684669175782249 0.024736123067541894 0 -0.023292343920303871 0.022313067951360878 0 -0.021511724517934306 0.023088824366414712 0 -0.022100363772211064 0.021940779116814198 0 -0.022857399044405754 0.022964782576120682 0 -0.020899300675591113 0.02346203799550222 0 -0.022640646604522779 0.023882936089369457 0 -0.021127566113921258 0.02370908332296157 0 -0.020934414873046422 0.023690999499310327 0 -0.021511724517934306 0.023088824366414712 0 -0.022100363772211064 0.021940779116814198 0 -0.020808947756227172 0.021862126125501539 0 -0.022100363772211064 0.021940779116814198 0 -0.021814018461435429 0.021028396777259938 0 -0.022728709884672738 0.021353974538042969 0 -0.021814018461435429 0.021028396777259938 0 -0.022586303231300054 0.020638211238176416 0 -0.022728709884672738 0.021353974538042969 0 -0.022100363772211064 0.021940779116814198 0 -0.021814018461435429 0.021028396777259938 0 -0.020808947756227172 0.021862126125501539 0 -0.021934070579022469 0.020209684148225781 0 -0.021814018461435429 0.021028396777259938 0 -0.021179416248843386 0.020202260831495702 0 -0.021934070579022469 0.020209684148225781 0 -0.021814018461435429 0.021028396777259938 0 -0.022586303231300054 0.020638211238176416 0 -0.021127566113921258 0.02370908332296157 0 -0.021542468267744433 0.02260157073441485 0 -0.023134710651905914 0.020804493073157296 0 -0.022912089566921763 0.021019535170157751 0 -0.022938301722914483 0.020717626459730198 0 -0.022544775192966923 0.0198902738066839 0 -0.022586303231300054 0.020638211238176416 0 -0.023372456312235348 0.020756288177092869 0 -0.022586303231300054 0.020638211238176416 0 -0.023372456312235348 0.020756288177092869 0 -0.022728709884672738 0.021353974538042969 0 -0.023292343920303871 0.022313067951360878 0 -0.023372456312235348 0.020756288177092869 0 -0.022728709884672738 0.021353974538042969 0 0.0076899194396350011 0.0061387266527764533 0 0.0074472609948319952 0.0049784964758929481 0 0.0063191280890348396 0.0052938120699973614 0 0.0076899194396350011 0.0061387266527764533 0 0.0059070924991405935 0.0066411545279775825 0 0.0063191280890348396 0.0052938120699973614 0 0.0076899194396350011 0.0061387266527764533 0 0.0067267325792983177 0.0078819313755183681 0 0.0059070924991405935 0.0066411545279775825 0 0.0059070924991405935 0.0066411545279775825 0 0.0063191280890348396 0.0052938120699973614 0 0.0049104828788007872 0.0057379941880558441 0 0.0063191280890348396 0.0052938120699973614 0 0.0049104828788007872 0.0057379941880558441 0 0.0053600922250377527 0.0044864838296147748 0 0.0049104828788007872 0.0057379941880558441 0 0.0034086298489587564 0.0055645417127822916 0 0.0053600922250377527 0.0044864838296147748 0 -0.023340146490437984 0.020635691531971416 0 -0.023428845145172246 0.020802380447180153 0 -0.023749321529544822 0.020915432812853445 0 -0.008564644985281842 0.013362124102133117 0 -0.0071449964223402754 0.014550213940116134 0 0.0049104828788007872 0.0057379941880558441 0 0.0044558106062611517 0.0067299030949767424 0 0.0034086298489587564 0.0055645417127822916 0 0.0059070924991405935 0.0066411545279775825 0 0.0049104828788007872 0.0057379941880558441 0 0.0044558106062611517 0.0067299030949767424 0 0.0044558106062611517 0.0067299030949767424 0 0.0033487638728847279 0.0070076490097714314 0 0.0034086298489587564 0.0055645417127822916 0 -0.023194866163527134 0.020812706940821431 0 -0.023340146490437984 0.020635691531971416 0 -0.023428845145172246 0.020802380447180153 0 -0.023194866163527134 0.020812706940821431 0 -0.023428845145172246 0.020802380447180153 0 -0.023003771807258655 0.021177061810879177 0 -0.023428845145172246 0.020802380447180153 0 -0.023003771807258655 0.021177061810879177 0 -0.023780501597551355 0.020875542272397955 0 -0.023003771807258655 0.021177061810879177 0 -0.022506543659647535 0.022383126141418869 0 -0.023780501597551355 0.020875542272397955 0 -0.021598092428681808 0.023654913740223275 0 -0.021756471621373324 0.0235292289839748 0 -0.021140597610068805 0.02199133614139227 0 -0.023003771807258655 0.021177061810879177 0 -0.022506543659647535 0.022383126141418869 0 -0.022506543659647535 0.022383126141418869 0 -0.023297813742123693 0.023487967242725928 0 -0.023780501597551355 0.020875542272397955 0 -0.021391957398944315 0.023649201248266229 0 -0.022506543659647535 0.022383126141418869 0 -0.023297813742123693 0.023487967242725928 0 -0.021391957398944315 0.023649201248266229 0 -0.023297813742123693 0.023487967242725928 0 -0.022450697784525589 0.024801703055399246 0 -0.015864414148512012 0.027180664574053642 0 -0.015320357987936127 0.028615463168699545 0 -0.023297813742123693 0.023487967242725928 0 -0.023780501597551355 0.020875542272397955 0 -0.02550313984002853 0.024280683136292606 0 -0.023428845145172246 0.020802380447180153 0 -0.023749321529544822 0.020915432812853445 0 -0.023780501597551355 0.020875542272397955 0 -0.023749321529544822 0.020915432812853445 0 -0.023780501597551355 0.020875542272397955 0 -0.023656215643436937 0.020457945974353953 0 -0.0071449964223402754 0.014550213940116134 0 -0.0049221344688112146 0.015866076808709256 0 0.0063191280890348396 0.0052938120699973614 0 0.0053600922250377527 0.0044864838296147748 0 0.0070399781325980199 0.0036934969630778546 0 -0.023749321529544822 0.020915432812853445 0 -0.023013786937955329 0.020709961613036485 0 -0.023656215643436937 0.020457945974353953 0 0.0079650995933161165 0.004406160110256606 0 0.0074472609948319952 0.0049784964758929481 0 0.0070399781325980199 0.0036934969630778546 0 0.0074472609948319952 0.0049784964758929481 0 0.0063191280890348396 0.0052938120699973614 0 0.0070399781325980199 0.0036934969630778546 0 -0.022767619437878198 0.019832434862475323 0 -0.0230566511813084 0.019896740067410264 0 -0.022935999899453632 0.019603404358009929 0 -0.0230566511813084 0.019896740067410264 0 -0.023121916803711843 0.019695265883950541 0 -0.022935999899453632 0.019603404358009929 0 -0.022767619437878198 0.019832434862475323 0 -0.0230566511813084 0.019896740067410264 0 -0.023016088609042935 0.020209440036517055 0 -0.022642450056988134 0.020176727985828147 0 -0.022767619437878198 0.019832434862475323 0 -0.023016088609042935 0.020209440036517055 0 -0.022642450056988134 0.020176727985828147 0 -0.023013786937955329 0.020709961613036485 0 -0.023016088609042935 0.020209440036517055 0 -0.023013786937955329 0.020709961613036485 0 -0.023016088609042935 0.020209440036517055 0 -0.023656215643436937 0.020457945974353953 0 -0.0230566511813084 0.019896740067410264 0 -0.023016088609042935 0.020209440036517055 0 -0.023656215643436937 0.020457945974353953 0 -0.013506926525845125 0.033098251999128511 0 -0.015320357987936127 0.028615463168699545 0 -0.0230566511813084 0.019896740067410264 0 -0.02335553926636888 0.019791796191835576 0 -0.023656215643436937 0.020457945974353953 0 -0.026941919407740132 0.028104089240231764 0 -0.025874775868031302 0.027183052195974861 0 -0.02550313984002853 0.024280683136292606 0 -0.0230566511813084 0.019896740067410264 0 -0.02335553926636888 0.019791796191835576 0 -0.023121916803711843 0.019695265883950541 0 -0.026941919407740132 0.028104089240231764 0 -0.026498607738781748 0.02818129352743267 0 -0.026306884113488537 0.027864317884173564 0 -0.026941919407740132 0.028104089240231764 0 -0.026498607738781748 0.02818129352743267 0 -0.026205109289097601 0.028787003428733259 0 -0.026498607738781748 0.02818129352743267 0 -0.025970297835220632 0.028070384631596973 0 -0.026205109289097601 0.028787003428733259 0 -0.026498607738781748 0.02818129352743267 0 -0.025970297835220632 0.028070384631596973 0 -0.026306884113488537 0.027864317884173564 0 -0.026941919407740132 0.028104089240231764 0 -0.026306884113488537 0.027864317884173564 0 -0.025874775868031302 0.027183052195974861 0 -0.025970297835220632 0.028070384631596973 0 -0.026306884113488537 0.027864317884173564 0 -0.025874775868031302 0.027183052195974861 0 -0.025368358171472372 0.027747791485514917 0 -0.025357992226251107 0.028502476615169116 0 -0.024103185822860262 0.028304874117824411 0 -0.025970297835220632 0.028070384631596973 0 -0.025368358171472372 0.027747791485514917 0 -0.025874775868031302 0.027183052195974861 0 -0.025970297835220632 0.028070384631596973 0 -0.025368358171472372 0.027747791485514917 0 -0.025357992226251107 0.028502476615169116 0 -0.025970297835220632 0.028070384631596973 0 -0.025357992226251107 0.028502476615169116 0 -0.026205109289097601 0.028787003428733259 0 -0.024103185822860262 0.028304874117824411 0 -0.024575017840249871 0.027187707963875367 0 -0.023256371290341013 0.027195138028611336 0 -0.025368358171472372 0.027747791485514917 0 -0.024103185822860262 0.028304874117824411 0 -0.024575017840249871 0.027187707963875367 0 -0.024575017840249871 0.027187707963875367 0 -0.024155252850785017 0.025430179094211042 0 -0.023256371290341013 0.027195138028611336 0 -0.025368358171472372 0.027747791485514917 0 -0.024575017840249871 0.027187707963875367 0 -0.025874775868031302 0.027183052195974861 0 -0.024575017840249871 0.027187707963875367 0 -0.025874775868031302 0.027183052195974861 0 -0.024155252850785017 0.025430179094211042 0 -0.023297813742123693 0.023487967242725928 0 -0.02550313984002853 0.024280683136292606 0 -0.024155252850785017 0.025430179094211042 0 -0.025874775868031302 0.027183052195974861 0 -0.02550313984002853 0.024280683136292606 0 -0.024155252850785017 0.025430179094211042 0 -0.024155252850785017 0.025430179094211042 0 -0.022557392493210388 0.026162285759059871 0 -0.023256371290341013 0.027195138028611336 0 -0.024155252850785017 0.025430179094211042 0 -0.022450697784525589 0.024801703055399246 0 -0.022557392493210388 0.026162285759059871 0 -0.023297813742123693 0.023487967242725928 0 -0.024155252850785017 0.025430179094211042 0 -0.022450697784525589 0.024801703055399246 0 -0.022450697784525589 0.024801703055399246 0 -0.022557392493210388 0.026162285759059871 0 -0.020857877197640241 0.025310733201185653 0 -0.020874323767867974 0.029559674358859474 0 -0.020465974488320344 0.030442620108284402 0 -0.022557392493210388 0.026162285759059871 0 -0.022249940687483739 0.028153031876320535 0 -0.020615740744929143 0.029633197478966172 0 -0.022557392493210388 0.026162285759059871 0 -0.023256371290341013 0.027195138028611336 0 -0.022249940687483739 0.028153031876320535 0 -0.024103185822860262 0.028304874117824411 0 -0.023256371290341013 0.027195138028611336 0 -0.022249940687483739 0.028153031876320535 0 -0.022249940687483739 0.028153031876320535 0 -0.021277718439855944 0.030949967887880025 0 -0.020615740744929143 0.029633197478966172 0 -0.022249940687483739 0.028153031876320535 0 -0.023307631948237654 0.029736228258849386 0 -0.021505483062896728 0.031281833765783945 0 -0.019258471210482006 0.032254633896360511 0 -0.018937495457977249 0.033158694052343646 0 -0.024103185822860262 0.028304874117824411 0 -0.022249940687483739 0.028153031876320535 0 -0.023307631948237654 0.029736228258849386 0 -0.023307631948237654 0.029736228258849386 0 -0.021505483062896728 0.031281833765783945 0 -0.023747812206171563 0.031312397497410271 0 -0.020782793277903951 0.034429602557551994 0 -0.021505483062896728 0.031281833765783945 0 -0.022758230463897838 0.033025901707141245 0 -0.021505483062896728 0.031281833765783945 0 -0.022758230463897838 0.033025901707141245 0 -0.023747812206171563 0.031312397497410271 0 -0.022758230463897838 0.033025901707141245 0 -0.023747812206171563 0.031312397497410271 0 -0.025251701413523397 0.032809484025690346 0 -0.023747812206171563 0.031312397497410271 0 -0.025251701413523397 0.032809484025690346 0 -0.025634187374502015 0.03076135919750653 0 -0.025634187374502015 0.03076135919750653 0 -0.024907576533719535 0.029642323920483087 0 -0.026471863518035984 0.029596126272236439 0 -0.023307631948237654 0.029736228258849386 0 -0.023747812206171563 0.031312397497410271 0 -0.024907576533719535 0.029642323920483087 0 -0.023747812206171563 0.031312397497410271 0 -0.025634187374502015 0.03076135919750653 0 -0.024907576533719535 0.029642323920483087 0 -0.025357992226251107 0.028502476615169116 0 -0.024103185822860262 0.028304874117824411 0 -0.024907576533719535 0.029642323920483087 0 -0.024103185822860262 0.028304874117824411 0 -0.023307631948237654 0.029736228258849386 0 -0.024907576533719535 0.029642323920483087 0 -0.025357992226251107 0.028502476615169116 0 -0.024907576533719535 0.029642323920483087 0 -0.026205109289097601 0.028787003428733259 0 -0.024907576533719535 0.029642323920483087 0 -0.026471863518035984 0.029596126272236439 0 -0.026205109289097601 0.028787003428733259 0 -0.01439283521869875 0.034406183556767639 0 -0.013830767504487815 0.032829268662065016 0 -0.013504542136203423 0.033127796992765093 0 -0.013506926525845125 0.033098251999128511 0 -0.012859900323448886 0.035660796317298252 0 -0.026941919407740132 0.028104089240231764 0 -0.026471863518035984 0.029596126272236439 0 -0.027782379702662476 0.030452142095596348 0 -0.026941919407740132 0.028104089240231764 0 -0.026471863518035984 0.029596126272236439 0 -0.026205109289097601 0.028787003428733259 0 -0.013506926525845125 0.033098251999128511 0 -0.012850444269191861 0.034644981279074311 0 -0.02335553926636888 0.019791796191835576 0 -0.023121916803711843 0.019695265883950541 0 -0.023101330317807593 0.019459399577256956 0 -0.012859900323448886 0.035660796317298252 0 -0.012850444269191861 0.034644981279074311 0 -0.025634187374502015 0.03076135919750653 0 -0.026471863518035984 0.029596126272236439 0 -0.027782379702662476 0.030452142095596348 0 -0.0042692507274379576 0.054184531180625412 0 -0.0056208097393156383 0.058190017307508342 0 -0.0061470443241392241 0.055406763033835182 0 -0.0084953318390752555 0.055664550680808333 0 -0.0056208097393156383 0.058190017307508342 0 -0.0061470443241392241 0.055406763033835182 0 -0.025251701413523397 0.032809484025690346 0 -0.025634187374502015 0.03076135919750653 0 -0.027782379702662476 0.030452142095596348 0 -0.013905768714195067 0.038017838649844427 0 -0.012859900323448886 0.035660796317298252 0 -0.0042692507274379576 0.054184531180625412 0 -0.0052210068250540566 0.056921028180418144 0 -0.003782902662902262 0.055783289766257106 0 -0.013225614890986722 0.039877762167254985 0 -0.012859900323448886 0.035660796317298252 0 -0.010316985081328035 0.035957719227316373 0 -0.012850444269191861 0.034644981279074311 0 -0.0025419846972660745 0.054185336405476688 0 -0.003411142229882765 0.054233808888057934 0 -0.003782902662902262 0.055783289766257106 0 -0.0072711687037359937 0.036706534718071601 0 -0.010316985081328035 0.035957719227316373 0 -0.022589432160333545 0.019429361119814463 0 -0.022827915333939894 0.019165404137390912 0 -0.022846866909169705 0.019389611725132833 0 -0.022589432160333545 0.019429361119814463 0 -0.022846866909169705 0.019389611725132833 0 -0.022935999899453632 0.019603404358009929 0 -0.022589432160333545 0.019429361119814463 0 -0.022767619437878198 0.019832434862475323 0 -0.022935999899453632 0.019603404358009929 0 -0.022846866909169705 0.019389611725132833 0 -0.023061134145268433 0.019480158233041011 0 -0.022935999899453632 0.019603404358009929 0 -0.0052210068250540566 0.056921028180418144 0 -0.003782902662902262 0.055783289766257106 0 -0.0048424999099679093 0.057263847666946491 0 -0.022827915333939894 0.019165404137390912 0 -0.022846866909169705 0.019389611725132833 0 -0.023061134145268433 0.019480158233041011 0 -0.023121916803711843 0.019695265883950541 0 -0.023101330317807593 0.019459399577256956 0 -0.022935999899453632 0.019603404358009929 0 -0.012850444269191861 0.034644981279074311 0 -0.013239805829918665 0.034241528052718212 0 -0.016944158643008682 0.027018804822515022 0 -0.015341756727241569 0.028183306974246015 0 -0.016605914790275476 0.029500492011958323 0 -0.019319725873060661 0.027436859370861492 0 -0.020684669175782249 0.024736123067541894 0 -0.016944158643008682 0.027018804822515022 0 -0.018702633756237645 0.027412361563264168 0 -0.016605914790275476 0.029500492011958323 0 -0.016944158643008682 0.027018804822515022 0 -0.015341756727241569 0.028183306974246015 0 -0.01612702272490309 0.024723453014414434 0 -0.022842298665679252 0.026503205278139586 0 -0.021098350738512087 0.025964481229629598 0 -0.021463065816817454 0.024492091177091807 0 -0.022842298665679252 0.026503205278139586 0 -0.021098350738512087 0.025964481229629598 0 -0.02072686798761884 0.027289547721060702 0 -0.020899300675591113 0.02346203799550222 0 -0.021099275451052224 0.024694031731526987 0 -0.022640646604522779 0.023882936089369457 0 -0.022842298665679252 0.026503205278139586 0 -0.021463065816817454 0.024492091177091807 0 -0.023553349098008922 0.023404292957603025 0 -0.020752392762886748 0.024723352580032738 0 -0.020684669175782249 0.024736123067541894 0 -0.016944158643008682 0.027018804822515022 0 -0.01612702272490309 0.024723453014414434 0 -0.01808918263987409 0.025412316497839975 0 -0.018557372977812327 0.023401386190907342 0 -0.01612702272490309 0.024723453014414434 0 -0.01808918263987409 0.025412316497839975 0 -0.01808918263987409 0.025412316497839975 0 -0.020857877197640241 0.025310733201185653 0 -0.018702633756237645 0.027412361563264168 0 -0.018557372977812327 0.023401386190907342 0 -0.01808918263987409 0.025412316497839975 0 -0.020857877197640241 0.025310733201185653 0 -0.022557392493210388 0.026162285759059871 0 -0.020857877197640241 0.025310733201185653 0 -0.020543875328244861 0.027731002492356962 0 -0.021391957398944315 0.023649201248266229 0 -0.022450697784525589 0.024801703055399246 0 -0.020857877197640241 0.025310733201185653 0 -0.019276740076708213 0.028175019771846999 0 -0.018871307160209787 0.028663543864501619 0 -0.022557392493210388 0.026162285759059871 0 -0.020543875328244861 0.027731002492356962 0 -0.021087445938674874 0.029917566704219963 0 -0.020857877197640241 0.025310733201185653 0 -0.020543875328244861 0.027731002492356962 0 -0.018739498734727043 0.027832294797491931 0 -0.016944158643008682 0.027018804822515022 0 -0.01808918263987409 0.025412316497839975 0 -0.018702633756237645 0.027412361563264168 0 -0.020543875328244861 0.027731002492356962 0 -0.018739498734727043 0.027832294797491931 0 -0.019492722545228318 0.029381149802792786 0 -0.018871307160209787 0.028663543864501619 0 -0.018207736621659233 0.029566047477513686 0 -0.019492722545228318 0.029381149802792786 0 -0.018945976557597492 0.030933736521078354 0 -0.016957547518826853 0.03019317964442789 0 -0.018739498734727043 0.027832294797491931 0 -0.019492722545228318 0.029381149802792786 0 -0.016957547518826853 0.03019317964442789 0 -0.019492722545228318 0.029381149802792786 0 -0.021087445938674874 0.029917566704219963 0 -0.018945976557597492 0.030933736521078354 0 -0.020543875328244861 0.027731002492356962 0 -0.019492722545228318 0.029381149802792786 0 -0.021087445938674874 0.029917566704219963 0 -0.019079571734303118 0.032773822447678895 0 -0.020475978812282785 0.033447594217170792 0 -0.021277718439855944 0.030949967887880025 0 -0.019779062747312729 0.031915090064616708 0 -0.020465974488320344 0.030442620108284402 0 -0.019485207337245899 0.033058888641330067 0 -0.021087445938674874 0.029917566704219963 0 -0.018945976557597492 0.030933736521078354 0 -0.019079571734303118 0.032773822447678895 0 -0.021277718439855944 0.030949967887880025 0 -0.020615740744929143 0.029633197478966172 0 -0.018094765379550671 0.035333403805878544 0 -0.018937495457977249 0.033158694052343646 0 -0.019485207337245899 0.033058888641330067 0 -0.018945976557597492 0.030933736521078354 0 -0.018552551695013131 0.032361412445730611 0 -0.018945976557597492 0.030933736521078354 0 -0.017493555213770898 0.032015895397310944 0 -0.016957547518826853 0.03019317964442789 0 -0.018945976557597492 0.030933736521078354 0 -0.018552551695013131 0.032361412445730611 0 -0.017493555213770898 0.032015895397310944 0 -0.018116727662429236 0.033117734047855861 0 -0.018552551695013131 0.032361412445730611 0 -0.017493555213770898 0.032015895397310944 0 -0.018207736621659233 0.029566047477513686 0 -0.017994634914992282 0.03016478976185152 0 -0.017493555213770898 0.032015895397310944 0 -0.016957547518826853 0.03019317964442789 0 -0.015540722572597282 0.032242066665845968 0 -0.017245179259220141 0.033630129469538861 0 -0.017493555213770898 0.032015895397310944 0 -0.015540722572597282 0.032242066665845968 0 -0.015341756727241569 0.028183306974246015 0 -0.016605914790275476 0.029500492011958323 0 -0.014553542138366371 0.031577522999886809 0 -0.022842298665679252 0.026503205278139586 0 -0.022136262309608103 0.029778906258536953 0 -0.02072686798761884 0.027289547721060702 0 -0.019319725873060661 0.027436859370861492 0 -0.017994634914992282 0.03016478976185152 0 -0.022136262309608103 0.029778906258536953 0 -0.019213392247013655 0.02866874096937716 0 -0.018480900317298685 0.030565435534486558 0 -0.019213392247013655 0.02866874096937716 0 -0.018480900317298685 0.030565435534486558 0 -0.01696811815112477 0.02884390969653336 0 -0.016052802807773162 0.031316400695041061 0 -0.018480900317298685 0.030565435534486558 0 -0.01696811815112477 0.02884390969653336 0 -0.019213392247013655 0.02866874096937716 0 -0.01838320398304695 0.027006175123914015 0 -0.01696811815112477 0.02884390969653336 0 -0.022136262309608103 0.029778906258536953 0 -0.019213392247013655 0.02866874096937716 0 -0.02072686798761884 0.027289547721060702 0 -0.019213392247013655 0.02866874096937716 0 -0.01838320398304695 0.027006175123914015 0 -0.02072686798761884 0.027289547721060702 0 -0.020752392762886748 0.024723352580032738 0 -0.020618902425292917 0.024800361183841685 0 -0.01838320398304695 0.027006175123914015 0 -0.02072686798761884 0.027289547721060702 0 -0.019406628694350114 0.025588475483637858 0 -0.021098350738512087 0.025964481229629598 0 -0.021463065816817454 0.024492091177091807 0 -0.019406628694350114 0.025588475483637858 0 -0.021098350738512087 0.025964481229629598 0 -0.02072686798761884 0.027289547721060702 0 -0.019406628694350114 0.025588475483637858 0 -0.01838320398304695 0.027006175123914015 0 -0.019406628694350114 0.025588475483637858 0 -0.01790538426707796 0.025350967277389461 0 -0.019406628694350114 0.025588475483637858 0 -0.01790538426707796 0.025350967277389461 0 -0.018977326598018054 0.023911120497327108 0 -0.01790538426707796 0.025350967277389461 0 -0.018977326598018054 0.023911120497327108 0 -0.017078750808680501 0.02399856308960829 0 -0.020899300675591113 0.02346203799550222 0 -0.018977326598018054 0.023911120497327108 0 -0.020056024697901492 0.024409951260691481 0 -0.021099275451052224 0.024694031731526987 0 -0.019406628694350114 0.025588475483637858 0 -0.020056024697901492 0.024409951260691481 0 -0.019406628694350114 0.025588475483637858 0 -0.018977326598018054 0.023911120497327108 0 -0.020056024697901492 0.024409951260691481 0 -0.020934414873046422 0.023690999499310327 0 -0.020652995398941883 0.02374388415883625 0 -0.020899300675591113 0.02346203799550222 0 -0.021099275451052224 0.024694031731526987 0 -0.020056024697901492 0.024409951260691481 0 -0.01546753428746811 0.0244106979745395 0 -0.017078750808680501 0.02399856308960829 0 -0.016082117109722214 0.022873187201312744 0 -0.01546753428746811 0.0244106979745395 0 -0.017078750808680501 0.02399856308960829 0 -0.016117136263562131 0.026550184060267448 0 -0.01790538426707796 0.025350967277389461 0 -0.017078750808680501 0.02399856308960829 0 -0.016117136263562131 0.026550184060267448 0 -0.01838320398304695 0.027006175123914015 0 -0.01790538426707796 0.025350967277389461 0 -0.016117136263562131 0.026550184060267448 0 -0.01546753428746811 0.0244106979745395 0 -0.016117136263562131 0.026550184060267448 0 -0.01484948977776702 0.025725146627844152 0 -0.015387494756389541 0.028828924259373227 0 -0.015061308584192202 0.029334414430210325 0 -0.016117136263562131 0.026550184060267448 0 -0.0148462592300887 0.027045040432306232 0 -0.01484948977776702 0.025725146627844152 0 -0.016117136263562131 0.026550184060267448 0 -0.01696811815112477 0.02884390969653336 0 -0.013693932422910466 0.029424554696380872 0 -0.01838320398304695 0.027006175123914015 0 -0.016117136263562131 0.026550184060267448 0 -0.01696811815112477 0.02884390969653336 0 -0.016052802807773162 0.031316400695041061 0 -0.01696811815112477 0.02884390969653336 0 -0.013693932422910466 0.029424554696380872 0 -0.014551292337351853 0.0303722589546877 0 -0.015061308584192202 0.029334414430210325 0 -0.01396968851005719 0.02735000632676108 0 -0.0148462592300887 0.027045040432306232 0 -0.013572300108020746 0.026798410700079527 0 -0.013572300108020746 0.026798410700079527 0 -0.014012812834628696 0.026226265673345052 0 -0.012943060552796348 0.026043428483057882 0 -0.0148462592300887 0.027045040432306232 0 -0.014012812834628696 0.026226265673345052 0 -0.01484948977776702 0.025725146627844152 0 -0.0148462592300887 0.027045040432306232 0 -0.013572300108020746 0.026798410700079527 0 -0.014012812834628696 0.026226265673345052 0 -0.013018991330343604 0.026922766750265326 0 -0.013026732896608374 0.026504710997549488 0 -0.012875724169503047 0.026562142359617139 0 -0.01339235242156582 0.027149046124080135 0 -0.013572300108020746 0.026798410700079527 0 -0.013243286217874996 0.026853511711591265 0 -0.013018991330343604 0.026922766750265326 0 -0.013243286217874996 0.026853511711591265 0 -0.013026732896608374 0.026504710997549488 0 -0.013572300108020746 0.026798410700079527 0 -0.013243286217874996 0.026853511711591265 0 -0.013026732896608374 0.026504710997549488 0 -0.013572300108020746 0.026798410700079527 0 -0.013026732896608374 0.026504710997549488 0 -0.012943060552796348 0.026043428483057882 0 -0.013026732896608374 0.026504710997549488 0 -0.012967766196928399 0.026221638984405722 0 -0.012943060552796348 0.026043428483057882 0 -0.013026732896608374 0.026504710997549488 0 -0.012938739306477296 0.026368000453237582 0 -0.012875724169503047 0.026562142359617139 0 -0.012967766196928399 0.026221638984405722 0 -0.012938739306477296 0.026368000453237582 0 -0.012994408415725051 0.026212965593699268 0 -0.013026732896608374 0.026504710997549488 0 -0.012967766196928399 0.026221638984405722 0 -0.012938739306477296 0.026368000453237582 0 -0.01283681362679456 0.026386504226707061 0 -0.012938739306477296 0.026368000453237582 0 -0.012994408415725051 0.026212965593699268 0 -0.01283681362679456 0.026386504226707061 0 -0.012938739306477296 0.026368000453237582 0 -0.012875724169503047 0.026562142359617139 0 -0.01452946591287463 0.026846868090946985 0 -0.01294082924227951 0.026914235260011424 0 -0.013503597865862386 0.026296901259351919 0 -0.018308129614805432 0.018412710377298538 0 -0.01817989276742514 0.01857571786848004 0 -0.012987505090716988 0.026366023628221675 0 -0.013503597865862386 0.026296901259351919 0 -0.012994408415725051 0.026212965593699268 0 -0.012967766196928399 0.026221638984405722 0 -0.012987505090716988 0.026366023628221675 0 -0.012994408415725051 0.026212965593699268 0 -0.012943060552796348 0.026043428483057882 0 -0.012432611710492605 0.024881503238012484 0 -0.013183900203292456 0.024586574464275399 0 -0.018308129614805432 0.018412710377298538 0 -0.017750385144487645 0.018728465651047684 0 -0.012967766196928399 0.026221638984405722 0 -0.012987505090716988 0.026366023628221675 0 -0.012943060552796348 0.026043428483057882 0 -0.011203596518216419 0.025313625584068345 0 -0.012943060552796348 0.026043428483057882 0 -0.012432611710492605 0.024881503238012484 0 -0.018308129614805432 0.018412710377298538 0 -0.016993834983730083 0.017982750056349108 0 -0.011203596518216419 0.025313625584068345 0 -0.012432611710492605 0.024881503238012484 0 -0.01238954192083532 0.023708573256143738 0 -0.012432611710492605 0.024881503238012484 0 -0.013183900203292456 0.024586574464275399 0 -0.01238954192083532 0.023708573256143738 0 -0.01686778353261284 0.011658466739031788 0 -0.016929275787738823 0.011785613851917315 0 -0.016842403176288084 0.011834856622599458 0 -0.01686778353261284 0.011658466739031788 0 -0.016842403176288084 0.011834856622599458 0 -0.016710976188973842 0.011832527898912022 0 -0.016929275787738823 0.011785613851917315 0 -0.016929766568535301 0.011856506861598146 0 -0.016842403176288084 0.011834856622599458 0 -0.01484948977776702 0.025725146627844152 0 -0.013883711852422995 0.025323140329590304 0 -0.014236008932350181 0.024268528777492557 0 -0.014012812834628696 0.026226265673345052 0 -0.01484948977776702 0.025725146627844152 0 -0.013883711852422995 0.025323140329590304 0 -0.014012812834628696 0.026226265673345052 0 -0.012943060552796348 0.026043428483057882 0 -0.013883711852422995 0.025323140329590304 0 -0.012943060552796348 0.026043428483057882 0 -0.013883711852422995 0.025323140329590304 0 -0.013183900203292456 0.024586574464275399 0 -0.013183900203292456 0.024586574464275399 0 -0.014236008932350181 0.024268528777492557 0 -0.013421481969981166 0.023304186710258901 0 -0.013883711852422995 0.025323140329590304 0 -0.013183900203292456 0.024586574464275399 0 -0.014236008932350181 0.024268528777492557 0 -0.013183900203292456 0.024586574464275399 0 -0.013421481969981166 0.023304186710258901 0 -0.01238954192083532 0.023708573256143738 0 -0.01546753428746811 0.0244106979745395 0 -0.014236008932350181 0.024268528777492557 0 -0.014832544792728485 0.023313293289714165 0 -0.01546753428746811 0.0244106979745395 0 -0.01484948977776702 0.025725146627844152 0 -0.014236008932350181 0.024268528777492557 0 -0.014236008932350181 0.024268528777492557 0 -0.014832544792728485 0.023313293289714165 0 -0.013421481969981166 0.023304186710258901 0 -0.014832544792728485 0.023313293289714165 0 -0.013421481969981166 0.023304186710258901 0 -0.014992488089846084 0.021455022527260934 0 -0.015179248200796601 0.021343546045693679 0 -0.015727555992842139 0.020811310888831501 0 -0.013421481969981166 0.023304186710258901 0 -0.013217650503448603 0.021862620747372198 0 -0.01238954192083532 0.023708573256143738 0 -0.016690448883010477 0.016972225129978317 0 -0.016993834983730083 0.017982750056349108 0 -0.016556607568089788 0.012000102334714605 0 -0.016710976188973842 0.011832527898912022 0 -0.016686240960561542 0.011975499142883404 0 -0.016556607568089788 0.012000102334714605 0 -0.016644831756092805 0.012078658230864993 0 -0.016556795504101374 0.01214134315722065 0 -0.016556607568089788 0.012000102334714605 0 -0.016644831756092805 0.012078658230864993 0 -0.016686240960561542 0.011975499142883404 0 -0.013421481969981166 0.023304186710258901 0 -0.013217650503448603 0.021862620747372198 0 -0.014645735928687538 0.021605847106495046 0 -0.013217650503448603 0.021862620747372198 0 -0.014645735928687538 0.021605847106495046 0 -0.014292374155666695 0.019329599239946278 0 -0.01689331312487714 0.011920726404730145 0 -0.016929766568535301 0.011856506861598146 0 -0.016842403176288084 0.011834856622599458 0 -0.01689331312487714 0.011920726404730145 0 -0.016778943840805954 0.011934359850342293 0 -0.016851733272086413 0.012002411281001036 0 -0.01689331312487714 0.011920726404730145 0 -0.016842403176288084 0.011834856622599458 0 -0.016778943840805954 0.011934359850342293 0 -0.016778943840805954 0.011934359850342293 0 -0.016710976188973842 0.011832527898912022 0 -0.016686240960561542 0.011975499142883404 0 -0.016842403176288084 0.011834856622599458 0 -0.016778943840805954 0.011934359850342293 0 -0.016710976188973842 0.011832527898912022 0 -0.016644831756092805 0.012078658230864993 0 -0.016740156840190173 0.012032133914816959 0 -0.016722017991916839 0.012122293976573559 0 -0.016644831756092805 0.012078658230864993 0 -0.016686240960561542 0.011975499142883404 0 -0.016740156840190173 0.012032133914816959 0 -0.016778943840805954 0.011934359850342293 0 -0.016740156840190173 0.012032133914816959 0 -0.016851733272086413 0.012002411281001036 0 -0.016778943840805954 0.011934359850342293 0 -0.016686240960561542 0.011975499142883404 0 -0.016740156840190173 0.012032133914816959 0 -0.016740156840190173 0.012032133914816959 0 -0.016851733272086413 0.012002411281001036 0 -0.016819835501043406 0.012106952841289891 0 -0.016937511604822927 0.012052128202631109 0 -0.016851733272086413 0.012002411281001036 0 -0.016819835501043406 0.012106952841289891 0 -0.016937286300244093 0.011973514090306711 0 -0.01689331312487714 0.011920726404730145 0 -0.016851733272086413 0.012002411281001036 0 -0.016937511604822927 0.012052128202631109 0 -0.016937286300244093 0.011973514090306711 0 -0.016851733272086413 0.012002411281001036 0 -0.016919751621276437 0.012184965154010343 0 -0.016937511604822927 0.012052128202631109 0 -0.016819835501043406 0.012106952841289891 0 -0.016919751621276437 0.012184965154010343 0 -0.016819835501043406 0.012106952841289891 0 -0.016753656454431696 0.012203209808286087 0 -0.016819835501043406 0.012106952841289891 0 -0.016722017991916839 0.012122293976573559 0 -0.016753656454431696 0.012203209808286087 0 -0.016740156840190173 0.012032133914816959 0 -0.016819835501043406 0.012106952841289891 0 -0.016722017991916839 0.012122293976573559 0 -0.016644831756092805 0.012078658230864993 0 -0.016722017991916839 0.012122293976573559 0 -0.016651386611075372 0.012186076451237331 0 -0.016722017991916839 0.012122293976573559 0 -0.016753656454431696 0.012203209808286087 0 -0.016651386611075372 0.012186076451237331 0 -0.016747875794357096 0.012332205162773727 0 -0.016666224737321579 0.012277158617446235 0 -0.016753656454431696 0.012203209808286087 0 -0.016666224737321579 0.012277158617446235 0 -0.016753656454431696 0.012203209808286087 0 -0.016651386611075372 0.012186076451237331 0 -0.026240769225911641 0.0076844014648386706 0 -0.026434895499501457 0.0061035345735151953 0 -0.016919751621276437 0.012184965154010343 0 -0.016747875794357096 0.012332205162773727 0 -0.016753656454431696 0.012203209808286087 0 -0.035491033430046462 -0.00077715736958954397 0 -0.036025626729715342 0.00050295311406347643 0 -0.037711318161660047 -0.0022059020620206035 0 -0.016690448883010477 0.016972225129978317 0 -0.017039196296386717 0.015619372302773224 0 -0.016556607568089788 0.012000102334714605 0 -0.016396151511403893 0.012176909474304835 0 -0.016556795504101374 0.01214134315722065 0 -0.016396151511403893 0.012176909474304835 0 -0.016556795504101374 0.01214134315722065 0 -0.016531801282997166 0.012260137803673179 0 -0.016644831756092805 0.012078658230864993 0 -0.016556795504101374 0.01214134315722065 0 -0.016651386611075372 0.012186076451237331 0 -0.016556795504101374 0.01214134315722065 0 -0.016651386611075372 0.012186076451237331 0 -0.016531801282997166 0.012260137803673179 0 -0.016563594906408512 0.01233489135683496 0 -0.016666224737321579 0.012277158617446235 0 -0.016531801282997166 0.012260137803673179 0 -0.016666224737321579 0.012277158617446235 0 -0.016651386611075372 0.012186076451237331 0 -0.016531801282997166 0.012260137803673179 0 -0.016396151511403893 0.012176909474304835 0 -0.016531801282997166 0.012260137803673179 0 -0.016406039269571286 0.012336646871308171 0 -0.016471111407716753 0.012323332367771287 0 -0.016563594906408512 0.01233489135683496 0 -0.016531801282997166 0.012260137803673179 0 -0.016471111407716753 0.012323332367771287 0 -0.016531801282997166 0.012260137803673179 0 -0.016406039269571286 0.012336646871308171 0 -0.016471111407716753 0.012323332367771287 0 -0.016362494242667378 0.01235249468087439 0 -0.016406039269571286 0.012336646871308171 0 -0.017893050305848545 0.014032638702569319 0 -0.017039196296386717 0.015619372302773224 0 -0.016413779701605281 0.012650296193445628 0 -0.016362494242667378 0.01235249468087439 0 -0.016406039269571286 0.012336646871308171 0 -0.016413779701605281 0.012650296193445628 0 -0.016396151511403893 0.012176909474304835 0 -0.016406039269571286 0.012336646871308171 0 -0.016198577725095923 0.015266688686333208 0 -0.014292374155666695 0.019329599239946278 0 -0.016913883284055499 0.017373525863998519 0 -0.014292374155666695 0.019329599239946278 0 -0.016949996982684224 0.01939936448425636 0 -0.016913883284055499 0.017373525863998519 0 -0.015727555992842139 0.020811310888831501 0 -0.016874321219271647 0.019728492671668246 0 -0.014645735928687538 0.021605847106495046 0 -0.014292374155666695 0.019329599239946278 0 -0.016949996982684224 0.01939936448425636 0 -0.016818613542889233 0.019474616722684503 0 -0.020255860608318112 0.017416509604490996 0 -0.019246180501164663 0.019642665925233397 0 -0.016818613542889233 0.019474616722684503 0 -0.019246180501164663 0.019642665925233397 0 -0.018251084648615787 0.021034642718615895 0 -0.016818613542889233 0.019474616722684503 0 -0.020255860608318112 0.017416509604490996 0 -0.021218021543075023 0.016189408970059382 0 -0.016874321219271647 0.019728492671668246 0 -0.017663335432139129 0.019005293354321943 0 -0.016949996982684224 0.01939936448425636 0 -0.016913883284055499 0.017373525863998519 0 -0.018543060587514988 0.0161266136226185 0 -0.016949996982684224 0.01939936448425636 0 -0.018543060587514988 0.0161266136226185 0 -0.021218021543075023 0.016189408970059382 0 -0.016913883284055499 0.017373525863998519 0 -0.017428136776608705 0.015723989376736386 0 -0.018543060587514988 0.0161266136226185 0 -0.016198577725095923 0.015266688686333208 0 -0.016913883284055499 0.017373525863998519 0 -0.017428136776608705 0.015723989376736386 0 -0.018397008334268074 0.013991421041485819 0 -0.017428136776608705 0.015723989376736386 0 -0.018543060587514988 0.0161266136226185 0 -0.020108515188093749 0.014615681097270574 0 -0.019140971062303971 0.014459086779456242 0 -0.018543060587514988 0.0161266136226185 0 -0.020255860608318112 0.017416509604490996 0 -0.021218021543075023 0.016189408970059382 0 -0.025668330332543149 0.01524576797389126 0 -0.020108515188093749 0.014615681097270574 0 -0.018543060587514988 0.0161266136226185 0 -0.021218021543075023 0.016189408970059382 0 -0.021884364807953072 0.014082882694894371 0 -0.021218021543075023 0.016189408970059382 0 -0.025668330332543149 0.01524576797389126 0 -0.020134474193990212 0.013227863454540559 0 -0.019549869051461357 0.012849327946319588 0 -0.020255860608318112 0.017416509604490996 0 -0.021562262402171049 0.01858158726667794 0 -0.020813962757920551 0.019069286426561208 0 -0.020255860608318112 0.017416509604490996 0 -0.029491080289696801 0.017525410480644682 0 -0.025668330332543149 0.01524576797389126 0 -0.028844160635696153 0.013428164580579065 0 -0.029491080289696801 0.017525410480644682 0 -0.025668330332543149 0.01524576797389126 0 -0.020813962757920551 0.019069286426561208 0 -0.021179416248843386 0.020202260831495702 0 -0.020004636080189497 0.020875062106947867 0 -0.021610644258753149 0.019562806571830946 0 -0.021562262402171049 0.01858158726667794 0 -0.020813962757920551 0.019069286426561208 0 -0.021610644258753149 0.019562806571830946 0 -0.020813962757920551 0.019069286426561208 0 -0.021179416248843386 0.020202260831495702 0 -0.020255860608318112 0.017416509604490996 0 -0.020813962757920551 0.019069286426561208 0 -0.019246180501164663 0.019642665925233397 0 -0.020813962757920551 0.019069286426561208 0 -0.019246180501164663 0.019642665925233397 0 -0.020004636080189497 0.020875062106947867 0 -0.020004636080189497 0.020875062106947867 0 -0.020808947756227172 0.021862126125501539 0 -0.018994852642745648 0.022369242141946508 0 -0.019246180501164663 0.019642665925233397 0 -0.020004636080189497 0.020875062106947867 0 -0.018251084648615787 0.021034642718615895 0 -0.020004636080189497 0.020875062106947867 0 -0.018994852642745648 0.022369242141946508 0 -0.018251084648615787 0.021034642718615895 0 -0.021814018461435429 0.021028396777259938 0 -0.021179416248843386 0.020202260831495702 0 -0.020967219970102081 0.02099479108057116 0 -0.021179416248843386 0.020202260831495702 0 -0.020004636080189497 0.020875062106947867 0 -0.020967219970102081 0.02099479108057116 0 -0.020004636080189497 0.020875062106947867 0 -0.020967219970102081 0.02099479108057116 0 -0.020808947756227172 0.021862126125501539 0 -0.021814018461435429 0.021028396777259938 0 -0.020967219970102081 0.02099479108057116 0 -0.020808947756227172 0.021862126125501539 0 -0.021511724517934306 0.023088824366414712 0 -0.018977326598018054 0.023911120497327108 0 -0.020808947756227172 0.021862126125501539 0 -0.018977326598018054 0.023911120497327108 0 -0.020808947756227172 0.021862126125501539 0 -0.018994852642745648 0.022369242141946508 0 -0.018977326598018054 0.023911120497327108 0 -0.017078750808680501 0.02399856308960829 0 -0.018994852642745648 0.022369242141946508 0 -0.017078750808680501 0.02399856308960829 0 -0.017465644024911672 0.022362278767032655 0 -0.016082117109722214 0.022873187201312744 0 -0.017078750808680501 0.02399856308960829 0 -0.018994852642745648 0.022369242141946508 0 -0.017465644024911672 0.022362278767032655 0 -0.017465644024911672 0.022362278767032655 0 -0.016082117109722214 0.022873187201312744 0 -0.016699203161516251 0.021518383827216547 0 -0.014832544792728485 0.023313293289714165 0 -0.014992488089846084 0.021455022527260934 0 -0.016082117109722214 0.022873187201312744 0 -0.01546753428746811 0.0244106979745395 0 -0.014832544792728485 0.023313293289714165 0 -0.016082117109722214 0.022873187201312744 0 -0.014992488089846084 0.021455022527260934 0 -0.016818613542889233 0.019474616722684503 0 -0.016699203161516251 0.021518383827216547 0 -0.014992488089846084 0.021455022527260934 0 -0.016082117109722214 0.022873187201312744 0 -0.016699203161516251 0.021518383827216547 0 -0.016818613542889233 0.019474616722684503 0 -0.018251084648615787 0.021034642718615895 0 -0.016699203161516251 0.021518383827216547 0 -0.017465644024911672 0.022362278767032655 0 -0.018251084648615787 0.021034642718615895 0 -0.016699203161516251 0.021518383827216547 0 -0.018994852642745648 0.022369242141946508 0 -0.017465644024911672 0.022362278767032655 0 -0.018251084648615787 0.021034642718615895 0 
</DataArray>
</PointData>
<CellData Scalars="region_id,cross_section_updated," Vectors="" Tensors="stress,">
<DataArray type="Float64" Name="region_id" format="ascii">
5 5 5 5 5 6 5 5 5 5 5 5 5 6 5 5 5 5 6 5 5 6 5 5 5 5 6 5 5 5 5 6 5 5 5 5 5 5 5 5 5 5 5 5 5 6 5 5 6 5 5 5 5 5 6 5 5 5 5 5 5 5 6 5 5 5 5 6 5 5 5 5 5 5 5 5 5 6 5 5 6 5 5 6 5 5 5 5 6 5 5 5 5 5 5 5 6 6 6 5 5 6 5 5 5 5 5 6 5 5 5 5 5 5 5 5 5 5 5 5 5 6 5 5 5 6 5 5 5 5 5 5 6 5 5 5 5 5 5 5 5 5 5 5 5 5 5 5 5 5 5 5 5 5 5 5 5 5 6 5 5 5 6 5 5 6 5 5 5 5 5 5 5 5 5 5 5 6 5 5 5 5 5 5 5 5 6 5 5 5 5 5 5 5 5 6 5 5 5 5 5 5 5 5 5 6 5 5 5 5 5 5 5 5 5 5 5 5 5 5 5 5 5 5 5 5 5 5 5 6 5 5 5 6 5 6 5 6 5 5 6 5 5 5 6 5 6 5 6 5 6 6 5 6 5 5 6 5 6 5 5 5 6 5 6 6 5 5 6 5 5 5 6 5 6 6 6 5 6 5 5 5 6 5 6 6 6 5 5 6 6 5 5 5 5 6 5 6 5 5 6 5 5 5 6 5 6 6 6 5 5 5 6 5 6 6 6 6 5 5 5 6 6 5 5 6 6 6 5 6 5 5 5 5 6 5 5 5 5 5 5 5 6 5 5 5 5 5 5 6 6 5 5 5 6 5 5 5 6 5 6 5 6 6 5 5 5 5 6 5 5 6 5 5 5 5 6 5 6 5 5 5 5 5 6 6 5 5 5 5 5 5 5 5 6 5 5 5 6 5 5 6 5 6 5 5 5 5 5 5 5 5 5 5 5 6 5 6 5 6 5 5 5 6 5 6 5 6 5 5 5 5 5 5 6 5 6 5 5 5 6 5 5 5 6 5 6 6 5 5 5 5 6 5 5 5 5 6 6 5 5 6 5 6 5 6 6 5 5 5 6 5 5 5 5 6 5 5 5 5 5 5 5 5 5 5 5 6 5 5 5 5 6 5 5 5 6 5 6 6 6 5 5 5 6 6 5 6 5 5 6 5 5 5 5 6 5 5 5 5 5 5 5 5 5 5 5 6 6 5 5 6 5 5 5 6 5 5 5 5 5 5 6 5 5 5 6 5 5 5 6 5 5 5 5 5 5 5 5 5 5 5 6 5 5 5 6 5 5 5 5 5 5 5 6 5 5 5 5 5 6 5 5 5 5 5 5 5 5 5 5 5 5 5 5 5 5 5 5 5 6 5 5 5 5 6 5 5 6 5 5 5 5 5 5 5 6 5 5 5 5 5 5 5 5 6 5 6 5 5 6 5 5 5 6 5 5 6 5 5 5 6 5 6 5 5 6 5 6 5 5 5 5 5 5 5 5 5 5 5 5 5 5 5 5 5 5 5 5 5 5 6 5 6 5 6 5 5 5 5 5 5 5 5 5 5 5 5 5 5 5 6 5 5 5 5 5 5 5 5 5 6 5 5 5 5 5 5 5 5 5 5 5 5 5 5 5 5 5 5 5 5 5 5 5 5 5 5 5 5 5 6 5 5 6 5 5 5 6 6 5 6 5 5 5 5 5 6 5 5 5 5 5 6 5 5 5 5 5 5 5 5 5 5 5 5 5 5 5 5 5 5 5 5 5 5 5 5 5 5 5 5 5 5 5 5 5 5 5 5 5 5 5 5 5 5 5 5 5 5 5 5 5 6 5 5 5 5 5 5 5 5 5 5 5 5 5 5 5 6 5 5 5 5 6 5 5 5 5 5 5 5 5 5 5 5 5 5 5 5 5 5 5 5 5 5 5 5 5 5 5 5 6 5 5 6 5 6 6 6 6 5 5 6 5 5 5 5 5 5 5 5 5 5 5 5 5 5 5 5 5 6 5 5 6 5 6 5 5 5 5 6 5 6 5 5 5 5 6 5 5 5 6 5 5 5 5 5 6 5 6 5 5 6 6 5 6 5 5 5 5 5 5 5 5 5 5 5 6 5 5 5 6 5 5 5 6 5 5 6 6 6 5 5 5 5 5 5 5 5 5 5 5 6 5 5 5 5 5 5 5 5 6 6 6 5 5 5 5 5 5 5 5 6 6 5 5 5 6 5 5 6 5 5 5 5 5 5 5 5 5 5 5 6 5 5 5 5 5 5 5 5 6 5 5 5 5 5 5 5 5 5 5 6 5 6 6 6 5 5 5 5 5 5 5 6 6 5 6 5 5 5 5 5 6 5 6 6 5 5 5 6 5 6 5 5 5 5 6 5 5 5 5 5 5 5 5 5 5 5 5 5 5 5 5 5 6 5 5 5 6 5 5 5 5 5 6 5 5 5 5 5 5 6 5 6 5 5 5 5 5 5 5 5 6 5 5 5 6 5 5 5 5 5 5 5 5 5 5 5 5 5 5 5 5 5 5 5 5 5 5 5 5 5 6 6 6 5 5 5 5 6 5 5 5 5 6 5 5 5 5 5 5 5 6 5 5 5 5 5 5 5 5 6 5 5 5 5 5 5 5 5 5 5 5 5 6 5 5 5 5 5 5 6 5 5 5 5 5 5 5 5 6 5 5 5 6 5 5 5 5 5 5 5 5 5 5 5 5 6 5 5 5 5 5 5 5 5 5 5 5 5 5 5 5 5 5 5 5 5 5 5 5 5 5 5 5 5 5 5 5 5 5 5 5 5 5 5 5 5 5 5 5 5 5 5 5 6 5 5 5 5 5 5 5 5 5 5 5 5 5 5 5 5 5 5 5 5 5 5 5 5 6 5 5 5 5 5 5 5 5 5 5 6 5 5 6 5 5 5 5 5 5 5 5 5 6 5 6 5 5 5 5 6 5 5 6 5 6 5 5 5 5 5 6 5 5 5 5 5 5 5 5 6 5 5 5 5 5 5 5 5 5 5 5 5 5 5 6 5 6 6 5 5 5 5 5 6 5 5 5 5 5 5 5 5 5 5 5 5 5 5 5 6 5 5 5 5 5 5 5 5 5 5 5 5 5 5 5 5 6 5 5 5 5 5 6 6 5 5 6 5 5 5 5 5 5 5 5 5 5 6 5 5 5 5 5 5 5 5 5 6 5 6 5 5 5 5 5 6 5 5 5 5 6 5 5 5 6 5 5 5 6 5 5 6 5 5 5 5 5 5 5 5 5 5 5 5 5 5 5 5 6 5 5 5 5 5 5 5 6 5 5 5 5 5 5 5 5 5 5 5 5 5 5 5 5 5 5 5 5 5 5 5 5 5 5 5 6 5 5 5 5 6 5 5 5 6 5 5 5 5 5 5 5 5 5 6 5 6 5 5 5 5 5 5 5 5 5 5 5 5 5 5 5 5 5 5 6 6 5 5 5 6 5 5 6 5 5 6 5 5 5 6 5 5 6 5 5 5 5 5 5 5 5 5 5 5 5 5 5 5 5 5 5 5 5 6 5 6 5 5 5 5 5 5 5 5 5 5 5 6 5 6 5 5 5 6 5 5 5 5 5 6 5 5 5 5 5 5 6 5 5 5 5 5 5 5 5 5 5 5 6 5 5 5 5 5 5 5 5 6 5 5 5 6 5 5 6 5 5 5 5 5 6 5 5 5 5 5 5 5 5 5 6 5 5 6 5 6 5 6 6 6 5 6 5 5 5 5 5 5 6 5 5 5 5 5 5 6 5 5 5 5 5 5 5 6 5 5 5 5 6 5 5 5 5 5 6 5 6 5 5 5 5 5 5 5 5 5 5 6 5 5 5 5 5 5 5 6 5 5 5 5 5 5 5 6 5 6 5 5 5 5 5 5 5 5 6 5 5 5 6 6 5 5 5 5 5 6 6 5 6 5 5 6 5 5 6 5 5 5 5 5 5 5 5 6 5 5 5 5 5 6 5 5 5 5 6 5 5 6 5 5 5 5 5 5 5 5 5 5 5 5 5 5 5 5 5 5 5 5 5 5 5 5 5 5 5 5 5 5 5 5 5 5 5 5 5 5 5 5 5 6 5 5 6 5 5 5 5 5 6 5 5 5 5 6 5 5 5 5 5 5 5 5 5 5 5 5 5 5 5 5 5 5 5 5 5 5 5 5 6 5 5 5 6 5 5 5 5 5 5 6 5 5 5 5 5 5 5 5 5 5 5 6 5 6 6 5 5 6 5 5 5 5 5 5 5 5 5 5 5 6 5 5 6 5 5 5 5 5 5 5 5 5 5 5 5 5 5 5 6 5 5 5 5 5 5 5 6 5 6 5 5 5 5 6 5 6 5 5 5 5 5 5 5 5 5 6 5 5 5 5 5 5 5 5 5 5 5 5 5 5 5 5 5 6 5 5 5 5 5 5 5 5 5 5 5 5 5 5 5 5 5 5 5 5 5 5 5 5 5 6 6 5 5 5 5 5 5 5 5 5 5 5 6 5 5 5 5 6 5 5 5 5 6 5 5 5 5 5 5 5 5 6 5 5 5 5 5 5 5 5 5 6 5 5 5 5 5 5 5 5 5 5 5 5 5 5 5 5 5 5 5 5 6 5 5 5 5 5 5 5 5 5 5 5 5 5 5 6 5 6 5 5 5 5 5 5 5 5 6 5 5 6 5 5 5 5 5 5 5 5 5 5 5 5 5 5 5 5 5 5 5 5 5 5 5 5 5 5 5 5 5 5 5 5 5 5 5 5 6 5 5 6 5 5 5 5 6 5 6 5 5 6 5 6 5 5 5 5 5 6 5 5 5 5 5 5 5 5 5 5 5 5 6 5 5 5 6 5 5 5 5 5 5 5 5 5 6 5 5 5 5 6 6 5 5 5 5 5 5 5 5 6 5 5 5 5 5 6 5 5 5 6 5 5 5 6 5 5 5 5 6 5 5 5 5 5 5 5 5 5 5 5 5 5 5 6 5 5 5 5 5 5 6 5 6 6 5 6 5 6 5 5 5 5 6 5 5 5 5 6 5 5 5 5 5 5 5 5 5 6 5 5 5 5 5 5 5 5 5 5 5 5 5 5 6 5 5 5 6 5 5 5 6 5 6 5 5 5 5 5 5 5 5 5 5 5 5 5 5 5 5 6 5 5 5 5 5 5 6 5 5 5 5 5 5 5 5 5 5 5 5 5 5 5 5 5 5 6 5 5 5 5 5 5 5 5 5 5 5 5 5 5 5 5 5 5 5 5 5 5 5 5 5 5 5 5 5 5 5 5 5 5 6 5 5 5 5 6 5 5 5 5 5 5 5 6 5 5 5 5 5 5 5 5 5 6 5 5 6 5 5 5 5 5 6 5 5 5 6 5 5 6 5 5 5 5 5 5 5 5 5 5 5 5 5 5 5 5 5 5 5 5 6 5 5 5 5 5 5 5 5 5 5 6 6 5 6 5 5 5 5 5 6 5 5 5 5 6 5 5 5 5 5 6 5 6 5 5 6 5 5 5 5 5 5 5 5 6 5 5 5 5 5 5 6 5 5 5 5 5 5 6 5 5 5 5 6 5 5 6 5 6 5 5 6 5 5 5 5 5 5 6 5 5 5 5 6 5 5 5 5 5 5 5 5 6 6 5 5 5 5 5 5 5 5 6 5 5 5 5 5 5 6 5 5 5 5 5 5 5 6 5 5 5 6 5 5 5 5 5 5 5 5 5 5 5 5 6 5 5 5 5 6 5 5 6 5 5 5 5 6 5 5 5 6 6 5 5 5 6 5 5 5 6 5 5 5 5 5 5 5 5 5 6 5 5 5 6 5 5 5 5 5 5 5 5 5 5 5 5 6 5 6 5 5 6 5 5 6 5 5 5 5 5 5 5 6 5 5 5 5 5 6 5 6 5 5 5 6 6 5 6 6 5 6 5 5 5 5 5 5 6 5 6 5 5 5 5 5 5 5 5 5 5 5 5 5 6 5 5 6 5 6 5 5 6 5 5 5 6 6 5 5 6 5 5 5 5 5 5 5 5 5 5 5 5 5 5 5 5 5 5 5 5 5 5 5 6 6 5 6 5 6 5 5 6 6 5 5 6 5 5 6 5 5 6 5 6 5 5 5 5 6 5 5 5 5 6 5 6 6 5 6 5 5 6 6 5 5 5 6 5 5 5 5 6 6 5 5 5 5 5 6 5 5 5 5 5 5 5 5 5 5 5 6 5 6 5 6 5 5 6 5 6 5 5 5 5 5 5 5 5 6 5 5 6 5 5 5 5 6 5 5 5 5 5 5 5 5 5 5 5 5 6 5 5 5 5 5 5 5 5 5 5 5 6 5 5 5 5 5 5 6 5 6 5 5 6 5 5 5 5 5 5 5 5 5 5 5 5 5 5 5 5 5 6 6 5 5 5 6 5 5 6 5 5 5 5 5 5 5 5 5 5 5 5 5 5 5 5 5 5 5 5 5 5 5 5 5 6 6 5 5 5 5 5 5 5 5 5 5 5 6 5 5 5 5 5 5 5 5 5 5 5 5 5 5 5 5 5 5 5 5 5 5 5 5 5 5 5 5 5 5 5 5 5 6 5 5 5 5 5 6 5 5 6 5 5 6 6 5 5 5 5 5 5 5 5 5 5 5 5 5 6 5 5 6 5 5 5 5 5 5 6 5 5 6 5 5 5 5 5 5 5 5 5 5 5 5 5 6 5 5 5 5 5 5 5 6 5 5 5 5 5 5 5 5 5 5 5 5 6 5 5 6 5 5 5 5 5 5 5 5 5 5 5 5 5 5 5 5 5 5 5 5 6 5 5 6 5 6 5 5 5 6 5 5 6 5 6 5 5 5 6 5 5 5 5 6 5 5 5 5 5 5 5 6 5 5 5 6 5 5 5 5 5 5 5 5 5 5 5 5 6 5 5 5 5 5 5 5 5 6 5 5 5 5 5 5 5 5 5 5 5 6 5 5 5 5 5 5 5 5 5 5 5 5 5 5 5 5 5 5 5 6 6 5 5 5 6 5 5 5 5 5 5 5 5 5 5 5 5 6 5 5 5 5 5 5 5 5 5 6 5 5 5 5 5 5 5 5 5 5 5 5 5 5 5 5 6 5 6 5 5 5 5 5 6 5 5 5 5 6 5 5 5 6 5 5 5 6 5 5 5 5 5 5 5 5 5 6 5 5 5 6 5 5 6 5 5 5 5 5 5 6 5 5 5 5 5 5 5 5 6 5 5 5 6 5 5 5 5 5 5 5 5 5 5 5 5 5 5 5 5 5 5 5 5 5 5 5 5 5 5 5 6 5 5 5 5 5 5 5 6 5 5 5 5 5 5 5 5 5 5 5 5 5 5 5 5 5 5 5 5 5 5 5 5 5 6 5 6 5 5 5 5 5 5 6 5 5 5 6 5 5 6 5 5 5 5 5 5 5 5 5 5 5 5 6 5 5 5 5 5 6 5 5 5 5 5 5 5 5 5 5 5 5 5 6 5 5 5 6 5 5 5 5 5 5 5 5 5 5 5 5 6 6 5 5 5 5 6 5 5 5 5 5 5 5 5 5 6 6 5 5 5 5 5 6 5 5 5 5 5 6 5 5 5 5 5 6 5 6 5 5 5 5 6 5 6 5 6 6 5 5 5 5 5 5 5 6 6 5 5 5 5 5 5 6 6 6 5 6 6 5 5 5 6 5 5 5 5 5 6 6 6 5 6 5 5 5 6 5 6 6 5 5 5 5 5 5 5 6 6 5 5 6 6 6 5 5 5 5 5 5 5 5 5 5 5 5 5 5 5 5 5 5 5 5 5 5 5 5 5 5 5 5 5 5 5 5 5 5 5 5 5 5 5 5 6 5 5 5 5 5 5 5 5 5 5 6 5 5 5 5 5 5 6 5 5 6 5 5 5 5 5 5 5 5 5 5 5 5 5 6 5 6 5 5 5 5 6 5 5 5 6 5 5 6 5 5 5 6 5 5 6 5 5 5 5 5 6 5 5 5 5 5 5 5 6 5 5 5 5 5 5 5 6 5 5 6 5 5 5 5 6 5 6 5 5 5 5 5 6 5 5 5 5 6 5 5 5 5 5 5 6 6 5 5 5 5 5 6 5 5 6 5 5 5 5 5 5 5 5 5 5 6 5 5 5 5 5 5 5 5 5 5 5 5 5 5 5 5 5 5 6 5 5 5 5 5 5 6 5 5 5 5 5 5 5 6 6 5 5 5 5 6 5 5 5 5 5 5 5 6 5 5 6 5 6 6 6 5 5 5 5 5 5 6 5 5 5 5 5 6 5 5 5 5 6 5 5 5 6 5 5 5 6 5 5 5 5 5 5 5 5 5 5 5 5 5 5 5 5 5 5 5 5 5 5 5 5 5 6 5 5 5 5 5 5 5 6 5 6 5 5 5 5 5 5 6 5 5 6 5 5 5 6 5 5 6 5 5 5 5 5 6 5 5 5 6 6 5 5 5 5 5 5 5 5 5 5 5 5 6 5 5 5 5 5 5 5 5 5 6 5 5 5 5 5 6 6 5 5 5 5 5 5 5 5 5 6 5 5 5 5 5 5 5 5 6 5 5 5 5 5 5 5 5 5 5 5 5 5 5 5 5 5 5 6 5 5 5 5 6 5 6 5 6 5 5 5 5 5 5 5 5 5 5 5 5 5 5 5 5 5 6 5 5 5 5 5 6 5 5 5 6 6 5 5 5 5 5 6 5 5 5 5 6 5 5 5 5 5 5 5 5 6 5 5 5 5 5 5 5 6 5 5 5 5 5 5 5 5 5 6 5 5 5 5 5 5 5 5 5 5 5 5 5 5 5 5 5 5 6 5 5 5 5 5 5 5 5 5 5 5 5 5 6 5 5 5 5 5 5 6 5 5 6 5 5 6 5 5 5 5 5 5 5 5 5 5 5 5 5 5 5 5 5 5 5 5 5 5 5 5 5 5 6 5 6 5 6 6 5 5 5 6 5 5 5 5 5 5 5 5 5 6 6 5 6 5 5 5 5 5 5 5 5 5 5 5 5 5 5 6 5 6 6 5 6 5 5 5 5 5 5 5 5 5 6 6 5 5 5 5 5 5 5 5 5 5 5 5 5 5 5 5 5 5 5 5 5 5 6 5 5 5 5 5 6 5 5 5 5 5 6 5 5 5 6 5 5 5 5 5 5 5 5 5 6 5 5 5 5 6 5 5 5 5 5 5 6 5 5 5 5 5 5 5 6 5 5 5 5 6 5 5 5 5 5 5 5 5 5 5 6 5 5 5 5 6 5 5 5 6 5 5 5 5 5 6 5 5 5 5 5 5 5 5 5 5 5 5 5 5 6 6 5 5 6 5 5 5 5 5 5 5 6 5 5 5 5 5 5 6 5 5 5 5 5 5 5 5 5 5 5 5 5 5 5 5 5 5 5 5 5 5 5 6 5 5 5 5 5 5 5 5 6 5 5 5 5 6 5 5 5 5 5 6 5 6 5 6 5 5 5 5 5 5 5 6 5 5 5 6 5 5 5 5 5 6 5 5 5 5 5 6 5 6 5 5 6 5 6 5 5 5 5 5 6 5 5 5 6 5 5 5 5 5 5 5 5 5 5 6 5 5 5 5 5 5 5 5 5 5 5 5 5 5 5 5 5 5 5 5 5 5 6 5 5 5 5 5 5 5 5 5 5 5 5 5 5 5 5 5 5 6 5 5 5 6 5 5 5 5 5 5 6 5 5 5 6 6 5 6 5 6 6 5 6 5 5 6 5 5 6 6 5 5 5 5 5 5 5 5 6 5 6 5 5 5 5 5 5 5 5 5 5 5 5 5 5 5 5 5 5 5 5 5 5 6 5 5 5 5 5 5 5 5 6 5 5 6 5 5 6 6 5 5 6 5 5 5 5 5 5 5 5 5 5 5 5 5 5 5 5 5 5 5 5 5 5 5 5 5 5 5 5 5 5 5 5 5 5 5 5 5 5 5 6 5 6 5 5 5 5 5 5 5 5 5 5 5 5 5 5 5 5 5 5 5 5 5 5 5 5 5 5 5 5 5 5 5 5 5 5 5 5 5 5 5 5 6 5 5 6 5 5 5 5 5 6 5 6 5 5 6 5 5 5 5 5 5 6 5 5 5 5 5 5 5 5 5 5 5 6 5 5 6 6 5 6 5 5 6 5 5 5 5 6 5 5 5 5 5 5 5 5 5 6 5 6 5 5 5 5 5 5 5 6 5 6 5 5 5 5 5 5 5 5 5 6 5 6 5 5 5 5 5 5 5 5 5 5 6 5 5 5 6 5 5 6 5 5 6 5 5 5 5 6 5 5 5 6 5 5 5 5 5 5 5 5 5 5 5 5 5 5 6 5 5 5 5 5 5 6 5 6 5 6 5 5 5 6 5 5 5 5 5 5 5 5 6 5 5 5 5 5 6 5 5 6 5 5 5 5 5 5 5 5 5 6 5 5 5 6 5 5 5 5 5 5 6 5 5 5 5 5 5 5 5 5 5 5 5 5 5 5 5 5 5 5 5 5 5 5 5 5 5 5 5 5 5 5 6 5 5 5 5 5 6 5 5 6 6 5 5 5 5 6 5 5 5 5 5 6 5 5 5 5 5 5 5 5 5 5 5 5 5 5 5 5 6 5 5 5 5 5 5 5 5 6 6 5 5 5 5 5 5 6 5 5 5 5 6 5 5 5 5 5 5 5 5 5 5 5 5 5 5 5 5 5 5 5 5 5 5 5 5 6 5 5 6 5 5 5 5 5 5 5 5 5 5 5 5 5 5 5 5 5 5 5 5 5 5 5 5 5 5 5 6 5 6 5 5 5 5 5 6 5 5 5 5 5 5 5 5 5 5 5 5 5 5 5 5 5 5 5 5 6 6 5 6 5 5 5 5 5 5 5 5 5 5 5 5 5 5 5 5 6 5 5 5 6 5 5 5 5 5 5 5 5 5 5 5 5 5 6 5 5 5 5 5 5 5 5 5 5 5 5 5 5 5 5 5 5 5 5 5 5 6 5 5 5 5 5 5 5 5 5 5 5 5 5 6 5 6 5 5 6 6 5 5 5 5 5 5 5 5 5 5 5 5 5 5 5 5 5 5 5 5 6 5 5 6 5 5 5 6 5 5 5 5 5 5 6 5 5 5 6 5 5 5 5 5 5 5 5 6 5 5 6 5 5 6 5 6 5 5 5 5 6 6 5 5 6 6 5 5 6 5 5 5 5 6 5 5 6 6 5 6 5 5 5 5 5 5 5 5 5 5 5 5 5 5 5 5 5 5 5 5 6 5 5 5 5 6 5 5 5 5 6 6 5 5 5 5 5 5 5 5 5 5 5 5 6 5 5 5 6 5 5 5 5 5 5 5 6 5 5 5 6 5 5 6 6 5 5 5 6 5 5 5 6 5 5 5 5 5 5 5 5 5 5 5 5 5 5 5 5 5 5 6 5 5 5 5 5 5 5 5 5 5 5 5 5 5 5 5 5 5 6 6 5 5 5 5 5 6 6 5 6 5 5 5 5 5 5 5 5 5 6 5 5 5 6 5 5 5 5 5 5 5 5 5 5 5 5 5 5 6 5 5 5 5 5 5 5 6 5 5 6 5 5 5 5 5 5 6 5 5 5 5 6 5 5 5 5 5 5 6 5 5 5 5 5 5 5 5 6 6 5 5 5 6 6 5 5 5 5 5 6 5 5 5 5 5 5 6 5 5 5 5 6 5 5 5 5 5 6 5 5 5 5 6 5 5 5 5 5 5 5 5 5 5 5 5 5 5 5 5 5 5 5 5 5 5 5 5 5 6 5 5 5 5 6 5 6 5 6 5 5 6 5 5 6 5 5 6 5 5 5 5 5 5 6 5 5 6 5 6 6 6 5 5 6 5 6 6 5 5 5 6 5 6 5 5 5 5 5 5 6 5 5 5 6 5 5 5 5 5 5 5 6 5 5 5 6 5 6 6 5 5 5 5 5 5 5 6 5 5 5 5 5 5 5 5 6 6 5 5 5 5 6 5 5 6 5 5 5 6 5 5 5 6 6 5 5 5 5 6 5 5 5 5 5 6 6 5 5 5 5 5 5 5 5 5 5 5 5 5 5 5 5 5 5 5 5 5 5 5 5 5 5 5 5 5 5 5 6 5 5 5 6 5 5 5 5 5 5 5 5 5 5 5 5 5 5 5 6 5 6 6 5 5 6 5 5 5 5 5 5 5 5 5 5 5 5 5 5 5 5 5 5 5 5 5 5 5 6 5 5 6 6 5 5 5 5 5 5 5 6 5 5 5 6 5 5 5 5 6 6 5 5 5 5 5 5 5 6 5 5 5 5 6 5 5 5 5 6 5 5 5 5 5 5 5 5 5 5 5 5 5 5 5 5 5 5 5 6 5 5 5 5 5 5 5 5 5 5 5 5 5 5 5 5 6 5 5 5 6 5 5 5 5 5 5 5 5 5 6 5 5 5 5 5 5 5 5 5 5 5 5 5 5 5 5 5 5 5 5 5 6 5 5 5 5 5 5 5 5 5 5 5 5 5 5 5 5 5 6 5 5 5 5 5 6 5 5 5 5 5 5 5 5 5 5 5 5 5 5 5 5 5 5 5 5 5 5 5 5 5 5 5 6 5 5 6 5 5 5 6 5 5 5 5 5 5 5 5 5 5 5 5 5 5 5 6 5 6 5 5 5 5 5 5 5 5 5 6 5 5 5 5 5 5 5 5 5 6 6 5 5 5 5 5 5 5 5 5 5 5 5 5 5 5 5 5 5 5 5 5 5 5 5 5 5 5 5 5 5 5 5 5 5 5 5 5 5 5 5 5 5 5 5 5 5 5 5 5 5 5 5 5 5 5 5 5 5 5 5 5 5 5 5 5 5 5 5 5 5 5 6 5 5 5 5 5 5 6 5 5 5 5 5 5 5 5 5 6 5 6 5 5 5 5 5 5 5 5 5 5 5 5 5 5 5 5 5 5 5 5 5 5 5 5 5 5 5 5 5 5 5 5 5 5 6 5 5 5 6 6 5 5 5 5 5 5 5 5 5 5 5 5 5 5 5 5 5 5 5 5 5 5 6 6 5 5 5 5 5 5 5 5 6 5 5 5 5 5 5 6 5 5 5 5 5 6 5 5 5 5 6 5 5 5 6 5 5 5 6 5 5 6 5 5 5 5 5 5 5 5 5 5 5 5 5 6 5 5 5 5 5 5 5 5 6 5 5 5 5 5 5 5 5 5 5 5 6 5 5 5 6 5 5 5 5 6 5 5 5 5 5 5 5 5 6 5 6 5 5 6 5 5 5 5 5 6 5 5 5 5 5 5 5 5 5 5 5 5 6 5 5 5 5 5 5 5 5 5 6 5 5 5 5 5 5 6 5 5 5 5 5 5 5 6 5 5 5 5 5 6 5 5 5 5 5 5 5 5 5 5 5 5 5 5 5 5 5 5 5 5 5 5 5 5 5 5 5 5 5 5 5 5 5 5 5 5 5 5 5 5 5 5 5 5 5 5 5 6 5 6 5 5 5 5 5 5 5 5 5 5 5 5 5 5 6 5 5 5 5 5 5 5 5 5 5 5 5 5 5 5 6 5 5 6 5 6 5 5 5 5 5 6 5 5 5 5 5 5 5 5 5 5 5 5 5 5 5 5 5 5 5 5 6 5 5 5 5 5 5 5 5 5 5 5 6 5 6 5 5 6 5 6 5 5 5 5 5 5 5 6 5 6 5 5 5 5 6 5 5 5 5 6 6 5 5 6 5 5 5 5 5 5 5 5 5 5 5 5 5 5 5 5 6 5 5 5 5 5 5 5 5 5 5 5 5 5 5 6 5 6 5 5 5 5 5 5 5 6 5 6 5 5 5 5 5 5 5 5 5 6 6 5 5 5 6 5 5 5 5 6 5 6 5 5 6 5 6 6 6 5 5 6 5 5 5 6 6 6 5 5 5 5 5 5 5 5 5 5 5 6 5 5 5 5 5 5 6 5 5 5 6 5 5 5 5 5 5 5 5 6 5 5 5 6 5 5 5 5 5 5 5 5 5 5 5 5 5 5 5 5 5 5 5 5 5 5 5 5 5 5 5 5 5 5 5 5 5 5 5 5 5 5 5 5 5 5 5 5 5 5 5 5 5 5 5 5 5 5 5 5 5 5 5 5 6 5 5 5 5 5 6 5 5 5 5 6 5 5 5 6 5 5 5 5 5 5 5 5 5 5 5 5 5 5 5 5 5 5 5 5 5 5 5 5 5 5 5 5 5 5 5 5 5 5 5 5 5 5 5 5 6 5 5 6 5 5 5 5 5 5 5 6 5 5 5 5 5 5 5 5 5 5 5 6 5 5 6 5 6 5 5 5 6 5 5 5 5 5 5 5 5 6 5 5 5 5 6 5 5 5 5 6 5 6 5 5 5 5 5 5 5 5 5 5 5 5 6 5 6 5 5 5 5 5 5 5 5 5 5 5 5 5 6 5 5 5 5 5 5 5 5 5 6 5 5 5 6 5 5 5 5 5 5 5 5 5 5 5 5 5 5 5 5 5 5 5 5 5 5 5 5 5 5 5 5 5 5 5 5 5 5 5 6 5 5 6 5 5 5 5 6 5 5 5 5 5 5 5 5 5 5 5 5 5 5 5 6 5 5 5 5 5 5 5 5 5 6 5 6 5 5 5 5 5 5 5 6 5 5 5 5 5 5 5 5 5 5 5 5 5 5 6 5 5 5 5 5 5 5 5 5 5 5 6 5 5 5 5 5 5 5 5 5 5 5 5 5 5 5 5 5 5 5 5 5 5 5 6 5 6 5 5 5 5 5 5 6 5 6 5 5 5 6 5 5 5 6 5 5 5 6 5 5 6 5 5 5 5 5 5 5 6 5 5 5 5 5 5 5 6 5 5 5 5 5 5 5 5 5 5 5 5 5 6 5 5 5 5 5 5 5 5 6 5 5 5 5 5 5 5 5 5 5 5 5 5 5 5 5 5 5 5 5 6 5 5 5 5 5 5 5 5 5 5 5 5 5 5 5 5 5 5 5 5 5 5 5 5 5 5 5 5 5 5 5 5 5 5 5 5 5 5 5 5 5 5 5 5 5 5 5 5 5 5 6 5 6 5 5 5 6 5 5 6 6 5 6 5 5 5 5 5 5 5 5 5 5 5 5 5 5 5 5 5 5 5 5 5 5 5 5 5 5 5 5 5 5 5 5 5 5 5 6 5 5 5 5 6 5 5 6 5 5 5 6 5 5 5 5 6 5 6 6 5 5 5 5 6 5 5 5 6 5 5 5 6 5 5 5 5 5 5 6 5 5 5 5 5 5 5 5 5 5 5 5 5 5 5 5 5 5 5 5 6 5 5 5 5 5 5 5 5 5 5 5 5 5 5 5 5 5 5 6 5 5 6 5 5 6 5 5 5 5 5 5 5 5 5 5 5 6 5 5 5 5 6 5 5 5 5 6 5 5 5 6 5 5 5 5 5 5 5 5 5 5 5 5 5 5 5 5 5 5 5 5 5 5 5 5 5 6 5 5 5 5 5 5 5 5 6 5 5 5 6 5 5 5 5 5 5 5 5 5 5 5 5 5 5 5 5 5 5 5 5 5 5 5 5 6 5 5 5 6 5 5 5 5 5 5 5 5 6 5 5 6 5 5 5 5 6 5 5 5 5 5 5 5 6 5 6 5 5 6 5 5 6 6 5 5 5 5 5 5 5 5 5 5 5 5 5 5 5 5 5 5 5 5 5 6 5 5 5 5 6 5 5 5 5 5 5 5 5 5 5 5 5 5 6 5 5 6 5 5 5 5 5 5 5 5 5 5 5 5 5 5 5 5 5 5 5 5 5 5 5 5 5 5 5 5 5 5 5 5 5 5 5 5 5 5 5 5 5 5 5 5 5 5 5 5 5 5 5 5 5 5 5 5 5 5 5 5 5 5 5 5 5 5 5 5 5 5 5 5 5 5 5 5 5 5 5 5 5 5 5 5 5 5 5 5 5 5 5 5 5 5 5 5 5 5 5 5 5 5 5 5 5 5 5 5 5 5 5 5 5 5 5 5 5 5 5 5 5 5 5 5 5 5 5 5 6 5 5 5 5 5 5 5 6 5 5 5 5 5 5 5 5 5 6 5 6 5 5 5 6 5 5 6 5 5 5 5 5 5 5 5 5 5 5 5 5 5 5 5 5 5 5 5 5 5 5 5 5 5 5 5 5 5 5 5 5 5 5 5 5 6 5 5 6 6 5 5 6 5 5 6 5 5 5 6 5 5 5 5 5 5 5 5 5 6 5 5 5 5 5 5 6 5 5 5 5 5 5 5 5 5 5 5 5 5 5 5 5 5 5 5 5 5 5 5 5 5 5 5 5 5 5 5 6 5 5 5 5 5 5 5 5 5 5 5 5 5 5 5 5 5 5 5 5 5 5 5 5 5 5 5 5 5 5 5 5 5 5 5 5 5 5 5 5 5 5 5 5 5 5 6 5 6 5 5 5 5 6 5 5 5 5 6 5 5 5 5 6 5 5 5 5 5 5 5 5 6 5 5 6 5 6 5 5 5 5 6 5 5 6 6 5 5 5 5 5 5 6 5 5 5 5 5 5 5 5 5 5 6 6 5 5 5 5 5 6 5 5 6 5 5 5 5 6 5 5 6 5 5 5 5 5 5 5 5 5 5 5 5 5 5 5 5 5 5 5 5 5 5 5 5 5 5 5 5 5 6 5 6 5 5 5 5 5 5 5 5 5 5 5 5 5 6 5 5 5 5 6 6 5 5 5 5 5 5 5 5 5 5 5 5 5 5 5 5 5 5 5 5 5 5 5 5 5 5 5 5 5 5 5 5 5 5 5 5 5 5 5 5 5 5 6 5 5 5 6 5 5 5 5 5 5 5 5 5 5 5 5 5 5 5 5 5 5 5 5 6 5 5 6 5 5 5 5 5 5 5 5 5 6 5 5 5 5 5 6 5 5 5 5 5 6 5 6 5 5 5 5 5 5 5 5 5 5 5 5 5 6 5 5 5 6 6 5 5 5 5 5 5 5 5 6 5 5 6 5 5 6 6 5 5 5 5 5 6 5 5 5 5 5 5 5 6 5 5 6 6 5 5 5 5 5 5 6 6 5 5 5 6 5 5 5 5 5 5 5 6 5 5 5 5 5 5 5 5 5 5 5 5 5 5 5 5 5 5 5 5 5 5 5 5 5 5 6 5 5 5 5 5 5 5 6 5 5 5 5 5 5 5 5 5 5 5 6 5 5 5 5 5 5 5 5 6 5 5 5 5 5 5 5 5 5 5 5 5 5 5 5 5 6 5 5 5 6 5 5 5 5 5 6 5 5 5 5 5 5 5 5 5 5 5 5 5 5 6 5 5 5 5 6 5 5 6 5 5 5 5 5 6 5 5 5 5 5 5 5 5 5 5 5 5 5 5 6 5 6 5 5 5 6 5 6 5 6 5 5 5 5 5 5 6 6 5 5 5 5 5 5 6 5 6 5 5 5 5 5 5 5 5 5 5 5 5 5 5 5 5 5 6 5 5 5 6 6 5 5 5 5 5 6 5 5 6 6 5 5 5 5 5 5 5 5 5 5 5 5 5 5 5 5 5 5 5 5 5 5 5 5 5 5 5 5 5 5 5 5 5 5 5 5 5 5 5 5 5 5 5 5 6 5 5 6 6 6 5 5 5 5 5 5 6 5 5 5 5 5 5 5 5 5 6 5 5 5 6 5 5 5 5 5 5 5 5 5 5 5 5 5 5 5 5 5 5 5 5 6 5 5 5 5 6 5 5 5 5 5 5 5 5 5 5 5 5 5 5 5 5 5 5 5 5 5 5 5 5 5 5 5 5 5 5 5 5 5 5 6 5 6 5 5 5 5 5 5 5 5 6 5 5 5 6 5 6 5 5 5 5 5 5 5 5 6 5 5 5 5 6 5 5 5 5 6 5 5 5 5 5 5 5 6 5 5 5 5 6 5 5 5 5 5 5 5 5 5 5 5 5 5 5 5 5 5 5 5 5 5 5 5 5 5 5 5 5 5 5 5 5 5 5 5 5 5 5 5 5 5 5 5 5 5 5 6 5 5 5 5 6 6 5 5 6 6 5 5 5 5 5 5 5 5 5 5 5 5 5 5 5 5 5 5 5 6 5 5 5 6 6 5 5 5 5 5 5 5 5 5 5 5 5 5 5 5 5 5 5 5 5 5 5 5 5 5 5 5 6 5 5 5 5 5 5 5 6 5 5 5 5 5 5 5 5 5 5 5 5 5 5 5 6 5 5 5 5 5 5 5 5 6 5 6 6 5 5 5 5 5 5 5 5 5 5 5 5 6 5 5 5 5 5 5 5 5 5 5 5 5 5 5 5 5 5 5 6 5 5 5 6 5 5 5 5 5 5 5 5 6 5 5 5 5 5 5 5 5 5 5 5 5 5 5 5 6 5 5 5 6 5 5 5 5 5 5 5 5 5 5 5 5 5 5 5 5 5 5 5 5 5 5 5 5 5 5 5 5 5 5 5 5 5 6 5 6 5 5 5 5 5 5 5 5 6 5 5 5 5 5 5 5 5 5 6 5 5 6 5 5 5 5 5 6 5 5 5 5 6 5 5 5 5 6 5 5 5 6 5 6 5 5 6 5 5 5 5 5 5 5 5 5 5 5 5 5 5 6 5 5 6 5 6 5 5 5 6 5 5 6 5 5 5 5 6 5 6 5 5 5 5 5 5 6 5 6 5 5 5 5 5 6 5 5 5 5 6 5 5 5 5 5 5 6 5 5 5 5 5 5 5 5 5 5 5 5 5 5 5 5 5 5 5 5 5 5 5 5 5 5 5 5 5 5 5 5 5 6 6 5 5 5 5 5 5 5 5 5 5 6 5 5 6 6 5 6 5 5 5 5 5 5 5 6 5 5 5 5 5 5 5 5 5 5 5 5 6 5 5 5 5 6 5 5 5 5 5 5 5 5 5 5 5 5 6 5 5 5 5 5 5 5 5 5 5 5 5 5 5 5 5 5 6 5 5 5 5 5 6 5 5 5 6 5 5 5 5 5 5 6 5 6 5 5 5 6 5 5 5 5 5 5 5 5 5 6 5 5 6 5 5 5 5 5 5 5 6 5 5 5 5 5 5 5 5 5 5 5 5 5 6 5 5 6 5 5 5 5 5 5 6 5 5 5 5 5 5 6 5 5 5 5 5 5 5 6 5 5 5 5 5 5 5 5 5 5 5 5 5 5 5 5 5 5 5 5 5 5 6 5 5 5 5 5 5 5 5 5 5 6 5 5 5 5 6 6 5 5 5 5 6 5 5 5 5 5 5 5 5 5 6 5 5 5 5 5 5 5 5 5 5 5 6 5 5 5 6 5 5 5 6 5 5 5 5 5 5 5 5 5 5 5 5 6 5 5 5 5 5 6 5 5 6 5 5 5 5 5 5 5 5 5 5 5 5 5 5 6 5 5 5 5 5 5 5 6 5 5 5 6 5 5 5 5 5 6 5 5 5 5 5 5 5 5 5 6 5 5 5 5 5 5 5 5 6 5 5 5 5 5 6 5 5 5 5 5 5 5 6 5 5 5 5 5 5 5 5 5 5 5 5 5 5 5 5 5 5 5 5 5 5 5 5 5 5 5 5 5 5 5 5 5 5 5 5 5 5 5 5 5 5 5 5 5 5 5 5 6 5 5 5 5 5 5 5 6 5 5 5 5 5 5 5 5 5 5 5 5 5 5 5 5 5 5 5 5 5 5 6 6 5 5 6 6 5 5 5 5 5 5 5 6 5 5 5 5 5 5 5 5 5 5 5 5 5 5 6 5 5 5 5 5 5 5 5 6 5 5 6 5 5 5 6 5 5 5 5 5 5 5 5 5 5 5 5 5 5 5 5 5 5 5 5 5 5 5 5 5 5 5 5 6 5 5 5 5 5 5 5 5 6 5 5 5 5 5 5 6 6 5 5 5 5 6 5 5 6 5 5 6 5 5 5 5 5 5 6 5 5 5 5 5 5 5 5 6 5 5 5 5 5 5 5 5 5 5 5 6 5 5 6 5 5 5 5 5 5 5 6 5 5 5 6 5 6 5 6 5 5 5 5 5 5 5 5 5 5 5 5 5 5 5 5 5 6 5 6 5 5 5 5 5 5 5 5 5 5 6 5 5 5 5 5 5 5 6 5 5 5 6 5 6 6 5 5 6 5 5 5 5 6 5 5 5 6 5 5 5 6 5 6 6 5 5 5 5 5 5 6 5 5 5 5 5 5 5 5 6 6 6 5 6 5 5 6 6 5 5 6 5 5 5 5 5 5 5 5 5 5 5 6 5 5 5 5 5 5 5 5 5 5 5 5 5 6 6 5 5 5 5 6 5 5 5 6 5 5 5 5 5 6 6 5 5 5 6 5 5 5 5 5 5 5 5 5 5 5 5 5 5 5 6 5 5 5 6 5 5 5 6 5 5 5 5 5 5 6 5 5 5 5 5 6 5 5 5 5 5 5 5 5 6 5 5 5 5 5 5 5 5 5 6 5 5 5 5 6 5 6 5 5 6 5 6 5 5 5 5 5 5 6 5 6 6 5 5 5 5 5 5 5 5 6 5 6 5 6 5 6 5 5 5 5 5 5 5 5 5 5 5 6 5 5 5 6 5 5 5 5 5 5 5 5 6 5 5 5 5 5 5 5 5 5 6 5 5 5 5 6 5 5 6 5 5 5 5 5 5 5 5 5 6 5 5 5 6 5 5 5 5 5 5 5 5 5 5 5 5 5 5 5 5 5 5 5 6 5 5 5 5 5 5 5 5 5 5 6 5 5 5 5 5 5 5 5 5 5 5 5 5 5 5 5 5 5 5 5 5 5 5 5 5 5 5 5 5 5 5 5 5 5 5 5 5 5 5 5 5 5 5 5 5 6 6 5 5 5 5 5 5 5 5 5 5 5 5 5 6 6 5 5 5 6 5 5 6 5 5 5 6 5 5 5 6 5 5 5 5 5 5 5 5 6 5 5 6 5 6 6 5 5 5 5 5 5 6 5 6 6 6 5 5 6 5 5 6 6 5 5 5 5 5 5 5 5 5 5 5 5 5 5 5 5 5 5 5 5 5 6 5 5 5 5 5 5 5 5 5 6 5 5 5 5 5 5 5 6 6 5 5 5 5 5 5 5 5 5 5 5 5 5 5 5 5 5 5 5 5 5 5 5 6 5 6 5 5 5 5 5 5 5 6 5 5 5 6 6 5 5 6 5 5 5 5 6 5 5 5 6 5 5 5 6 5 5 5 5 5 5 5 5 5 6 6 5 5 5 5 5 6 5 5 6 6 6 5 5 5 5 5 6 5 5 5 5 5 5 5 5 5 6 5 6 5 5 5 5 5 5 5 5 5 5 5 5 5 5 5 5 5 5 5 5 5 5 5 5 6 5 5 5 5 6 6 5 5 5 6 5 5 5 5 5 5 5 5 5 5 5 5 5 5 5 5 6 5 5 5 6 5 5 6 5 5 5 5 5 5 5 5 5 5 5 5 5 6 5 5 6 5 5 5 6 5 6 5 6 5 6 6 6 5 5 5 5 5 5 5 5 6 5 5 5 5 5 5 5 5 6 5 5 6 5 5 5 5 5 5 5 5 5 5 5 5 5 5 5 5 5 5 5 5 5 6 5 5 5 5 5 5 5 5 5 5 6 5 6 5 5 6 5 6 5 6 5 5 6 5 6 5 5 6 5 5 5 6 5 5 5 5 5 5 5 5 5 5 5 5 5 5 5 5 5 5 5 5 5 5 5 5 5 5 5 5 5 5 5 5 5 5 5 5 5 5 5 5 5 5 5 5 5 5 5 5 5 5 5 5 5 5 5 5 5 5 5 5 5 6 5 5 6 5 5 5 5 5 5 6 6 5 5 5 5 5 5 5 5 5 5 5 5 5 5 5 5 5 5 6 5 5 5 6 5 5 5 5 5 5 5 5 5 5 5 5 5 5 5 5 6 5 5 5 5 5 5 5 6 5 5 5 5 5 5 5 5 6 5 6 5 5 5 5 5 5 5 5 5 5 5 5 5 5 5 5 6 5 5 5 5 5 5 5 6 5 5 5 5 6 5 5 5 5 5 5 5 6 5 5 6 6 5 5 6 5 5 5 5 5 5 6 5 5 5 5 5 5 5 5 5 6 5 5 6 5 5 6 5 5 6 5 5 5 5 5 6 5 5 5 5 5 5 5 5 6 5 5 5 5 5 5 5 6 5 5 5 5 5 5 5 5 5 5 5 5 6 5 5 5 5 5 5 5 6 6 5 6 5 6 5 5 5 5 5 5 5 5 5 5 5 5 5 5 5 6 5 6 5 5 5 5 5 5 5 5 6 5 6 5 6 5 6 5 6 5 5 6 5 5 5 5 5 6 5 5 5 5 5 5 5 5 6 5 5 5 5 5 6 5 5 6 5 6 6 5 5 5 5 5 5 5 5 6 5 5 5 5 5 5 5 5 5 5 5 5 5 6 5 5 5 5 5 5 5 6 5 5 5 6 5 5 5 5 5 5 5 5 5 5 5 5 5 5 5 5 5 6 5 5 5 5 5 5 5 6 5 5 6 5 5 5 5 5 5 5 5 5 5 5 5 5 5 5 6 5 5 5 5 6 5 5 5 5 5 5 5 5 5 5 5 5 5 5 5 5 5 5 5 5 5 5 5 5 5 6 5 5 5 5 5 5 6 5 5 5 5 5 5 5 5 5 6 6 5 5 5 6 5 6 5 5 5 5 5 5 5 5 5 5 5 5 5 5 5 6 5 5 5 5 5 5 5 5 5 5 5 5 6 6 5 5 5 5 5 5 5 5 6 5 5 6 5 5 6 6 5 5 5 5 5 5 5 6 5 5 5 5 5 5 5 5 5 6 5 5 5 6 5 5 5 5 5 6 5 5 5 5 5 5 5 5 5 5 5 5 6 5 5 5 6 5 5 5 6 5 5 5 5 5 5 5 5 5 5 5 5 5 5 5 5 5 5 5 5 5 5 5 5 5 5 5 5 5 5 5 5 6 5 5 5 5 5 5 5 5 5 5 5 5 5 5 5 5 5 5 5 5 5 5 5 5 6 5 6 5 5 6 5 5 5 5 5 5 5 5 5 6 5 5 5 5 5 5 5 5 5 5 5 5 5 5 6 5 5 5 5 6 5 5 5 6 5 5 5 5 5 5 5 5 5 5 5 5 5 5 5 5 5 5 5 5 5 5 5 5 5 5 5 5 5 5 5 5 5 5 5 5 5 5 5 5 5 5 5 5 5 5 5 5 5 5 5 5 5 5 5 5 5 5 5 5 5 5 5 5 5 5 5 5 5 5 5 5 5 5 5 5 5 5 5 5 5 5 5 5 5 5 5 5 5 5 5 5 5 5 5 5 5 5 5 5 5 5 5 5 5 5 5 5 5 5 5 5 5 5 5 5 5 5 5 5 5 5 5 5 5 5 5 5 5 5 5 5 5 5 5 5 5 5 5 5 5 5 5 5 5 5 5 5 5 5 5 5 5 5 5 5 5 5 5 5 5 5 5 5 5 5 5 5 5 5 5 5 5 5 5 5 5 5 5 5 5 5 5 5 5 5 5 5 5 6 5 5 5 5 5 5 5 5 5 5 5 5 5 5 5 5 6 5 5 5 5 5 5 5 5 6 5 5 5 5 6 5 5 5 5 5 5 5 5 5 5 5 5 5 5 5 5 5 5 5 5 5 5 6 5 5 5 5 5 5 5 5 5 5 5 5 5 6 6 5 5 5 5 5 6 5 6 5 5 5 5 5 5 5 5 5 5 5 6 5 5 5 5 5 5 5 6 5 5 5 5 5 5 5 5 5 5 5 5 5 5 5 6 6 5 5 5 5 5 5 5 5 5 5 5 5 6 5 5 5 5 5 5 5 5 5 5 5 5 5 5 5 5 6 5 5 5 5 5 5 5 6 5 5 5 5 5 5 5 5 5 5 6 6 5 5 5 5 5 5 5 5 5 5 5 5 5 5 5 5 5 5 5 5 5 5 5 5 5 5 5 5 5 5 6 5 5 5 5 5 6 5 5 5 5 5 5 5 5 5 5 6 5 5 5 5 6 5 5 5 5 5 5 5 5 5 5 6 5 6 5 5 5 5 5 5 5 5 5 5 5 5 5 5 5 5 5 5 5 5 5 5 5 5 5 5 5 5 5 5 5 6 5 5 5 5 5 6 5 5 5 5 5 5 5 5 5 5 5 5 5 5 5 5 5 5 6 5 5 6 5 5 5 6 5 5 5 5 5 6 5 5 5 5 5 5 5 5 5 5 6 5 5 5 5 5 5 6 5 5 5 5 5 6 6 5 5 6 5 5 6 5 5 5 5 5 5 5 5 5 5 6 5 5 6 5 5 6 5 5 6 5 5 6 5 5 6 5 5 5 5 5 5 6 5 5 5 5 5 5 5 5 5 5 5 6 5 5 5 5 5 5 5 6 5 5 5 5 6 5 5 5 6 5 5 5 5 5 5 5 5 5 5 5 6 5 5 5 5 5 5 5 5 5 5 5 5 5 5 5 5 5 5 5 5 5 5 5 5 6 5 5 5 5 5 6 5 5 5 5 5 5 5 5 5 5 5 5 5 5 6 5 5 6 5 6 5 5 5 5 6 5 6 6 5 6 5 5 5 5 5 5 5 6 5 6 5 5 5 5 5 5 6 5 5 5 5 5 5 6 5 5 5 5 6 5 5 5 5 5 6 5 5 6 5 5 5 5 6 5 5 5 5 6 5 5 5 5 5 5 6 5 5 5 5 5 5 5 5 5 6 5 5 5 5 5 5 6 5 5 5 5 6 5 5 5 5 5 5 5 5 5 5 5 5 5 5 5 5 6 5 5 5 6 5 5 6 5 5 5 5 5 5 5 5 5 5 5 5 5 5 5 5 6 5 6 5 5 5 5 5 5 5 5 5 5 5 5 5 5 5 5 5 5 5 5 5 5 5 5 5 5 6 5 5 6 5 5 5 5 5 5 5 5 5 5 6 5 5 5 5 6 5 5 5 5 6 5 5 5 5 5 5 5 5 5 6 5 5 5 5 5 5 5 5 5 5 5 5 5 5 5 5 5 5 5 5 5 5 5 5 5 5 5 5 
</DataArray>
<DataArray type="Float64" Name="stress" NumberOfComponents="9" format="ascii">
-1513170749.4911652 1504858095.3862438 0 1504858095.3862438 1077928.5897693634 0 0 0 0 -716261011.63223267 1768438967.1375561 0 1768438967.1375561 -427587157.71245193 0 0 0 0 -328825.28750610352 1519605271.0007668 0 1519605271.0007668 -1097881990.7496452 0 0 0 0 -536965468.38684845 1091177357.2367516 0 1091177357.2367516 -1386190113.8640747 0 0 0 0 -461950599.12623596 1410730673.7191887 0 1410730673.7191887 -1378889421.677958 0 0 0 0 -2238395.81068445 412411.31863733381 0 412411.31863733381 77400.674375666305 0 0 0 0 -47729778.124420166 -226135075.10809326 0 -226135075.10809326 206865327.66276932 0 0 0 0 -641896991.79103088 612079.13597106934 0 612079.13597106934 121617550.49230194 0 0 0 0 -1857165215.1197701 1386668083.8304043 0 1386668083.8304043 -518750067.42469025 0 0 0 0 -1518464898.4817657 1748555346.0725965 0 1748555346.0725965 -1704683014.5456314 0 0 0 0 -551414032.93413544 554083715.55135727 0 554083715.55135727 -282628942.8008728 0 0 0 0 -2283159332.0938606 1110874332.1182671 0 1110874332.1182671 -119634979.7733345 0 0 0 0 2006709.0141792297 5341510.4242362976 0 5341510.4242362976 1587.5256958007812 0 0 0 0 -1008954.4776615314 698157.92808913672 0 698157.92808913672 55359.171034239233 0 0 0 0 -2032665.9441947937 5138775.9407186508 0 5138775.9407186508 -380524.20738220215 0 0 0 0 -3605850.2497253418 5415131.1607131958 0 5415131.1607131958 731.38154961008604 0 0 0 0 -1486392.4171981812 3619484.2769737244 0 3619484.2769737244 566736.39593505859 0 0 0 0 -2252739.4114990234 5836633.914768219 0 5836633.914768219 54033.648027420044 0 0 0 0 -1838116.3698538467 1581362.3265019068 0 1581362.3265019068 -175168.05983377248 0 0 0 0 -1750559.1431350708 5414583.0322570801 0 5414583.0322570801 -2594436.9329071045 0 0 0 0 -3510075.2442474365 4884944.745552063 0 4884944.745552063 -396948.68166351318 0 0 0 0 783720.12159582227 4411948.0752249621 0 4411948.0752249621 -1394082.3214156823 0 0 0 0 57217406.500328064 -25728123.913173676 0 -25728123.913173676 15875431.374031067 0 0 0 0 118136082.33963776 -12648691.940299988 0 -12648691.940299988 -28764716.787765503 0 0 0 0 39337256.276077271 -4582982.8712844849 0 -4582982.8712844849 1583144.4902534485 0 0 0 0 102351194.73436737 103050880.45210838 0 103050880.45210838 81722836.496360779 0 0 0 0 -5184324.6506962106 7179648.4353027083 0 7179648.4353027083 -953051.6927755475 0 0 0 0 -17959555.907165527 114757355.53962708 0 114757355.53962708 82283543.930019379 0 0 0 0 21071102.515769958 39749293.922050476 0 39749293.922050476 -3473235.3019256592 0 0 0 0 53751261.953939438 27468035.024744034 0 27468035.024744034 -42595806.84664917 0 0 0 0 -111690132.43699646 35004374.00592804 0 35004374.00592804 290467233.61201859 0 0 0 0 -6489593.4534033276 2009699.3575169593 0 2009699.3575169593 783299.11890507396 0 0 0 0 -647392978.3847599 469007343.04351425 0 469007343.04351425 -334601058.01343918 0 0 0 0 -46175680.354125977 37631560.298736572 0 37631560.298736572 -65126012.178665161 0 0 0 0 14583210.932563782 128252602.20875549 0 128252602.20875549 -76382767.747680664 0 0 0 0 -148913834.05125427 205795873.15182495 0 205795873.15182495 142656595.07276535 0 0 0 0 71519892.536517709 58942126.397689901 0 58942126.397689901 -234741102.44179535 0 0 0 0 12769987.476604462 -36509027.199462891 0 -36509027.199462891 -240615184.34038544 0 0 0 0 41610206.161773682 57261798.11227417 0 57261798.11227417 -181028081.97720718 0 0 0 0 44394810.814453125 86214714.070846558 0 86214714.070846558 -186360171.28338623 0 0 0 0 71653867.774007797 90810418.373296291 0 90810418.373296291 -189392775.80996704 0 0 0 0 -3441447.9968566895 72861757.394287109 0 72861757.394287109 -76635516.600524902 0 0 0 0 -99702431.522750854 -46481148.211807251 0 -46481148.211807251 -223554886.71697998 0 0 0 0 -155818590.88822174 106611795.86687565 0 106611795.86687565 -61777694.225494385 0 0 0 0 24926060.641403198 22267833.878646851 0 22267833.878646851 -242839008.3323288 0 0 0 0 160612.13568617776 474397.50624904037 0 474397.50624904037 580.2848159968853 0 0 0 0 -123857498.17855835 120263292.48753357 0 120263292.48753357 -80841982.310287476 0 0 0 0 -135929998.7796936 -87084519.730311394 0 -87084519.730311394 -93619867.773269653 0 0 0 0 88657.396375546232 173742.71789872088 0 173742.71789872088 209287.64905636758 0 0 0 0 7906508.5910949707 110613989.77327728 0 110613989.77327728 -22791214.009811401 0 0 0 0 43378014.99181366 90190150.211395264 0 90190150.211395264 -147281082.83660889 0 0 0 0 112401181.40533447 142495779.57272339 0 142495779.57272339 -354293801.04493713 0 0 0 0 41212299.604064941 57084369.066207886 0 57084369.066207886 -148582126.83270645 0 0 0 0 12060030.655227661 -5368031.2001724243 0 -5368031.2001724243 -2297869.5636377335 0 0 0 0 -1164591.0660089529 2081390.5685891509 0 2081390.5685891509 2183645.4114272445 0 0 0 0 44523233.904632568 1645656.2219161987 0 1645656.2219161987 -32866700.360565186 0 0 0 0 -21490112.693771362 -19970396.350601196 0 -19970396.350601196 -17850111.046627045 0 0 0 0 -26205037.453140736 26047898.205342054 0 26047898.205342054 5112834.9631881714 0 0 0 0 7654082.9172153473 16413744.398365974 0 16413744.398365974 -67104851.846450806 0 0 0 0 27989652.897613525 15124325.223274231 0 15124325.223274231 -77595578.568145752 0 0 0 0 187044079.2458725 125268614.14399338 0 125268614.14399338 -22898335.443084717 0 0 0 0 25425408.008163452 47154940.125541687 0 47154940.125541687 -4161066.2150421143 0 0 0 0 -4908172.4448510772 8164858.8891141452 0 8164858.8891141452 -1221018.7898880094 0 0 0 0 88295946.740661621 25717231.309432983 0 25717231.309432983 17017831.078052521 0 0 0 0 134780347.29239273 24640097.292419434 0 24640097.292419434 -52723714.621505737 0 0 0 0 25154327.074371338 64465987.463348389 0 64465987.463348389 -41588103.492797852 0 0 0 0 -40044213.662414551 -53825389.475120544 0 -53825389.475120544 2415150.7037277222 0 0 0 0 2445467.6236325074 312520.69152643904 0 312520.69152643904 -1147477.5610786323 0 0 0 0 20123852.5443573 -39589394.796356201 0 -39589394.796356201 -67939688.499685287 0 0 0 0 -16892693.947158813 -11029962.905910492 0 -11029962.905910492 -45151008.761962891 0 0 0 0 71228298.968391418 45239424.25157547 0 45239424.25157547 -1685734.03125 0 0 0 0 105452614.34254456 28686679.681022644 0 28686679.681022644 -16040951.779499054 0 0 0 0 113440433.41643715 9875607.4161777496 0 9875607.4161777496 -3902408.0425033569 0 0 0 0 115724981.93066406 16726965.679721832 0 16726965.679721832 -8053226.6228256226 0 0 0 0 60946884.24508667 -42982080.001106262 0 -42982080.001106262 -27157359.663162231 0 0 0 0 102017679.7077713 19260401.175830841 0 19260401.175830841 -21135438.067428589 0 0 0 0 -30248159.267837524 22928952.191322327 0 22928952.191322327 31331491.195045471 0 0 0 0 3683469.9727704749 513586.65293064341 0 513586.65293064341 -755314.02699455619 0 0 0 0 1288141.3550758362 2551540.0422010422 0 2551540.0422010422 777556.58873748779 0 0 0 0 950578.56289672852 1959287.0749530792 0 1959287.0749530792 915250.23338317871 0 0 0 0 264535.54549005628 2839538.683404699 0 2839538.683404699 295616.98747981561 0 0 0 0 28473166.814239502 11966548.410217285 0 11966548.410217285 -38567949.418586731 0 0 0 0 5707709.18866539 6184273.2757930756 0 6184273.2757930756 -15799064.872436523 0 0 0 0 6331438.1214397326 5041278.2038266528 0 5041278.2038266528 -2645537.6192480475 0 0 0 0 -1065012.5751190186 -48352492.463932037 0 -48352492.463932037 -11527137.982421875 0 0 0 0 1742539.2246856689 1604142.5349998474 0 1604142.5349998474 904799.20462036133 0 0 0 0 338047.88230133057 5822327.8666973114 0 5822327.8666973114 8817661.5375518799 0 0 0 0 9618305.7792205811 -4216921.4934501648 0 -4216921.4934501648 7120859.9208679199 0 0 0 0 -711540.3090220117 2576421.4223522488 0 2576421.4223522488 1557101.8958944082 0 0 0 0 -1445823.1937179565 953158.77733230591 0 953158.77733230591 6608369.335357666 0 0 0 0 1177420.5765838623 3982078.6657562256 0 3982078.6657562256 -1074311.3393821716 0 0 0 0 1176634.228515625 3219439.3489627838 0 3219439.3489627838 1444172.3642807007 0 0 0 0 8998939.2502212524 9194592.6088676453 0 9194592.6088676453 425144.54074668884 0 0 0 0 6637634.7217559814 1652617.3295440674 0 1652617.3295440674 -6346882.8506622314 0 0 0 0 -483304460.73266602 548838027.02266693 0 548838027.02266693 -551880172.59037018 0 0 0 0 -3856494.6654968262 -2135073.6722192764 0 -2135073.6722192764 8090640.3277664185 0 0 0 0 36260.000191058964 -635460.70221203379 0 -635460.70221203379 -146882.13679091632 0 0 0 0 23429.939356348477 76355.118393247947 0 76355.118393247947 -40078.757809460163 0 0 0 0 264023.08672640752 1441954.8774199951 0 1441954.8774199951 -916300.38294216245 0 0 0 0 -2988258.1119613647 3163091.7574272156 0 3163091.7574272156 218614.11452484131 0 0 0 0 -1543161.6473236084 508932.26683425903 0 508932.26683425903 -1256675.1428260803 0 0 0 0 394139.09566324018 1791523.2030018307 0 1791523.2030018307 -959248.593868725 0 0 0 0 -3385514.230255127 4280990.2619247437 0 4280990.2619247437 835144.1303024292 0 0 0 0 -2350564.4002990723 7603057.6746788025 0 7603057.6746788025 -178653.37464141846 0 0 0 0 -115036.73475646973 -6710295.4924583435 0 -6710295.4924583435 -1796026.2540740967 0 0 0 0 -1596021.2630157471 5796216.900302887 0 5796216.900302887 -8405513.9322967529 0 0 0 0 -5019522.6316070557 7286618.0070877075 0 7286618.0070877075 4489061.1646652222 0 0 0 0 681154.99583241716 -636612.91557171755 0 -636612.91557171755 -616958.14647276141 0 0 0 0 -2723679.6592559814 -1518996.4917755127 0 -1518996.4917755127 25839861.0965271 0 0 0 0 -818136.37242889404 650097425.73189163 0 650097425.73189163 -1008390181.0082474 0 0 0 0 -328282898.97554016 650325658.06576347 0 650325658.06576347 -785929579.23898315 0 0 0 0 -564798422.11225128 955968708.25630951 0 955968708.25630951 -743238821.81242228 0 0 0 0 -895194.2541942019 1017836236.471135 0 1017836236.471135 -1044807183.7616348 0 0 0 0 -543644769.96707916 865927620.89263535 0 865927620.89263535 -473784562.14060211 0 0 0 0 -1261949632.1825867 1371550790.4664154 0 1371550790.4664154 -605477975.80027771 0 0 0 0 -1405598045.5113754 624933358.43053055 0 624933358.43053055 -66679409.870056152 0 0 0 0 -399159635.81619263 195162227.89781189 0 195162227.89781189 -69515781.288946867 0 0 0 0 -106947264.79893494 252911553.69298673 0 252911553.69298673 -187010414.64686584 0 0 0 0 -139113184.94024658 -84311329.615867615 0 -84311329.615867615 -46873179.715293884 0 0 0 0 -19911785.317138672 53875991.127044678 0 53875991.127044678 -134982539.67102051 0 0 0 0 -401603412.69836426 137273515.68745422 0 137273515.68745422 -16197360.533721924 0 0 0 0 283398.02049855888 36229.340158469975 0 36229.340158469975 -377796.54895987734 0 0 0 0 -225349395.40835571 403659557.99304199 0 403659557.99304199 -398042679.58515167 0 0 0 0 -351665295.65936279 319128928.73706055 0 319128928.73706055 -295862962.8319397 0 0 0 0 -927870543.33161926 644622827.62135696 0 644622827.62135696 -193679293.66917419 0 0 0 0 1120284.6164236921 2939800.4420365077 0 2939800.4420365077 184277.36584892124 0 0 0 0 -103303777.21437263 -38242115.46565485 0 -38242115.46565485 219999091.16371155 0 0 0 0 -21088438.667247772 32205066.38066864 0 32205066.38066864 -13200137.011722565 0 0 0 0 3721333.9666829109 19718796.813188076 0 19718796.813188076 -8393216.1533050537 0 0 0 0 2985166.1454544067 27867443.492847443 0 27867443.492847443 -46011046.528564453 0 0 0 0 -2257770.9342689514 66561688.604347229 0 66561688.604347229 11008241.940994263 0 0 0 0 -29094737.877058029 29086430.495672226 0 29086430.495672226 -14401641.901428223 0 0 0 0 412582.21332684415 612055.5316879116 0 612055.5316879116 72605.3486440368 0 0 0 0 -151262673.67834091 39020294.433700562 0 39020294.433700562 62165221.928001404 0 0 0 0 211521496.29725432 225895576.76455498 0 225895576.76455498 183901450.86998749 0 0 0 0 166457510.12733936 184469018.25066757 0 184469018.25066757 56776157.083221436 0 0 0 0 175495950.22505093 245817799.46973705 0 245817799.46973705 143256221.8662262 0 0 0 0 70318438.915214539 109361297.29886627 0 109361297.29886627 301311.48966217041 0 0 0 0 -51555186.081108093 120057407.75801468 0 120057407.75801468 115959611.62786865 0 0 0 0 4310635.1866016388 58343268.582559586 0 58343268.582559586 13167603.451980591 0 0 0 0 40650510.034698486 68242308.817131042 0 68242308.817131042 7391063.712387085 0 0 0 0 12637408.009700775 80480026.973831177 0 80480026.973831177 63091403.951263428 0 0 0 0 66842501.852573395 75349332.817165375 0 75349332.817165375 -23140.096176147461 0 0 0 0 68529272.367046356 93132962.658695221 0 93132962.658695221 59094246.991424561 0 0 0 0 93709498.872024536 35157093.715141296 0 35157093.715141296 44037798.801864624 0 0 0 0 135539476.00455856 55119045.017841339 0 55119045.017841339 -23487048.220703125 0 0 0 0 47652813.648757935 89941816.69758606 0 89941816.69758606 68008677.006134033 0 0 0 0 48668504.769950867 41860147.166885376 0 41860147.166885376 -22811419.835220337 0 0 0 0 48298884.388242722 968153.02785682678 0 968153.02785682678 -88029830.461730957 0 0 0 0 37444122.643539429 21218088.875740051 0 21218088.875740051 -49137188.716247559 0 0 0 0 69446056.466686249 39433757.577819824 0 39433757.577819824 -62972010.51449585 0 0 0 0 21577991.403144836 45333662.399913788 0 45333662.399913788 -32185657.20362854 0 0 0 0 37225323.485740662 70738333.035064697 0 70738333.035064697 6660831.9286766052 0 0 0 0 17992396.208381653 45764755.439941406 0 45764755.439941406 -31980627.855613708 0 0 0 0 18708347.535315394 7410787.9952023029 0 7410787.9952023029 -58959594.103607178 0 0 0 0 13551861.6329422 6207528.6614151001 0 6207528.6614151001 -56055816.008682251 0 0 0 0 13192467.901145935 3939454.5849533081 0 3939454.5849533081 -25384768.945259094 0 0 0 0 -406003.42977142334 -26642084.01663208 0 -26642084.01663208 -51596517.314376831 0 0 0 0 -60651.416998639703 709273.88260473683 0 709273.88260473683 617863.92538186535 0 0 0 0 -16715251.990539551 -5380452.1063232422 0 -5380452.1063232422 21058404.327086449 0 0 0 0 -20152208.24224472 -61318576.375173569 0 -61318576.375173569 -94088719.304489136 0 0 0 0 -68090002.72085762 67805493.850294113 0 67805493.850294113 -45945590.666656494 0 0 0 0 -421988.07375770621 1044468.565337128 0 1044468.565337128 1105167.4966643639 0 0 0 0 -47688993.187717438 32654595.652616501 0 32654595.652616501 -57216449.658432007 0 0 0 0 -24932563.837677002 111312912.28321838 0 111312912.28321838 -40409710.581512451 0 0 0 0 659515.07112220488 1271887.017904792 0 1271887.017904792 -1006831.972011894 0 0 0 0 -17464694.169425964 -37259949.62651062 0 -37259949.62651062 -97173612.263336182 0 0 0 0 -20207817.503604889 33138967.671485901 0 33138967.671485901 -103828268.18966675 0 0 0 0 -36972490.549282074 74372787.487037659 0 74372787.487037659 -79028770.775878906 0 0 0 0 68203889.742149353 41721251.837280273 0 41721251.837280273 -106422416.7482605 0 0 0 0 20354226.77230835 104154486.61849213 0 104154486.61849213 -90842478.100708008 0 0 0 0 47502361.697090149 -11979486.101974487 0 -11979486.101974487 -144288250.53536224 0 0 0 0 -24547934.540010452 -17366161.44587326 0 -17366161.44587326 -109553759.889328 0 0 0 0 25908957.485336304 -11589387.727622986 0 -11589387.727622986 -87101041.695159912 0 0 0 0 35815748.10093689 -14627366.827758789 0 -14627366.827758789 -133974321.72322845 0 0 0 0 81415745.194671631 48013771.147758484 0 48013771.147758484 -99297527.079151154 0 0 0 0 -11699946.066978455 26772958.625423431 0 26772958.625423431 124966393.23648071 0 0 0 0 -183802.27181585319 659492.56341241673 0 659492.56341241673 -44527.323529432528 0 0 0 0 21552671.841003418 36555957.822250366 0 36555957.822250366 69705349.229049683 0 0 0 0 -36354074.406112671 217987187.57872772 0 217987187.57872772 -20890779.624435425 0 0 0 0 20217448.067687988 21045709.526344299 0 21045709.526344299 49580.331344253929 0 0 0 0 52081908.836952209 45783023.55298233 0 45783023.55298233 17284319.154602051 0 0 0 0 72507983.627166748 69097955.527633667 0 69097955.527633667 41273451.649963379 0 0 0 0 -8633636.1023712158 8638732.880355835 0 8638732.880355835 44102442.253604889 0 0 0 0 -8720619.2328857481 -3277966.625268802 0 -3277966.625268802 8910551.5096054077 0 0 0 0 6701901.4078903198 19574855.86882019 0 19574855.86882019 16848469.130859375 0 0 0 0 -183171.92499526776 1644643.2846891116 0 1644643.2846891116 -367145.63057861105 0 0 0 0 -931284.33820343018 5346748.7392425537 0 5346748.7392425537 -1961117.0612335205 0 0 0 0 -20685713.113739014 -3317955.9913406372 0 -3317955.9913406372 151038293.32286835 0 0 0 0 38130652.893188477 -136339537.44335175 0 -136339537.44335175 -393227482.23027039 0 0 0 0 20582831.885345459 -77248802.094055176 0 -77248802.094055176 -42947627.09157753 0 0 0 0 -3217206.0161991119 2611237.2297992706 0 2611237.2297992706 849911.03958892822 0 0 0 0 -2847183.3429870605 6848573.6726360321 0 6848573.6726360321 3752.688591003418 0 0 0 0 -3473132.9984436035 5885334.1027870178 0 5885334.1027870178 1655243.0537109375 0 0 0 0 -2937251.404548645 5413325.3552932739 0 5413325.3552932739 -2888452.2086772919 0 0 0 0 262577.09793967195 2666730.6838976238 0 2666730.6838976238 -879805.78095317632 0 0 0 0 80551008.789613724 114512773.14838791 0 114512773.14838791 -98598274.889831543 0 0 0 0 -292494534.92533875 -123871973.9981842 0 -123871973.9981842 120281675.15341187 0 0 0 0 -133712984.29269409 100641331.67775726 0 100641331.67775726 -14372952.997085571 0 0 0 0 194953756.87516022 -34630168.56678009 0 -34630168.56678009 -247517327.25845337 0 0 0 0 140975688.08049011 101176234.97353363 0 101176234.97353363 -83722178.49230957 0 0 0 0 40675491.493835449 -451485.72738647461 0 -451485.72738647461 -147896296.54592896 0 0 0 0 -11223076.875656128 -8807190.3473205566 0 -8807190.3473205566 -106999755.24227905 0 0 0 0 -149440088.87615967 -17128265.736701965 0 -17128265.736701965 -1342579.768951416 0 0 0 0 43834867.815719604 -140974613.14607239 0 -140974613.14607239 -228795738.34487724 0 0 0 0 -112417.71093598008 344268.56075010356 0 344268.56075010356 325268.28693219647 0 0 0 0 -35149040.854949951 -728750.55323791504 0 -728750.55323791504 -3817405.1421813965 0 0 0 0 -13558785.438690186 4995171.3858642578 0 4995171.3858642578 -51787547.388290405 0 0 0 0 -20954302.573085785 24378136.032440186 0 24378136.032440186 23364014.708404541 0 0 0 0 363272.56140136719 -18665661.555587769 0 -18665661.555587769 30717821.182250977 0 0 0 0 -14602399.304702759 -11023365.108528137 0 -11023365.108528137 20039421.896575928 0 0 0 0 -32191400.570755005 -13003400.314041138 0 -13003400.314041138 30398741.574569702 0 0 0 0 -50159852.066963196 2493087.7680397034 0 2493087.7680397034 30853431.113708496 0 0 0 0 -27085778.585739136 30249048.595039368 0 30249048.595039368 22206046.317333221 0 0 0 0 -3153178.4944496155 80829684.523916245 0 80829684.523916245 -11786030.220397949 0 0 0 0 -104389446.55912781 27265270.164993286 0 27265270.164993286 25636642.290985107 0 0 0 0 -756092.99605560303 18541633.564941406 0 18541633.564941406 15567704.743118286 0 0 0 0 -9138768.4626083374 18067265.098327637 0 18067265.098327637 18034982.125526428 0 0 0 0 -10607449.340744019 10485348.355323792 0 10485348.355323792 13883532.2237854 0 0 0 0 -10282161.666378021 -3170298.7004718781 0 -3170298.7004718781 12215995.942016602 0 0 0 0 -28171582.768432617 3506247.121635437 0 3506247.121635437 22555542.532669067 0 0 0 0 -14969961.176681519 4714306.214641571 0 4714306.214641571 11127442.2474823 0 0 0 0 -12766564.310340881 3956392.9019927979 0 3956392.9019927979 4869860.204208374 0 0 0 0 -12792750.840911865 9321929.4298095703 0 9321929.4298095703 20875578.572610855 0 0 0 0 -8184033.1728973389 13176727.105638504 0 13176727.105638504 15551274.892028809 0 0 0 0 -4253045.9567260742 11150393.303310394 0 11150393.303310394 5993990.890838623 0 0 0 0 -9059288.1440734863 9843917.0175323486 0 9843917.0175323486 10002847.247085571 0 0 0 0 -13580426.864807129 10181318.206253052 0 10181318.206253052 11855955.965373993 0 0 0 0 -12435195.223583221 11239779.518016815 0 11239779.518016815 1261658.3809814453 0 0 0 0 -73007.90254971385 158690.31303711236 0 158690.31303711236 352917.37246779725 0 0 0 0 -9517287.8490142822 10210370.645019531 0 10210370.645019531 10562286.466148376 0 0 0 0 -5938051.6605834961 3638841.1165542603 0 3638841.1165542603 10929808.563934326 0 0 0 0 3915316.1759796143 23197395.086608887 0 23197395.086608887 13596496.636875153 0 0 0 0 -4354816.3665683214 9238014.9504738301 0 9238014.9504738301 -1284164.9743894376 0 0 0 0 151694.51302337646 14347061.314689636 0 14347061.314689636 8299076.7283401489 0 0 0 0 201769.99780225009 2600341.4263998456 0 2600341.4263998456 -115752.70284201566 0 0 0 0 38234922.573287964 65678693.976974487 0 65678693.976974487 57934201.641142845 0 0 0 0 -4729906.3533875998 7591948.1570741264 0 7591948.1570741264 2184834.2635713816 0 0 0 0 13050136.512435913 29401977.662399292 0 29401977.662399292 8976487.5063095093 0 0 0 0 12037895.684707642 24690540.193675995 0 24690540.193675995 9392583.6637940407 0 0 0 0 7421671.9026449323 7892107.9716521986 0 7892107.9716521986 -2351304.7937912084 0 0 0 0 20082145.328643799 24356554.408416748 0 24356554.408416748 -9333136.6121063232 0 0 0 0 -1299022.1911506653 4931028.8690910339 0 4931028.8690910339 1640519.8816833496 0 0 0 0 -3146717.9137573242 5408435.8232307434 0 5408435.8232307434 1052022.9334259033 0 0 0 0 -5264438.1062087873 4779828.1483313479 0 4779828.1483313479 709385.63769291714 0 0 0 0 -2631819.4288330078 6314589.1394042969 0 6314589.1394042969 -1139023.805393219 0 0 0 0 -2708835.7743320763 5916973.9958007475 0 5916973.9958007475 3192320.4857750307 0 0 0 0 769796.42602539062 2786919.580078125 0 2786919.580078125 285500.55539608002 0 0 0 0 -35054.477797403932 6962493.4411671124 0 6962493.4411671124 958735.91752710927 0 0 0 0 1413577.8811035156 3617441.9560241699 0 3617441.9560241699 -399605.48034667969 0 0 0 0 -2668344.8682880364 7571485.5867093503 0 7571485.5867093503 1761257.3149085678 0 0 0 0 -2081687.6908572651 7217288.2466186136 0 7217288.2466186136 564693.05951931141 0 0 0 0 1042977.8767166138 5310606.9181804657 0 5310606.9181804657 612265.62779998779 0 0 0 0 -1097538.2165147215 5193431.7248109747 0 5193431.7248109747 1561199.3890157945 0 0 0 0 -1786130.3921089172 5945597.4313240051 0 5945597.4313240051 936055.18170166016 0 0 0 0 -2863336.8444976807 5051523.9576225281 0 5051523.9576225281 1211183.0381603241 0 0 0 0 -2086991.3584751021 6757103.7327377237 0 6757103.7327377237 3282762.7003584327 0 0 0 0 -2872880.9920845032 5803148.5556697845 0 5803148.5556697845 1079203.4872894287 0 0 0 0 -2742571.6427750513 5776904.8648809195 0 5776904.8648809195 -1518.1990523179993 0 0 0 0 -3589629.5709228516 4580821.0185546875 0 4580821.0185546875 -144405.22406005859 0 0 0 0 -2017760.4934082031 5508583.292427063 0 5508583.292427063 3255791.577316761 0 0 0 0 -713634.95442581177 6091043.7013673782 0 6091043.7013673782 -98016.961669921875 0 0 0 0 1773357.8900972288 5627133.4239917602 0 5627133.4239917602 3348482.52900723 0 0 0 0 -1055610.1497898102 4255060.5448246002 0 4255060.5448246002 2270002.9020195007 0 0 0 0 615381.89815272484 5135896.5766245816 0 5135896.5766245816 1878138.8095540106 0 0 0 0 -271683.74209813029 4075189.4849853665 0 4075189.4849853665 285260.96129412856 0 0 0 0 103389.22286224365 4656589.2794647217 0 4656589.2794647217 3188577.6072235107 0 0 0 0 -239265.20167541504 4330620.2897186279 0 4330620.2897186279 3255832.008140564 0 0 0 0 -438743.95308048651 4022379.3028553408 0 4022379.3028553408 -914642.02604086092 0 0 0 0 -239075.74650382996 4296820.0139989853 0 4296820.0139989853 2876347.4169311523 0 0 0 0 -1558342.6260223389 4046104.2740020752 0 4046104.2740020752 1220544.9674682617 0 0 0 0 -950787.24725341797 4689661.4410820007 0 4689661.4410820007 1052701.7516424656 0 0 0 0 -543408.50880143885 4081400.8869474391 0 4081400.8869474391 2112109.5521911383 0 0 0 0 -789643.85857772827 4349731.4056434631 0 4349731.4056434631 3315333.0732955933 0 0 0 0 -6970443.4773085443 5312109.1750890817 0 5312109.1750890817 3524457.0864907056 0 0 0 0 -3726162.0893005547 3942687.7543949839 0 3942687.7543949839 2933694.1072148569 0 0 0 0 120621.65714673884 3009758.1478559184 0 3009758.1478559184 1665754.0023259334 0 0 0 0 -1400806.1388702393 2749691.6909790039 0 2749691.6909790039 620963.59680938721 0 0 0 0 -1323849.4291781131 3683872.8403303027 0 3683872.8403303027 712366.55439323559 0 0 0 0 10559359.020065308 16049379.889389038 0 16049379.889389038 1133925.3217849731 0 0 0 0 180173.4566450119 3228521.6088161469 0 3228521.6088161469 1218127.5733108521 0 0 0 0 -320240.11763000488 2754747.8378486633 0 2754747.8378486633 1279166.7447052002 0 0 0 0 -363946.06111129932 935838.45910572028 0 935838.45910572028 907610.73853264749 0 0 0 0 -2223764.2371063232 5145286.9351501465 0 5145286.9351501465 4843218.7155151367 0 0 0 0 -2622781.507114586 4222570.4152532797 0 4222570.4152532797 2196958.4511709549 0 0 0 0 2572428.3860044964 4764523.4823573865 0 4764523.4823573865 -511656.39345608652 0 0 0 0 -668878.37101043388 2591951.0898673041 0 2591951.0898673041 2397596.6863426715 0 0 0 0 152692.55078887939 22194607.017044067 0 22194607.017044067 24091571.462064743 0 0 0 0 5766319.814250946 4301670.4579200745 0 4301670.4579200745 13033276.893249512 0 0 0 0 830737.55391007289 6389522.6072398517 0 6389522.6072398517 -1407481.0421143966 0 0 0 0 914034.46576549113 4930830.432282446 0 4930830.432282446 -21417.08849225007 0 0 0 0 7833003.4802322388 6398368.5310020447 0 6398368.5310020447 -26449097.78855896 0 0 0 0 516893.44864654541 3021308.4182281494 0 3021308.4182281494 310645.58962631226 0 0 0 0 -2128536.2322235107 6717427.4795036316 0 6717427.4795036316 3682680.3935089111 0 0 0 0 -12116892.710960388 28846532.281761169 0 28846532.281761169 -25259502.730125427 0 0 0 0 1382039.551292602 6725786.6411665473 0 6725786.6411665473 186294.01609239168 0 0 0 0 -718260.65756988525 6675565.4629631042 0 6675565.4629631042 -234950.05344390869 0 0 0 0 386666.26292506862 1426627.513185041 0 1426627.513185041 -295784.81150244921 0 0 0 0 6307300.6945233345 4937863.0635704994 0 4937863.0635704994 -20782255.366699219 0 0 0 0 -1330578.65284729 7031428.0784606934 0 7031428.0784606934 -352016.90100860596 0 0 0 0 -679080.89815805363 3879857.609957519 0 3879857.609957519 670763.40050564706 0 0 0 0 -998693.9123840332 7303178.7646894455 0 7303178.7646894455 -129715.27478027344 0 0 0 0 1973398.0550613403 4634921.4335403442 0 4634921.4335403442 3401077.9864196777 0 0 0 0 135894.18089675903 3327698.6213226318 0 3327698.6213226318 1176532.8516998291 0 0 0 0 1314798.7430216223 3008217.6801183405 0 3008217.6801183405 1875853.9559616148 0 0 0 0 1081030.9193878174 4569756.8782806396 0 4569756.8782806396 2926756.2524909973 0 0 0 0 934852.9659040682 4012402.0648895591 0 4012402.0648895591 3091945.718481034 0 0 0 0 1307341.046632098 3543468.048022938 0 3543468.048022938 2570187.7667830661 0 0 0 0 788598.05147149786 3347711.7412358508 0 3347711.7412358508 2529383.3880027235 0 0 0 0 976186.51898193359 3036812.9973068237 0 3036812.9973068237 2879562.5813674927 0 0 0 0 -918914.68412780762 3970366.8653030396 0 3970366.8653030396 1700569.4149627686 0 0 0 0 3394047.4386901855 4149077.036895752 0 4149077.036895752 1222183.5634145737 0 0 0 0 561233.57139458507 3918161.5045820214 0 3918161.5045820214 -144262.80236757197 0 0 0 0 485856.27919769287 4344309.8034057617 0 4344309.8034057617 1304023.707611084 0 0 0 0 1081444.3824766288 4877767.6193658859 0 4877767.6193658859 2745685.194568973 0 0 0 0 -1870133.0871793693 5716089.3182236822 0 5716089.3182236822 1827670.3882053234 0 0 0 0 -338534.30412842892 6216392.2329177838 0 6216392.2329177838 2877229.3177128104 0 0 0 0 -1138648.1192552876 5181316.4156088326 0 5181316.4156088326 -1587973.7334613185 0 0 0 0 -973178.66892242432 5873325.9356384277 0 5873325.9356384277 -92935.060478210449 0 0 0 0 -3434713.5933151245 7781762.3034973145 0 7781762.3034973145 1995066.2920913696 0 0 0 0 2086435.8670578003 9304869.8030395508 0 9304869.8030395508 -3979807.6338806152 0 0 0 0 5694821.4905685131 6863866.9832687462 0 6863866.9832687462 -1812332.1293500029 0 0 0 0 -6741.6293365089223 50781.264456626261 0 50781.264456626261 49602.355046018958 0 0 0 0 267068.23223876953 1248747.204284668 0 1248747.204284668 1862219.0269775391 0 0 0 0 1186585.1833648682 3097215.7145423889 0 3097215.7145423889 643860.07580566406 0 0 0 0 4793796.6223349273 4927418.7977481242 0 4927418.7977481242 200231.54579271749 0 0 0 0 -1256775.3686773884 2861985.9235894699 0 2861985.9235894699 1394532.4491419382 0 0 0 0 827553.45512656309 6654239.4178065713 0 6654239.4178065713 1718194.1174712146 0 0 0 0 -744782.48593139648 8270897.2814407349 0 8270897.2814407349 1409560.4767456055 0 0 0 0 252411.92712956481 7055866.363832321 0 7055866.363832321 2225532.7295803204 0 0 0 0 -6576182.8886871338 9977061.6171112061 0 9977061.6171112061 4502757.0779342651 0 0 0 0 4952756.0691413879 10682352.514045715 0 10682352.514045715 3970832.9822845459 0 0 0 0 4301941.4128570557 7872752.5221252441 0 7872752.5221252441 -3621753.8490905762 0 0 0 0 16216758.110874176 9705274.4481019974 0 9705274.4481019974 -6909817.5047607422 0 0 0 0 211592.15465723909 126522.455666163 0 126522.455666163 67792.383566286415 0 0 0 0 -2460405.1509246826 10725669.880378723 0 10725669.880378723 933490.30317687988 0 0 0 0 -1126922.4824066162 11913336.151977539 0 11913336.151977539 -1148220.9814529419 0 0 0 0 -1855384.5498123169 13033283.251304626 0 13033283.251304626 -1975014.4907836914 0 0 0 0 -8405707.9486312866 15361397.522117615 0 15361397.522117615 -1694980.8153839111 0 0 0 0 -5188635.1849060059 11736388.587936401 0 11736388.587936401 218039.7049407959 0 0 0 0 -3334425.1116333008 6752960.5022201538 0 6752960.5022201538 6790276.828918457 0 0 0 0 -2348613.0305900574 12693446.828294754 0 12693446.828294754 -7872321.8186187744 0 0 0 0 718593.96371434629 7253870.8023848347 0 7253870.8023848347 1771649.6255694125 0 0 0 0 -6637696.7018356323 6892597.4429473877 0 6892597.4429473877 -2214441.1730041504 0 0 0 0 -778051.36611557007 8489709.683807373 0 8489709.683807373 597246.71957397461 0 0 0 0 810197.34874343872 10134632.377513885 0 10134632.377513885 2256512.504776001 0 0 0 0 7504004.8289260864 5094579.99269104 0 5094579.99269104 3425237.3614273071 0 0 0 0 -10279645.789993286 9632894.0589447021 0 9632894.0589447021 196933.64099121094 0 0 0 0 12617187.965499878 403900.78425598145 0 403900.78425598145 -9846910.5389556885 0 0 0 0 2215410.6995592578 7500851.9786437303 0 7500851.9786437303 -1327580.9812833145 0 0 0 0 166544.06100623682 45679.918224961497 0 45679.918224961497 -129204.22631216049 0 0 0 0 107333.3070526123 8735945.1702804565 0 8735945.1702804565 -2835410.1088180542 0 0 0 0 6246107.262720108 8219231.7266845703 0 8219231.7266845703 -6332791.1437454224 0 0 0 0 930453.31623697281 12692367.617219448 0 12692367.617219448 -2629445.0425109863 0 0 0 0 774395.53253705241 7259663.8331522867 0 7259663.8331522867 1693296.2253920725 0 0 0 0 1051775.7907943726 6944008.4101333618 0 6944008.4101333618 -745821.335947752 0 0 0 0 -197565.21493530273 1518740.773147583 0 1518740.773147583 -2348924.0735168457 0 0 0 0 10510562.831581116 2787204.9246749878 0 2787204.9246749878 -3924393.7456665039 0 0 0 0 189005.90242094034 551047.86667517945 0 551047.86667517945 187556.00516271964 0 0 0 0 -9987159.91822052 13158562.619861603 0 13158562.619861603 2064043.269821167 0 0 0 0 1564106.6856090818 5083057.885971155 0 5083057.885971155 -1029401.5439163551 0 0 0 0 -8375524.6238297224 15905660.753295898 0 15905660.753295898 11718126.927352905 0 0 0 0 -4567349.9757216806 3607441.3774479758 0 3607441.3774479758 1582952.9302045689 0 0 0 0 5477646.73481037 9869044.0644933097 0 9869044.0644933097 -3016904.1665981617 0 0 0 0 -32203569.49327755 28085207.912239075 0 28085207.912239075 37424540.473655701 0 0 0 0 -36215138.146020889 39677224.472690582 0 39677224.472690582 24845178.663333893 0 0 0 0 -9716852.2278577089 25654770.571525574 0 25654770.571525574 -35500231.67350769 0 0 0 0 -44478126.716186523 1771536.9492645264 0 1771536.9492645264 3765589.7439498901 0 0 0 0 399602.54627046036 3729128.7524383366 0 3729128.7524383366 -5468.6952263470739 0 0 0 0 7352363.4278011322 71192475.074478149 0 71192475.074478149 -113721580.62409973 0 0 0 0 38964640.360025406 -1060037.4336471558 0 -1060037.4336471558 -4714233.1937026978 0 0 0 0 5863598.8708016537 8336644.8749505915 0 8336644.8749505915 -3692314.5641481057 0 0 0 0 3117970.6330928802 6179392.1354656219 0 6179392.1354656219 -1660743.7613296509 0 0 0 0 648481.50353240967 6200423.8029098511 0 6200423.8029098511 -1658154.3476858139 0 0 0 0 -28283133.000263929 10873680.594921112 0 10873680.594921112 -3103978.0075073242 0 0 0 0 -125829173.10417295 6451127.6653499603 0 6451127.6653499603 65047232.118682861 0 0 0 0 937459.8984626733 7580.4528688270948 0 7580.4528688270948 -28328.190240100026 0 0 0 0 -112897888.72924614 25070592.495574951 0 25070592.495574951 -12575014.200683594 0 0 0 0 -333052.01420294121 18110.217569394968 0 18110.217569394968 51914.013350456953 0 0 0 0 293319.92725753784 7160062.5247039795 0 7160062.5247039795 -1097333.4521217346 0 0 0 0 2234291.2971153259 7468714.268497467 0 7468714.268497467 -2210187.4981079102 0 0 0 0 -886483.06482505798 7723866.9907298088 0 7723866.9907298088 -1312557.4378204346 0 0 0 0 816527.48953437805 6096760.5510025024 0 6096760.5510025024 -2214374.48387146 0 0 0 0 946610.84926986694 6341440.7431182861 0 6341440.7431182861 -2606274.7450790405 0 0 0 0 4858376.2659235056 8887091.9236963447 0 8887091.9236963447 -2968401.5615663826 0 0 0 0 862989.33678010851 7162213.6131725032 0 7162213.6131725032 951893.03329468379 0 0 0 0 766925.85155487061 6403177.047416687 0 6403177.047416687 -2125212.5925598145 0 0 0 0 -33316348.799360752 22209471.969860077 0 22209471.969860077 31666251.793457031 0 0 0 0 -927683706.95627022 -122981668.64679718 0 -122981668.64679718 319813973.85978699 0 0 0 0 -399631336.33294868 2163885.3400878906 0 2163885.3400878906 204910085.87363815 0 0 0 0 -688402745.90655327 15041615.966936111 0 15041615.966936111 247001153.44713593 0 0 0 0 -299640882.42149353 -109418241.96485519 0 -109418241.96485519 63454419.940605164 0 0 0 0 -862502199.28105927 193391515.64249229 0 193391515.64249229 198226838.97633362 0 0 0 0 15955110.689962387 -2905725.4171695709 0 -2905725.4171695709 12144151.844524384 0 0 0 0 630675.15652064024 1480416.7917336866 0 1480416.7917336866 377320.15098599717 0 0 0 0 -376232819.86390686 169973050.64337921 0 169973050.64337921 346261499.0907135 0 0 0 0 15562551.001151696 42481732.767888814 0 42481732.767888814 1648625.6737823486 0 0 0 0 38026498.226219177 -11407778.285268784 0 -11407778.285268784 -100103947.94369984 0 0 0 0 1058806.0822604951 1375684.0800411049 0 1375684.0800411049 661768.24569786713 0 0 0 0 39077671.177296638 -17149247.758433342 0 -17149247.758433342 -82258375.765106201 0 0 0 0 -20206362.032860756 -8662621.8402519226 0 -8662621.8402519226 47562550.776218414 0 0 0 0 -3291661.6451419923 5399146.2971045664 0 5399146.2971045664 5507084.2571213581 0 0 0 0 17780934.357448578 -19226349.685546875 0 -19226349.685546875 -35124266.638921738 0 0 0 0 -102417.2113030646 257417.22304720338 0 257417.22304720338 152894.49983455148 0 0 0 0 -457777626.56233597 -130354079.04405212 0 -130354079.04405212 -184145166.72861862 0 0 0 0 -756035977.62536049 -270315689.45140839 0 -270315689.45140839 96467964.895492554 0 0 0 0 -710739488.25170803 -104698531.68751621 0 -104698531.68751621 259358566.28398132 0 0 0 0 -341593881.93076706 79795136.051860809 0 79795136.051860809 50895424.898220062 0 0 0 0 -317139048.12920666 20846412.681733131 0 20846412.681733131 192051473.50382233 0 0 0 0 -315458657.69680405 177358377.35756302 0 177358377.35756302 -20981100.219007492 0 0 0 0 -193029835.81274509 318881070.45199776 0 318881070.45199776 165168885.34141541 0 0 0 0 -309984376.541646 162265375.51172638 0 162265375.51172638 19963827.071731567 0 0 0 0 -126927661.9407177 177703958.74675941 0 177703958.74675941 -257544466.8019104 0 0 0 0 -142889316.76761818 271118310.45826149 0 271118310.45826149 -142831268.97226334 0 0 0 0 -244812645.04732895 226974352.39075851 0 226974352.39075851 33947516.131807327 0 0 0 0 -2844149.0574384183 6577171.3664159738 0 6577171.3664159738 3340404.7329543196 0 0 0 0 -393416.65607452393 3635592.4510269165 0 3635592.4510269165 -845207.22551894188 0 0 0 0 2240485.918730184 4880970.830790245 0 4880970.830790245 1618734.0229641311 0 0 0 0 41813705.11157608 -23904468.320163727 0 -23904468.320163727 -35933678.95904541 0 0 0 0 -253778.0657896474 6985079.5735019241 0 6985079.5735019241 285617.23225566745 0 0 0 0 -277545261.44176698 129476501.8711915 0 129476501.8711915 -81899791.768325806 0 0 0 0 -349845317.46288252 135688645.08029556 0 135688645.08029556 5158318.1653289795 0 0 0 0 23138429.432857037 23892701.626974583 0 23892701.626974583 2736070.3203659058 0 0 0 0 2332619.832551185 4331362.3776966548 0 4331362.3776966548 812974.43827203661 0 0 0 0 7232187.0667495728 3710308.8866157532 0 3710308.8866157532 63189.198089599609 0 0 0 0 -189721.77635943983 64016.639928901568 0 64016.639928901568 -11630.265967205167 0 0 0 0 -222229.78171539307 4461463.0398807526 0 4461463.0398807526 1531183.4638147354 0 0 0 0 4058699.0343551189 4520674.8251979221 0 4520674.8251979221 720584.31392775849 0 0 0 0 -1698994.5448608398 4837733.9509048462 0 4837733.9509048462 1435316.896889925 0 0 0 0 3935563.4984931946 5320710.3152713776 0 5320710.3152713776 -718105.72950744629 0 0 0 0 3161725.9410057068 3346577.9848403931 0 3346577.9848403931 1912229.3856756687 0 0 0 0 1070125.2407531738 6103508.170425415 0 6103508.170425415 1577080.3993451595 0 0 0 0 3273672.1749954224 5858140.9978103638 0 5858140.9978103638 911744.44342803955 0 0 0 0 -896622.84201812744 5164485.0141220093 0 5164485.0141220093 2439828.6219940186 0 0 0 0 -1491255.3440021039 4224876.7781791566 0 4224876.7781791566 1439525.032365568 0 0 0 0 1006401.3215141296 3550129.6540184021 0 3550129.6540184021 1372047.7901611328 0 0 0 0 2824751.3114253078 5999233.4752961379 0 5999233.4752961379 2167536.2909486592 0 0 0 0 10631738.191848755 12353027.480106354 0 12353027.480106354 758894.71655273438 0 0 0 0 -529116.37137794495 8542206.1860122681 0 8542206.1860122681 3529183.7192077637 0 0 0 0 2814810.6908302307 5240625.0694618225 0 5240625.0694618225 1420625.3319439888 0 0 0 0 -1481636.5689150756 4330518.5733139571 0 4330518.5733139571 757825.04223591462 0 0 0 0 10970083.027145386 8501894.6240615845 0 8501894.6240615845 4780986.4517402649 0 0 0 0 9973933.2074813843 6466959.4200820923 0 6466959.4200820923 3558633.8972396851 0 0 0 0 11787917.703948975 5143191.8275928497 0 5143191.8275928497 3989423.2407226562 0 0 0 0 -881988.28248452069 5723793.7186228791 0 5723793.7186228791 1958978.9649054892 0 0 0 0 -244135.73127746582 3918368.9478340149 0 3918368.9478340149 893623.4049987793 0 0 0 0 3390759.130563762 5235952.7030486157 0 5235952.7030486157 1728446.6755707599 0 0 0 0 5777663.3878770135 7279193.8256640937 0 7279193.8256640937 -1605668.305868993 0 0 0 0 4822774.0185699463 5952611.268901825 0 5952611.268901825 -1387448.8655586243 0 0 0 0 -5846795.9302749634 3740450.002571106 0 3740450.002571106 5254038.7606964111 0 0 0 0 -4874102.6458282471 851154.67814826965 0 851154.67814826965 3021634.4826049805 0 0 0 0 26910062.544639587 3939863.0073432922 0 3939863.0073432922 9450567.8439865112 0 0 0 0 286137.47965032607 4744847.5609362936 0 4744847.5609362936 4051349.4953705166 0 0 0 0 23860472.717453003 2989855.8986778259 0 2989855.8986778259 11897049.135196686 0 0 0 0 33003414.373287201 11941095.567329407 0 11941095.567329407 19031120.526329041 0 0 0 0 36929367.777667522 -4478514.6526064873 0 -4478514.6526064873 -3391044.3265075684 0 0 0 0 -7129683.4877853394 5712437.9781284332 0 5712437.9781284332 1176783.7788887024 0 0 0 0 2849467.382528753 6386697.8609962314 0 6386697.8609962314 2091888.5341728777 0 0 0 0 2949670.0572469309 7212644.4506828003 0 7212644.4506828003 -2590284.5600749073 0 0 0 0 1675105.8978271484 3539177.6053771973 0 3539177.6053771973 -11051.999267578125 0 0 0 0 4076272.9438667297 4118055.4838809967 0 4118055.4838809967 279213.49132537842 0 0 0 0 -480880.44568916224 5541772.9069719249 0 5541772.9069719249 -436999.05386868306 0 0 0 0 1728788.4209594727 3343983.2442169189 0 3343983.2442169189 1875342.512512207 0 0 0 0 293753.97018450801 3406256.5303402077 0 3406256.5303402077 46497.364643571898 0 0 0 0 -4100270.4603424072 8211729.575881958 0 8211729.575881958 2075097.1265182495 0 0 0 0 -3259377.1536529697 8782042.7130721211 0 8782042.7130721211 2138908.1211017147 0 0 0 0 -2435641.3040418886 9341971.0413051397 0 9341971.0413051397 1718853.1737985546 0 0 0 0 -3663033.9621009827 12275410.657405853 0 12275410.657405853 5777236.2709541321 0 0 0 0 -5453790.6293363571 14661002.935658932 0 14661002.935658932 2741046.9931182861 0 0 0 0 11058813.068599701 7619763.3233590126 0 7619763.3233590126 663128.14294433594 0 0 0 0 919344.01005932875 555863.61631391384 0 555863.61631391384 252782.05603702366 0 0 0 0 -8146955.9002532959 8241932.8449554443 0 8241932.8449554443 10561830.2865839 0 0 0 0 10625219.624313354 10107958.858067513 0 10107958.858067513 -2179129.552947998 0 0 0 0 10972014.59679985 12954221.980619431 0 12954221.980619431 -2575623.6193695068 0 0 0 0 -6342066.6191253662 11997745.468006134 0 11997745.468006134 5068675.1859436035 0 0 0 0 1912165.4737202702 6601905.4147834536 0 6601905.4147834536 963451.04767951742 0 0 0 0 2518975.4093208313 11916710.919380188 0 11916710.919380188 4916859.2442016602 0 0 0 0 -2766510.1730194092 12862939.238613129 0 12862939.238613129 5195303.3714141846 0 0 0 0 -3788896.8239135742 10717951.300827026 0 10717951.300827026 6983747.8029146194 0 0 0 0 -2199699.3525123596 10066253.534304619 0 10066253.534304619 7070536.8592071533 0 0 0 0 -4426443.07862854 9877359.9119644165 0 9877359.9119644165 4914850.3714027405 0 0 0 0 -8789907.0096435547 11151738.832962036 0 11151738.832962036 6900143.1868209839 0 0 0 0 -2891382.2729492188 10155616.877559662 0 10155616.877559662 2067376.8396148682 0 0 0 0 -3456613.3235244751 10832360.859973907 0 10832360.859973907 3722619.7362251282 0 0 0 0 -2729805.1103935242 13553552.050084114 0 13553552.050084114 4073412.8082580566 0 0 0 0 1576482.2259292603 9946122.6503677368 0 9946122.6503677368 3446691.1002006531 0 0 0 0 -389963.00044250488 10529292.210235596 0 10529292.210235596 3684920.7581100464 0 0 0 0 -169753.72087448277 372916.42431932967 0 372916.42431932967 578977.07463423163 0 0 0 0 3722162.4749450684 13578697.614376068 0 13578697.614376068 3678262.1677837372 0 0 0 0 -2444884.9209594727 7005421.2558288574 0 7005421.2558288574 -1528524.0682229996 0 0 0 0 3908686.2010192871 10901327.76606369 0 10901327.76606369 2732060.6214828491 0 0 0 0 -5059778.174993515 1163808.7936658859 0 1163808.7936658859 10108210.397796631 0 0 0 0 -2936061.9474815428 6909698.753171036 0 6909698.753171036 1434361.9861843158 0 0 0 0 -3701655.7961425781 6115108.1846618652 0 6115108.1846618652 -1172361.1231842041 0 0 0 0 -1691083.057434082 5034119.803527832 0 5034119.803527832 -339376.33337402344 0 0 0 0 -10015324.628609657 2726417.9242463112 0 2726417.9242463112 9669642.4133148193 0 0 0 0 3520330.3323306777 4474808.4781377353 0 4474808.4781377353 541312.45749266446 0 0 0 0 11735293.444549561 10321114.550811768 0 10321114.550811768 1412861.7398986816 0 0 0 0 -5002765.3080555219 2484104.2740790658 0 2484104.2740790658 502821.59272666276 0 0 0 0 1301576.724958865 6119325.8084667977 0 6119325.8084667977 -2275646.5541261211 0 0 0 0 94055.143766934052 157413.06241315417 0 157413.06241315417 -78551.37925600633 0 0 0 0 -670336.81540679932 6305273.2948913574 0 6305273.2948913574 -1326398.6467971802 0 0 0 0 2472827.249370575 9756836.4116306305 0 9756836.4116306305 3922773.0159568787 0 0 0 0 1376914.7905693054 8843943.3208642006 0 8843943.3208642006 3434990.1980667114 0 0 0 0 -1082410.6320825201 8687709.9650934823 0 8687709.9650934823 -2344636.159736325 0 0 0 0 -4176568.4220756162 7528035.2843473796 0 7528035.2843473796 3122796.4860300086 0 0 0 0 2077112.6196594238 10528799.524975777 0 10528799.524975777 3461167.7683448792 0 0 0 0 -3793390.4571365938 7918219.4410978798 0 7918219.4410978798 2052112.5902992282 0 0 0 0 4813572.1819610596 16922321.514965057 0 16922321.514965057 -1151580.5452804565 0 0 0 0 -4007166.2109909058 11516496.471443176 0 11516496.471443176 4694153.4019556046 0 0 0 0 -3114944.0263561234 5931926.6127982419 0 5931926.6127982419 1691670.821164561 0 0 0 0 -1225592.2179718018 17150499.055236816 0 17150499.055236816 86832.471853256226 0 0 0 0 -10784596.735107422 -611012.28270721436 0 -611012.28270721436 7227033.795375824 0 0 0 0 -13838764.217636108 5191134.0393295288 0 5191134.0393295288 -2127726.2830162048 0 0 0 0 -17222111.487228394 3120957.0590286255 0 3120957.0590286255 7398864.8026885986 0 0 0 0 -5221495.4726127591 8575767.5716633033 0 8575767.5716633033 3574965.4201441873 0 0 0 0 -15565990.99401474 3090535.8257451057 0 3090535.8257451057 7297827.2627792358 0 0 0 0 -14650609.769289017 5489516.0645723343 0 5489516.0645723343 11526760.91318512 0 0 0 0 -34815165.114051819 12325806.176126957 0 12325806.176126957 14914697.41866684 0 0 0 0 -24226765.124263763 -27294255.480397224 0 -27294255.480397224 15960766.161018372 0 0 0 0 -84129513.688705444 -40612241.791507721 0 -40612241.791507721 18909172.714614868 0 0 0 0 -14399067.676605225 -6055868.055015564 0 -6055868.055015564 13966315.856019974 0 0 0 0 -67186409.778106689 8003439.1666984558 0 8003439.1666984558 18695384.991527557 0 0 0 0 -32429566.362266541 41255850.791142464 0 41255850.791142464 -6067283.5933876038 0 0 0 0 -23139704.381103516 8073202.5340118408 0 8073202.5340118408 15726904.964374542 0 0 0 0 230689.49618530273 10885208.125260353 0 10885208.125260353 7575552.2450180054 0 0 0 0 -15054260.234924316 18235029.520914078 0 18235029.520914078 3896572.1206498146 0 0 0 0 -3412071.0193428993 9123942.7735220324 0 9123942.7735220324 3104936.3509318866 0 0 0 0 -1106578.1491647698 9264848.2352848072 0 9264848.2352848072 1186775.0353290904 0 0 0 0 -6165827.6813049316 16677250.372581482 0 16677250.372581482 3471033.6907925606 0 0 0 0 2390931.9689712524 7868312.7765979767 0 7868312.7765979767 -1444799.8506660461 0 0 0 0 8753327.2837846763 4842592.9884277089 0 4842592.9884277089 -1749803.8248195564 0 0 0 0 5213215.6288871765 7670098.6719169617 0 7670098.6719169617 -1649758.2904233932 0 0 0 0 2373874.9247322083 7966259.380284667 0 7966259.380284667 368417.49613571167 0 0 0 0 20253554.78881073 6419290.4664211273 0 6419290.4664211273 -2103161.751953125 0 0 0 0 -258996.45977290906 114589.21208357252 0 114589.21208357252 -26814.378951728344 0 0 0 0 1776055.165084362 9190984.2353563309 0 9190984.2353563309 -642.07228851318359 0 0 0 0 1311001.3186688423 12365065.497706413 0 12365065.497706413 4056355.2191581726 0 0 0 0 820854.21069335938 7615766.6341991425 0 7615766.6341991425 631751.68825149536 0 0 0 0 2925638.9042778015 11891478.989671707 0 11891478.989671707 2923365.4334254265 0 0 0 0 -1834538.9915533066 7755867.8905220032 0 7755867.8905220032 3457100.383769989 0 0 0 0 -2729436.7257785797 4158452.0150022507 0 4158452.0150022507 -518309.989402771 0 0 0 0 -1748867.7889251825 9200750.9052309953 0 9200750.9052309953 4392386.9420634452 0 0 0 0 -7773321.409324646 7090657.303276062 0 7090657.303276062 2670292.8100204468 0 0 0 0 20684479.881771088 15625514.211351395 0 15625514.211351395 8728316.0370292664 0 0 0 0 20875869.749095917 15002787.281630516 0 15002787.281630516 6789196.3934059143 0 0 0 0 8315596.3090474084 1600990.367290763 0 1600990.367290763 -2661028.9766782746 0 0 0 0 20792947.635189056 15231140.055555344 0 15231140.055555344 9829826.3345489502 0 0 0 0 5260941.6644744873 2883463.0628585815 0 2883463.0628585815 1220057.4421806335 0 0 0 0 94786320.607616425 30009908.014251709 0 30009908.014251709 -13403729.426509857 0 0 0 0 -875826.11221353384 4194404.8829626665 0 4194404.8829626665 3697135.6598917395 0 0 0 0 79414977.681301117 -20446114.049545288 0 -20446114.049545288 -36300233.062255859 0 0 0 0 20750432.16759491 14675385.590682983 0 14675385.590682983 10850833.72038269 0 0 0 0 21975460.395950317 13594499.335151672 0 13594499.335151672 11489996.592147827 0 0 0 0 23338045.893508911 12905757.997406006 0 12905757.997406006 8585260.0897521973 0 0 0 0 24554145.385665894 10567935.784118652 0 10567935.784118652 12311747.033611298 0 0 0 0 27998841.33524704 12769099.215654373 0 12769099.215654373 7894991.050983429 0 0 0 0 21436167.967018127 11635480.275791168 0 11635480.275791168 11231841.17792511 0 0 0 0 31433897.781955719 9486964.4449672699 0 9486964.4449672699 8355579.7000389099 0 0 0 0 18246066.330982208 12528674.237003326 0 12528674.237003326 12139627.987037659 0 0 0 0 17674855.271038055 5516000.9816761017 0 5516000.9816761017 7219509.8584632874 0 0 0 0 11680795.458625317 8503320.7063138485 0 8503320.7063138485 9140848.6459922791 0 0 0 0 -3050711.3761288421 7908857.101351643 0 7908857.101351643 3615455.2710296828 0 0 0 0 21725197.457913399 10627878.848896503 0 10627878.848896503 4215346.2902030945 0 0 0 0 -10789190.752838135 3369049.3006343842 0 3369049.3006343842 10679729.157264709 0 0 0 0 15152937.114156723 5902647.4258518219 0 5902647.4258518219 3682671.6015014648 0 0 0 0 -5001002.9990124181 7054572.3410957977 0 7054572.3410957977 2741337.5283654705 0 0 0 0 15120854.598737717 10575004.881409645 0 10575004.881409645 -1609510.523475647 0 0 0 0 16901765.13240242 3420676.3347415924 0 3420676.3347415924 -9939062.3060874939 0 0 0 0 15958252.806468964 18609938.313083649 0 18609938.313083649 -22403987.744890213 0 0 0 0 14276973.07983017 10825324.12405014 0 10825324.12405014 8277034.2354125977 0 0 0 0 20725075.597862244 9322251.4750828743 0 9322251.4750828743 6951039.711479187 0 0 0 0 8967974.6307735443 7286748.1829528809 0 7286748.1829528809 12182788.588598251 0 0 0 0 16166719.882212162 21907077.615779877 0 21907077.615779877 20662642.832992554 0 0 0 0 910280.90612385236 988082.48922556732 0 988082.48922556732 292993.12926208321 0 0 0 0 34172393.728503704 32365741.658317566 0 32365741.658317566 -51325003.325868607 0 0 0 0 -338606080.18473625 -213304684.14356995 0 -213304684.14356995 41737728.483298779 0 0 0 0 -117491321.22122765 -40937414.599134445 0 -40937414.599134445 -3705873.2538127899 0 0 0 0 -224148454.94612122 -78626662.629518509 0 -78626662.629518509 20740587.531131744 0 0 0 0 33139650.127039313 25962187.094711661 0 25962187.094711661 11899582.857246399 0 0 0 0 3286282.6845163233 3056173.7700958885 0 3056173.7700958885 719854.72809132934 0 0 0 0 -172477750.9872942 36396255.130904198 0 36396255.130904198 17630690.221252441 0 0 0 0 -164763143.31365967 21803710.200963974 0 21803710.200963974 19855662.477256775 0 0 0 0 -314002707.2804718 56620247.658218384 0 56620247.658218384 28111285.09854126 0 0 0 0 -166765469.40887451 51598969.951507568 0 51598969.951507568 5585652.7760543823 0 0 0 0 -127143956.98700714 52026941.231491089 0 52026941.231491089 243249.14594650269 0 0 0 0 -281483114.6926651 138807899.76290512 0 138807899.76290512 -5875569.8319168091 0 0 0 0 10371806.549072266 -26847141.636245728 0 -26847141.636245728 10027373.938756943 0 0 0 0 -108899393.59830475 17481040.386432648 0 17481040.386432648 2025401.1967468262 0 0 0 0 23731348.261301041 9331765.7780799866 0 9331765.7780799866 7790591.6001358032 0 0 0 0 -2260018.9959983826 -25602105.624275208 0 -25602105.624275208 -8752366.1071119308 0 0 0 0 -29587755.539207458 44214075.14225769 0 44214075.14225769 -31243599.401290894 0 0 0 0 -131031082.06529617 89604750.285518646 0 89604750.285518646 -10901239.191444397 0 0 0 0 -460763209.93908691 147829344.98086166 0 147829344.98086166 -92319876.448066711 0 0 0 0 -226324751.28228188 -33021918.678434372 0 -33021918.678434372 -12177636.34539032 0 0 0 0 -384358777.69899416 93216304.016537189 0 93216304.016537189 -61538181.12878418 0 0 0 0 -394160897.20516586 101702596.47256088 0 101702596.47256088 63942232.810195923 0 0 0 0 -352179630.90080023 -193655052.02980351 0 -193655052.02980351 -204613808.62725067 0 0 0 0 -23171239.584953308 -7181740.9420547485 0 -7181740.9420547485 -2490941.4747867584 0 0 0 0 -947243.08135223389 71899576.042007446 0 71899576.042007446 -79878389.609977722 0 0 0 0 185781.13454412669 467320.50183150917 0 467320.50183150917 -1773725.0017932048 0 0 0 0 -15070541.749302864 21056749.211148262 0 21056749.211148262 -17572797.025787354 0 0 0 0 17237468.823093414 1119333.6357574463 0 1119333.6357574463 86185658.836723328 0 0 0 0 19825665.609783173 -449251.60144042969 0 -449251.60144042969 50880567.282920837 0 0 0 0 -188286419.27960205 63949597.396472931 0 63949597.396472931 181459330.94646454 0 0 0 0 745850.17860335484 -148489.70120946132 0 -148489.70120946132 -1795582.9361670986 0 0 0 0 -53627719.362854004 -44028352.586167336 0 -44028352.586167336 235030662.28212738 0 0 0 0 49063800.633911133 -140622615.3271637 0 -140622615.3271637 9618533.8663101196 0 0 0 0 911374.63596315682 -514457.92526018433 0 -514457.92526018433 -1844840.0758136222 0 0 0 0 -69209.2646484375 18261342.557601929 0 18261342.557601929 -15531317.674295425 0 0 0 0 48650668.481895447 5175311.7370586395 0 5175311.7370586395 -152359376.80304146 0 0 0 0 -4149344.664056778 6011103.0575489998 0 6011103.0575489998 -1387478.2563476562 0 0 0 0 35397966.323348999 -27650490.172561646 0 -27650490.172561646 -17037895.406837463 0 0 0 0 47336006.325973511 24038593.586273193 0 24038593.586273193 4306160.4072418213 0 0 0 0 614935.91192817688 38395077.632415295 0 38395077.632415295 75469345.452423096 0 0 0 0 -81438841.315704346 88345511.385253906 0 88345511.385253906 162413011.00802612 0 0 0 0 174401.59999238513 552326.48825087585 0 552326.48825087585 -106093.96095892973 0 0 0 0 10665885.632324219 7413854.3423690796 0 7413854.3423690796 -2823090.8207855225 0 0 0 0 12964234.347724915 20321733.157417297 0 20321733.157417297 4771074.0193862915 0 0 0 0 8533.1962890625 20913484.531808853 0 20913484.531808853 17845615.390193939 0 0 0 0 22543.768726970608 10840148.068955941 0 10840148.068955941 3331414.6114959717 0 0 0 0 3380531.4650878906 13073824.593147278 0 13073824.593147278 2687142.9716243744 0 0 0 0 -6329868.5945281982 6238594.463104248 0 6238594.463104248 4486667.4821891785 0 0 0 0 -3527621.2046203613 1335274.0926456451 0 1335274.0926456451 -388778.93925476074 0 0 0 0 2477773.3892974854 14103122.303121567 0 14103122.303121567 3908611.2049255371 0 0 0 0 -9028.5308822020888 56311.740702616051 0 56311.740702616051 -9467.9642681637779 0 0 0 0 5444840.7300395966 -8224726.5827207565 0 -8224726.5827207565 6994093.6762046814 0 0 0 0 298616.14101125393 1316254.6170726754 0 1316254.6170726754 -108761.86397300474 0 0 0 0 -3757931.2877426147 7883450.670665741 0 7883450.670665741 8655976.2537002563 0 0 0 0 -10270630.527751923 -369119.27542114258 0 -369119.27542114258 10780510.236232758 0 0 0 0 -1137758.9867068753 197308.00405720435 0 197308.00405720435 414704.3084229611 0 0 0 0 -96448.155834197998 5325745.8929424286 0 5325745.8929424286 -434797.66340637207 0 0 0 0 -5881201.2340240479 4869717.4864501953 0 4869717.4864501953 5236032.2126626968 0 0 0 0 -1393001.0580215454 3759744.6826095581 0 3759744.6826095581 -1129748.5790748596 0 0 0 0 -401615.12226128578 1396964.3221067283 0 1396964.3221067283 348338.01918031491 0 0 0 0 -2620466.6152801514 8919330.4049301147 0 8919330.4049301147 -6205687.2865638733 0 0 0 0 -1642813.5339031219 -11357821.45964551 0 -11357821.45964551 45654582.157344818 0 0 0 0 -899873.9453977868 1659293.306509506 0 1659293.306509506 -1573848.4012694173 0 0 0 0 -6400194.3375854492 3739298.5931777954 0 3739298.5931777954 -829044.1230430603 0 0 0 0 -574681.2816619873 2815495.8320074081 0 2815495.8320074081 1255550.1083984375 0 0 0 0 -1975042.9782562256 5447833.1148529053 0 5447833.1148529053 -671795.75211977959 0 0 0 0 1781789.3411940373 3540251.6299034636 0 3540251.6299034636 636651.89734287187 0 0 0 0 -877934.61108398438 2532741.2902050018 0 2532741.2902050018 1115489.712870717 0 0 0 0 -269648.55391929438 2675918.6512377523 0 2675918.6512377523 -211375.57813644037 0 0 0 0 -14712885.804962158 8221804.0497512817 0 8221804.0497512817 18354341.749443054 0 0 0 0 -21189209.858661652 -9330015.6506071091 0 -9330015.6506071091 59599527.728607178 0 0 0 0 -125277.51374439616 112382.83864329197 0 112382.83864329197 37154.341599224135 0 0 0 0 -8082685.5402526855 10001120.589307785 0 10001120.589307785 12346184.642440796 0 0 0 0 -5752025.5675129443 2660492.171489181 0 2660492.171489181 910492.42613550741 0 0 0 0 -12885579.489929199 6751554.4635124207 0 6751554.4635124207 19041083.284896851 0 0 0 0 -5798835.4892349243 13862803.938770294 0 13862803.938770294 9225688.5495376587 0 0 0 0 -12095228.962997437 21750162.816905975 0 21750162.816905975 586998.45510101318 0 0 0 0 -15927252.661476135 14163438.988559723 0 14163438.988559723 23172575.089416504 0 0 0 0 -6589630.8944091797 -428248.8682346344 0 -428248.8682346344 23496482.441360474 0 0 0 0 -15302111.467247009 14098669.098388672 0 14098669.098388672 18969076.852371216 0 0 0 0 -27290325.061340332 31375374.079753876 0 31375374.079753876 3654068.2688827515 0 0 0 0 -13247865.334197998 16731688.376102448 0 16731688.376102448 22063711.501609802 0 0 0 0 -29720896.188982964 8758959.0203044415 0 8758959.0203044415 35209137.232696533 0 0 0 0 -8964262.9881439209 28619412.086101532 0 28619412.086101532 -4351308.2185134888 0 0 0 0 -9990945.5070343018 44511770.270362854 0 44511770.270362854 -101582605.95738983 0 0 0 0 -5817741.4484863281 29254703.077184677 0 29254703.077184677 -26900305.632415771 0 0 0 0 -1232400.3794375807 13523290.226511601 0 13523290.226511601 1978363.3653106689 0 0 0 0 12056230.164955139 -22045694.04724884 0 -22045694.04724884 35337214.266891479 0 0 0 0 23759504.6849823 5509552.9187240601 0 5509552.9187240601 79644714.794300079 0 0 0 0 -28118764.140899658 -13381059.83537674 0 -13381059.83537674 46687913.163709641 0 0 0 0 -77506615.489639282 17310501.509405136 0 17310501.509405136 87202404.804506302 0 0 0 0 -55808581.0859375 64033751.457223892 0 64033751.457223892 -10739226.656137466 0 0 0 0 127512967.4023819 -789602.32124328613 0 -789602.32124328613 -60400609.647842407 0 0 0 0 -32265699.638817787 -45937.300037622452 0 -45937.300037622452 28492415.554618835 0 0 0 0 -50616424.266742706 107321741.04046369 0 107321741.04046369 80697713.253173828 0 0 0 0 108109681.69329071 120653688.89144897 0 120653688.89144897 43772303.523208618 0 0 0 0 -754190.25177228078 748261.75702941604 0 748261.75702941604 693716.03745929897 0 0 0 0 39860678.095016479 155659127.52875328 0 155659127.52875328 132257212.569664 0 0 0 0 -1356678.5983124077 2263612.8852331582 0 2263612.8852331582 533709.92156467726 0 0 0 0 -4422946.2583618164 6459014.7761287689 0 6459014.7761287689 -1069670.9312438965 0 0 0 0 -349264.58029128984 496494.26246970519 0 496494.26246970519 79563.549717647489 0 0 0 0 -5576537.6306610107 5258541.834651947 0 5258541.834651947 7139359.9040317535 0 0 0 0 -8100883.3356285095 3398317.1217794418 0 3398317.1217794418 14585687.573535919 0 0 0 0 -11698683.748199463 26307438.080631256 0 26307438.080631256 52789033.715621948 0 0 0 0 1111568.1445617676 13223037.053886414 0 13223037.053886414 11106225.114697456 0 0 0 0 6593582.897644043 -2440065.7980651855 0 -2440065.7980651855 7021119.680721283 0 0 0 0 8266746.9086909294 21986018.271876216 0 21986018.271876216 20617607.76361084 0 0 0 0 4960984.3450927734 709510.75834274292 0 709510.75834274292 10218432.926586151 0 0 0 0 24333780.763175964 52574453.403980255 0 52574453.403980255 31067203.873701096 0 0 0 0 14463751.43674469 32833252.276943207 0 32833252.276943207 -2916985.8079566956 0 0 0 0 172775570.33798218 3883069.2313480377 0 3883069.2313480377 -9464196.4940643311 0 0 0 0 90080826.703720093 196878771.03438187 0 196878771.03438187 28489457.484825134 0 0 0 0 74353669.586746216 37190838.185909271 0 37190838.185909271 -5889298.5945835114 0 0 0 0 59617131.021705627 -35554965.689792633 0 -35554965.689792633 -6240537.3668746948 0 0 0 0 7290490.8047637939 -40903225.065021515 0 -40903225.065021515 20940539.496086121 0 0 0 0 10966028.461429596 60164942.619379044 0 60164942.619379044 53129700.627681732 0 0 0 0 -422880.68699588254 422122.49746383913 0 422122.49746383913 394489.16998396814 0 0 0 0 -99726290.468093872 81445478.006971359 0 81445478.006971359 51778700.399007797 0 0 0 0 287810178.99913788 260025467.25322342 0 260025467.25322342 141871043.15271568 0 0 0 0 -14779380.386581421 177153838.6879406 0 177153838.6879406 176603013.99166107 0 0 0 0 8576213.8213119507 170577618.14708519 0 170577618.14708519 167925118.18979263 0 0 0 0 9229457.9419708252 155022146.13711929 0 155022146.13711929 136902479.67949295 0 0 0 0 17931420.498748779 117207857.39787102 0 117207857.39787102 64894293.261901855 0 0 0 0 -37666071.53074646 122158290.70277596 0 122158290.70277596 154304374.72480583 0 0 0 0 -48947804.019004822 5881656.700592041 0 5881656.700592041 109920860.8372345 0 0 0 0 -18327490.244529724 68997315.154441833 0 68997315.154441833 171646202.59560204 0 0 0 0 -405146.39756278507 394312.17056478001 0 394312.17056478001 376141.70908859372 0 0 0 0 190576432.39593506 155667042.99895668 0 155667042.99895668 87395693.718364283 0 0 0 0 -213074802.39230347 -22001681.511703491 0 -22001681.511703491 161370210.55064392 0 0 0 0 -138912865.48039246 -22911272.1926651 0 -22911272.1926651 110148070.3510952 0 0 0 0 -16759831.875938416 15392742.98050499 0 15392742.98050499 519768793.34156036 0 0 0 0 16118890.756305695 39536821.675754547 0 39536821.675754547 180083750.08666229 0 0 0 0 -28277192.269460678 155532697.74362135 0 155532697.74362135 247595064.68201065 0 0 0 0 7859629.7836303711 123131405.10486603 0 123131405.10486603 218545457.74054718 0 0 0 0 150219.87734222412 152289524.49664116 0 152289524.49664116 259650455.56790924 0 0 0 0 -44303.65559387207 158500860.17674828 0 158500860.17674828 167817378.30521774 0 0 0 0 16443313.914810181 159875053.43860626 0 159875053.43860626 176152539.91956711 0 0 0 0 -27855976.646362305 153786648.2183609 0 153786648.2183609 176709612.7662735 0 0 0 0 8265535.0994224548 145352199.27946472 0 145352199.27946472 132088648.35554504 0 0 0 0 -13325.196380615234 145079407.85165215 0 145079407.85165215 52575026.507553101 0 0 0 0 -32090779.922996521 127016510.32435226 0 127016510.32435226 132813203.68728781 0 0 0 0 -15359252.140327454 148570343.67962599 0 148570343.67962599 85011658.018203735 0 0 0 0 -54229584.768836975 115083780.77160645 0 115083780.77160645 74489762.605947971 0 0 0 0 -33168199.308677673 74141962.880758286 0 74141962.880758286 21477277.827665329 0 0 0 0 35473077.738838196 191357412.45693111 0 191357412.45693111 135842743.72620773 0 0 0 0 -40309702.203704834 137176592.07048225 0 137176592.07048225 168435564.28861713 0 0 0 0 -19893870.974803925 117791150.2510457 0 117791150.2510457 -32112545.003763199 0 0 0 0 -87525469.969562531 127817195.60976601 0 127817195.60976601 154327885.28771973 0 0 0 0 -83070708.153921604 177601398.1430254 0 177601398.1430254 -81247609.854995728 0 0 0 0 -66332558.125090122 55162330.806077361 0 55162330.806077361 -66751621.136676788 0 0 0 0 -45733827.056175232 151746147.33925247 0 151746147.33925247 -170832666.64413166 0 0 0 0 -19481.246162414551 129330575.58918858 0 129330575.58918858 -75463718.247402191 0 0 0 0 -20362811.450813293 76728799.553639412 0 76728799.553639412 -178440659.3894577 0 0 0 0 -27189547.736320496 88317976.30831337 0 88317976.30831337 -100932695.56527805 0 0 0 0 -3422.1663818359375 107611900.19284534 0 107611900.19284534 -190156656.72189713 0 0 0 0 -21108994.766830444 55611402.642745972 0 55611402.642745972 -261620789.38618469 0 0 0 0 -1247027.7440042235 193353.17955186404 0 193353.17955186404 3056644.2539727967 0 0 0 0 -933.85130310058594 1942070.6047821045 0 1942070.6047821045 757278.93093109131 0 0 0 0 931298.97698974609 11408533.64333725 0 11408533.64333725 40007257.469306946 0 0 0 0 1218878.4320320934 -570507.61052670702 0 -570507.61052670702 -985008.14628961124 0 0 0 0 -22175157.710769653 11981999.32601738 0 11981999.32601738 2292028.485661447 0 0 0 0 -19298566.28012085 3910910.8985481262 0 3910910.8985481262 2003375.1052812338 0 0 0 0 1657651.9633665085 5500703.5849783421 0 5500703.5849783421 23669076.43501091 0 0 0 0 -2967170.9129889309 9969.019602518063 0 9969.019602518063 3279886.2635440147 0 0 0 0 2516635.2912005223 877670.40997468866 0 877670.40997468866 -432404.58261381835 0 0 0 0 -3899687.5399894714 97515088.103655815 0 97515088.103655815 -184897205.24649429 0 0 0 0 2759842.0985717028 575273.54109335691 0 575273.54109335691 -858990.51643088832 0 0 0 0 -78284907.670196533 55304947.983345032 0 55304947.983345032 -26712020.255310059 0 0 0 0 -100417167.70112228 24285242.084954262 0 24285242.084954262 57586572.996528625 0 0 0 0 -83252479.610794067 -2552724.4950885773 0 -2552724.4950885773 27635000.091159821 0 0 0 0 -18831453.248291016 -1021420.4817676544 0 -1021420.4817676544 12891904.928256273 0 0 0 0 -23658176.638088226 8158595.4229090214 0 8158595.4229090214 13393590.238479614 0 0 0 0 -3141172.8176534884 -293143.21702436171 0 -293143.21702436171 3289905.2807277963 0 0 0 0 3973718.1127624512 15760237.189413071 0 15760237.189413071 16923342.656490803 0 0 0 0 -65008706.725669861 -28549726.096423626 0 -28549726.096423626 1819155.9810180664 0 0 0 0 -64471892.809059143 -53266422.977664948 0 -53266422.977664948 -41446715.795785666 0 0 0 0 -67004457.727910995 -25260514.605906248 0 -25260514.605906248 44085490.742385864 0 0 0 0 -71679335.824142456 -113312918.01344013 0 -113312918.01344013 -51173811.82477951 0 0 0 0 -3048308.0501420684 -448273.26990536135 0 -448273.26990536135 3189018.6018788884 0 0 0 0 -11068933.616668701 -1949218.3060722351 0 -1949218.3060722351 13287345.36978364 0 0 0 0 27941712.937065125 19192732.842382431 0 19192732.842382431 -4009790.1895656586 0 0 0 0 14891615.897964478 -4923325.4007720947 0 -4923325.4007720947 -26452276.805922508 0 0 0 0 20867356.810035706 48282483.561122894 0 48282483.561122894 50492282.150210381 0 0 0 0 -36222.791786292146 25074228.52260492 0 25074228.52260492 25951910.496353149 0 0 0 0 6329614.9039306641 18546674.043647766 0 18546674.043647766 31964215.642601013 0 0 0 0 8023370.4006462097 13725708.97340107 0 13725708.97340107 20329624.602146149 0 0 0 0 3090030.0795440674 7978192.883852005 0 7978192.883852005 16847595.17375946 0 0 0 0 53607485.596084595 -88021737.345758438 0 -88021737.345758438 201176995.62333584 0 0 0 0 198451075.5443821 -80351774.170791388 0 -80351774.170791388 -2592127.884513855 0 0 0 0 54116770.72190094 -50344338.959721565 0 -50344338.959721565 27147076.419651031 0 0 0 0 152951907.58699989 82040299.960543036 0 82040299.960543036 49917970.907676697 0 0 0 0 370584637.58768463 -51458908.138297081 0 -51458908.138297081 130596863.95485878 0 0 0 0 15573614.506248474 4855221.0327754021 0 4855221.0327754021 26581794.814552307 0 0 0 0 121852932.98701477 -42369740.601908684 0 -42369740.601908684 -134425063.98696136 0 0 0 0 53154849.817840576 -34969818.643491745 0 -34969818.643491745 -16391731.557388306 0 0 0 0 23620420.642837524 -102531858.76780987 0 -102531858.76780987 26928871.214324951 0 0 0 0 81938514.481903076 -77557935.702709675 0 -77557935.702709675 -94117879.635173798 0 0 0 0 28589919.72088623 -49851934.547468185 0 -49851934.547468185 -104877135.87362385 0 0 0 0 -2133647.5586242676 -91016623.883333206 0 -91016623.883333206 -74666970.103572935 0 0 0 0 9191248.9139251709 -85902782.558040619 0 -85902782.558040619 -123095271.23024368 0 0 0 0 -28980657.471908569 -61688062.346851349 0 -61688062.346851349 -84288163.776313782 0 0 0 0 -11078578.709289551 -97004189.482240677 0 -97004189.482240677 -88877611.38033843 0 0 0 0 -6261410.2822418213 -105524498.79850101 0 -105524498.79850101 -11312599.368789673 0 0 0 0 23948904.237869263 -72931413.039926529 0 -72931413.039926529 -74800551.432619482 0 0 0 0 -90074139.319717407 -54348709.750739098 0 -54348709.750739098 -67405312.866584778 0 0 0 0 -52936135.232040405 -99584527.041417122 0 -99584527.041417122 -16100583.240596771 0 0 0 0 -71245436.626342773 -44017223.127845764 0 -44017223.127845764 82653169.754030228 0 0 0 0 -26544935.829650879 -82019467.817043304 0 -82019467.817043304 -19280075.808876038 0 0 0 0 5919150.3889846802 -99990676.24605608 0 -99990676.24605608 89798894.407485962 0 0 0 0 -24817489.646377563 -50047224.32270813 0 -50047224.32270813 20573728.654618263 0 0 0 0 -9741165.2695922852 7801858.7104406357 0 7801858.7104406357 153365631.82306957 0 0 0 0 -26760688.683670044 -45207540.571966887 0 -45207540.571966887 71368464.194133759 0 0 0 0 -84788476.200653076 -10978048.920289993 0 -10978048.920289993 137780762.90368462 0 0 0 0 -60534687.028907776 18574520.297862053 0 18574520.297862053 -14344006.851461411 0 0 0 0 -34232340.033416748 76749453.14730835 0 76749453.14730835 82540761.467474937 0 0 0 0 5435702.1993942261 7373008.497800827 0 7373008.497800827 116749306.92746544 0 0 0 0 217769930.55522919 89367948.631925583 0 89367948.631925583 245118588.7280159 0 0 0 0 186001384.89624786 137146925.02956486 0 137146925.02956486 187583149.75107956 0 0 0 0 386996101.55032349 278257510.34505844 0 278257510.34505844 136081912.76026344 0 0 0 0 33497756.941436768 -44591474.37185955 0 -44591474.37185955 212125282.75906372 0 0 0 0 170249964.56762695 28381727.215093613 0 28381727.215093613 167130737.64278078 0 0 0 0 295280122.20645523 286350508.77400589 0 286350508.77400589 929033892.99892044 0 0 0 0 356471983.16575623 192389403.64898109 0 192389403.64898109 270209965.08849525 0 0 0 0 125679171.40077591 97512355.524050236 0 97512355.524050236 466262293.38131714 0 0 0 0 655724936.21781921 524791756.61136436 0 524791756.61136436 256702455.08927536 0 0 0 0 303181097.89680481 253040747.33562088 0 253040747.33562088 368763886.20420837 0 0 0 0 667603766.3737793 226734285.61964035 0 226734285.61964035 179827057.57670975 0 0 0 0 725788162.97805786 413812455.88384247 0 413812455.88384247 -107304041.30922699 0 0 0 0 -576312.44905822165 298253.9634809047 0 298253.9634809047 362859.92982128728 0 0 0 0 14592324.891784668 111541402.90966797 0 111541402.90966797 302738800.85757446 0 0 0 0 613175469.32971954 153737013.33537626 0 153737013.33537626 -84551185.448600769 0 0 0 0 366685684.19130135 50795130.861951351 0 50795130.861951351 -118230348.49929047 0 0 0 0 442736507.8221283 272480089.53672981 0 272480089.53672981 -12158870.467922211 0 0 0 0 516035217.8993187 378331485.47223139 0 378331485.47223139 86370828.551597595 0 0 0 0 404098520.62106323 209214044.83760071 0 209214044.83760071 261310296.73204422 0 0 0 0 250026462.10696411 177819955.12363243 0 177819955.12363243 62694777.795478821 0 0 0 0 442572635.04596901 276232552.58069277 0 276232552.58069277 -97577987.167655945 0 0 0 0 410827310.01391602 391461192.50107193 0 391461192.50107193 126293295.24120712 0 0 0 0 521960937.64186096 367636404.35826874 0 367636404.35826874 -54152640.739890099 0 0 0 0 295466646.94255066 215549516.46390343 0 215549516.46390343 -6109165.0066070557 0 0 0 0 95561488.163116455 79220881.3079319 0 79220881.3079319 31112044.628822327 0 0 0 0 -869663.45741271973 61159254.956943512 0 61159254.956943512 -19127101.338207245 0 0 0 0 292770369.39836121 237157353.21172523 0 237157353.21172523 -66193082.61605072 0 0 0 0 422932871.68383789 309518527.21914673 0 309518527.21914673 -56547572.357467651 0 0 0 0 2392732.3578921743 376350.43512377702 0 376350.43512377702 -844909.52623051032 0 0 0 0 -121832488.62870026 199470346.19844246 0 199470346.19844246 -81948597.668670654 0 0 0 0 -51373369.531898499 -12281771.606363297 0 -12281771.606363297 -42163332.247541428 0 0 0 0 257302182.60403442 169636177.22697449 0 169636177.22697449 46161065.21216774 0 0 0 0 457122459.52682495 155309180.83024788 0 155309180.83024788 -244962695.99318981 0 0 0 0 1093748.5669744536 111599.51993938722 0 111599.51993938722 -438634.97495177668 0 0 0 0 -9905857.4123535156 85010628.918188095 0 85010628.918188095 -33632940.301760674 0 0 0 0 -124844975.56840515 146267197.92028713 0 146267197.92028713 396179971.12870789 0 0 0 0 207934098.77603912 376695871.24346066 0 376695871.24346066 254809569.81476402 0 0 0 0 -23735875.642345428 241053404.25173187 0 241053404.25173187 185408783.0699501 0 0 0 0 133168821.19373322 63692591.445339203 0 63692591.445339203 48021521.77935791 0 0 0 0 21046578.927581787 125296038.28787994 0 125296038.28787994 52666134.388538361 0 0 0 0 -75321070.557250977 38794715.441978455 0 38794715.441978455 89987106.917697906 0 0 0 0 342985172.18522263 -46079307.845579624 0 -46079307.845579624 100749901.09453583 0 0 0 0 212662309.42514801 273945164.49462128 0 273945164.49462128 305356591.59060669 0 0 0 0 123880333.15176392 22029531.160541534 0 22029531.160541534 298219395.05750525 0 0 0 0 458654564.29803467 189888595.83946228 0 189888595.83946228 18663483.378700256 0 0 0 0 141813939.53921509 60921861.822395325 0 60921861.822395325 52984109.098213196 0 0 0 0 118453522.50858688 -43178690.523597717 0 -43178690.523597717 11021374.03352356 0 0 0 0 1078371.0829925537 13517700.919750214 0 13517700.919750214 110855972.27989197 0 0 0 0 48624838.930389404 6567334.1401557922 0 6567334.1401557922 3588189.0248031616 0 0 0 0 -49443050.624542236 21134364.586872101 0 21134364.586872101 -34174439.324512482 0 0 0 0 -16388554.717819214 -38653861.949337006 0 -38653861.949337006 34246888.273239136 0 0 0 0 -74763641.926362991 31971720.716367483 0 31971720.716367483 -36704178.225906372 0 0 0 0 -248293188.13409424 71543463.316299438 0 71543463.316299438 -21465705.536865234 0 0 0 0 -116468002.5960083 37409165.521095276 0 37409165.521095276 -59905564.689254761 0 0 0 0 -260445714.19699097 -23182038.722194672 0 -23182038.722194672 -33809997.423370361 0 0 0 0 -107959453.49864197 -19033491.149875164 0 -19033491.149875164 -25100747.094497681 0 0 0 0 -145183383.4052124 59768806.239151001 0 59768806.239151001 -3371232.8777751923 0 0 0 0 -139100770.99549484 23838712.712729931 0 23838712.712729931 -88175685.982711792 0 0 0 0 -20882484.43927002 65014066.255859375 0 65014066.255859375 -9897403.3174877167 0 0 0 0 -206635067.82253265 22433087.572610855 0 22433087.572610855 76209927.711662292 0 0 0 0 -112066897.68438721 101805050.16127014 0 101805050.16127014 65470325.942871094 0 0 0 0 -1212284.7872233419 2935763.3563554492 0 2935763.3563554492 1369916.6195904184 0 0 0 0 -53411367.76234436 22438206.882427216 0 22438206.882427216 -14872153.74911499 0 0 0 0 -220322393.02932739 97870689.394132614 0 97870689.394132614 38347848.581401825 0 0 0 0 -341107.68041215464 1136037.189601033 0 1136037.189601033 1374098.2540922631 0 0 0 0 -1288101.5730285645 322773.77271175385 0 322773.77271175385 144301.35491943359 0 0 0 0 257453.78771731257 4264472.2318259114 0 4264472.2318259114 1694797.7630158784 0 0 0 0 -3201406.5499000791 1821741.0371149089 0 1821741.0371149089 156077.56803273037 0 0 0 0 5647469.8569866009 -251762.11229763553 0 -251762.11229763553 -1267218.2418724615 0 0 0 0 1145372.67028841 8981788.5868150927 0 8981788.5868150927 -680348.39016054012 0 0 0 0 21413248.8621521 -1382349.4566421509 0 -1382349.4566421509 -3894752.4108428955 0 0 0 0 14719921.70785141 11795727.43320179 0 11795727.43320179 -14120038.225681305 0 0 0 0 740342.87459186278 548356.59904456697 0 548356.59904456697 -223702.47712132335 0 0 0 0 -352521432.87879944 45366000.263626099 0 45366000.263626099 16824217.362915039 0 0 0 0 -4262226.9088592529 8882934.8967819214 0 8882934.8967819214 1291956.047668457 0 0 0 0 -2502616.3746795654 5237815.9321537018 0 5237815.9321537018 760825.54597663879 0 0 0 0 7321179.7291488647 7358038.1114349365 0 7358038.1114349365 -124833.81201171875 0 0 0 0 1123598.3079452515 7544352.6330785751 0 7544352.6330785751 2189263.7287445068 0 0 0 0 1151909.6077842712 7572077.9245948792 0 7572077.9245948792 1549241.1507949829 0 0 0 0 4189437.0258789062 5654378.0580272675 0 5654378.0580272675 216678.09260559082 0 0 0 0 3087544.0304489136 8315791.6813926697 0 8315791.6813926697 1307375.5352020264 0 0 0 0 3630411.7379684448 9190033.859172821 0 9190033.859172821 2857160.3342895508 0 0 0 0 1371699.141254425 7020537.2476205826 0 7020537.2476205826 1241525.7438201904 0 0 0 0 1432983.4838256836 6812960.4435768127 0 6812960.4435768127 1919605.9252910614 0 0 0 0 1139478.3846435547 7378684.708322525 0 7378684.708322525 2724668.0532836914 0 0 0 0 1010166.7014312744 7511906.2714996338 0 7511906.2714996338 2999686.4616820812 0 0 0 0 -1382625.8759002686 6500272.3608894348 0 6500272.3608894348 249609.38197517395 0 0 0 0 5134178.1305541992 7456376.2880973816 0 7456376.2880973816 6633354.4975967407 0 0 0 0 -1524718.4832458496 5869387.3407707214 0 5869387.3407707214 2478483.1717720032 0 0 0 0 -2116946.4717025757 6198972.5741386414 0 6198972.5741386414 3286345.9273300171 0 0 0 0 -728429.37045442313 4193538.9734815983 0 4193538.9734815983 1817011.3074982958 0 0 0 0 -2242669.8788146973 6264550.8903198242 0 6264550.8903198242 3316941.2882184982 0 0 0 0 5169190.6708374023 7311421.5913286209 0 7311421.5913286209 7162662.4501800537 0 0 0 0 -4222517.9015653729 8983679.3065015506 0 8983679.3065015506 2280088.0529685551 0 0 0 0 3815127.265838623 19487004.559885025 0 19487004.559885025 12810474.732660055 0 0 0 0 1489348.0938683264 10850144.597345142 0 10850144.597345142 -1384977.610984199 0 0 0 0 -2640281.6624298096 -6379655.8802070618 0 -6379655.8802070618 6008933.4161019325 0 0 0 0 888868.51648712158 9136210.9389820099 0 9136210.9389820099 1542021.3391342163 0 0 0 0 -2556153.9031982422 7701653.3149490356 0 7701653.3149490356 2865002.4576644897 0 0 0 0 -45488105.811279297 -16668268.122192383 0 -16668268.122192383 -17392729.485778809 0 0 0 0 -6374019.1736517921 6396575.7478314117 0 6396575.7478314117 4763429.2423314583 0 0 0 0 -29738554.765808105 23149239.199935913 0 23149239.199935913 15611034.213119507 0 0 0 0 -3787768.9580639042 -1978379.7431153236 0 -1978379.7431153236 2205407.5926944315 0 0 0 0 -2881887.0112457275 5621710.9703445435 0 5621710.9703445435 5372764.2958221436 0 0 0 0 4485550.7493591309 -31827993.106719971 0 -31827993.106719971 -17271567.078742981 0 0 0 0 -1630676.7964687347 3181359.6975255013 0 3181359.6975255013 2233580.1687583923 0 0 0 0 -2563603.9690628052 97186.239994049072 0 97186.239994049072 -11915.315090179443 0 0 0 0 -1246156.0803791955 -53564.651408266276 0 -53564.651408266276 747543.9640718624 0 0 0 0 1245256.8096008301 4380834.6609725952 0 4380834.6609725952 -187140.78966927528 0 0 0 0 -2645409.2210922241 2017820.1975002289 0 2017820.1975002289 8111599.8701705933 0 0 0 0 -1375184.6015625 1340347.6578941345 0 1340347.6578941345 2510437.1199982166 0 0 0 0 -2770797.344307228 3407818.6087499298 0 3407818.6087499298 -449834.75200250931 0 0 0 0 -2060588.4752197266 1583912.8606338501 0 1583912.8606338501 2265362.0773200989 0 0 0 0 -10061016.986526489 11674317.629981995 0 11674317.629981995 -7827653.1763000488 0 0 0 0 -8838222.854133606 7960975.4952602386 0 7960975.4952602386 1920620.8935527802 0 0 0 0 -11841635.432006836 3328616.7543487549 0 3328616.7543487549 -3739261.1184692383 0 0 0 0 -1263507.0687255859 906454.37920761108 0 906454.37920761108 -76846.335684895515 0 0 0 0 -4454563.2834425531 1071682.4148513097 0 1071682.4148513097 3128206.3508760529 0 0 0 0 -56152109.072982788 163125481.37690926 0 163125481.37690926 -96965757.867408752 0 0 0 0 -1761360.8331125565 623640.05536855385 0 623640.05536855385 1136858.369198286 0 0 0 0 -175465500.75952148 145538418.21912766 0 145538418.21912766 -24638749.890151978 0 0 0 0 -57619623.824440002 20900044.088815689 0 20900044.088815689 -42929978.782493591 0 0 0 0 -2651045.2936491044 1717535.852680888 0 1717535.852680888 262215.70094441622 0 0 0 0 376803.96739526838 3357811.1558075864 0 3357811.1558075864 24583.28761000745 0 0 0 0 -1076935.5136489868 2200495.093834877 0 2200495.093834877 -19921.957321166992 0 0 0 0 -1245227.0602955408 1850346.5436586901 0 1850346.5436586901 1167866.5125471563 0 0 0 0 -1472118.9395141602 1499792.8658752441 0 1499792.8658752441 1210060.9401984215 0 0 0 0 -1124924.1834869385 1601626.379401207 0 1601626.379401207 1165429.5254440308 0 0 0 0 -90814306.200498581 10016223.183585882 0 10016223.183585882 67440354.45949173 0 0 0 0 -93252257.11529541 14627524.52791214 0 14627524.52791214 84835654.100780487 0 0 0 0 -75432925.041865349 98680652.400913239 0 98680652.400913239 -44461049.217580795 0 0 0 0 -3795713.6505641937 32078128.784225464 0 32078128.784225464 4180932.5682601929 0 0 0 0 -16127454.809095383 39179203.459531784 0 39179203.459531784 5998539.1048135757 0 0 0 0 -9068959.4938678741 25981554.433273315 0 25981554.433273315 30059956.663276672 0 0 0 0 7317407.7425670624 21709379.359067917 0 21709379.359067917 8326396.7629356384 0 0 0 0 -3761112.1201171875 25187325.779506683 0 25187325.779506683 9403932.3705224991 0 0 0 0 -2050651.4550247192 32764620.124974251 0 32764620.124974251 -4651602.4451446533 0 0 0 0 -2207576.90106906 9447664.1578524616 0 9447664.1578524616 1915714.457323852 0 0 0 0 10180118.909954071 22725594.816320419 0 22725594.816320419 1531340.1809735298 0 0 0 0 14786282.275168419 12871705.403855562 0 12871705.403855562 2664216.0554847717 0 0 0 0 8373749.106546402 12688537.976217508 0 12688537.976217508 2994742.5322265625 0 0 0 0 -3593278.992395659 9342746.9793828838 0 9342746.9793828838 1786916.0295578428 0 0 0 0 2822542.8545379639 8941323.2582492828 0 8941323.2582492828 2625986.719792366 0 0 0 0 6440234.1294288635 12535546.663847923 0 12535546.663847923 1157466.8018302917 0 0 0 0 8237540.4111976624 12200931.906248093 0 12200931.906248093 2006418.5172843933 0 0 0 0 1713453.6406687908 10817978.834562907 0 10817978.834562907 -1638742.2613050342 0 0 0 0 1558585.0971984863 9731929.9121513367 0 9731929.9121513367 11419744.099374533 0 0 0 0 8573180.2285490036 24041877.902026176 0 24041877.902026176 -6876772.1728096008 0 0 0 0 -3203143.5425750827 7589156.4834912457 0 7589156.4834912457 109008.96557016391 0 0 0 0 -1044574.6392354202 7480031.0997536061 0 7480031.0997536061 531523.64099344646 0 0 0 0 -325171.52980864234 2257644.4599288637 0 2257644.4599288637 151533.56441098428 0 0 0 0 -661926.02023029327 14094526.487724304 0 14094526.487724304 1768813.602104187 0 0 0 0 -7910917.1035461426 26244249.357423782 0 26244249.357423782 4670221.3501200676 0 0 0 0 -14169279.832687378 855902.7241859436 0 855902.7241859436 15276596.460208893 0 0 0 0 -26035103.711194992 4223683.9824914932 0 4223683.9824914932 15085701.767494202 0 0 0 0 -67333707.848261833 -664404.03317737579 0 -664404.03317737579 26426908.332134247 0 0 0 0 -34612657.783472061 52561592.655177116 0 52561592.655177116 -41128260.980136871 0 0 0 0 -7610004.4371128082 24217968.108802795 0 24217968.108802795 -27246848.040546417 0 0 0 0 -6757988.7225112915 4984251.4955024719 0 4984251.4955024719 -19768902.964694977 0 0 0 0 -4693303.1288452148 14729830.875610352 0 14729830.875610352 -32590827.327503204 0 0 0 0 -5435530.2592020035 12529849.976317883 0 12529849.976317883 -16109888.121536255 0 0 0 0 -50811361.345516205 -5187466.065618515 0 -5187466.065618515 37792598.469047546 0 0 0 0 -1375691.698380888 1206879.901909973 0 1206879.901909973 557285.50973349065 0 0 0 0 -29617657.863027811 14074245.74018085 0 14074245.74018085 10545846.81388092 0 0 0 0 -31053268.600494385 28133645.843585968 0 28133645.843585968 -13289153.113006592 0 0 0 0 -15077075.488485813 11866102.105844021 0 11866102.105844021 2727483.6701431274 0 0 0 0 -28933206.080721855 7969018.244052887 0 7969018.244052887 13422446.867523193 0 0 0 0 -23366643.054656982 11337171.37641716 0 11337171.37641716 3224393.760597229 0 0 0 0 -27460025.550431252 7416819.5492315292 0 7416819.5492315292 12581905.95891571 0 0 0 0 -13157548.644506454 2925271.4109535217 0 2925271.4109535217 9332730.6306381226 0 0 0 0 10602521.090911865 13456707.920593262 0 13456707.920593262 15405649.593822479 0 0 0 0 -5357586.8382456983 7958725.8197719529 0 7958725.8197719529 1001733.8131925846 0 0 0 0 -1872707.7520313859 11001445.849532198 0 11001445.849532198 925860.85183502827 0 0 0 0 -8237201.2846851721 9049544.6337798461 0 9049544.6337798461 2967250.304042615 0 0 0 0 19243628.175567627 24445837.629055977 0 24445837.629055977 16762517.019973755 0 0 0 0 -49371400.275253296 215656549.16114426 0 215656549.16114426 81414484.989220619 0 0 0 0 -329096466.90638733 -126904759.89977837 0 -126904759.89977837 -36022556.256934166 0 0 0 0 23699017.410720825 32887582.200958252 0 32887582.200958252 69957111.268883705 0 0 0 0 -129381988.71974182 -169865934.7881794 0 -169865934.7881794 83064241.409030914 0 0 0 0 152280235.58929443 -18985814.104978561 0 -18985814.104978561 -95813524.667176247 0 0 0 0 11433764.865264893 22145305.53490448 0 22145305.53490448 12952010.758101225 0 0 0 0 -148560611.98678589 102008103.06349182 0 102008103.06349182 141176271.92209244 0 0 0 0 -5666027.957256306 8176739.3874968039 0 8176739.3874968039 3428614.7401307151 0 0 0 0 -174240.83573441207 -397551.22995123616 0 -397551.22995123616 131545.15293241863 0 0 0 0 21273448.921798706 -62250650.186775208 0 -62250650.186775208 14037709.677340448 0 0 0 0 7568452.3131561279 17806955.025749207 0 17806955.025749207 -31861768.576896667 0 0 0 0 -52411294.924133301 -3378410.1756668091 0 -3378410.1756668091 12598998.227142334 0 0 0 0 -2487035.2741081864 -2508809.1122604413 0 -2508809.1122604413 2785812.9359195661 0 0 0 0 777605.17081928253 39205234.119386375 0 39205234.119386375 83708823.071044922 0 0 0 0 -1159883.6444854736 16100502.5170784 0 16100502.5170784 63908326.703090668 0 0 0 0 -2784153.4831912927 184902.47240730375 0 184902.47240730375 1556483.624330746 0 0 0 0 -178963930.70072556 -42464186.794204235 0 -42464186.794204235 -4381645.8217582703 0 0 0 0 68339928.830993652 94261134.396286964 0 94261134.396286964 61428298.659070969 0 0 0 0 17070300.238960266 64858473.677292347 0 64858473.677292347 109139245.58005524 0 0 0 0 21060639.533088684 59293499.6083951 0 59293499.6083951 34832797.692485809 0 0 0 0 22413566.910955429 108961722.41579533 0 108961722.41579533 130941346.49748611 0 0 0 0 66280666.988494873 197582429.06074429 0 197582429.06074429 101643891.59703732 0 0 0 0 -14173918.776855469 190010081.45258522 0 190010081.45258522 70068578.113892555 0 0 0 0 28215319.073446274 102683578.80486989 0 102683578.80486989 -19733408.962963104 0 0 0 0 -156797411.96438599 164907448.95290947 0 164907448.95290947 35534593.083450317 0 0 0 0 -52085660.019699097 46780253.068674088 0 46780253.068674088 49361589.135599136 0 0 0 0 22064376.449681282 112879288.66249242 0 112879288.66249242 46462936.381732941 0 0 0 0 -962735.10450288653 59440.879946865141 0 59440.879946865141 571131.00634719897 0 0 0 0 -48727600.45324707 38916802.886854172 0 38916802.886854172 129283980.36284494 0 0 0 0 -175473090.40614319 186276339.9327054 0 186276339.9327054 -32192260.848178864 0 0 0 0 210899264.00924683 17241949.403799057 0 17241949.403799057 -45613914.878616333 0 0 0 0 46359037.233810425 -14066888.580404282 0 -14066888.580404282 8546369.5955162048 0 0 0 0 12015106.733764648 51091997.124754906 0 51091997.124754906 -53964741.429130554 0 0 0 0 -79206973.456054688 -45246938.000846863 0 -45246938.000846863 -80664607.079920769 0 0 0 0 -234494745.55006409 68155946.159807205 0 68155946.159807205 16172586.699264526 0 0 0 0 -78707618.4009552 61084095.132034302 0 61084095.132034302 -25398708.037092209 0 0 0 0 899794.65958074853 754792.2604997009 0 754792.2604997009 401514.79388198582 0 0 0 0 6790518.2878265381 8331386.2811346054 0 8331386.2811346054 -293687.18748855591 0 0 0 0 65595492.425445557 -9296469.7835006714 0 -9296469.7835006714 -982180.22281169891 0 0 0 0 5542977.8730316162 47908.580840110779 0 47908.580840110779 19919530.284568787 0 0 0 0 48944945.383132935 15369581.928505898 0 15369581.928505898 7057855.8086700439 0 0 0 0 19698291.217407227 -30065584.787414551 0 -30065584.787414551 -15689813.439590454 0 0 0 0 81026015.364776611 2100000.2919235229 0 2100000.2919235229 -15500858.19041729 0 0 0 0 141944955.8248291 48346162.55062294 0 48346162.55062294 8224084.9762420654 0 0 0 0 73151575.750778198 -3233368.2887382507 0 -3233368.2887382507 5842414.0535812378 0 0 0 0 59774717.307628632 16589644.334381819 0 16589644.334381819 41532508.859046936 0 0 0 0 92414348.360168457 67064457.827573776 0 67064457.827573776 15647102.376405716 0 0 0 0 -974107.94407072663 1110473.4521931224 0 1110473.4521931224 804303.80576728564 0 0 0 0 -2051517.6219177246 3192800.2873339653 0 3192800.2873339653 2539816.5816907883 0 0 0 0 -8621560.7406456992 9534566.1510206535 0 9534566.1510206535 3860967.3842552742 0 0 0 0 -11958007.445307614 10810697.942191351 0 10810697.942191351 6850284.5067231487 0 0 0 0 2465343.0903269127 4484097.5161656337 0 4484097.5161656337 2987930.0275380295 0 0 0 0 145927497.87641907 35476280.803009033 0 35476280.803009033 -12587801.932094574 0 0 0 0 174625140.53210449 12493423.021787643 0 12493423.021787643 5787250.9019165039 0 0 0 0 4462545.2212734222 6546425.4559520483 0 6546425.4559520483 3864932.3572130203 0 0 0 0 139337145.32891846 41364918.217077255 0 41364918.217077255 -31814215.253494263 0 0 0 0 134178273.23603821 34992409.716908455 0 34992409.716908455 27340132.012046814 0 0 0 0 7694958.2934265137 7152935.8543434143 0 7152935.8543434143 4198124.7883605957 0 0 0 0 236418561.01657104 122437079.96190643 0 122437079.96190643 1626602.7349395752 0 0 0 0 -6328151.2311818842 10691452.286340423 0 10691452.286340423 4178212.6825302215 0 0 0 0 150068.9386991933 10536826.93468868 0 10536826.93468868 300358.34687217418 0 0 0 0 -9204415.6497764587 7661584.5141201019 0 7661584.5141201019 -8294372.676940918 0 0 0 0 -5769360.1118443729 4038791.3092649393 0 4038791.3092649393 2518912.3792059142 0 0 0 0 19073491.432350159 159107807.40216541 0 159107807.40216541 289983177.58764076 0 0 0 0 -28813452.847419739 147139175.21918106 0 147139175.21918106 385973136.90838432 0 0 0 0 121754653.10173035 431683023.75305557 0 431683023.75305557 836196179.30204773 0 0 0 0 815291748.10452271 102533312.58616638 0 102533312.58616638 273507195.37668991 0 0 0 0 -26814292.540206909 -98431022.584658623 0 -98431022.584658623 409427628.61065769 0 0 0 0 -402159.54666641448 657823.42606300861 0 657823.42606300861 471433.39543505665 0 0 0 0 799772496.12975693 150995091.78941917 0 150995091.78941917 25501329.837379456 0 0 0 0 55618.149432901293 409608.24152130703 0 409608.24152130703 -135683.45487742126 0 0 0 0 -3934423.1296852604 -85829.914617179427 0 -85829.914617179427 1898879.6240712977 0 0 0 0 -1951771.0499343872 2075101.7680969238 0 2075101.7680969238 2883542.4411716461 0 0 0 0 94208241.926879883 -47141366.615018845 0 -47141366.615018845 -26028316.397294998 0 0 0 0 22163501.54145813 52229174.751482964 0 52229174.751482964 99314262.905447483 0 0 0 0 -4102614.1106639802 411790.31924916268 0 411790.31924916268 1543552.2493059072 0 0 0 0 -1984632.9347076416 6042899.9029846191 0 6042899.9029846191 11002135.093704224 0 0 0 0 -4445026.4418665878 721482.57043512678 0 721482.57043512678 1417082.3089580911 0 0 0 0 -37191215.234466553 -6126936.5831108093 0 -6126936.5831108093 10135430.485500336 0 0 0 0 25644247.784866333 17679108.689851761 0 17679108.689851761 34975006.099625587 0 0 0 0 -2057918.2500457764 -150113.00566864014 0 -150113.00566864014 9357966.9062957764 0 0 0 0 -496100.52655029297 -1599158.5429496765 0 -1599158.5429496765 10388665.532875061 0 0 0 0 -388836.8822152894 -21020.566633349285 0 -21020.566633349285 229345.92718234845 0 0 0 0 4142328.5649414062 2455790.222442627 0 2455790.222442627 6647680.4971103668 0 0 0 0 -6497065.3239440918 14161896.094725609 0 14161896.094725609 111602316.32725716 0 0 0 0 25912402.90953064 82540470.424360275 0 82540470.424360275 137648505.9598527 0 0 0 0 22383683.91545105 39494422.748060226 0 39494422.748060226 77358546.479511261 0 0 0 0 -35351605.155536652 55549589.272908986 0 55549589.272908986 175389160.26409149 0 0 0 0 83168695.214782715 194678813.62057495 0 194678813.62057495 248802009.54071712 0 0 0 0 58113758.096427917 135477223.72068405 0 135477223.72068405 161079899.60958099 0 0 0 0 55819438.5371418 84804859.877299786 0 84804859.877299786 117368905.89630508 0 0 0 0 177635140.13388062 100825620.15352345 0 100825620.15352345 150856408.0294342 0 0 0 0 248602080.68225098 276106046.75633883 0 276106046.75633883 143421610.03147316 0 0 0 0 94915261.298881531 346172640.27422237 0 346172640.27422237 141501884.35792351 0 0 0 0 86487897.171977997 329017592.5395174 0 329017592.5395174 355821842.39685822 0 0 0 0 63914080.570266724 259848933.87348175 0 259848933.87348175 148204032.03221893 0 0 0 0 305646140.53160095 268485360.73626757 0 268485360.73626757 103935111.37033653 0 0 0 0 197660593.35263062 237178807.71030045 0 237178807.71030045 247279093.73916578 0 0 0 0 192803142.28083801 49583405.471712112 0 49583405.471712112 -226054627.53274536 0 0 0 0 -62918449.145004272 123596416.92330647 0 123596416.92330647 92807612.449288607 0 0 0 0 1039200.3146538436 -596328.55891561694 0 -596328.55891561694 -263312.02447963925 0 0 0 0 -18705871.500492096 15667453.624162674 0 15667453.624162674 -10025748.046127319 0 0 0 0 25597924.87902832 173004590.23770237 0 173004590.23770237 -279696972.91957855 0 0 0 0 -22174468.050552368 -5937234.9006204605 0 -5937234.9006204605 4917093.4841842651 0 0 0 0 -692647.78345270082 -713610.62413311563 0 -713610.62413311563 945789.52717588376 0 0 0 0 1081381.2237854004 -4235133.1627836227 0 -4235133.1627836227 15596204.559681892 0 0 0 0 107786896.65158081 47437904.483391047 0 47437904.483391047 14499725.089794159 0 0 0 0 -12268584.797012329 -23346760.721666813 0 -23346760.721666813 34083878.140499115 0 0 0 0 -31804643.376567841 9709020.4559481144 0 9709020.4559481144 38099940.976448059 0 0 0 0 155772811.02708435 -15929297.42754364 0 -15929297.42754364 -26592468.041608334 0 0 0 0 487447.94694426656 -266615.25345741306 0 -266615.25345741306 -144618.36451840168 0 0 0 0 325513302.14572144 177608068.55082607 0 177608068.55082607 42606244.311038971 0 0 0 0 125360342.64079285 247860321.45503139 0 247860321.45503139 234178053.37309361 0 0 0 0 81688620.595367432 174936785.94673967 0 174936785.94673967 116128618.30723953 0 0 0 0 96032374.047653198 208101682.18692493 0 208101682.18692493 131778922.98240852 0 0 0 0 126480182.41759491 174466786.35642004 0 174466786.35642004 167187442.46119213 0 0 0 0 80297549.189193726 61890112.717332363 0 61890112.717332363 24745664.19321394 0 0 0 0 -470613.51990485191 -672051.84369216696 0 -672051.84369216696 652951.2144670469 0 0 0 0 12835945.309829712 37433046.780276775 0 37433046.780276775 -46527203.037001133 0 0 0 0 -197129.04667194933 -324313.98135637725 0 -324313.98135637725 264362.99158375186 0 0 0 0 12812300.098789215 15418636.642818928 0 15418636.642818928 -191668791.43391037 0 0 0 0 66883141.827339172 224096972.43552494 0 224096972.43552494 253682185.49287415 0 0 0 0 -21455126.123626709 129815128.21173048 0 129815128.21173048 -96236534.685607433 0 0 0 0 25169876.390213013 97253265.132566929 0 97253265.132566929 -10728733.272184372 0 0 0 0 9748883.2304916382 93670218.478234768 0 93670218.478234768 87214952.527575493 0 0 0 0 26775671.526077271 79608733.191743374 0 79608733.191743374 57025512.710903168 0 0 0 0 8728.4754333496094 59695334.497275114 0 59695334.497275114 83049774.243960381 0 0 0 0 -9669129.6122207642 25746278.276745319 0 25746278.276745319 12806874.355926514 0 0 0 0 3375317.8079058379 2153765.2102523074 0 2153765.2102523074 745482.51735702204 0 0 0 0 41443616.568998575 24701783.245403647 0 24701783.245403647 12136893.549938202 0 0 0 0 59496347.77960968 23276746.335418224 0 23276746.335418224 883274.44382476807 0 0 0 0 40996804.995223522 804885.58541534841 0 804885.58541534841 -3239648.9916915894 0 0 0 0 -16313417.792840201 7159082.5766234826 0 7159082.5766234826 4233524.9587844945 0 0 0 0 54890399.133285522 12625126.776064873 0 12625126.776064873 -933272.8264503479 0 0 0 0 125521778.34706116 129540648.66111088 0 129540648.66111088 72359221.673322678 0 0 0 0 124130693.58831787 146365511.98309231 0 146365511.98309231 55332409.520492554 0 0 0 0 65841885.364303589 216767830.59091043 0 216767830.59091043 63830145.061121464 0 0 0 0 29418491.043663025 168850967.52990532 0 168850967.52990532 113312325.81682777 0 0 0 0 -62749530.224685669 100991851.57612658 0 100991851.57612658 101854691.97076416 0 0 0 0 67039453.352363586 112341161.82523584 0 112341161.82523584 101913979.47436333 0 0 0 0 46242878.147109985 184242720.66051292 0 184242720.66051292 116936543.63042474 0 0 0 0 15659522.629463196 154020764.78779507 0 154020764.78779507 111616915.49773026 0 0 0 0 73561162.930831909 242940918.67527819 0 242940918.67527819 148815636.56644368 0 0 0 0 64274460.272041321 167787808.42309427 0 167787808.42309427 127623204.06970596 0 0 0 0 10601697.241634369 165433927.70180261 0 165433927.70180261 21935960.842281342 0 0 0 0 5464923.5561828613 179910553.70111102 0 179910553.70111102 -7551070.2390871048 0 0 0 0 119831733.52702332 200471709.5311439 0 200471709.5311439 -3019060.7469096184 0 0 0 0 122941955.90725708 170613879.69803286 0 170613879.69803286 -3373321.3038859367 0 0 0 0 104088229.88612366 172126900.66105986 0 172126900.66105986 4373470.3505821228 0 0 0 0 100928241.46863174 168233508.254879 0 168233508.254879 40603115.666162491 0 0 0 0 189154758.59486389 165771195.16945076 0 165771195.16945076 -8725993.5072374344 0 0 0 0 178812454.78569984 116014160.48830879 0 116014160.48830879 -8009324.8221225739 0 0 0 0 328805411.72084045 95824711.00998354 0 95824711.00998354 -64596606.224402428 0 0 0 0 208263995.41983032 98959133.478509903 0 98959133.478509903 -47567318.119183064 0 0 0 0 221186535.88605499 48393738.088200092 0 48393738.088200092 6093679.2747488022 0 0 0 0 124133363.85229492 1645437.1960511208 0 1645437.1960511208 -9696899.2917490005 0 0 0 0 152454929.57632828 63523066.301205397 0 63523066.301205397 2785129.951830864 0 0 0 0 164154300.35357666 102104017.05416584 0 102104017.05416584 31315498.491161346 0 0 0 0 7355167.5184688792 3444458.9854795281 0 3444458.9854795281 250821.79680603277 0 0 0 0 1504016.1695920043 3065584.8025117647 0 3065584.8025117647 410389.37392069201 0 0 0 0 -3877889.9497086704 4773066.3506086469 0 4773066.3506086469 6590966.8568649879 0 0 0 0 -75271127.002441406 37935708.847482681 0 37935708.847482681 30144035.133766174 0 0 0 0 -4949228.7748718262 3315992.2170782089 0 3315992.2170782089 -1216034.2324104309 0 0 0 0 349487606.15400982 17585440.451050997 0 17585440.451050997 140163247.81492424 0 0 0 0 -54123999.107116699 -20964179.732383728 0 -20964179.732383728 -161136635.01839447 0 0 0 0 4295586.489563386 2228153.1940181181 0 2228153.1940181181 -4336519.3659614138 0 0 0 0 770022267.06811523 -51455602.161971927 0 -51455602.161971927 -100176328.01873589 0 0 0 0 868200504.97346497 128965718.82971525 0 128965718.82971525 -15225703.904600143 0 0 0 0 385852980.28315735 -420978994.31932974 0 -420978994.31932974 573019022.83345795 0 0 0 0 477675729.64687157 -42951084.206241906 0 -42951084.206241906 -87851394.500827789 0 0 0 0 3922937.754554701 3363382.6748447288 0 3363382.6748447288 -6290568.0398025513 0 0 0 0 327438198.69420719 -60784234.903821319 0 -60784234.903821319 -87524304.707658768 0 0 0 0 312029903.71179199 88198644.226326525 0 88198644.226326525 -57657168.512475967 0 0 0 0 459052043.84032154 116135335.4788729 0 116135335.4788729 -52846946.894569397 0 0 0 0 533514205.09246826 70007986.174894333 0 70007986.174894333 -25227765.12365818 0 0 0 0 401092530.10577393 308860543.14838839 0 308860543.14838839 98167201.98695755 0 0 0 0 292045270.566185 190068465.42043877 0 190068465.42043877 -9840549.8118038177 0 0 0 0 249183364.84313583 234056814.59146821 0 234056814.59146821 -16085083.106744766 0 0 0 0 761458.18103293329 -229774.82577390177 0 -229774.82577390177 -100816.097746224 0 0 0 0 840133553.03143311 -99124345.309356093 0 -99124345.309356093 -762471337.00833166 0 0 0 0 240113516.82037354 325331442.52603102 0 325331442.52603102 278980480.72094655 0 0 0 0 669319411.43444824 345738432.17538929 0 345738432.17538929 103103679.654212 0 0 0 0 3563477.8860473633 210911088.97941637 0 210911088.97941637 239312507.57951498 0 0 0 0 -27181576.413305283 50363437.28179574 0 50363437.28179574 -43281182.818825722 0 0 0 0 -38507935.277891159 92952624.389598072 0 92952624.389598072 -50743522.051003456 0 0 0 0 -10285667.477249146 186801257.28533602 0 186801257.28533602 64277941.202941895 0 0 0 0 -261445.54345703125 111960051.95051908 0 111960051.95051908 -201784377.55414915 0 0 0 0 1247236.8931887932 -262012.63642537198 0 -262012.63642537198 -140229.75627889502 0 0 0 0 191963453.51721191 531894664.12844217 0 531894664.12844217 -334954667.82854736 0 0 0 0 34209098.542457581 307192936.36667144 0 307192936.36667144 -17923663.998316288 0 0 0 0 5434517.5263671875 562058978.84991956 0 562058978.84991956 408786026.8584578 0 0 0 0 242436328.83354187 357823374.34224284 0 357823374.34224284 449383325.00687575 0 0 0 0 517361409.87633514 136244826.37617823 0 136244826.37617823 95816922.140562028 0 0 0 0 812414484.67192078 160964515.60418487 0 160964515.60418487 541269192.02642643 0 0 0 0 903042489.69793701 432098146.77582824 0 432098146.77582824 322745122.13055444 0 0 0 0 -265304537.47764587 248457787.03025723 0 248457787.03025723 80550506.172287852 0 0 0 0 604865660.01351929 -356029868.05567271 0 -356029868.05567271 -499032289.1227597 0 0 0 0 735553896.01501465 -128959186.17584372 0 -128959186.17584372 60403035.319054127 0 0 0 0 918309894.22103882 -21614168.278480306 0 -21614168.278480306 -207506553.94420409 0 0 0 0 1136620129.6889343 -349248389.0310756 0 -349248389.0310756 40546657.592217684 0 0 0 0 -566828.44960092567 919494.90746670589 0 919494.90746670589 1547061.3071824592 0 0 0 0 2014706283.1508179 -114957512.7341969 0 -114957512.7341969 243882556.28101635 0 0 0 0 1051113260.0120239 -201921397.73448932 0 -201921397.73448932 -154427438.52972212 0 0 0 0 988383654.71873474 -469890145.88869774 0 -469890145.88869774 282764883.07339227 0 0 0 0 840503987.03575134 -302133446.54528332 0 -302133446.54528332 266840003.97446871 0 0 0 0 188267317.10704041 -290559629.75098455 0 -290559629.75098455 414405128.62698174 0 0 0 0 38108354.368347168 -211896980.88982916 0 -211896980.88982916 -163444890.71072447 0 0 0 0 -1231365.2764864396 319025.97903401218 0 319025.97903401218 -38059.639943809249 0 0 0 0 115929383.76222992 -280294976.91493297 0 -280294976.91493297 659724761.32601547 0 0 0 0 33390532.794555664 -119048877.30287457 0 -119048877.30287457 249396017.26649666 0 0 0 0 67890295.719802856 -237420476.75395298 0 -237420476.75395298 450239622.05781174 0 0 0 0 109799484.56866455 -194904044.08963966 0 -194904044.08963966 337420613.05927658 0 0 0 0 171605852.0770874 -257781760.21650696 0 -257781760.21650696 260124721.61889648 0 0 0 0 170044178.88632202 -172338997.65586281 0 -172338997.65586281 46124045.058933258 0 0 0 0 227514457.44641113 -235146563.76404953 0 -235146563.76404953 12282234.172714233 0 0 0 0 195700596.86338806 -279242627.79729843 0 -279242627.79729843 108766707.09855652 0 0 0 0 5384442.6495713256 4001957.7672243919 0 4001957.7672243919 -1835053.3914967855 0 0 0 0 -150503228.65234375 117468395.29817581 0 117468395.29817581 76197335.150421143 0 0 0 0 -15203422.451446533 191439.1462033987 0 191439.1462033987 6478838.7284421921 0 0 0 0 746018113.35652161 -181476384.55238175 0 -181476384.55238175 -329364949.98139501 0 0 0 0 -1896020.1085969117 2897710.876278013 0 2897710.876278013 4315988.3351759948 0 0 0 0 65851864.51184082 222638930.69285774 0 222638930.69285774 -20929394.27952528 0 0 0 0 140631048.87177277 328796234.42440093 0 328796234.42440093 64090276.003089726 0 0 0 0 -29182253.358329773 283910084.44701791 0 283910084.44701791 418846616.96370339 0 0 0 0 -55502586.317058563 200866571.26571929 0 200866571.26571929 178445927.86455297 0 0 0 0 10157578.72882843 171100853.59201097 0 171100853.59201097 178429390.54596567 0 0 0 0 66413364.197113037 174316793.16666794 0 174316793.16666794 65996001.804186463 0 0 0 0 31589401.897216797 117156961.66226816 0 117156961.66226816 -2352533.2670497894 0 0 0 0 -9214492.0645904541 120515860.20598865 0 120515860.20598865 27909952.078709602 0 0 0 0 -12449710.852334976 103191879.57982212 0 103191879.57982212 -53748071.407250404 0 0 0 0 -58726041.702354431 65884278.431090355 0 65884278.431090355 -82429341.378336191 0 0 0 0 -76289055.584320068 106310366.61748862 0 106310366.61748862 -53710074.484833241 0 0 0 0 100065482.56690216 189198618.70385194 0 189198618.70385194 -400576440.11239862 0 0 0 0 507768.62094576284 -138327.66328518232 0 -138327.66328518232 -54708.925798411656 0 0 0 0 -178971492.52441406 456270146.36053765 0 456270146.36053765 822634079.64939892 0 0 0 0 -76753737.804523468 425139858.24613577 0 425139858.24613577 377581979.33029878 0 0 0 0 -57331066.127624512 424999471.7399565 0 424999471.7399565 375962928.2156539 0 0 0 0 88526126.063156128 307077540.71457314 0 307077540.71457314 299675007.73956066 0 0 0 0 -147540358.53431702 84042276.887903929 0 84042276.887903929 380296673.04643226 0 0 0 0 -66819343.917232513 60188874.232146323 0 60188874.232146323 203145172.11447752 0 0 0 0 -2068300.7360153198 87452827.640188694 0 87452827.640188694 150463145.6093106 0 0 0 0 118525552.73248291 101904911.99498613 0 101904911.99498613 148186382.75861812 0 0 0 0 41645335.077430725 128590507.64196444 0 128590507.64196444 182451941.79683733 0 0 0 0 -40353338.103981018 93787665.810754061 0 93787665.810754061 241462210.62540889 0 0 0 0 -9323477.6472797394 156477691.39390564 0 156477691.39390564 188878255.80619192 0 0 0 0 -29930469.392524719 159028961.52385306 0 159028961.52385306 241034650.87059772 0 0 0 0 -1707499.2959766388 142469231.53738803 0 142469231.53738803 179027168.15796328 0 0 0 0 -3121366.6099243164 136855346.37109923 0 136855346.37109923 193953867.27391052 0 0 0 0 634957.97723388672 140724716.18598223 0 140724716.18598223 190920749.30547041 0 0 0 0 2973459.7326889038 153173008.25463784 0 153173008.25463784 147741466.25310993 0 0 0 0 29909301.761814117 190793250.53993893 0 190793250.53993893 250456571.48175907 0 0 0 0 4193981.7223510742 138706048.30673838 0 138706048.30673838 243952756.80642796 0 0 0 0 14406029.821113586 139625157.70557356 0 139625157.70557356 273839972.94204497 0 0 0 0 1945235.2139587402 145657298.16437864 0 145657298.16437864 229847812.63994694 0 0 0 0 -2620046.201385498 133846932.1981225 0 133846932.1981225 204720343.3306593 0 0 0 0 14010598.421813965 162487860.05267787 0 162487860.05267787 204514707.56577405 0 0 0 0 18488030.138046265 156003661.93916488 0 156003661.93916488 182040965.2490654 0 0 0 0 27209934.636474609 180116534.88508081 0 180116534.88508081 210513559.63864374 0 0 0 0 48436936.261245728 141391562.07723606 0 141391562.07723606 118569293.01018143 0 0 0 0 23015218.788082123 166155027.87730503 0 166155027.87730503 175023711.40893126 0 0 0 0 36183750.762481689 145971177.91704798 0 145971177.91704798 127589096.0017345 0 0 0 0 -4610710.5797042847 102042273.81221347 0 102042273.81221347 172592051.56407407 0 0 0 0 11830681.481544495 63104869.321141094 0 63104869.321141094 47593126.845249213 0 0 0 0 69293688.602005005 89087759.136210203 0 89087759.136210203 32852226.866573095 0 0 0 0 51514020.310741425 48223795.435989499 0 48223795.435989499 35219776.658865929 0 0 0 0 63902548.845291138 75306482.066699743 0 75306482.066699743 47771397.250887156 0 0 0 0 97543020.897871017 69267520.855201483 0 69267520.855201483 39523402.991667747 0 0 0 0 83685996.522338867 105923515.88504535 0 105923515.88504535 94737852.427150726 0 0 0 0 33210965.824066162 127168388.28836298 0 127168388.28836298 130928390.32323766 0 0 0 0 28808214.724655151 147029446.6921382 0 147029446.6921382 117251696.92804265 0 0 0 0 14226394.977279663 133148995.62368703 0 133148995.62368703 129495778.94956207 0 0 0 0 282345.69429016113 2219819.2229738235 0 2219819.2229738235 707717.19296714664 0 0 0 0 105988443.87623596 44247443.494960546 0 44247443.494960546 42680327.955849648 0 0 0 0 164976686.54852295 13201008.27163887 0 13201008.27163887 27282590.635375142 0 0 0 0 112410862.73756409 50001766.232614279 0 50001766.232614279 -34628698.086544275 0 0 0 0 116717870.38616943 62844902.59139061 0 62844902.59139061 38476480.253662109 0 0 0 0 164465197.85696411 63868377.791575432 0 63868377.791575432 30664492.80589056 0 0 0 0 115666733.6455307 45242240.932250872 0 45242240.932250872 23555201.910037994 0 0 0 0 -88708863.093086243 25445805.196470261 0 25445805.196470261 -3759944.7818696499 0 0 0 0 213996262.98854065 56642299.128592849 0 56642299.128592849 -24245492.046140671 0 0 0 0 -192035.68267059326 160103005.69042063 0 160103005.69042063 -126185448.78634453 0 0 0 0 -173575.81111928262 591427.87000616826 0 591427.87000616826 62309.806377856992 0 0 0 0 164486968.66777039 104962748.55284882 0 104962748.55284882 -71140959.277123451 0 0 0 0 73000461.029922485 147891974.78151703 0 147891974.78151703 67673759.884242028 0 0 0 0 -105059973.85942078 151057677.40942717 0 151057677.40942717 67652453.23936367 0 0 0 0 55011467.227828979 225147124.29686689 0 225147124.29686689 -78304370.807722092 0 0 0 0 66173717.082550049 221600138.14629173 0 221600138.14629173 79657340.283315569 0 0 0 0 117790022.88882446 125888582.03864288 0 125888582.03864288 78562778.873788744 0 0 0 0 145946161.73701096 99335088.474923968 0 99335088.474923968 -16128554.49307251 0 0 0 0 143294214.89912415 114370698.89942646 0 114370698.89942646 71994356.786349297 0 0 0 0 146920968.32531357 188253806.34317565 0 188253806.34317565 109260089.5634203 0 0 0 0 96153079.820987701 143341703.20486164 0 143341703.20486164 222670041.07448196 0 0 0 0 190228567.33213806 154308368.14689159 0 154308368.14689159 222982316.20070317 0 0 0 0 113925.59073638916 172925410.74542427 0 172925410.74542427 280107894.69152164 0 0 0 0 87222178.515975952 175191056.85393476 0 175191056.85393476 161068299.16968298 0 0 0 0 77071638.515914917 163928729.8531189 0 163928729.8531189 170971855.98479986 0 0 0 0 70161818.163585663 147095670.64217615 0 147095670.64217615 153531478.08851337 0 0 0 0 120855410.51724243 126985874.07710171 0 126985874.07710171 86381613.75102067 0 0 0 0 113055673.80374146 114009534.67752886 0 114009534.67752886 95188475.71339035 0 0 0 0 117856904.23509216 180560480.20529747 0 180560480.20529747 155862830.01711702 0 0 0 0 137891887.51861572 147894040.77356815 0 147894040.77356815 253205676.64172161 0 0 0 0 102439382.22641754 179294383.31657171 0 179294383.31657171 247042745.57107544 0 0 0 0 137457769.5422287 202165047.72674513 0 202165047.72674513 248051928.12613165 0 0 0 0 79014006.015098572 182173352.85719824 0 182173352.85719824 244729744.39788437 0 0 0 0 29792286.111824036 189279878.03307962 0 189279878.03307962 427755275.86372757 0 0 0 0 13459446.421424866 109351028.39944839 0 109351028.39944839 910969230.85430717 0 0 0 0 601328.05508296564 -197554.46820952371 0 -197554.46820952371 -180996.9932267617 0 0 0 0 17753602.835783005 51263305.699145675 0 51263305.699145675 355204527.24619293 0 0 0 0 -2666641.2322998047 38883547.825168133 0 38883547.825168133 398424238.49461269 0 0 0 0 -213199.24913024902 127837705.9673686 0 127837705.9673686 406809190.12693977 0 0 0 0 98232097.641342163 181642289.75121593 0 181642289.75121593 383888272.74104023 0 0 0 0 265358025.74662018 266385040.24768448 0 266385040.24768448 407533870.13170195 0 0 0 0 175477329.62277985 61131393.789278984 0 61131393.789278984 418340324.52400541 0 0 0 0 -121095.95321655273 106917402.43881798 0 106917402.43881798 555035292.1937542 0 0 0 0 150917006.00672913 303951629.7090559 0 303951629.7090559 330406437.59541512 0 0 0 0 225389132.83192062 119715174.68428636 0 119715174.68428636 -450529.52553367615 0 0 0 0 115453326.18040466 19531447.535851002 0 19531447.535851002 -1502837.85962677 0 0 0 0 -288117.65242211521 -507272.33486772655 0 -507272.33486772655 385936.26405554707 0 0 0 0 2840405.9816741943 78773151.546750069 0 78773151.546750069 191564002.65752792 0 0 0 0 209082.0212020874 42283098.700307846 0 42283098.700307846 55231349.992971897 0 0 0 0 1492806.0556807443 -224202.56480277888 0 -224202.56480277888 -370872.81774040451 0 0 0 0 8855044.5825500488 -5560807.4633979797 0 -5560807.4633979797 -2234485.3185625076 0 0 0 0 -27579964.298553467 26270536.999121904 0 26270536.999121904 -18862523.838447571 0 0 0 0 110167446.17158508 13723435.83499527 0 13723435.83499527 -63768817.180886269 0 0 0 0 -44930570.567703247 3862393.0203347206 0 3862393.0203347206 42429249.885627747 0 0 0 0 7116481.0618515015 34617509.294114113 0 34617509.294114113 83276950.786104202 0 0 0 0 -8578386.6297912598 -27443190.563749313 0 -27443190.563749313 26861044.501610279 0 0 0 0 9412404.1289024353 6278392.8801412582 0 6278392.8801412582 -9230984.2280607224 0 0 0 0 -27238433.024475098 -8597595.6517591476 0 -8597595.6517591476 7890142.5125865936 0 0 0 0 -4308904.5179290771 7143039.3227024078 0 7143039.3227024078 18860893.160987854 0 0 0 0 -633187.73617562652 -862317.97644983907 0 -862317.97644983907 872662.12089068396 0 0 0 0 5969630.1523704529 8465831.8672113419 0 8465831.8672113419 -996524.48369121552 0 0 0 0 -641131.31412566826 -347922.97622909676 0 -347922.97622909676 1027154.0692258296 0 0 0 0 -14094838.395370483 -70005948.709308624 0 -70005948.709308624 -149140375.36278152 0 0 0 0 -5872267.4285964966 9696112.4977030754 0 9696112.4977030754 6613950.9503250122 0 0 0 0 12291219.241043091 30151445.561327934 0 30151445.561327934 155372277.39404774 0 0 0 0 3837414.2465820312 1018749.9100341797 0 1018749.9100341797 -2159919.9138298035 0 0 0 0 2004694.3707986996 167741.92366461176 0 167741.92366461176 -358783.01691481099 0 0 0 0 -3068613.5915527344 23260577.454823494 0 23260577.454823494 168806312.5086174 0 0 0 0 -73058266.154388428 -11447732.597419739 0 -11447732.597419739 -98753684.054145813 0 0 0 0 -604407.42673489079 -846817.29549768963 0 -846817.29549768963 1449364.158445654 0 0 0 0 -373053.85260009766 -579107.60759735107 0 -579107.60759735107 764027.66704559326 0 0 0 0 -1862652.5887169912 464882.73568529822 0 464882.73568529822 1979097.0008770898 0 0 0 0 -2403969.6593017578 -103215254.93787766 0 -103215254.93787766 -152138401.85544586 0 0 0 0 -73207689.253112793 -57651712.744950771 0 -57651712.744950771 -140093630.39933777 0 0 0 0 -28304052.906433105 -49436888.653987885 0 -49436888.653987885 -152116430.7503624 0 0 0 0 -24805508.315032959 -105388330.89388657 0 -105388330.89388657 -147281308.79611969 0 0 0 0 -66196988.79234314 -38312838.288156509 0 -38312838.288156509 -141251231.15653992 0 0 0 0 -2787810.9311004803 -440535.48207083065 0 -440535.48207083065 2984935.9038206032 0 0 0 0 -55342863.784179688 -58409845.117862701 0 -58409845.117862701 -151069881.32283783 0 0 0 0 -13566939.255493164 -67831690.274255753 0 -67831690.274255753 -134616685.55811691 0 0 0 0 315120.12574768066 -77977384.095391273 0 -77977384.095391273 -145483771.88640213 0 0 0 0 -24527914.829437256 -92923606.017711639 0 -92923606.017711639 -121802436.6906662 0 0 0 0 33413050.151641846 -72681189.308979034 0 -72681189.308979034 -137165097.91976929 0 0 0 0 42305970.198669434 38027283.40735817 0 38027283.40735817 -286816121.56414008 0 0 0 0 34448018.602996826 -88183945.281671524 0 -88183945.281671524 -130900806.3219986 0 0 0 0 78606491.814651489 -11670056.797440529 0 -11670056.797440529 -291582558.21202469 0 0 0 0 957077.22678783163 -631860.72661459446 0 -631860.72661459446 -93920.853439282859 0 0 0 0 8754982.3446044922 -27695547.493761063 0 -27695547.493761063 -183607769.22163963 0 0 0 0 69386794.359939575 -45509018.920875549 0 -45509018.920875549 -209186353.29030609 0 0 0 0 17157922.942352295 7934996.1825561523 0 7934996.1825561523 -220984101.67194223 0 0 0 0 -80659491.80078125 10004743.310089111 0 10004743.310089111 -149078698.56876945 0 0 0 0 -13759168.003051758 -20282632.305362701 0 -20282632.305362701 -175932830.11730385 0 0 0 0 -38813444.351501465 11232662.308681488 0 11232662.308681488 -203572681.46225357 0 0 0 0 -69413481.704162598 37319570.05588913 0 37319570.05588913 -184304682.67551613 0 0 0 0 22568263.714271545 -26564112.840344429 0 -26564112.840344429 -188349826.71714401 0 0 0 0 16841269.782867432 -75044608.885106087 0 -75044608.885106087 -225437563.04637527 0 0 0 0 32977088.681488037 -12055869.511739731 0 -12055869.511739731 -138576115.11581469 0 0 0 0 -1207845.2973079681 5278742.3724603653 0 5278742.3724603653 3839931.5568237305 0 0 0 0 145322.83787536621 -818492.54172945023 0 -818492.54172945023 3366440.0146870613 0 0 0 0 2516158.2261657715 -5483999.3558559418 0 -5483999.3558559418 785831.47112941742 0 0 0 0 -134825.91696166992 394990.44698143005 0 394990.44698143005 4653505.9236793518 0 0 0 0 -870890.37781507522 -527499.83120638598 0 -527499.83120638598 1225868.7029371355 0 0 0 0 139844.02737426758 627145.23332118988 0 627145.23332118988 4047744.0487518311 0 0 0 0 447409.30850249156 -142899.5878938958 0 -142899.5878938958 287802.32184381911 0 0 0 0 -597116.09047492966 -108403.35731171537 0 -108403.35731171537 1173350.7289779345 0 0 0 0 3769919.2934112549 9514793.4544010162 0 9514793.4544010162 112523677.78212166 0 0 0 0 -9471718.9805450439 59965683.375160694 0 59965683.375160694 200527409.39754295 0 0 0 0 13863963.649856567 69272546.201449394 0 69272546.201449394 133904800.5279479 0 0 0 0 23159859.678134918 92132202.239073753 0 92132202.239073753 181112886.12879562 0 0 0 0 9536044.5556182861 84169146.226045609 0 84169146.226045609 178644721.19850159 0 0 0 0 -260316.02815257758 -61795.216339934617 0 -61795.216339934617 454278.16056795651 0 0 0 0 6309065.9739837646 94208630.160301447 0 94208630.160301447 167727186.12388611 0 0 0 0 23096102.070278168 85910752.593582869 0 85910752.593582869 157933213.41321564 0 0 0 0 19962830.080444336 95493889.170171738 0 95493889.170171738 144260567.63838238 0 0 0 0 -6103381.665435791 90994384.794803143 0 90994384.794803143 197430878.28610611 0 0 0 0 1979528.2213363647 96672087.084196329 0 96672087.084196329 193443010.09889126 0 0 0 0 -17047052.383611679 90409093.31145215 0 90409093.31145215 230840597.4890728 0 0 0 0 -13211944.421096802 94583896.937105179 0 94583896.937105179 232799597.07904962 0 0 0 0 -22347036.715988159 99866871.960016251 0 99866871.960016251 351570732.74315929 0 0 0 0 12067072.007228851 147133659.45868373 0 147133659.45868373 250973705.73180389 0 0 0 0 -4700192.2868041992 15241944.066139936 0 15241944.066139936 241323178.05385017 0 0 0 0 7577608.2249908447 14785762.152108192 0 14785762.152108192 170151004.88086891 0 0 0 0 -8431176.0868377686 39784830.702485085 0 39784830.702485085 252962005.7377739 0 0 0 0 -6507391.3002624512 51818415.296415329 0 51818415.296415329 166227490.09237635 0 0 0 0 170570400.09475565 -59813384.409011126 0 -59813384.409011126 -564533858.84931755 0 0 0 0 84424399.211717606 31259937.196465492 0 31259937.196465492 -405084071.93333435 0 0 0 0 -621432.25626048073 -191929.155557313 0 -191929.155557313 809192.48427365208 0 0 0 0 -376983605.64457321 -328225563.72068214 0 -328225563.72068214 -342648312.03656054 0 0 0 0 -200168062.36837673 -675420278.98846197 0 -675420278.98846197 -775493833.1341629 0 0 0 0 157027237.24641991 -73841536.358226776 0 -73841536.358226776 -486321281.53874207 0 0 0 0 14605737.597839355 -42600005.580005646 0 -42600005.580005646 -363121611.0041008 0 0 0 0 -8840910.5589494705 -263178041.75499988 0 -263178041.75499988 -466289821.8158226 0 0 0 0 111727446.83223343 -180598283.10103798 0 -180598283.10103798 -660464598.08217192 0 0 0 0 91814667.937599182 -29894331.922866821 0 -29894331.922866821 -329937149.75399399 0 0 0 0 88898167.570625305 -156365619.3578434 0 -156365619.3578434 -214114597.25461578 0 0 0 0 106739893.00149536 57516790.989448547 0 57516790.989448547 -64733149.173675537 0 0 0 0 101469939.12037301 -69876133.020302773 0 -69876133.020302773 115000319.74109268 0 0 0 0 161835293.90054321 -113680809.95113373 0 -113680809.95113373 -413829890.44598389 0 0 0 0 -175976160.73117399 118944132.68060398 0 118944132.68060398 50516846.510541201 0 0 0 0 189157892.2622261 106360636.77745247 0 106360636.77745247 34605049.508070946 0 0 0 0 -35131260.625497699 160915181.55009174 0 160915181.55009174 137207325.08103943 0 0 0 0 79126049.064234614 183916907.36011016 0 183916907.36011016 -393410942.0619545 0 0 0 0 -30970374.497135162 308243233.41606903 0 308243233.41606903 -88134277.58488369 0 0 0 0 -283777.81014109903 973600.66815165337 0 973600.66815165337 29331.602282058448 0 0 0 0 586644657.67704606 -98188635.795199871 0 -98188635.795199871 -463524513.71883106 0 0 0 0 -94466101.844213486 -99596901.32630682 0 -99596901.32630682 -184750828.44008493 0 0 0 0 -44682538.120339394 -84469893.90147543 0 -84469893.90147543 -425266448.02667999 0 0 0 0 64063310.680641174 23447845.511553764 0 23447845.511553764 -413682481.97621667 0 0 0 0 -5039514.0902564526 -14635339.63014555 0 -14635339.63014555 -152777942.76594019 0 0 0 0 -1309024.219959165 246794.99033616541 0 246794.99033616541 1540154.0973263402 0 0 0 0 -928288.03590961639 418476.17404519371 0 418476.17404519371 1130815.0988392648 0 0 0 0 -994886.17016792297 -61241854.053096056 0 -61241854.053096056 19778889.937709995 0 0 0 0 263960697.13219452 144787021.58779192 0 144787021.58779192 18494164.977054358 0 0 0 0 -1171391.1815455104 -127499.21203845553 0 -127499.21203845553 1431971.721931386 0 0 0 0 48516896.772528648 -168293079.95543098 0 -168293079.95543098 -553438924.30355263 0 0 0 0 241012388.33677101 231273801.60636568 0 231273801.60636568 329801714.03085518 0 0 0 0 434081450.93890381 429567667.58906174 0 429567667.58906174 524383190.19864941 0 0 0 0 470780147.58613777 225440725.94046366 0 225440725.94046366 161171763.41040754 0 0 0 0 697507076.40960121 637530346.82726145 0 637530346.82726145 314557404.92567867 0 0 0 0 392560950.98308563 272787758.46937537 0 272787758.46937537 259884054.58436003 0 0 0 0 340047174.16559219 244710285.74673557 0 244710285.74673557 263056489.89142385 0 0 0 0 -812024785.67026854 -53011012.536090255 0 -53011012.536090255 223655404.95328903 0 0 0 0 368343933.65484619 160275346.02212405 0 160275346.02212405 210330470.20932174 0 0 0 0 -1148037844.2174616 798278266.33335018 0 798278266.33335018 -1009595140.0703073 0 0 0 0 -633001.43440539204 215061.07110412605 0 215061.07110412605 806109.74907316139 0 0 0 0 -859941787.26141739 402861745.47287381 0 402861745.47287381 -23694819.598355293 0 0 0 0 504792835.23675537 180139427.66104889 0 180139427.66104889 174218991.22873664 0 0 0 0 -664448519.24469376 -711029649.37605357 0 -711029649.37605357 1250457625.054924 0 0 0 0 -1081096890.2551842 -11808153.191416502 0 -11808153.191416502 249040579.83515358 0 0 0 0 420382126.78273809 -422514891.78039628 0 -422514891.78039628 105062889.4336133 0 0 0 0 469591734.06607056 480656874.45043325 0 480656874.45043325 43163231.004527569 0 0 0 0 488318524.63201141 263181328.92088652 0 263181328.92088652 233885778.15541363 0 0 0 0 496597029.37599182 259532000.03958368 0 259532000.03958368 172091324.95165348 0 0 0 0 437780220.77257538 328274449.46407223 0 328274449.46407223 147705612.09260511 0 0 0 0 -1656198.4223161619 537390.55518565094 0 537390.55518565094 1121289.9937374555 0 0 0 0 588929167.80488968 337336855.35614395 0 337336855.35614395 171949329.38291454 0 0 0 0 9083531.6662022583 12754342.37784104 0 12754342.37784104 6049039.4718554029 0 0 0 0 -25982754.419992447 94007814.301869243 0 94007814.301869243 -109612426.49726236 0 0 0 0 14306222.803227425 5857700.842223227 0 5857700.842223227 -44632677.843438029 0 0 0 0 -30035021.796390533 84792519.692639202 0 84792519.692639202 -129672003.48611581 0 0 0 0 -76542069.338973999 363725010.96984136 0 363725010.96984136 -444642654.20698106 0 0 0 0 -121442774.0514946 195833715.4946959 0 195833715.4946959 -188693159.96272197 0 0 0 0 1383489.3880524309 1293490.323873932 0 1293490.323873932 37925.81182285145 0 0 0 0 -2667419.5783843994 -26952655.452601403 0 -26952655.452601403 40946643.31216234 0 0 0 0 100956632.41813278 149552764.05520555 0 149552764.05520555 -243682819.17067105 0 0 0 0 90348354.363296509 13252914.559696078 0 13252914.559696078 -152770177.5956237 0 0 0 0 -66252220.604115486 32760838.931001425 0 32760838.931001425 16597254.339111328 0 0 0 0 8915784.5057239197 12726131.210935391 0 12726131.210935391 5058965.8260802347 0 0 0 0 -62282364.168830872 19392750.931417465 0 19392750.931417465 28276629.058246613 0 0 0 0 -50526512.89538002 9003770.3762969971 0 9003770.3762969971 33193941.445663452 0 0 0 0 -47304700.313751221 16013147.345287323 0 16013147.345287323 -4671428.4371738434 0 0 0 0 4599802.5839311555 3734795.3888475318 0 3734795.3888475318 -506423.54680250253 0 0 0 0 -149330238.43481445 435395043.92606354 0 435395043.92606354 300754212.65216064 0 0 0 0 27694770.574630737 6706810.1505606174 0 6706810.1505606174 57736932.417052031 0 0 0 0 33954337.672550201 10628096.445038795 0 10628096.445038795 -2801902.818145752 0 0 0 0 7717451.8668576358 14010238.374768127 0 14010238.374768127 -610273.8762776535 0 0 0 0 28793126.712631226 140568140.8671751 0 140568140.8671751 -331283252.60370111 0 0 0 0 -325291177.87272072 -245079444.37216282 0 -245079444.37216282 -82466741.316912651 0 0 0 0 6839438.021135617 1025224.8352277791 0 1025224.8352277791 -350718.10659194551 0 0 0 0 -33031988.311912537 -188463.15176010132 0 -188463.15176010132 4974403.7013902664 0 0 0 0 -41425762.40537262 -9297846.8805341721 0 -9297846.8805341721 12614927.420917511 0 0 0 0 -51861412.743370056 -7721647.5528182983 0 -7721647.5528182983 13765285.894012451 0 0 0 0 726188387.0085144 703084498.51252842 0 703084498.51252842 329770143.26388454 0 0 0 0 82502858.222576141 -703376382.90928841 0 -703376382.90928841 -1167379662.4794655 0 0 0 0 1095928000.223938 558746594.34511185 0 558746594.34511185 -133907861.39293289 0 0 0 0 953209420.09379578 319713404.08432961 0 319713404.08432961 -112966828.49706268 0 0 0 0 610877921.72097015 260986259.67725849 0 260986259.67725849 -86819056.810188293 0 0 0 0 1079012476.6952744 -87373990.851669312 0 -87373990.851669312 -352507763.05013275 0 0 0 0 1312704751.2833405 233236480.78254318 0 233236480.78254318 -332397078.53697205 0 0 0 0 491900822.02928162 227571969.43134689 0 227571969.43134689 -33551914.416175842 0 0 0 0 842300274.42318726 519162788.62413025 0 519162788.62413025 145783155.50644684 0 0 0 0 535505182.43975067 271081070.21811676 0 271081070.21811676 127113032.94417 0 0 0 0 34786129.368413925 -20563324.011383772 0 -20563324.011383772 75130989.7266922 0 0 0 0 -240406567.39434814 684640013.57389355 0 684640013.57389355 207979748.57187444 0 0 0 0 81320185.956718445 -30560822.073389053 0 -30560822.073389053 -177420148.04901123 0 0 0 0 -1058643.1493813442 310982.00808318425 0 310982.00808318425 713637.02009619866 0 0 0 0 464055368.57380676 256683628.34029198 0 256683628.34029198 1075393.7677078247 0 0 0 0 86562665.781982422 165435488.70085526 0 165435488.70085526 147785323.6394825 0 0 0 0 117423690.30844879 137649774.07254601 0 137649774.07254601 -338456631.02568436 0 0 0 0 202503320.68886566 138487731.01414299 0 138487731.01414299 -132065924.61269927 0 0 0 0 302119609.41472626 22594121.593301773 0 22594121.593301773 -151877516.42074394 0 0 0 0 400050792.69028091 58848030.350647926 0 58848030.350647926 -329513049.60140228 0 0 0 0 401226926.25621796 78108787.947849274 0 78108787.947849274 -164869450.96725464 0 0 0 0 2628284.9520991948 837862.53933659475 0 837862.53933659475 -381121.68895861227 0 0 0 0 515887547.63455963 162371691.72906876 0 162371691.72906876 -479538141.6263504 0 0 0 0 26260111.274517059 83801282.334014893 0 83801282.334014893 -337355363.65294373 0 0 0 0 357076072.11767673 179455593.77916288 0 179455593.77916288 -117505487.14767838 0 0 0 0 123655857.23265457 -32752661.687821388 0 -32752661.687821388 -450581757.75661182 0 0 0 0 183773268.21141434 74019067.933062553 0 74019067.933062553 -338846322.06288147 0 0 0 0 396022697.70519257 77382621.02196312 0 77382621.02196312 -416883050.16017914 0 0 0 0 301485349.48131132 6894806.8687134981 0 6894806.8687134981 -575755828.22590637 0 0 0 0 306317484.71765184 -101221610.67150724 0 -101221610.67150724 -707333157.36592865 0 0 0 0 205045075.63313293 -153954869.49147034 0 -153954869.49147034 -798167292.49341965 0 0 0 0 227023260.29199982 107588917.65038395 0 107588917.65038395 -942859030.26633453 0 0 0 0 463870067.44642639 -119422955.44470596 0 -119422955.44470596 -151565011.09542847 0 0 0 0 144099053.6889801 90654701.511657715 0 90654701.511657715 -289574003.03884888 0 0 0 0 580862635.19252014 306951181.20694733 0 306951181.20694733 -288947022.28308296 0 0 0 0 126492458.46969604 -283666881.8382206 0 -283666881.8382206 -876790622.04824829 0 0 0 0 374544765.1739502 -137765266.7297554 0 -137765266.7297554 -1327988573.1476278 0 0 0 0 141153578.0344162 -21576643.506069183 0 -21576643.506069183 -522069746.43230438 0 0 0 0 24409071.035478592 -100000016.71467304 0 -100000016.71467304 -221285322.16230011 0 0 0 0 109132166.10783386 -93434011.973335266 0 -93434011.973335266 -509867964.63298893 0 0 0 0 117022155.55101013 -14854097.131896973 0 -14854097.131896973 -188236182.40667725 0 0 0 0 77143511.171636581 -18608447.535305977 0 -18608447.535305977 -151134248.26131058 0 0 0 0 102105934.31599426 -94158760.62351799 0 -94158760.62351799 -226243523.66650677 0 0 0 0 94597262.974888802 -66869005.869068146 0 -66869005.869068146 -13600524.395797729 0 0 0 0 83847377.419778824 -112013164.82409286 0 -112013164.82409286 27508765.126436234 0 0 0 0 137977436.04885101 -66601489.938476562 0 -66601489.938476562 -81724529.627386093 0 0 0 0 106769748.51083183 -52697082.221031189 0 -52697082.221031189 -56728478.645240784 0 0 0 0 158066276.22334719 4134286.0383622646 0 4134286.0383622646 92596356.059589386 0 0 0 0 93903891.05459404 -71041164.150657654 0 -71041164.150657654 48000866.608692169 0 0 0 0 1180044.2599205091 9661415.4727510288 0 9661415.4727510288 5462667.6364069693 0 0 0 0 1532568.8123254776 26091244.47444725 0 26091244.47444725 8497249.8433227539 0 0 0 0 100031399.43993568 -86624262.806554794 0 -86624262.806554794 60299938.517539978 0 0 0 0 78827083.368783951 -52792889.103088379 0 -52792889.103088379 24215877.045238495 0 0 0 0 -26350603.349182129 -16199836.546636581 0 -16199836.546636581 -3922063.3462827802 0 0 0 0 2195627.5775174769 329235.99428489897 0 329235.99428489897 -118233.31116073672 0 0 0 0 -41563635.971832275 -22527377.02645874 0 -22527377.02645874 -3675002.5732765198 0 0 0 0 63376477.436004639 19774723.483449936 0 19774723.483449936 -619365.7474694252 0 0 0 0 1934403.7738876343 23413451.256839752 0 23413451.256839752 15940127.563407898 0 0 0 0 2876158.2854717844 10631719.046082441 0 10631719.046082441 -5541033.7417649077 0 0 0 0 49604529.126070023 -12055012.16848135 0 -12055012.16848135 -9096025.8102912903 0 0 0 0 -21981741.420274734 24164573.735997677 0 24164573.735997677 -64975678.997680664 0 0 0 0 -15786632.571861267 123833176.91411209 0 123833176.91411209 30168275.680149078 0 0 0 0 -12979550.590484619 47513347.071910858 0 47513347.071910858 -1535221.3310928345 0 0 0 0 20442967.489303589 42301377.575145721 0 42301377.575145721 -45788617.400337219 0 0 0 0 9324269.8890304565 48448733.202194214 0 48448733.202194214 -47891146.228717804 0 0 0 0 61948459.937866211 48373772.554840088 0 48373772.554840088 17136570.968505859 0 0 0 0 56119540.486328125 118407807.43800354 0 118407807.43800354 12023235.328826904 0 0 0 0 32520820.836359024 59009972.186862946 0 59009972.186862946 45986155.142555237 0 0 0 0 1686348.3745909911 8681008.2715491392 0 8681008.2715491392 -5780704.4469594005 0 0 0 0 78630246.252815247 109172950.71861267 0 109172950.71861267 134460184.09120178 0 0 0 0 130480.16482733004 60999.729293543845 0 60999.729293543845 -210938.24921927415 0 0 0 0 57605025.386035919 10070937.992684364 0 10070937.992684364 60587263.026344299 0 0 0 0 11669370.831207275 35554673.805994034 0 35554673.805994034 46540836.837387085 0 0 0 0 81177813.951583862 47509464.612859726 0 47509464.612859726 18907822.788169861 0 0 0 0 51321250.213523865 72061188.580066681 0 72061188.580066681 1475462.7136077881 0 0 0 0 10971757.6889534 30016784.078086853 0 30016784.078086853 51635313.369498253 0 0 0 0 21217995.724514246 19604884.082647324 0 19604884.082647324 9616514.5992126465 0 0 0 0 -4600518.8885631561 24275637.927188873 0 24275637.927188873 35309997.918693542 0 0 0 0 -5077929.8598918915 -3184807.0304870605 0 -3184807.0304870605 -11118129.005393982 0 0 0 0 -25646408.683921814 4851982.4372291565 0 4851982.4372291565 18756276.965270996 0 0 0 0 -16281480.241019368 -1871455.1016020775 0 -1871455.1016020775 23482852.176071167 0 0 0 0 -9022354.0868017673 31801364.201846123 0 31801364.201846123 61325597.23223114 0 0 0 0 -9831041.8520679474 50999055.520629883 0 50999055.520629883 64359670.273757935 0 0 0 0 -47573830.379062653 -22624015.315193176 0 -22624015.315193176 34954866.054576874 0 0 0 0 33019147.655544281 46025122.886238098 0 46025122.886238098 40819643.917366028 0 0 0 0 27999047.832294464 78520388.691062927 0 78520388.691062927 150439523.19476318 0 0 0 0 65425436.649642944 42455426.081726074 0 42455426.081726074 51821479.632392883 0 0 0 0 79435086.591941833 104703483.47666931 0 104703483.47666931 113121888.41644287 0 0 0 0 106854480.11241531 157751952.13919449 0 157751952.13919449 154582122.98638916 0 0 0 0 -482098.77507174714 202156.76844590902 0 202156.76844590902 596377.16000505537 0 0 0 0 1167612.4532956036 6580407.2426294927 0 6580407.2426294927 3473866.8732028604 0 0 0 0 27514180.056959152 -4082052.1032428741 0 -4082052.1032428741 65225439.825454712 0 0 0 0 -15866526.441773415 4004976.8970718384 0 4004976.8970718384 12252526.132966995 0 0 0 0 -17966015.017985344 5786163.6531953812 0 5786163.6531953812 13118971.784248352 0 0 0 0 851900.34966633259 2231938.0219361177 0 2231938.0219361177 853962.31235018931 0 0 0 0 -20108645.419418335 -9918053.530040741 0 -9918053.530040741 3321229.9190063477 0 0 0 0 68432336.40701437 -75249373.967708588 0 -75249373.967708588 78714827.997020721 0 0 0 0 393069.65478965227 2244767.5386332711 0 2244767.5386332711 3206761.9816501122 0 0 0 0 413867083.73994923 155079657.17938232 0 155079657.17938232 75681443.642150879 0 0 0 0 555523732.69510937 357043641.29017067 0 357043641.29017067 -63457164.795902252 0 0 0 0 3285290.343778789 747835.4726874195 0 747835.4726874195 -130551.92889268603 0 0 0 0 527707379.33910942 109298797.77850342 0 109298797.77850342 30048950.641149521 0 0 0 0 990590349.39960861 337510396.41757774 0 337510396.41757774 331038103.96800041 0 0 0 0 1152748186.5482893 305802643.14458084 0 305802643.14458084 -83962247.083349228 0 0 0 0 -219346.9419861497 904072.11275473004 0 904072.11275473004 133336.38173852488 0 0 0 0 904711581.67047453 948407906.45695829 0 948407906.45695829 363883286.54408264 0 0 0 0 420241181.71143627 -40528271.712587833 0 -40528271.712587833 1154055113.9046898 0 0 0 0 996097.40332696051 113294.64119538292 0 113294.64119538292 118611.3546883259 0 0 0 0 89220568.380580902 -297296150.96828461 0 -297296150.96828461 518363567.78096008 0 0 0 0 88307580.050325394 -25283736.970930099 0 -25283736.970930099 68262086.49671936 0 0 0 0 51698888.066939354 -58257014.788420677 0 -58257014.788420677 38777035.156139374 0 0 0 0 65926032.97512579 -81407881.440536976 0 -81407881.440536976 163795361.95344162 0 0 0 0 191405093.78495789 -153197742.78182793 0 -153197742.78182793 63336472.78531456 0 0 0 0 263458491.66089439 -18672684.247104645 0 -18672684.247104645 -53862798.479507446 0 0 0 0 816880583.52550888 -358175511.8987484 0 -358175511.8987484 -50500804.513988495 0 0 0 0 948661820.12568903 -39310555.399909019 0 -39310555.399909019 -294461447.63912582 0 0 0 0 574553122.65549362 178154780.03718519 0 178154780.03718519 -346073600.20426559 0 0 0 0 478344110.2359848 -153121991.29551315 0 -153121991.29551315 -91486110.565074921 0 0 0 0 304265374.96456528 283093315.74132538 0 283093315.74132538 26132797.687289238 0 0 0 0 567872784.75466871 270171100.85489273 0 270171100.85489273 -181747839.9253273 0 0 0 0 288548589.90811932 29532459.575954974 0 29532459.575954974 -123377934.48716736 0 0 0 0 81968945.114990234 -103504679.63383484 0 -103504679.63383484 -51997555.50812149 0 0 0 0 144489002.37574768 10523165.216724396 0 10523165.216724396 -88610171.809120178 0 0 0 0 43366246.1451931 -97880612.37797451 0 -97880612.37797451 -149854891.23243713 0 0 0 0 158869820.99864578 -12131349.169082642 0 -12131349.169082642 -52926092.340297699 0 0 0 0 74398647.92664063 368408498.53279066 0 368408498.53279066 350478466.56589127 0 0 0 0 -26498428.802975655 -85605752.569125175 0 -85605752.569125175 581087971.28730583 0 0 0 0 450736854.52350235 299687369.37602806 0 299687369.37602806 151480612.89830971 0 0 0 0 -477975.49647660257 1781028.6889990747 0 1781028.6889990747 124271.88498980086 0 0 0 0 -125844762.31820107 568227171.64406204 0 568227171.64406204 198720522.75331497 0 0 0 0 -502189.04797978257 438524.72038762318 0 438524.72038762318 -971.5709683559835 0 0 0 0 -109401282.60471295 799972070.4416858 0 799972070.4416858 -330253040.49785233 0 0 0 0 -536307617.13534141 178642767.67612076 0 178642767.67612076 149281514.0643177 0 0 0 0 201727193.63697663 262460804.01489338 0 262460804.01489338 -498472175.57801056 0 0 0 0 1024762995.0825078 455462345.96037912 0 455462345.96037912 -27644538.365325928 0 0 0 0 209658813.88784838 13127256.204000473 0 13127256.204000473 66213530.866494656 0 0 0 0 53540521.103066444 224570059.8492012 0 224570059.8492012 427241841.56145477 0 0 0 0 228255957.16006184 90493997.297199249 0 90493997.297199249 359087012.90340614 0 0 0 0 -4376344.5992984772 28788365.33908844 0 28788365.33908844 22029266.137907028 0 0 0 0 -298474125.65020597 161673231.61273813 0 161673231.61273813 231583553.69848633 0 0 0 0 -21891464.964053631 -10353771.34218359 0 -10353771.34218359 69579686.367267609 0 0 0 0 -251266783.45250607 206984267.94431496 0 206984267.94431496 -177639353.11718893 0 0 0 0 -3252478.4868159215 800913.1288563027 0 800913.1288563027 993713.91278132051 0 0 0 0 -590925141.11074495 555529010.89533043 0 555529010.89533043 -128302108.69297123 0 0 0 0 -9509468.2482795306 452545.29385661567 0 452545.29385661567 4271305.1848023478 0 0 0 0 -23692481.526597023 -5249327.0224723816 0 -5249327.0224723816 3428742.0514812469 0 0 0 0 -10526261.454101562 55528321.457941055 0 55528321.457941055 62142522.674919128 0 0 0 0 82167079.92137146 122299654.21433067 0 122299654.21433067 96853603.08344841 0 0 0 0 -8705693.0341369472 12006302.254482182 0 12006302.254482182 4949639.6749211578 0 0 0 0 -30067083.137660027 -6503603.9703731537 0 -6503603.9703731537 22581707.670852661 0 0 0 0 -12141963.219377995 5788428.8998432159 0 5788428.8998432159 5505804.1361038685 0 0 0 0 -29447362.853914261 26804834.536268234 0 26804834.536268234 40921948.562175751 0 0 0 0 -21437523.137827396 50921762.561725616 0 50921762.561725616 16055742.77033329 0 0 0 0 -15414414.030328751 50741973.815690041 0 50741973.815690041 -12870816.930261612 0 0 0 0 -5806126.9281764524 4139155.36495966 0 4139155.36495966 4338379.2706065904 0 0 0 0 -31353478.291358411 50120883.746160507 0 50120883.746160507 127986873.50304794 0 0 0 0 -49243038.922415972 103869152.14084625 0 103869152.14084625 90902788.297173977 0 0 0 0 -49472821.793433428 112457409.81863499 0 112457409.81863499 254548084.73033333 0 0 0 0 -16050430.261358857 33969704.447186947 0 33969704.447186947 67553377.014867783 0 0 0 0 -31428692.855116367 -5421844.9755964279 0 -5421844.9755964279 156828145.08537865 0 0 0 0 -10822533.834533691 13645539.005042553 0 13645539.005042553 2872077.9529973269 0 0 0 0 -11993520.09250496 1681924.8298792299 0 1681924.8298792299 3748049.1273811287 0 0 0 0 120296732.52783203 4962298.9329948425 0 4962298.9329948425 -76006965.101289749 0 0 0 0 -58765913.927633286 -78114697.330378652 0 -78114697.330378652 240081017.0453434 0 0 0 0 -46174545.804656982 -8644198.5417261124 0 -8644198.5417261124 151509428.54708672 0 0 0 0 35971006.123049259 -164764958.93872955 0 -164764958.93872955 278721686.47152519 0 0 0 0 -46072599.513153076 -52711440.931867599 0 -52711440.931867599 394544434.69687366 0 0 0 0 -75391105.234649658 -88492839.34335947 0 -88492839.34335947 446280741.90698624 0 0 0 0 -83417030.431747437 -18407455.519803047 0 -18407455.519803047 268943568.03556156 0 0 0 0 -73853165.860519409 12516793.645702362 0 12516793.645702362 248628520.40278149 0 0 0 0 -103246054.76797485 -34220397.198099136 0 -34220397.198099136 343998540.22963333 0 0 0 0 -30775312.972618103 -58465623.314677715 0 -58465623.314677715 87456444.668743134 0 0 0 0 -22978417.25932312 14964494.186677933 0 14964494.186677933 45760001.648442268 0 0 0 0 -12112140.834209012 4191317.7922225483 0 4191317.7922225483 4794423.7560607251 0 0 0 0 -27480531.267425537 -19333503.56503582 0 -19333503.56503582 46507310.202720642 0 0 0 0 -26701103.119018555 43638195.377494812 0 43638195.377494812 121108498.86662388 0 0 0 0 -73976930.235689163 8764701.2918412387 0 8764701.2918412387 173620936.72961044 0 0 0 0 -97102785.575164795 86382106.022406101 0 86382106.022406101 295877270.24825621 0 0 0 0 -94272421.704666138 84613086.669610977 0 84613086.669610977 167153754.47835588 0 0 0 0 -1684336.0232086182 89459296.952714443 0 89459296.952714443 138956494.15088415 0 0 0 0 -29326682.255796909 18669009.386295795 0 18669009.386295795 32963638.715316772 0 0 0 0 -23876853.366492748 22132811.960475922 0 22132811.960475922 295880.21570396423 0 0 0 0 -9870644.0394349769 13615345.120720468 0 13615345.120720468 3786126.4714232329 0 0 0 0 -31656259.638336182 4074191.8557548523 0 4074191.8557548523 32961080.153055567 0 0 0 0 -36207881.946929932 -2637327.0658988953 0 -2637327.0658988953 37914652.508243561 0 0 0 0 -29046017.967220306 18282837.977760315 0 18282837.977760315 88166686.811073303 0 0 0 0 -12784568.691221599 11520622.910412645 0 11520622.910412645 8128041.6880758414 0 0 0 0 24506943.538459778 18277490.74566102 0 18277490.74566102 -2552601.8002500534 0 0 0 0 3229993.5503997803 1308863.1974320412 0 1308863.1974320412 14984482.56792593 0 0 0 0 -14971404.39080596 8459420.4496955127 0 8459420.4496955127 8143368.7006632099 0 0 0 0 -18202245.68277359 18332932.139117718 0 18332932.139117718 1952776.9094142914 0 0 0 0 2667548.4729232788 5049656.1773529053 0 5049656.1773529053 7221273.8830566406 0 0 0 0 -12407343.073348999 -473656.47615242004 0 -473656.47615242004 21749219.084401369 0 0 0 0 -25116363.266868591 -5343327.4172685146 0 -5343327.4172685146 9569172.6496303082 0 0 0 0 5344667.4960403442 16585545.352092862 0 16585545.352092862 -18650013.591836452 0 0 0 0 2871468.6161419414 3573888.1225950196 0 3573888.1225950196 13259.44373054395 0 0 0 0 -6665106.021150589 4810550.3132965192 0 4810550.3132965192 -1188010.9982180595 0 0 0 0 -26396395.075478077 20611697.327426828 0 20611697.327426828 2775037.5927524567 0 0 0 0 -6463503.9721069336 1431695.0478154421 0 1431695.0478154421 -643489.03642749786 0 0 0 0 -15499777.133705139 7796322.8345756531 0 7796322.8345756531 10837660.601039886 0 0 0 0 -6289463.6755218506 7351369.0288565159 0 7351369.0288565159 5302321.1206588745 0 0 0 0 -19481842.856723785 13447406.956345797 0 13447406.956345797 9257002.7253217697 0 0 0 0 31694419.824951172 13449219.863092422 0 13449219.863092422 8143007.3350658417 0 0 0 0 -41048367.997665405 30157003.524620891 0 30157003.524620891 13023212.847212851 0 0 0 0 -36877478.672008514 14592054.999658108 0 14592054.999658108 8457634.9445836544 0 0 0 0 -841917.82949238643 -272805.89591784403 0 -272805.89591784403 204180.02746375283 0 0 0 0 -14646246.253845215 -1691812.6663222313 0 -1691812.6663222313 -2222600.9916987419 0 0 0 0 -33461206.618713379 -16105497.536193371 0 -16105497.536193371 2387968.457636416 0 0 0 0 -9312119.1464489084 8856128.8367227577 0 8856128.8367227577 3574220.8532592277 0 0 0 0 -3794706.856842041 2285139.5531653166 0 2285139.5531653166 -665219.90521860123 0 0 0 0 -308401.34226121567 6194991.350600997 0 6194991.350600997 1630554.5950531492 0 0 0 0 -3619954.0818786621 1856069.0429199934 0 1856069.0429199934 8616.5863409042358 0 0 0 0 -349936.28294270672 5093787.0007849708 0 5093787.0007849708 3556719.588600555 0 0 0 0 497122.4319731947 5492759.1642192956 0 5492759.1642192956 -799499.0094995636 0 0 0 0 -3043566.0585434735 1672156.7205396034 0 1672156.7205396034 -437889.53584611521 0 0 0 0 13891766.762878418 2321575.8025979996 0 2321575.8025979996 1590650.2365064621 0 0 0 0 971259.21114785969 192351.16579075996 0 192351.16579075996 -260807.26351378474 0 0 0 0 28908529.233747482 44639515.377519518 0 44639515.377519518 -7064565.3693816662 0 0 0 0 -10650376.233589172 30661916.870099545 0 30661916.870099545 -32711568.92927897 0 0 0 0 -1976155.9285392761 8410906.8945357203 0 8410906.8945357203 24345538.937600374 0 0 0 0 -56150315.127326965 -13804627.049701273 0 -13804627.049701273 11222051.713414192 0 0 0 0 -713760.2113571167 -12352044.359424919 0 -12352044.359424919 18444817.564071655 0 0 0 0 -40904693.022155762 28641375.74579978 0 28641375.74579978 28739904.234383553 0 0 0 0 -10717221.393169086 11965212.2872467 0 11965212.2872467 7088368.4344735565 0 0 0 0 35103301.491996765 5879847.5419359207 0 5879847.5419359207 16592901.682406425 0 0 0 0 -12769472.62887001 7975992.1890554428 0 7975992.1890554428 20962422.376188278 0 0 0 0 8678007.9674999714 53238086.168922663 0 53238086.168922663 4573803.5825386047 0 0 0 0 -4838337.1652145386 48606588.746438026 0 48606588.746438026 4503315.7552886009 0 0 0 0 39943526.785712242 88584050.495496273 0 88584050.495496273 10320027.311984062 0 0 0 0 72202319.608234406 47752040.014753342 0 47752040.014753342 1298640.8449749947 0 0 0 0 1075673.348890835 -40219.912671617232 0 -40219.912671617232 -1054602.7809812245 0 0 0 0 18682133.8418293 -2140335.9588932991 0 -2140335.9588932991 -4014363.6599683762 0 0 0 0 109911340.10478818 -17556785.162605643 0 -17556785.162605643 -1809693.571105957 0 0 0 0 27860222.569890976 35147021.488106251 0 35147021.488106251 5500360.471157074 0 0 0 0 18627847.675052643 33455048.623356342 0 33455048.623356342 5300052.844843626 0 0 0 0 5406780.5101890564 51013279.998375893 0 51013279.998375893 59992886.345344067 0 0 0 0 74157591.493689537 69256496.088631272 0 69256496.088631272 24889310.284479141 0 0 0 0 24185132.016677856 38084356.259097457 0 38084356.259097457 -12477893.232170582 0 0 0 0 -8420462.1357332971 12825779.077579552 0 12825779.077579552 6465237.6549113607 0 0 0 0 -9835723.4594292641 23422576.881100297 0 23422576.881100297 35970650.867358208 0 0 0 0 10392027.473495483 37017923.703774929 0 37017923.703774929 13994087.543931961 0 0 0 0 19053054.346792221 47832247.012568951 0 47832247.012568951 23330893.540570259 0 0 0 0 -24525121.174049377 9139563.7804555893 0 9139563.7804555893 16716062.901569843 0 0 0 0 -5025824.1256047199 13906835.676543102 0 13906835.676543102 5805158.403686245 0 0 0 0 -8045091.5780181885 19766751.22786665 0 19766751.22786665 11516060.333272934 0 0 0 0 13409669.634963989 39471262.184897184 0 39471262.184897184 6810714.3487539291 0 0 0 0 -21443989.700836182 21139498.985333204 0 21139498.985333204 21991480.861760616 0 0 0 0 37440906.245910645 17449881.690894127 0 17449881.690894127 574520.39131355286 0 0 0 0 -32874722.535881042 -8581961.1807203293 0 -8581961.1807203293 -96203.140216350555 0 0 0 0 -13303882.145586461 7097288.1723942719 0 7097288.1723942719 4532709.9140880769 0 0 0 0 -18455660.374664307 -20832817.902363896 0 -20832817.902363896 8877445.5004652739 0 0 0 0 -578772.76212787023 -210371.34721201472 0 -210371.34721201472 95833.951115048636 0 0 0 0 28620715.015071869 134525024.57096052 0 134525024.57096052 -26425646.510491371 0 0 0 0 81016676.558164567 203994879.00206316 0 203994879.00206316 -206308541.75330448 0 0 0 0 22789132.815604091 128297632.9677763 0 128297632.9677763 3935455.0495767593 0 0 0 0 24301830.767953873 236082445.12651324 0 236082445.12651324 48019147.716243744 0 0 0 0 -14022266.903222084 86669713.129739285 0 86669713.129739285 62492400.727117538 0 0 0 0 -14905914.197241306 98206318.011809826 0 98206318.011809826 32521476.485581398 0 0 0 0 -3126657.5875816345 68400874.784264565 0 68400874.784264565 76519485.593388081 0 0 0 0 16347619.158660561 46681767.007798672 0 46681767.007798672 -63967434.094749451 0 0 0 0 -31755933.878026962 87268055.190825462 0 87268055.190825462 20227244.353286743 0 0 0 0 9108156.6384789944 41469072.340521574 0 41469072.340521574 -60221357.622198105 0 0 0 0 2690786.0785166621 -71487.899435403757 0 -71487.899435403757 -2690149.4972977433 0 0 0 0 5788742.9483876228 43471060.254740953 0 43471060.254740953 -60964037.860792756 0 0 0 0 9941040.7890558243 26364980.368899584 0 26364980.368899584 -72723244.413632631 0 0 0 0 48464715.464215875 38353581.117095947 0 38353581.117095947 -71367816.389965534 0 0 0 0 49638107.015005469 11957041.690706253 0 11957041.690706253 -168737634.60747242 0 0 0 0 60969256.304942936 25969435.834535956 0 25969435.834535956 -155840453.62418365 0 0 0 0 -12518522.812930822 -35416631.403407812 0 -35416631.403407812 -67013899.575416088 0 0 0 0 1112788.4197764695 2114708.56921947 0 2114708.56921947 -35927505.222681999 0 0 0 0 -1037250.125097307 661071.2239583669 0 661071.2239583669 1627614.695922544 0 0 0 0 16723919.029996872 21599629.672930598 0 21599629.672930598 24608551.154160678 0 0 0 0 15260769.54304409 25426155.548214495 0 25426155.548214495 18754042.689716667 0 0 0 0 16046920.429764748 -3789070.3528757095 0 -3789070.3528757095 2125301.3256874084 0 0 0 0 4443352.333147943 7319696.0431127548 0 7319696.0431127548 12138254.454490662 0 0 0 0 28162927.07946229 9614897.680385828 0 9614897.680385828 1631083.6634368896 0 0 0 0 25822257.141542435 17740615.391565323 0 17740615.391565323 8006125.5102844238 0 0 0 0 539855.21939659119 20047552.119106293 0 20047552.119106293 47286851.809986115 0 0 0 0 -14983.854791169928 13925.029877748806 0 13925.029877748806 -4742.0428321100771 0 0 0 0 1814099.6307141483 -4629499.178968206 0 -4629499.178968206 -35490623.830440044 0 0 0 0 4215427.2792572901 -99733.421459471108 0 -99733.421459471108 -4319994.9167905143 0 0 0 0 7647424.6955838203 -1457519.2454843521 0 -1457519.2454843521 -7015554.1305327415 0 0 0 0 21211704.135557175 -5360852.6678586006 0 -5360852.6678586006 -6284702.4776649475 0 0 0 0 9353571.3493847847 4338600.085501492 0 4338600.085501492 -15016537.448287487 0 0 0 0 14759088.063268661 -453079.10875093937 0 -453079.10875093937 -11984192.688682377 0 0 0 0 5251938.6935586929 2372978.4160559177 0 2372978.4160559177 -7309682.6073369235 0 0 0 0 6452508.420191288 -1193463.1489977837 0 -1193463.1489977837 -5050804.105535984 0 0 0 0 5556467.2944931984 1423389.8229436874 0 1423389.8229436874 -5096584.4649213012 0 0 0 0 6450779.9928512573 -426491.70215308666 0 -426491.70215308666 -7766631.9005539417 0 0 0 0 6305541.2623180412 3659417.2273157062 0 3659417.2273157062 -2278104.1506979633 0 0 0 0 2816419.6756281257 10940817.963495255 0 10940817.963495255 3302819.6723117828 0 0 0 0 13536972.498840332 4768788.0166625977 0 4768788.0166625977 16260699.230480194 0 0 0 0 -6601477.113822937 2643623.2354507446 0 2643623.2354507446 17173744.522867203 0 0 0 0 5048397.649267585 8241665.387558599 0 8241665.387558599 2522651.1825660495 0 0 0 0 86283.395562918857 472230.04353569914 0 472230.04353569914 1169520.9701972827 0 0 0 0 6834834.112165451 -15738938.356048584 0 -15738938.356048584 12018129.474596024 0 0 0 0 6096653.6035251617 4127160.1112155914 0 4127160.1112155914 29549304.768302917 0 0 0 0 6103746.4560236931 2716653.3540604115 0 2716653.3540604115 9760270.7248954773 0 0 0 0 6893995.5461082458 -6493765.3037261963 0 -6493765.3037261963 24236270.20715332 0 0 0 0 13598415.966846466 3385059.4003257751 0 3385059.4003257751 8465860.2907791138 0 0 0 0 5117598.3266084623 3478028.9896779223 0 3478028.9896779223 -1485493.7137687227 0 0 0 0 -176790.53311554343 440352.26234851754 0 440352.26234851754 938227.84921905957 0 0 0 0 68659871.307813168 151858102.42311549 0 151858102.42311549 284587671.17500687 0 0 0 0 5392778.081268792 1613757.0471782088 0 1613757.0471782088 -1727358.7106815055 0 0 0 0 21409843.499483109 -3991189.9735603333 0 -3991189.9735603333 -16859862.702627182 0 0 0 0 -632625.9362641573 -10632791.303992093 0 -10632791.303992093 -9577693.5194916725 0 0 0 0 -1501749.4668835509 2881052.0899223466 0 2881052.0899223466 895586.03132937755 0 0 0 0 4952873.5540857315 -4554966.2719602585 0 -4554966.2719602585 3075107.875082016 0 0 0 0 8590735.141108036 8156738.7392113209 0 8156738.7392113209 -2198884.7367801666 0 0 0 0 2058749.0124818473 4034977.9392310572 0 4034977.9392310572 4493986.7789323069 0 0 0 0 4467327.5668507814 10240164.378681183 0 10240164.378681183 3599997.3529014587 0 0 0 0 17641402.052354813 4286410.84532547 0 4286410.84532547 -874416.15684890747 0 0 0 0 11474350.411671638 10946605.278785706 0 10946605.278785706 4921358.8061246872 0 0 0 0 11880257.918901518 12715424.209320307 0 12715424.209320307 616510.9960975647 0 0 0 0 2612222.2909238338 7430836.6349611282 0 7430836.6349611282 -332480.73080968857 0 0 0 0 7153294.8574346006 7995561.8747924566 0 7995561.8747924566 -13491110.873523712 0 0 0 0 9466090.5526179969 3584879.5127162933 0 3584879.5127162933 -9013058.9980401993 0 0 0 0 -7927919.3953475952 12840815.290262222 0 12840815.290262222 -8844652.3434171677 0 0 0 0 -25926.864231986925 11176472.157550588 0 11176472.157550588 -149918.93590895552 0 0 0 0 -8133629.2005488873 16454918.506942987 0 16454918.506942987 -11917927.431716919 0 0 0 0 -4476399.8153381348 11967335.386940002 0 11967335.386940002 -11532440.404149055 0 0 0 0 -7731002.2843894958 13383897.206121445 0 13383897.206121445 -11295190.629407406 0 0 0 0 2091146.3266181946 7021281.208594799 0 7021281.208594799 3926136.2700767517 0 0 0 0 10139076.699954987 31987549.402324677 0 31987549.402324677 11840926.385336876 0 0 0 0 11197946.157419536 17544238.08677138 0 17544238.08677138 -2167765.7292955546 0 0 0 0 2515167.5396881104 -5382148.2359895706 0 -5382148.2359895706 -7747260.1966724396 0 0 0 0 2963804.3592853546 35420635.612570524 0 35420635.612570524 -2303063.9279022217 0 0 0 0 13933547.913690567 42128108.699620008 0 42128108.699620008 -18626006.861394882 0 0 0 0 23678874.00979805 39122407.171859741 0 39122407.171859741 -1731593.1466903687 0 0 0 0 2346574.7233799221 16553807.554519482 0 16553807.554519482 5274468.9789812136 0 0 0 0 -10112216.445248604 21417180.884477615 0 21417180.884477615 -10256829.628684998 0 0 0 0 -6513064.2567024231 18453622.549484253 0 18453622.549484253 -9690580.4698982239 0 0 0 0 4900820.6459542317 11327180.059359364 0 11327180.059359364 3050913.3232414178 0 0 0 0 30179782.04172802 25564978.608654618 0 25564978.608654618 -35189834.13727203 0 0 0 0 -11057119.554901123 22238217.385969162 0 22238217.385969162 3207701.5919551849 0 0 0 0 16740786.386264801 15649244.948203564 0 15649244.948203564 -23816010.061897755 0 0 0 0 45120067.297362357 33649047.734443106 0 33649047.734443106 -12606418.678833008 0 0 0 0 45771541.7773972 2796679.9821104743 0 2796679.9821104743 -15267842.420704842 0 0 0 0 7675445.7199811935 13761899.241413772 0 13761899.241413772 -17573843.290492088 0 0 0 0 -48380905.730195999 32411556.768843651 0 32411556.768843651 13606719.828004837 0 0 0 0 -2770856.3114869595 18108337.103150845 0 18108337.103150845 5240481.1330871582 0 0 0 0 -15789672.60008049 6776257.5032749176 0 6776257.5032749176 26760534.450866699 0 0 0 0 -33146472.736791611 52544067.390882492 0 52544067.390882492 8660528.7012710571 0 0 0 0 -5377993.7784385681 47626767.101314545 0 47626767.101314545 -9888047.4316411018 0 0 0 0 -41289939.854820251 68178010.937805176 0 68178010.937805176 -49126849.768760681 0 0 0 0 -43716065.629543304 53336652.174751282 0 53336652.174751282 -8367077.3484191895 0 0 0 0 33727249.253412247 79592776.951408386 0 79592776.951408386 -73431366.729118347 0 0 0 0 -1536988.9106674194 26769005.415346146 0 26769005.415346146 -7059236.1031608582 0 0 0 0 -3480625.4443216324 20315736.939033985 0 20315736.939033985 -15140433.632446289 0 0 0 0 -1230916.2993240356 17566044.040523529 0 17566044.040523529 -11791883.903397083 0 0 0 0 13781051.515287399 23600351.029172897 0 23600351.029172897 -16645661.686157227 0 0 0 0 -1763952.8322668076 34124891.052573204 0 34124891.052573204 -13517122.960319519 0 0 0 0 6765714.8536987305 32644185.86510849 0 32644185.86510849 -27263494.123744965 0 0 0 0 57417129.51915741 17932489.483310699 0 17932489.483310699 -28599608.942290545 0 0 0 0 23614909.578550339 4088713.0554637909 0 4088713.0554637909 -8018912.7554712296 0 0 0 0 1767974.6817169189 13095116.67792511 0 13095116.67792511 -11252557.166000366 0 0 0 0 -10074657.2237854 7530331.1910629272 0 7530331.1910629272 -32397.962274551392 0 0 0 0 -640877.30716705322 6735329.7138595581 0 6735329.7138595581 -2211412.2372570038 0 0 0 0 -13068662.063708305 17652900.783699989 0 17652900.783699989 -11683094.710754395 0 0 0 0 -2502288.216960907 10990683.786144257 0 10990683.786144257 -16218822.924547195 0 0 0 0 5952568.1972351074 12132203.420547485 0 12132203.420547485 -14498027.705085754 0 0 0 0 -512571.13377761841 14992887.927005768 0 14992887.927005768 -14626047.384147644 0 0 0 0 -3724566.7634983063 13375962.047609329 0 13375962.047609329 -15323771.300239563 0 0 0 0 -5232489.9542121887 9404782.6227226257 0 9404782.6227226257 -16801233.946258545 0 0 0 0 30508809.230831146 -19134369.075387955 0 -19134369.075387955 5665719.1585693359 0 0 0 0 -12424706.496212006 -4455692.5553913116 0 -4455692.5553913116 8059607.1019630432 0 0 0 0 -15061269.2996521 -7951213.5433254242 0 -7951213.5433254242 24747887.518758774 0 0 0 0 -14505360.818910599 542973.87589931488 0 542973.87589931488 18714514.963069916 0 0 0 0 4712470.8167610168 -6260947.510717392 0 -6260947.510717392 10625429.990432739 0 0 0 0 23090862.415060043 5887326.1103625298 0 5887326.1103625298 -6154363.7114830017 0 0 0 0 121888275.86898041 3593717.2541599274 0 3593717.2541599274 -8322530.2807893753 0 0 0 0 128428905.69582558 -29946473.651929855 0 -29946473.651929855 -20817682.370435715 0 0 0 0 32067472.225466728 -14247515.326663494 0 -14247515.326663494 18292932.229515076 0 0 0 0 -2037087.533531189 -6156531.2337913513 0 -6156531.2337913513 -16986519.391649246 0 0 0 0 291873.26185619622 -21277.797426939243 0 -21277.797426939243 -774185.44275517203 0 0 0 0 137889246.00008011 -13444955.49461937 0 -13444955.49461937 -5520956.586286068 0 0 0 0 124306725.66496181 -55643676.47548157 0 -55643676.47548157 14821773.19493103 0 0 0 0 95098.42228078749 5511.7124414481223 0 5511.7124414481223 -61667.34311373625 0 0 0 0 -70006237.874172211 122804430.92697906 0 122804430.92697906 -88558005.118144989 0 0 0 0 -83707819.231829643 51039887.730836391 0 51039887.730836391 -55999835.199707031 0 0 0 0 -57627749.971570969 22391562.543572426 0 22391562.543572426 -19971958.924663544 0 0 0 0 -56466380.52728653 65250709.967144012 0 65250709.967144012 -119815922.85240173 0 0 0 0 -78416725.2853899 61536862.688739777 0 61536862.688739777 -29401515.276027679 0 0 0 0 430805.54466504697 605842.41562980041 0 605842.41562980041 313975.86372314394 0 0 0 0 -125477541.00620461 82672121.795093536 0 82672121.795093536 -52342416.014095306 0 0 0 0 -86995323.843158722 128513106.64289665 0 128513106.64289665 -116747918.44062388 0 0 0 0 31517365.859034538 -17363230.144563675 0 -17363230.144563675 -14042565.782951355 0 0 0 0 32783791.670095444 -41367593.338537216 0 -41367593.338537216 14826581.320537567 0 0 0 0 236839.31293517817 -34174.356067329412 0 -34174.356067329412 -704729.186520705 0 0 0 0 -40290738.110795975 -13013504.708124161 0 -13013504.708124161 13362476.332128525 0 0 0 0 49231736.493291855 -58113441.902944565 0 -58113441.902944565 -11017745.5054245 0 0 0 0 228888631.39632988 -8575284.5632944107 0 -8575284.5632944107 -20245381.367869854 0 0 0 0 -32422353.956607342 -150419633.72804928 0 -150419633.72804928 -16863644.98229599 0 0 0 0 -193275170.54519272 33558741.627027512 0 33558741.627027512 62033125.741193295 0 0 0 0 177101015.377204 230537687.95481145 0 230537687.95481145 119277394.25837326 0 0 0 0 165349958.08938026 184834734.73185349 0 184834734.73185349 59236571.581907272 0 0 0 0 150272980.64869213 268386127.92717254 0 268386127.92717254 251286182.40236664 0 0 0 0 38856972.543387413 48275341.446391106 0 48275341.446391106 82465658.070831299 0 0 0 0 87581876.546462059 48501445.927309036 0 48501445.927309036 13253725.555625916 0 0 0 0 44453743.314147949 109346910.37675285 0 109346910.37675285 155882644.96760368 0 0 0 0 59842820.450883865 15825095.471599579 0 15825095.471599579 -11962557.846138 0 0 0 0 28474868.344146729 18573568.462154388 0 18573568.462154388 40452399.726875305 0 0 0 0 3213336.7480621338 -9249888.591085434 0 -9249888.591085434 22913916.744308472 0 0 0 0 -12149103.180036545 20154625.102109432 0 20154625.102109432 -14496411.410190582 0 0 0 0 -47071566.370750427 16141165.369670868 0 16141165.369670868 -8212678.1170501709 0 0 0 0 -30333466.809707642 51602145.742940903 0 51602145.742940903 -63656696.019985199 0 0 0 0 -46128554.003271103 37316938.738134384 0 37316938.738134384 -80511961.709785461 0 0 0 0 -11417056.997753143 66188346.051532745 0 66188346.051532745 -56530812.450979233 0 0 0 0 187615935.92824745 101176134.95008469 0 101176134.95008469 -56464300.424233437 0 0 0 0 -12460877.185081482 31771006.915313721 0 31771006.915313721 16140952.986532211 0 0 0 0 387034055.90724564 200029874.37310219 0 200029874.37310219 -125407390.69277382 0 0 0 0 -15973046.919797421 21499079.350702763 0 21499079.350702763 -64872377.543148041 0 0 0 0 -72079313.682325363 156708150.5586834 0 156708150.5586834 -103696345.91674232 0 0 0 0 358846.27851165086 506718.66571174003 0 506718.66571174003 339490.03453906998 0 0 0 0 595884.0402469635 33952533.629584789 0 33952533.629584789 -8944745.8660240173 0 0 0 0 107667485.21425819 37739230.652410507 0 37739230.652410507 -17566054.691029549 0 0 0 0 27680150.43746376 63178815.903435707 0 63178815.903435707 118737381.37697983 0 0 0 0 160479.82649384066 216930.51470095571 0 216930.51470095571 159422.47386449017 0 0 0 0 110026547.39072609 332860821.2663517 0 332860821.2663517 406620367.30953979 0 0 0 0 262919626.23424625 411969965.04006577 0 411969965.04006577 270440723.43645859 0 0 0 0 204512462.21780205 283231748.67816734 0 283231748.67816734 74767543.89112854 0 0 0 0 204676419.04984951 280472989.88486886 0 280472989.88486886 94023614.956604004 0 0 0 0 261531569.11945915 222593164.12852478 0 222593164.12852478 150823447.56762314 0 0 0 0 195143179.8354826 117256037.65707493 0 117256037.65707493 -770195.74047470093 0 0 0 0 67390.683656948153 37308.839406373911 0 37308.839406373911 2615.0825500488281 0 0 0 0 256775984.41214943 27134298.464046478 0 27134298.464046478 17823484.93123436 0 0 0 0 432966046.38271427 121048494.96880913 0 121048494.96880913 -239717678.15982056 0 0 0 0 526292983.07200241 -24287860.013912201 0 -24287860.013912201 -215819960.3974762 0 0 0 0 493178565.32268524 256876517.30184364 0 256876517.30184364 2398610.4109950364 0 0 0 0 351676140.55549335 369456542.17511368 0 369456542.17511368 144108080.45306587 0 0 0 0 21147319.596387863 -2214433.1050338745 0 -2214433.1050338745 14328268.817790985 0 0 0 0 15245789.252963066 -12714637.07787323 0 -12714637.07787323 -1209820.7908782959 0 0 0 0 5323007.6241283417 180286.08935165405 0 180286.08935165405 11044729.107544422 0 0 0 0 50210612.356174469 3729850.0925636292 0 3729850.0925636292 11266252.274211884 0 0 0 0 3648193.8642253876 -35158063.339740753 0 -35158063.339740753 -4307765.3125610352 0 0 0 0 31409607.274759293 -6596188.401684761 0 -6596188.401684761 6416060.304315567 0 0 0 0 -1814116.8328480511 2122654.0595543967 0 2122654.0595543967 4516414.59933485 0 0 0 0 -12202346.86459446 16632719.727491379 0 16632719.727491379 16142542.985519409 0 0 0 0 -740098.92358191684 -1943577.1217186607 0 -1943577.1217186607 1959225.8560229503 0 0 0 0 68109.738084704615 2196790.8657706222 0 2196790.8657706222 442952.83202452166 0 0 0 0 79020.633072376251 135932.07130765915 0 135932.07130765915 -245687.93991851807 0 0 0 0 -60887110.001598358 -19387442.226745605 0 -19387442.226745605 42636871.452665329 0 0 0 0 476064.75778808596 1639213.2122196634 0 1639213.2122196634 603460.68110261299 0 0 0 0 -38843365.487823486 52082466.549124956 0 52082466.549124956 63485088.152923584 0 0 0 0 -26990255.376152039 -759478519.14918327 0 -759478519.14918327 -335932800.97904396 0 0 0 0 -181175382.15543365 -97917417.338180542 0 -97917417.338180542 1496910.77090168 0 0 0 0 -32350159.7373209 -349037016.72466087 0 -349037016.72466087 -403776251.57076263 0 0 0 0 -253621946.15190506 76236871.572969913 0 76236871.572969913 -45304456.006652832 0 0 0 0 981174275.49485397 -83315302.168079376 0 -83315302.168079376 -739932554.62075424 0 0 0 0 67672447.123603821 -29126012.073096275 0 -29126012.073096275 -52157634.669555664 0 0 0 0 261028027.57505989 703548741.12182426 0 703548741.12182426 1872878854.6689243 0 0 0 0 1250304574.1828861 -688388122.36407471 0 -688388122.36407471 301952923.78977203 0 0 0 0 -574819908.70836067 155477229.62812614 0 155477229.62812614 359200797.75958443 0 0 0 0 3346258.3784508705 -3996562.9882665873 0 -3996562.9882665873 6091348.6533880234 0 0 0 0 -768406.76144002704 2480994.0365397865 0 2480994.0365397865 5347397.7076953761 0 0 0 0 690950251.22325516 364136553.97253799 0 364136553.97253799 -76862657.27936554 0 0 0 0 1496040530.0907192 581449056.38032532 0 581449056.38032532 -314112292.89137268 0 0 0 0 2070391.5728836237 429019.65173432697 0 429019.65173432697 -656451.02995682787 0 0 0 0 351259689.80055809 752457251.62257195 0 752457251.62257195 1294069936.2716789 0 0 0 0 132492402.26320457 193072541.34149933 0 193072541.34149933 176277539.80683708 0 0 0 0 -842227.97307562828 23158168.721031189 0 23158168.721031189 99619439.464371681 0 0 0 0 -566892.706376791 12080133.024278641 0 12080133.024278641 -3512897.1227450371 0 0 0 0 583590852.78965974 339860613.5347501 0 339860613.5347501 -44676171.554883957 0 0 0 0 744981692.60375595 531498025.79176331 0 531498025.79176331 31798783.057600021 0 0 0 0 581984681.58411813 354475556.5597899 0 354475556.5597899 -140539578.07327652 0 0 0 0 837442748.62254333 371136962.68103409 0 371136962.68103409 -272221965.62164688 0 0 0 0 1082816293.4712515 -283605492.70934868 0 -283605492.70934868 -62361191.687785149 0 0 0 0 1554756784.8105297 591427852.93401337 0 591427852.93401337 -235073727.18060684 0 0 0 0 189302130.31393051 693626028.44420433 0 693626028.44420433 213573302.74408722 0 0 0 0 818122515.24651337 315413288.99371433 0 315413288.99371433 -394223252.93424225 0 0 0 0 14694268.449504852 -4117361.5418386459 0 -4117361.5418386459 436521.87319469452 0 0 0 0 -303236439.65133476 181703777.30243778 0 181703777.30243778 -99462876.83392334 0 0 0 0 3365317.9703178406 -5325288.8585352898 0 -5325288.8585352898 5445031.9863710403 0 0 0 0 -322620.1585307382 2740540.9496166911 0 2740540.9496166911 3477684.9481884823 0 0 0 0 15250724.01360321 -3948722.944177866 0 -3948722.944177866 -5065487.5191106796 0 0 0 0 21233426.660945892 16138826.074349642 0 16138826.074349642 3588165.9059826136 0 0 0 0 10906536.921958923 4427235.7390406132 0 4427235.7390406132 -2101308.1424503326 0 0 0 0 11010497.69291687 1491229.6977500916 0 1491229.6977500916 9954856.6824269295 0 0 0 0 1789379110.0552387 201795066.27995396 0 201795066.27995396 -62490111.982201099 0 0 0 0 1015499142.6949806 580709307.83807945 0 580709307.83807945 -310315979.26112461 0 0 0 0 732664935.38941956 237214622.15007019 0 237214622.15007019 118636307.79198456 0 0 0 0 -172348.04617838841 128753.97933397628 0 128753.97933397628 231722.53177154437 0 0 0 0 757101269.07390213 473084372.0632782 0 473084372.0632782 72815022.226045609 0 0 0 0 118257.50578070618 247713.68516887119 0 247713.68516887119 720081.42437626515 0 0 0 0 895865483.24557185 -122299837.63995254 0 -122299837.63995254 689579423.58981228 0 0 0 0 748420030.15255737 801177739.82436943 0 801177739.82436943 618398748.01431465 0 0 0 0 1476804889.348114 736865586.4439621 0 736865586.4439621 113179860.36712742 0 0 0 0 5689192.7782402039 60589750.263830066 0 60589750.263830066 551990200.34335232 0 0 0 0 -1319998.7060610093 231117.45002107974 0 231117.45002107974 3249202.3156955894 0 0 0 0 598132127.06980085 802258467.81671178 0 802258467.81671178 378322668.5480299 0 0 0 0 -832683.82532280032 244290.37947888207 0 244290.37947888207 652145.10465683881 0 0 0 0 312519438.25857162 137956169.49853015 0 137956169.49853015 -45780362.515271664 0 0 0 0 419762054.52597427 356675712.43406296 0 356675712.43406296 -153589489.99910498 0 0 0 0 764050085.73991179 275717063.79274571 0 275717063.79274571 17764840.023209095 0 0 0 0 376056195.57924461 483674050.17557812 0 483674050.17557812 31838349.984254479 0 0 0 0 17365185.872325987 61499662.173872307 0 61499662.173872307 18847063.138960242 0 0 0 0 1107935.5267505646 -24383846.223309755 0 -24383846.223309755 -6659265.7136148214 0 0 0 0 20471358.034731865 22792808.377901196 0 22792808.377901196 -8820902.5077524185 0 0 0 0 149315092.8439846 -249046435.12390947 0 -249046435.12390947 265131237.91319275 0 0 0 0 521471805.22234726 225962129.10703087 0 225962129.10703087 -106695614.66597652 0 0 0 0 -1877231.1336055892 1425735.9370421325 0 1425735.9370421325 1991682.082157213 0 0 0 0 360088010.40972519 271351208.73016071 0 271351208.73016071 246957615.95557117 0 0 0 0 -210647955.33940506 60346840.600522995 0 60346840.600522995 88309312.224890709 0 0 0 0 -266717348.25627136 80646664.000654697 0 80646664.000654697 84662705.033479214 0 0 0 0 -216589894.50337219 78210637.099222898 0 78210637.099222898 66181348.255801201 0 0 0 0 -139349853.82038689 46895337.41140759 0 46895337.41140759 17106402.897471428 0 0 0 0 -146746333.55176353 37521189.29612422 0 37521189.29612422 47274612.323106766 0 0 0 0 -196775756.3278389 86121249.522817254 0 86121249.522817254 59191760.031600475 0 0 0 0 -112319428.5181179 105389445.83292326 0 105389445.83292326 2005108.5044898987 0 0 0 0 -38489933.250717163 63495928.542609215 0 63495928.542609215 690601.29785299301 0 0 0 0 -110866533.28712082 111029018.6308524 0 111029018.6308524 22978908.627354145 0 0 0 0 -207067776.78893661 223461089.05119121 0 223461089.05119121 -92050422.952801704 0 0 0 0 -226252806.07165527 103549163.52774096 0 103549163.52774096 51503548.573988914 0 0 0 0 -227128162.55307984 108478510.4854123 0 108478510.4854123 100051168.14463615 0 0 0 0 -324728104.72085571 205463522.19830728 0 205463522.19830728 48982381.197264433 0 0 0 0 -298690613.45364761 165249199.80478871 0 165249199.80478871 96188617.310846806 0 0 0 0 -608602338.19045734 -133502160.70665944 0 -133502160.70665944 248907096.7785778 0 0 0 0 -36297823.436725616 -156623074.66284633 0 -156623074.66284633 140096723.11244178 0 0 0 0 -1220961.7981764115 352098.67808031058 0 352098.67808031058 2101077.048828207 0 0 0 0 64738734.192689896 5476881.5344367027 0 5476881.5344367027 12667790.681138992 0 0 0 0 417404949.86852646 427301584.82746744 0 427301584.82746744 103158308.46222138 0 0 0 0 293346533.08638287 195049485.34106153 0 195049485.34106153 210490979.38641691 0 0 0 0 -14039919.9259758 -5761614.2270102501 0 -5761614.2270102501 12300754.920972928 0 0 0 0 22838396.156957626 4696831.3049185574 0 4696831.3049185574 -10319636.618944168 0 0 0 0 -54129551.00138092 -15098305.382755995 0 -15098305.382755995 40249572.651994944 0 0 0 0 -266240632.01306352 -12809388.57146468 0 -12809388.57146468 86932878.608902454 0 0 0 0 -48010979.411041737 14608733.014141023 0 14608733.014141023 8204675.0201511383 0 0 0 0 -154512305.2678833 66012710.679041386 0 66012710.679041386 -174372.19554805756 0 0 0 0 -79451001.865577698 40685874.08044219 0 40685874.08044219 6075123.7867417336 0 0 0 0 -3725689.5640716553 6385297.1975684166 0 6385297.1975684166 -18405045.057537556 0 0 0 0 1612431.6602973938 -4255515.5510368347 0 -4255515.5510368347 -590912.85149908066 0 0 0 0 -16092578.411846161 -6664331.4106850624 0 -6664331.4106850624 -3588968.2355575562 0 0 0 0 3400165.0696983337 -2992627.1341428757 0 -2992627.1341428757 -7235039.4912800789 0 0 0 0 -38165989.257619858 -24201160.371629715 0 -24201160.371629715 12850450.523973942 0 0 0 0 -26905684.871302605 33657081.603021502 0 33657081.603021502 -53771154.718716621 0 0 0 0 31070916.372009277 51171049.698503017 0 51171049.698503017 -129300734.76278901 0 0 0 0 -378324714.26828003 101456448.21118736 0 101456448.21118736 73382698.836388588 0 0 0 0 -191776084.56110954 184497392.48608637 0 184497392.48608637 -103326146.89215755 0 0 0 0 -233559574.21036148 87132940.075566292 0 87132940.075566292 62541766.021631241 0 0 0 0 -139765100.54606628 -10615980.523103714 0 -10615980.523103714 12835894.430721283 0 0 0 0 -139967159.55715942 -12532398.84589529 0 -12532398.84589529 42613180.776750565 0 0 0 0 -249574643.39771271 17149356.114737511 0 17149356.114737511 48822648.399436951 0 0 0 0 -332614583.22908783 -24395861.169023514 0 -24395861.169023514 61919593.243371964 0 0 0 0 -70374931.387134552 132642106.71677208 0 132642106.71677208 -166418810.01201582 0 0 0 0 -922925.15356487408 -74158.807661794883 0 -74158.807661794883 494439.88278679666 0 0 0 0 -165631.84520203993 2431745.6844628877 0 2431745.6844628877 613699.52690134593 0 0 0 0 -948481373.35398102 149224543.50490379 0 149224543.50490379 103512694.91378927 0 0 0 0 -154944136.56241226 -64208190.600420952 0 -64208190.600420952 28438524.002140522 0 0 0 0 -569201890.75231659 -123215270.70443013 0 -123215270.70443013 190570349.35968781 0 0 0 0 -624917596.38834262 372938714.23161 0 372938714.23161 -66491347.706134796 0 0 0 0 -204000322.24639988 -205138176.08841205 0 -205138176.08841205 176943653.21216774 0 0 0 0 -456488146.40337563 96133626.5332973 0 96133626.5332973 40724644.891010284 0 0 0 0 -151107674.26467896 -201789125.91260529 0 -201789125.91260529 74888374.322666168 0 0 0 0 -149420433.27693176 -263187333.44357824 0 -263187333.44357824 44325710.855169296 0 0 0 0 -164785390.52302933 -264769642.66311455 0 -264769642.66311455 96302290.596172333 0 0 0 0 -132822504.2057724 -245029763.84924889 0 -245029763.84924889 -9948665.5164699554 0 0 0 0 -95238191.455490112 363918080.00889969 0 363918080.00889969 -575525143.57296371 0 0 0 0 -1438862.3498672843 360070.33387490455 0 360070.33387490455 542282.86642703577 0 0 0 0 -903408106.32057381 428573531.73128128 0 428573531.73128128 160741049.19709587 0 0 0 0 -100882428.19297791 -170457205.48878288 0 -170457205.48878288 -41605414.816156387 0 0 0 0 -266096677.99020576 -77984077.611829758 0 -77984077.611829758 36738484.183204651 0 0 0 0 68793312.033054352 -25982298.721233368 0 -25982298.721233368 39365345.872314453 0 0 0 0 -2508742.9410216985 230979.95233135333 0 230979.95233135333 1939827.5369082701 0 0 0 0 -2117785.5015354156 -4175535.0490708351 0 -4175535.0490708351 20704211.398766518 0 0 0 0 126997382.29611969 61651415.505626678 0 61651415.505626678 58124280.625312805 0 0 0 0 -3326107.1351661682 -14600624.839798927 0 -14600624.839798927 4501200.1068701744 0 0 0 0 -17731977.420150757 17490722.786224365 0 17490722.786224365 44509321.794919968 0 0 0 0 -2095129.874453445 25627.036554012098 0 25627.036554012098 1258652.4934001844 0 0 0 0 -342263113.98894072 357086612.84213889 0 357086612.84213889 253170135.91607094 0 0 0 0 349875554.27420807 -276821388.16898155 0 -276821388.16898155 -338354627.42057657 0 0 0 0 235144848.69663048 127156175.30947304 0 127156175.30947304 -386710112.82363415 0 0 0 0 133894924.31355858 -179067098.87056828 0 -179067098.87056828 104132587.4970541 0 0 0 0 104624775.54351807 3479889.3698329926 0 3479889.3698329926 10140552.972867012 0 0 0 0 250670315.07685304 29091114.886904716 0 29091114.886904716 2419286.533531189 0 0 0 0 3760266.6271095276 -1391181.955640316 0 -1391181.955640316 113519.63368415833 0 0 0 0 -1054389.6782875061 -1254849.7753410339 0 -1254849.7753410339 5518966.4730501175 0 0 0 0 1543090.6602820018 377704.20007048082 0 377704.20007048082 732946.3636102248 0 0 0 0 -4034659.4706268311 2200382.0503616333 0 2200382.0503616333 3475612.4367923737 0 0 0 0 2947278.8131065369 -4264623.5274043083 0 -4264623.5274043083 -13837521.170661926 0 0 0 0 -20144730.038894653 -31013173.478320122 0 -31013173.478320122 -21657310.12493372 0 0 0 0 -11995266.774719238 -10549274.562279224 0 -10549274.562279224 4304493.6818552017 0 0 0 0 2716430.9067974091 1107639.7096390724 0 1107639.7096390724 -5696974.2667808533 0 0 0 0 -68268872.886829376 53386708.496879578 0 53386708.496879578 -67493065.777546406 0 0 0 0 -56810079.340806961 239378957.34833431 0 239378957.34833431 -90925153.140361786 0 0 0 0 173168919.83290958 -20150602.349970341 0 -20150602.349970341 -458718777.6359539 0 0 0 0 -490414840.53742981 -42877307.422042847 0 -42877307.422042847 318280724.94837284 0 0 0 0 266237.89433071762 127617.48597419169 0 127617.48597419169 256314.19110362849 0 0 0 0 -20032191.821971893 -34716493.99431324 0 -34716493.99431324 -49184266.535635471 0 0 0 0 -88085932.979888916 -36420964.351867676 0 -36420964.351867676 -15616394.637641907 0 0 0 0 -37164453.527532578 -46483288.904527187 0 -46483288.904527187 -19574409.703130722 0 0 0 0 -112996910.42716169 26127744.001586676 0 26127744.001586676 -72786108.476493835 0 0 0 0 -74147638.041763306 -47385204.098599434 0 -47385204.098599434 -33838653.829853058 0 0 0 0 -46783788.170288086 -30941573.313538551 0 -30941573.313538551 49428254.016051292 0 0 0 0 -76599175.369003296 -13593926.007934093 0 -13593926.007934093 39765243.350652695 0 0 0 0 -32538514.102025986 -18691640.589557648 0 -18691640.589557648 22306672.505290031 0 0 0 0 -35346573.59967041 -36155101.348177433 0 -36155101.348177433 18597628.945666313 0 0 0 0 -42128311.42288208 -17628929.001690388 0 -17628929.001690388 43522313.688732147 0 0 0 0 -39634811.235279083 3039779.2002248764 0 3039779.2002248764 63473327.862524033 0 0 0 0 26957128.373926163 37090233.977495909 0 37090233.977495909 54870720.34980011 0 0 0 0 -32187785.153369665 19506583.698160529 0 19506583.698160529 100168212.90772533 0 0 0 0 -3068466.8484172821 29157351.175028324 0 29157351.175028324 66967856.194235802 0 0 0 0 1154288.9912109375 25989139.029082537 0 25989139.029082537 40225549.371582031 0 0 0 0 -24867602.571842194 20983307.955312252 0 20983307.955312252 50400896.927121162 0 0 0 0 27209525.605317235 38521177.390577078 0 38521177.390577078 14358510.414937019 0 0 0 0 -9038867.6253471375 22447391.516679287 0 22447391.516679287 22782449.363366812 0 0 0 0 93285107.871639252 51733139.321922302 0 51733139.321922302 -9133218.4699745178 0 0 0 0 24669004.183940887 69461044.693763494 0 69461044.693763494 61873466.354770571 0 0 0 0 -6550958.072683244 13720067.878848795 0 13720067.878848795 -11450084.229815423 0 0 0 0 71011075.503181458 -4522619.1557693481 0 -4522619.1557693481 -52835447.735176086 0 0 0 0 12548316.386077881 31638917.930498123 0 31638917.930498123 -7003442.7357635498 0 0 0 0 13217510.775230408 27054621.670936584 0 27054621.670936584 -23629646.099281311 0 0 0 0 56054430.411281586 54643604.548604488 0 54643604.548604488 -7504434.8729248047 0 0 0 0 7227645.7242240906 18556943.512592316 0 18556943.512592316 -4633775.1523180008 0 0 0 0 614091.93954467773 -29697122.227603912 0 -29697122.227603912 -43868315.089569092 0 0 0 0 6066532.1622581482 4007112.2704467773 0 4007112.2704467773 -21467673.893829346 0 0 0 0 32611256.367469788 15186103.988960266 0 15186103.988960266 -16993221.238792419 0 0 0 0 -12572461.0978508 32458109.231041431 0 32458109.231041431 -2613994.4281282425 0 0 0 0 -47083768.716777802 -4669178.9362659454 0 -4669178.9362659454 13433296.324236393 0 0 0 0 -23597898.988103867 11172957.802560329 0 11172957.802560329 18400773.356966972 0 0 0 0 -66060097.110458374 854680.09745931625 0 854680.09745931625 31542942.085494995 0 0 0 0 -50638032.714920044 17143801.630594254 0 17143801.630594254 35265649.614797592 0 0 0 0 -73433650.015798569 16665223.335618496 0 16665223.335618496 32892844.191230774 0 0 0 0 -3344893.0375655652 3567364.7572998623 0 3567364.7572998623 5914641.3887137771 0 0 0 0 58485763.268116474 -22014905.432941079 0 -22014905.432941079 5815219.623588562 0 0 0 0 48247.931572103407 33450.694057764485 0 33450.694057764485 12145.282152205706 0 0 0 0 63659042.576845169 37195886.834465027 0 37195886.834465027 30631194.99965477 0 0 0 0 -8127392.5116710663 57765835.543951035 0 57765835.543951035 -6474638.6735548973 0 0 0 0 -34308540.661746979 -17105695.720937729 0 -17105695.720937729 29107612.219302297 0 0 0 0 -34461784.467157364 -10845921.911766052 0 -10845921.911766052 7870347.6320844442 0 0 0 0 -41401170.093513489 -1287115.0229911804 0 -1287115.0229911804 35638524.49571839 0 0 0 0 -32175389.366436005 896229.2211933136 0 896229.2211933136 25881700.790397644 0 0 0 0 -50233571.076721191 15734375.396275043 0 15734375.396275043 8589448.1075334549 0 0 0 0 41785820.758284569 -8944608.6423401833 0 -8944608.6423401833 -2128878.3118743896 0 0 0 0 -2637396.9535836158 1927091.6407961212 0 1927091.6407961212 5617199.9630264184 0 0 0 0 -28887478.819786549 -13577172.963022351 0 -13577172.963022351 7115650.5207509995 0 0 0 0 21653234.574489594 1657563.3374042511 0 1657563.3374042511 7219553.0455532074 0 0 0 0 108621.6520766234 70211.363228862174 0 70211.363228862174 19742.339451521635 0 0 0 0 33210399.081928372 -5066749.0554717779 0 -5066749.0554717779 6302467.8115272522 0 0 0 0 72547776.397510529 -33891407.431667328 0 -33891407.431667328 -13747689.09062767 0 0 0 0 34672775.433116198 9772178.2558355331 0 9772178.2558355331 -23587966.382781982 0 0 0 0 20162576.082839966 -15049734.055150986 0 -15049734.055150986 4745551.1359176636 0 0 0 0 41626875.415237427 -16077347.771411896 0 -16077347.771411896 -29177627.434700489 0 0 0 0 95857939.811800003 93274189.040439606 0 93274189.040439606 92653951.185557365 0 0 0 0 181443638.22043896 71634792.600667 0 71634792.600667 38382681.2317276 0 0 0 0 87465032.369132996 -33940282.802112579 0 -33940282.802112579 4755140.374256134 0 0 0 0 95425502.934343338 -26124055.267832756 0 -26124055.267832756 -46228075.769237518 0 0 0 0 95291973.257381439 10262596.503563881 0 10262596.503563881 -40266382.223083496 0 0 0 0 58364537.923324585 -9793649.4306049347 0 -9793649.4306049347 12876231.813494682 0 0 0 0 -46132812.722457886 16654952.774864197 0 16654952.774864197 -33988963.723256588 0 0 0 0 87806486.3189888 -17176505.721940994 0 -17176505.721940994 -48629062.739046097 0 0 0 0 101149441.53465843 -45168127.853631973 0 -45168127.853631973 -42742118.41104126 0 0 0 0 285988425.66637039 45716944.119243622 0 45716944.119243622 -35605121.512290716 0 0 0 0 35383115.427484512 -16380954.301524162 0 -16380954.301524162 -29965049.818294525 0 0 0 0 46717641.505548477 -13028341.972940445 0 -13028341.972940445 -93230362.235027313 0 0 0 0 -19274653.915512085 42868552.127538681 0 42868552.127538681 9584531.960723877 0 0 0 0 -9358721.9411401749 122688.44615077972 0 122688.44615077972 -9083152.9015808105 0 0 0 0 56274995.738002777 44385769.260698318 0 44385769.260698318 -4507890.5731620789 0 0 0 0 52197000.66553688 -7511359.5842285156 0 -7511359.5842285156 -36854133.661972046 0 0 0 0 83909000.274413109 -10489533.558069229 0 -10489533.558069229 -50439577.135746002 0 0 0 0 79199137.145553589 -9597324.9136486053 0 -9597324.9136486053 -37186012.905300617 0 0 0 0 91465422.491800308 90737986.305438995 0 90737986.305438995 27054465.074913025 0 0 0 0 189928184.01569748 12869704.160240173 0 12869704.160240173 -47848354.666241169 0 0 0 0 -10186458.293952942 52285756.930263519 0 52285756.930263519 38934656.477524757 0 0 0 0 7431108.6893463135 17516469.806468964 0 17516469.806468964 -3052532.5257949829 0 0 0 0 17058085.683391571 38076347.759559631 0 38076347.759559631 1817598.7837238312 0 0 0 0 14190398.083407402 42006969.864509583 0 42006969.864509583 12321977.184165955 0 0 0 0 9418692.9137878418 34149792.096874237 0 34149792.096874237 -579857.79781150818 0 0 0 0 2469445.0258636475 18359641.270439148 0 18359641.270439148 9472999.8252778053 0 0 0 0 6142264.1797485352 19662316.567653656 0 19662316.567653656 -3087587.9271850586 0 0 0 0 -1700418.1326828003 10134292.13010025 0 10134292.13010025 -8684434.9970474243 0 0 0 0 64256.521045684814 9795318.3596363068 0 9795318.3596363068 -12085649.06427002 0 0 0 0 -8910766.8992042542 11844660.820072174 0 11844660.820072174 -8743631.9131984711 0 0 0 0 1221058.673330307 19212341.740851402 0 19212341.740851402 -3508790.2840957642 0 0 0 0 -167697.74718131009 1292202.9716422348 0 1292202.9716422348 -307225.24373891577 0 0 0 0 230562366.82183075 100654984.8866806 0 100654984.8866806 26534214.040916443 0 0 0 0 -49205411.651895523 25070599.654020309 0 25070599.654020309 20252018.51537323 0 0 0 0 -8008.3622434497811 249349.25649907067 0 249349.25649907067 -386408.4121912457 0 0 0 0 -8423313.5308074951 12713743.812301159 0 12713743.812301159 -14692559.164230347 0 0 0 0 189580608.82219505 -109874186.76793289 0 -109874186.76793289 -144907022.95182037 0 0 0 0 71134452.933778763 152583068.79517651 0 152583068.79517651 333294340.58830261 0 0 0 0 3107736.0281009674 2335222.4182701111 0 2335222.4182701111 -3247475.6652488708 0 0 0 0 1813071.3704333277 2338368.5093503338 0 2338368.5093503338 -5266633.5363465305 0 0 0 0 -3661876.1812477112 8787692.9496765137 0 8787692.9496765137 -9490139.7771720886 0 0 0 0 -1613771.1609628438 3431378.6658468796 0 3431378.6658468796 -220580.74980913103 0 0 0 0 -5764031.8565092087 9387420.7123785019 0 9387420.7123785019 -9575767.3973884583 0 0 0 0 -8871001.2235527039 17747101.367038727 0 17747101.367038727 -14821870.518697083 0 0 0 0 -1501973.1341136349 2828448.0108303456 0 2828448.0108303456 430741.73748940043 0 0 0 0 -9685625.3413124084 16976796.293174744 0 16976796.293174744 -11585558.797338486 0 0 0 0 487993.40823402535 481646.00822738837 0 481646.00822738837 307487.11877309345 0 0 0 0 -67137465.259896278 117866977.32715631 0 117866977.32715631 -105092237.19685364 0 0 0 0 -60485489.898096085 107017035.35918713 0 107017035.35918713 -125791100.60554695 0 0 0 0 15446860.339588165 -70631280.862363815 0 -70631280.862363815 -11840161.849040985 0 0 0 0 -61320558.924425125 94589659.81463623 0 94589659.81463623 126082436.51397705 0 0 0 0 264193471.65020609 63570195.311979294 0 63570195.311979294 -111807277.64461136 0 0 0 0 214985.74966747034 199993.33782323822 0 199993.33782323822 125882.27137136925 0 0 0 0 -81460170.298256397 32358460.426124573 0 32358460.426124573 61269726.95450592 0 0 0 0 -68688807.763418198 3957047.8727679253 0 3957047.8727679253 54285520.61914444 0 0 0 0 -9363083.010723114 57479146.742584229 0 57479146.742584229 25781594.512382507 0 0 0 0 -84377829.75579834 45248773.677026749 0 45248773.677026749 75564093.341314316 0 0 0 0 -8631068.9109099209 90249290.161590666 0 90249290.161590666 667999.40246582031 0 0 0 0 99045628.13766098 195007032.52429199 0 195007032.52429199 95150916.370951653 0 0 0 0 98197696.932876587 61114849.687194824 0 61114849.687194824 -17693580.526237488 0 0 0 0 13136396.93756485 33145287.215935707 0 33145287.215935707 2355167.5621109009 0 0 0 0 14682024.380624771 33537450.732758045 0 33537450.732758045 -24095028.557830811 0 0 0 0 -29041141.887248039 20159390.725925446 0 20159390.725925446 12343059.546768188 0 0 0 0 -20445831.1842556 41627602.571767807 0 41627602.571767807 17013939.065818787 0 0 0 0 2735668.5179233551 1954579.8806228638 0 1954579.8806228638 -808665.77339363098 0 0 0 0 709033.31522498373 4840080.1124243336 0 4840080.1124243336 -1160265.5265637152 0 0 0 0 2164775.2594833374 2837821.7599115372 0 2837821.7599115372 -747318.09873962402 0 0 0 0 722693.84204745293 3409355.4385948181 0 3409355.4385948181 -867487.6619720459 0 0 0 0 899261.52624607086 2080791.726495266 0 2080791.726495266 -476558.23274230957 0 0 0 0 1660694.4375160444 4234263.2813078277 0 4234263.2813078277 -6080363.6056358274 0 0 0 0 -14476690.675527573 -14471777.066543579 0 -14471777.066543579 -28865421.628673553 0 0 0 0 347962190.13204002 95133835.918149948 0 95133835.918149948 -216098291.2015419 0 0 0 0 64638093.115528107 -30964804.165058136 0 -30964804.165058136 -128270697.46884918 0 0 0 0 28968690.86951828 17621469.796468735 0 17621469.796468735 -6564753.6739730835 0 0 0 0 -1597636.7022433281 13043453.32906723 0 13043453.32906723 -1281610.1391021609 0 0 0 0 594628.53067874908 6810129.6071243286 0 6810129.6071243286 -1158698.5852956772 0 0 0 0 -2434180.1355574727 4246855.2297933102 0 4246855.2297933102 3868744.833694458 0 0 0 0 -17660695.213200569 7856110.5419006348 0 7856110.5419006348 -229445.6598815918 0 0 0 0 -3315799.3124008179 8882419.008682251 0 8882419.008682251 -1741049.9615859985 0 0 0 0 -502581.81866752263 3624339.2825780082 0 3624339.2825780082 -793025.66779828258 0 0 0 0 779007.05736732483 3250316.3934745789 0 3250316.3934745789 -1597658.7955989838 0 0 0 0 3076310.1758213043 11250973.128299713 0 11250973.128299713 -7226520.4560785294 0 0 0 0 2274382.7234287262 2103871.738658905 0 2103871.738658905 -1378148.3000335693 0 0 0 0 599846.90135860443 1914182.8328781128 0 1914182.8328781128 -643436.81521606445 0 0 0 0 -671300.84327774541 3192099.6793927578 0 3192099.6793927578 -87176.663361269981 0 0 0 0 1989805.1304374053 2037809.6168440748 0 2037809.6168440748 -3181502.3316602726 0 0 0 0 2148783.1994686127 2900650.7120952606 0 2900650.7120952606 -3393719.6911621094 0 0 0 0 -3104513.8918730021 -1734232.2802192569 0 -1734232.2802192569 2648196.20362854 0 0 0 0 11367177.808519363 -17855250.096488953 0 -17855250.096488953 5040754.2639083862 0 0 0 0 16437370.552303314 3422576.8717193604 0 3422576.8717193604 -13089232.833259583 0 0 0 0 -17913263.660763741 -15385503.52325058 0 -15385503.52325058 -4662173.4590148926 0 0 0 0 20132722.63088727 -616178.93096160889 0 -616178.93096160889 -12119235.522171021 0 0 0 0 -12988198.198235512 -695987.53389358521 0 -695987.53389358521 14154028.646324158 0 0 0 0 13021167.63287735 -7611932.3765525818 0 -7611932.3765525818 -47331722.08039856 0 0 0 0 -70633.415938138263 240843.448104474 0 240843.448104474 87348.087461695075 0 0 0 0 15245248.155056477 25929883.699246407 0 25929883.699246407 3302538.5050964355 0 0 0 0 6584024.0195732117 24819485.450027466 0 24819485.450027466 2336707.9354438782 0 0 0 0 14359012.829007149 22713979.58788681 0 22713979.58788681 -5927198.2911758423 0 0 0 0 -1144440.0567550659 5746484.3269577026 0 5746484.3269577026 -3027947.6019058228 0 0 0 0 -14514411.630493164 -15648471.888763428 0 -15648471.888763428 -35211290.671447754 0 0 0 0 7480361.7563041076 7496806.5647419915 0 7496806.5647419915 -6642704.8724898864 0 0 0 0 4394476.5514416695 14540330.611362457 0 14540330.611362457 -912682.66129684448 0 0 0 0 10246801.009171009 29028602.553442001 0 29028602.553442001 -29235967.763702393 0 0 0 0 17435751.39683342 21122643.235183716 0 21122643.235183716 -16346869.606948853 0 0 0 0 4603275.3577764314 8057735.0751469107 0 8057735.0751469107 -6881810.0482001947 0 0 0 0 22169242.178546906 -481092.90212440491 0 -481092.90212440491 -15492824.855285645 0 0 0 0 7480592.572183609 14325112.511106491 0 14325112.511106491 -12197517.0546875 0 0 0 0 27111418.441297531 15420489.840230942 0 15420489.840230942 -10032599.042285919 0 0 0 0 -6010936.2738657389 14580499.911087865 0 14580499.911087865 -9933261.9118931573 0 0 0 0 24107487.724409103 12879631.45450449 0 12879631.45450449 -12079021.312889099 0 0 0 0 20756359.858888149 23536519.62390995 0 23536519.62390995 -10633687.280578613 0 0 0 0 -23017533.647974014 41443047.676990509 0 41443047.676990509 16630216.088490963 0 0 0 0 -27116687.762742996 -615628.35318088531 0 -615628.35318088531 -6162359.2286262512 0 0 0 0 -3702540.9159987066 8212136.4990004171 0 8212136.4990004171 4765846.4508288186 0 0 0 0 -21452493.580993652 37628802.798870564 0 37628802.798870564 23531435.097357713 0 0 0 0 -16260711.528600216 11218935.720909953 0 11218935.720909953 -8108464.1755065918 0 0 0 0 -15815650.780880928 1419961.0779796839 0 1419961.0779796839 -11743928.2237854 0 0 0 0 -4248773.0257110596 5290632.5789337158 0 5290632.5789337158 -10984761.669548035 0 0 0 0 -3443957.1913375854 7049515.522315979 0 7049515.522315979 -11072864.781658173 0 0 0 0 3481095.028968811 12557405.583642006 0 12557405.583642006 -12064629.63092804 0 0 0 0 -934003.2194519043 9759226.6607589722 0 9759226.6607589722 -9403533.9046630859 0 0 0 0 -12099082.168371439 13503061.156426191 0 13503061.156426191 -10080657.834609985 0 0 0 0 -5058649.1573982239 8398651.4886627197 0 8398651.4886627197 -11137905.004386902 0 0 0 0 -11060026.462600708 5122033.357585907 0 5122033.357585907 -9931919.9939689636 0 0 0 0 -6701671.8623657227 8211359.0106735229 0 8211359.0106735229 -11117949.637428284 0 0 0 0 -9750149.2778358459 9547908.4357376099 0 9547908.4357376099 -9631632.3831634521 0 0 0 0 1478712.831987381 2453385.5265922546 0 2453385.5265922546 -1165298.7239151001 0 0 0 0 -1197538.5320892334 7582000.258392334 0 7582000.258392334 -8077477.98046875 0 0 0 0 747329.25821735524 6119336.856570432 0 6119336.856570432 -1877559.0669400617 0 0 0 0 -6171014.1233177185 10335107.593044281 0 10335107.593044281 -9565414.8770084381 0 0 0 0 -3625688.8148184121 9933773.5205845237 0 9933773.5205845237 -9038079.1116294861 0 0 0 0 -4003378.4297523499 9695068.5611038208 0 9695068.5611038208 -12068033.334154606 0 0 0 0 -3940324.3243255615 9017157.6537055969 0 9017157.6537055969 -11139134.094718933 0 0 0 0 1218005.1607990265 2579202.4067306519 0 2579202.4067306519 716872.90762329102 0 0 0 0 -5974376.6889953613 5591185.1555480957 0 5591185.1555480957 -8814155.9016036987 0 0 0 0 2073666.0088698319 2781577.8890834004 0 2781577.8890834004 -3232912.8017023653 0 0 0 0 -4632387.8851394653 13919471.997232437 0 13919471.997232437 -12955576.797851562 0 0 0 0 -2212270.5754642207 6725896.252292553 0 6725896.252292553 1389278.0221075807 0 0 0 0 -203324.17923712917 255428.98252769932 0 255428.98252769932 -216574.80661398359 0 0 0 0 -8573757.1721038818 8942125.8968963623 0 8942125.8968963623 -14779062.447593689 0 0 0 0 -612656.94819459098 9044413.8188230712 0 9044413.8188230712 -5848388.5066061057 0 0 0 0 -610249.67357063293 2650179.6381912231 0 2650179.6381912231 -114196.56201171875 0 0 0 0 -910551.73479808343 3128758.5527601242 0 3128758.5527601242 -3363902.2030874705 0 0 0 0 -173357160.6388917 -221167936.48047781 0 -221167936.48047781 2569423.6206741333 0 0 0 0 287209732.38294601 -91547683.830097198 0 -91547683.830097198 -67756704.516960144 0 0 0 0 -26381269.077108383 -83828009.06750679 0 -83828009.06750679 -15797396.400691986 0 0 0 0 -178724497.81370544 -203755.20971298218 0 -203755.20971298218 -38793216.606825352 0 0 0 0 32146.598130792845 72837.017888931325 0 72837.017888931325 -154639.85688776523 0 0 0 0 310220244.90204144 177586806.3542738 0 177586806.3542738 -42935254.439945221 0 0 0 0 -36736934.236983776 -72431495.860466957 0 -72431495.860466957 -40683892.183368683 0 0 0 0 -12662294.5717659 -121103873.53030205 0 -121103873.53030205 -47226858.644410133 0 0 0 0 -68623630.041234493 152637313.3236866 0 152637313.3236866 -80546991.283731461 0 0 0 0 132955.08198793256 62569.943416453665 0 62569.943416453665 -482415.37229428068 0 0 0 0 359472905.69640923 -29088787.451735497 0 -29088787.451735497 -99753120.923835754 0 0 0 0 -7044635.5661244392 -7432854.5605077744 0 -7432854.5605077744 11816806.036972046 0 0 0 0 151936513.0056591 112573625.69065094 0 112573625.69065094 46713222.876901388 0 0 0 0 240861255.99429607 203169242.93147373 0 203169242.93147373 -81322436.647315979 0 0 0 0 651512538.34962845 433940003.66027832 0 433940003.66027832 36708835.480810165 0 0 0 0 732836994.47497559 25476311.743494987 0 25476311.743494987 -178661629.07217312 0 0 0 0 251219691.06030655 160391100.40180588 0 160391100.40180588 29448435.884679794 0 0 0 0 220761072.11893082 203633213.43026161 0 203633213.43026161 -28957115.373390198 0 0 0 0 -50420486.122083664 37525126.516235352 0 37525126.516235352 58363367.461055756 0 0 0 0 252048.03006177954 249098.51842560992 0 249098.51842560992 167585.88845566381 0 0 0 0 333689346.67153835 79903968.440199137 0 79903968.440199137 -229459530.81224442 0 0 0 0 297980531.77005863 337508679.42348576 0 337508679.42348576 159671695.37728691 0 0 0 0 384920122.63734627 335800914.60308552 0 335800914.60308552 20188643.05474472 0 0 0 0 145280680.91173744 96811732.069838047 0 96811732.069838047 156724399.11193085 0 0 0 0 373805764.92072296 257914756.42959404 0 257914756.42959404 161141494.09875202 0 0 0 0 333754875.04917431 353785842.79996872 0 353785842.79996872 126623379.91069031 0 0 0 0 -29309752.559301376 298736930.27228642 0 298736930.27228642 284697208.32147312 0 0 0 0 343383071.93219519 370996992.16191387 0 370996992.16191387 141754219.37289047 0 0 0 0 181858756.8104496 140317297.31601906 0 140317297.31601906 278088284.4782865 0 0 0 0 177500170.97755337 185563827.2244668 0 185563827.2244668 136649092.97079659 0 0 0 0 -6676875.0718345642 77656757.999921799 0 77656757.999921799 154601638.7838614 0 0 0 0 -6693944.5568161011 145643367.56407928 0 145643367.56407928 -161705849.78951073 0 0 0 0 11205734.561664581 4878619.2948799133 0 4878619.2948799133 -26780062.746702194 0 0 0 0 -55654469.528347015 150747080.02085114 0 150747080.02085114 -150877069.83544731 0 0 0 0 533422.29973521829 527996.70168958418 0 527996.70168958418 341543.93830445223 0 0 0 0 -86217204.030274391 108167580.27789307 0 108167580.27789307 38157413.849472046 0 0 0 0 -52889854.324983597 291758.41705131531 0 291758.41705131531 12703010.83391571 0 0 0 0 -27035123.004257202 41108148.968833923 0 41108148.968833923 66090661.316417694 0 0 0 0 -352941.12499124091 1601762.3472339408 0 1601762.3472339408 828516.33620287105 0 0 0 0 -70172447.724338531 -5462881.458521843 0 -5462881.458521843 30024615.26002121 0 0 0 0 -25075896.709213257 16736404.724197388 0 16736404.724197388 11864487.732692719 0 0 0 0 -30672073.264743805 13363703.908036232 0 13363703.908036232 13365544.023769379 0 0 0 0 -1752167.0751599104 5329416.0887635443 0 5329416.0887635443 3449535.3875685222 0 0 0 0 4266294.043346405 21024698.294942856 0 21024698.294942856 -3484439.7758312225 0 0 0 0 1548431.2767327218 877514.08606708702 0 877514.08606708702 -2441298.232767676 0 0 0 0 21812741.682131767 5132797.5349969864 0 5132797.5349969864 -14484222.360759735 0 0 0 0 34216151.833184242 46548037.766270638 0 46548037.766270638 54941141.859146118 0 0 0 0 14903206.105762482 10545536.341785431 0 10545536.341785431 2436979.568687439 0 0 0 0 12261305.571310043 19133789.698242188 0 19133789.698242188 26405931.752248764 0 0 0 0 19444658.273208618 10347680.225860596 0 10347680.225860596 -16693893.98493576 0 0 0 0 32939297.199151993 11564758.453170776 0 11564758.453170776 -21050910.225345612 0 0 0 0 35698493.141876221 16880772.800590515 0 16880772.800590515 -30129521.390708923 0 0 0 0 25012955.048274994 17775671.119793415 0 17775671.119793415 14699072.835388184 0 0 0 0 46513703.664327621 17528987.903924942 0 17528987.903924942 14628127.388317585 0 0 0 0 11366524.611398697 9009485.2473278046 0 9009485.2473278046 110901881.70100021 0 0 0 0 114105433.16080666 80185218.377498627 0 80185218.377498627 91296061.619903564 0 0 0 0 -19185304.2531178 8753535.4084370136 0 8753535.4084370136 91883360.814743042 0 0 0 0 30949928.508872986 -8798964.8020458221 0 -8798964.8020458221 56503269.310747147 0 0 0 0 89997187.909908295 52254294.367396355 0 52254294.367396355 -8404860.4836730957 0 0 0 0 69498930.646360874 120262455.47388124 0 120262455.47388124 188795833.02636337 0 0 0 0 312316188.48397779 491607549.68059087 0 491607549.68059087 363963251.45932388 0 0 0 0 33116.231515360298 1144436.6208298951 0 1144436.6208298951 820798.08532818966 0 0 0 0 -212178599.45521927 -44406087.114183426 0 -44406087.114183426 272691181.43903351 0 0 0 0 2096775714.3581498 279768473.00202918 0 279768473.00202918 91681906.77374649 0 0 0 0 -52419534.706027985 216904463.79725456 0 216904463.79725456 504617056.85783863 0 0 0 0 -25168898.883940697 78212145.419756889 0 78212145.419756889 -16270036.573303223 0 0 0 0 68893355.918494225 25718447.823897362 0 25718447.823897362 -26001021.14756012 0 0 0 0 -121074754.37251282 36951880.224946976 0 36951880.224946976 6287373.2554645538 0 0 0 0 -116090.83899820119 3353552.8775323317 0 3353552.8775323317 2706447.067010818 0 0 0 0 2034583125.1520486 -492147836.39596701 0 -492147836.39596701 -297739973.26583862 0 0 0 0 171780755.04236221 -522073242.50104904 0 -522073242.50104904 531453980.64722443 0 0 0 0 608168356.61549187 -31089962.774927139 0 -31089962.774927139 353100938.32675934 0 0 0 0 1017399625.4150085 268419157.45487213 0 268419157.45487213 88822700.200027466 0 0 0 0 206112082.29521179 33515105.268379211 0 33515105.268379211 121388324.8347168 0 0 0 0 187340345.73205948 728098243.72150803 0 728098243.72150803 -425717387.68711472 0 0 0 0 296963201.25285196 113136794.01365185 0 113136794.01365185 -704753053.61908722 0 0 0 0 -187970451.88511467 220588015.70258331 0 220588015.70258331 12785740.122639179 0 0 0 0 464855257.03826714 427076803.36018372 0 427076803.36018372 190252419.35245132 0 0 0 0 38261718.526390076 107525586.75797272 0 107525586.75797272 21406245.169473648 0 0 0 0 -83701674.111278534 151732375.16136551 0 151732375.16136551 195771649.26617432 0 0 0 0 -338727310.5722084 -104740849.13503647 0 -104740849.13503647 293026145.92283535 0 0 0 0 -74575918.676989555 92374888.119759083 0 92374888.119759083 550798518.54857635 0 0 0 0 482585155.57319641 368879530.7420578 0 368879530.7420578 693563530.21867943 0 0 0 0 243795962.93869019 -100791001.33943558 0 -100791001.33943558 274705447.77485847 0 0 0 0 304032581.27721596 -191347548.62917614 0 -191347548.62917614 389551508.43476105 0 0 0 0 -41218521.644172668 -209474094.5365181 0 -209474094.5365181 220601117.05960464 0 0 0 0 -23915217.984306335 98208286.024953842 0 98208286.024953842 237730348.0590744 0 0 0 0 8038866.044812683 3015784.1691628639 0 3015784.1691628639 -2063212.466953096 0 0 0 0 213315050.21197891 -88135651.053474426 0 -88135651.053474426 18977053.651496887 0 0 0 0 286975180.79650497 87279076.92011261 0 87279076.92011261 -150050863.47841167 0 0 0 0 105574.0843963623 -2871840.2352294922 0 -2871840.2352294922 6473466.3636169434 0 0 0 0 410941084.17731667 24143633.080841064 0 24143633.080841064 -143756635.71654606 0 0 0 0 448881709.84160805 -70761374.558929443 0 -70761374.558929443 -442173189.42242432 0 0 0 0 109039148.93021393 -978052145.12866974 0 -978052145.12866974 1342287028.493927 0 0 0 0 686722168.20339203 -1956543374.4279633 0 -1956543374.4279633 -1135646485.4327459 0 0 0 0 344121632.87761688 564256159.72620392 0 564256159.72620392 -161480681.10498047 0 0 0 0 664542006.7143631 554894958.85066223 0 554894958.85066223 -865415482.98197746 0 0 0 0 819394214.41810989 199018382.31658936 0 199018382.31658936 -252607801.10601807 0 0 0 0 448537270.76331329 221155144.79284668 0 221155144.79284668 -240742258.40244675 0 0 0 0 483726206.85563278 311497377.0133667 0 311497377.0133667 -102112560.27062988 0 0 0 0 343726711.39130068 201091683.54036331 0 201091683.54036331 -72266717.239837646 0 0 0 0 484086918.74311686 263708100.175156 0 263708100.175156 9132874.8139648438 0 0 0 0 440800734.33958435 378852096.73173523 0 378852096.73173523 -159145662.8052063 0 0 0 0 526167053.88619232 343537548.05362701 0 343537548.05362701 120439283.55765533 0 0 0 0 510629222.97731018 281935282.56170654 0 281935282.56170654 21595566.977218628 0 0 0 0 589324106.85681152 195463574.61579895 0 195463574.61579895 85303797.69392395 0 0 0 0 357765592.84773254 253643645.92144775 0 253643645.92144775 72497644.365066528 0 0 0 0 213365810.66111755 238333259.52793121 0 238333259.52793121 103242515.47651672 0 0 0 0 431861208.34993267 226192423.39694214 0 226192423.39694214 -70278250.925430298 0 0 0 0 122415835.98693562 79592669.906070709 0 79592669.906070709 -41664419.085327148 0 0 0 0 108033710.58847618 -2441401.4898986816 0 -2441401.4898986816 -11839023.220306396 0 0 0 0 215157849.125947 138237540.61167526 0 138237540.61167526 -31617191.3359375 0 0 0 0 39593665.210475922 96401756.707725525 0 96401756.707725525 -27882575.272277832 0 0 0 0 -17020795.836328506 6590555.2759475708 0 6590555.2759475708 -38358159.846122742 0 0 0 0 14085621.553915024 102270099.48591614 0 102270099.48591614 67070650.61126709 0 0 0 0 -27777692.518604279 40198238.968410492 0 40198238.968410492 -14650175.434188843 0 0 0 0 22087561.956861496 -7537816.7559204102 0 -7537816.7559204102 27754558.936000824 0 0 0 0 15885972.503829956 77199935.193313599 0 77199935.193313599 179616195.8246727 0 0 0 0 -54506250.462297678 76253135.642634392 0 76253135.642634392 87758897.111206055 0 0 0 0 -51712545.713993073 118625155.79497528 0 118625155.79497528 -23481924.649688721 0 0 0 0 -25210840.432825089 19061558.197101593 0 19061558.197101593 47148909.246994019 0 0 0 0 -49528847.692040443 -7629994.2665939331 0 -7629994.2665939331 133594001.00613403 0 0 0 0 -1397175.5680916244 172038.66960501391 0 172038.66960501391 444664.71162224532 0 0 0 0 107828563.3335495 93089047.846313477 0 93089047.846313477 195985299.17521834 0 0 0 0 502588946.25038528 464638630.79375839 0 464638630.79375839 -1078854015.3524094 0 0 0 0 380007910.64823532 63558135.465656281 0 63558135.465656281 71570687.360176086 0 0 0 0 206450424.68257141 287165703.12481689 0 287165703.12481689 407411473.06970978 0 0 0 0 147663.569074912 471217.82373066992 0 471217.82373066992 40090.784902633051 0 0 0 0 489326575.21483231 284485471.18989182 0 284485471.18989182 76782777.751281738 0 0 0 0 248175843.84178734 1052600.8921279907 0 1052600.8921279907 -253798261.06615448 0 0 0 0 555644844.14072418 204702984.51052856 0 204702984.51052856 171312356.46083641 0 0 0 0 633548334.34437943 98676441.179977417 0 98676441.179977417 201730390.32835197 0 0 0 0 602820557.45836639 210623843.74316788 0 210623843.74316788 104787381.87197876 0 0 0 0 -56743420.398375511 29433715.27530241 0 29433715.27530241 9272819.329536438 0 0 0 0 1735814486.5533061 208047039.53488207 0 208047039.53488207 -414085364.51867676 0 0 0 0 -633651.3484378861 5604259.3263732679 0 5604259.3263732679 5938588.7343736198 0 0 0 0 856959392.35405731 993181204.28933716 0 993181204.28933716 -675593302.96340179 0 0 0 0 -11870006.668041229 23815109.153553009 0 23815109.153553009 -7742690.0257644653 0 0 0 0 -21172270.892261505 38508195.53584671 0 38508195.53584671 -4479629.9592227936 0 0 0 0 -8364488.0198307037 28778267.160963058 0 28778267.160963058 -8300742.7057113647 0 0 0 0 -28698272.949501038 8754256.9037265778 0 8754256.9037265778 5547846.0812683105 0 0 0 0 -7141483.5413093567 15017554.243331909 0 15017554.243331909 3565758.8852453232 0 0 0 0 -7689469.8559703827 12405997.156282425 0 12405997.156282425 18087749.64629364 0 0 0 0 -9896408.5296268463 20380380.269458771 0 20380380.269458771 14816678.091308594 0 0 0 0 295338460.556427 -159170617.14124298 0 -159170617.14124298 106584024.88714409 0 0 0 0 416846.90867651347 6107922.0796022136 0 6107922.0796022136 -7896127.9986645486 0 0 0 0 -11338833.336025238 20468684.45731926 0 20468684.45731926 20757364.9597435 0 0 0 0 631605998.50859833 170607481.96086884 0 170607481.96086884 79339801.13269043 0 0 0 0 -1620962.3903461329 7724070.0295363795 0 7724070.0295363795 10536445.822170366 0 0 0 0 544027581.6698761 179479089.39369202 0 179479089.39369202 100946322.00964355 0 0 0 0 513548874.80939484 240022890.602005 0 240022890.602005 40577196.288467407 0 0 0 0 484369845.93983459 242688625.63546753 0 242688625.63546753 81313502.194641113 0 0 0 0 551350529.46108818 158732017.51794243 0 158732017.51794243 144696404.47065735 0 0 0 0 -169924984.90142059 598090152.56102371 0 598090152.56102371 -449315927.49185181 0 0 0 0 256967.72510929604 795065.04942204058 0 795065.04942204058 -162800.91854409501 0 0 0 0 -227022096.30506897 -586738936.21684265 0 -586738936.21684265 -1538389804.3221741 0 0 0 0 1339762963.5325317 82574647.072799683 0 82574647.072799683 -2300678658.6797943 0 0 0 0 355856215.79328918 469230375.19132996 0 469230375.19132996 -56571183.025604248 0 0 0 0 -1302122.8221247755 1427690.4436598355 0 1427690.4436598355 989461.67159995995 0 0 0 0 436770561.4540596 349113462.19369507 0 349113462.19369507 118520895.52616882 0 0 0 0 2833037622.0232086 1461291790.2416763 0 1461291790.2416763 -1719871375.6720924 0 0 0 0 369333.21778753959 -318844.26845802367 0 -318844.26845802367 109437.37708084658 0 0 0 0 -130805722.42259216 81607893.538360596 0 81607893.538360596 -3064848.7506561279 0 0 0 0 -153112702.37412262 769236497.82279968 0 769236497.82279968 -363835575.41303253 0 0 0 0 -140714448.70212936 25678874.218637466 0 25678874.218637466 -7767253.0899963379 0 0 0 0 -291375341.04397583 320388153.79290771 0 320388153.79290771 72033553.400074005 0 0 0 0 -81314270.033828735 68821680.403312683 0 68821680.403312683 -152964.95502471924 0 0 0 0 -92656335.869678497 112412292.46316528 0 112412292.46316528 18101799.867736816 0 0 0 0 -82881774.393684387 75571043.13180542 0 75571043.13180542 -36290405.084022522 0 0 0 0 -106371499.91611481 90622230.379241943 0 90622230.379241943 -16687081.112030029 0 0 0 0 -96043173.18317318 57283907.716186523 0 57283907.716186523 -1399088.6898193359 0 0 0 0 -166055647.23798752 85909321.859588623 0 85909321.859588623 -13073278.12664032 0 0 0 0 -153400462.15237427 9405968.2033081055 0 9405968.2033081055 -1807834.9295793772 0 0 0 0 -61838347.19657135 -204165.72909164429 0 -204165.72909164429 -1996643.893951416 0 0 0 0 -111842093.55548859 51841281.148002625 0 51841281.148002625 2453938.0360565186 0 0 0 0 -37439962.9270401 35021601.694145203 0 35021601.694145203 4830760.9599227905 0 0 0 0 -53069628.14037323 19420003.878229141 0 19420003.878229141 8309815.9333877563 0 0 0 0 -54705580.170677185 75631081.670158386 0 75631081.670158386 14895808.591812134 0 0 0 0 -78639594.945039749 79734389.413230896 0 79734389.413230896 16753574.182617188 0 0 0 0 -34693872.860767365 119900697.16384125 0 119900697.16384125 13620557.315612793 0 0 0 0 15549482.065917969 23756929.834754944 0 23756929.834754944 -504458.79752349854 0 0 0 0 10382634.538098335 31371262.414944649 0 31371262.414944649 1086632.6576538086 0 0 0 0 1050058.4263612749 6847942.5557475248 0 6847942.5557475248 -8431011.5034557395 0 0 0 0 -2288781.4908180237 34924349.558883667 0 34924349.558883667 -18252583.474140167 0 0 0 0 14165739.666561127 27414670.867894173 0 27414670.867894173 -15783576.854782104 0 0 0 0 17324975.006697655 19722311.700517178 0 19722311.700517178 -843263.38335800171 0 0 0 0 -5342617.6955986023 23024074.522266388 0 23024074.522266388 808192.11444282532 0 0 0 0 13493619.454938889 12394971.703350067 0 12394971.703350067 -14691138.983024597 0 0 0 0 16020951.466432571 7880925.5914745331 0 7880925.5914745331 -13631483.502262115 0 0 0 0 14122412.996298313 8767601.5694379807 0 8767601.5694379807 9418783.6444091797 0 0 0 0 -7617118.2624359131 79871259.87802124 0 79871259.87802124 14436493.0046978 0 0 0 0 -6709914.2814922333 17907027.117099762 0 17907027.117099762 40406586.50944519 0 0 0 0 12895642.119913101 29692209.560810089 0 29692209.560810089 1833714.2216720581 0 0 0 0 -602843.50652281637 8057576.4048800776 0 8057576.4048800776 5241313.1801145673 0 0 0 0 976165.17261213064 7348721.7353095189 0 7348721.7353095189 -8123011.2127936687 0 0 0 0 -10823439.714664459 12442952.859863281 0 12442952.859863281 11668132.057466507 0 0 0 0 -1241351.703627279 9097546.1787543371 0 9097546.1787543371 7189044.275002433 0 0 0 0 -17256592.729705811 23124967.506458282 0 23124967.506458282 12954950.802278519 0 0 0 0 -20050563.435539246 10853389.36687851 0 10853389.36687851 11398493.63445282 0 0 0 0 -12163914.826492786 16444122.6451478 0 16444122.6451478 8158447.9433288574 0 0 0 0 -16764865.994229078 11431595.758450508 0 11431595.758450508 33008613.953353882 0 0 0 0 -16007371.79493618 15907223.277375698 0 15907223.277375698 12702164.361190796 0 0 0 0 -1116656.5719967228 9867511.8474461138 0 9867511.8474461138 6952833.9927067226 0 0 0 0 -9619166.948600769 3965644.0066890717 0 3965644.0066890717 5881414.2484893799 0 0 0 0 1426861.000831604 -9364879.3882064819 0 -9364879.3882064819 6484713.6912536621 0 0 0 0 -6296004.2746772766 -8297782.9241027832 0 -8297782.9241027832 29527760.813644409 0 0 0 0 -11514998.349843979 1954626.6083469391 0 1954626.6083469391 15926271.715301514 0 0 0 0 -46431.337931298651 3146091.11141505 0 3146091.11141505 2547040.6843913496 0 0 0 0 -40440527.589229584 15966680.786369324 0 15966680.786369324 -767527.66404724121 0 0 0 0 2111134.5549430847 -12240597.035064697 0 -12240597.035064697 16661646.372291565 0 0 0 0 91751215.186781883 162065347.13673019 0 162065347.13673019 27721130.182662964 0 0 0 0 209573472.31602478 -191645085.98597717 0 -191645085.98597717 60134957.244602203 0 0 0 0 -119723339.00258636 -19856391.257034302 0 -19856391.257034302 200148411.33760071 0 0 0 0 -170282.37657568045 650533.39383988455 0 650533.39383988455 1300616.8646473736 0 0 0 0 -115614645.25408936 17295642.290298462 0 17295642.290298462 26968925.061264038 0 0 0 0 157719.37819541711 464984.53597540036 0 464984.53597540036 784048.48254111223 0 0 0 0 7853238.0841369629 33849873.920791626 0 33849873.920791626 2431658.9620361328 0 0 0 0 19221978.682155609 16248973.814437866 0 16248973.814437866 22712175.817611694 0 0 0 0 -1057322.1806949442 2784220.9747169511 0 2784220.9747169511 2904447.0172400512 0 0 0 0 3736039.1179618835 7927875.5851745605 0 7927875.5851745605 6277520.7032699585 0 0 0 0 8407212.6755003929 -7146316.453306675 0 -7146316.453306675 -101018743.7119751 0 0 0 0 1069095.7208404541 20200053.009326935 0 20200053.009326935 1466652.2642364502 0 0 0 0 5667819.0065002441 10304667.41178894 0 10304667.41178894 -418594.6940612793 0 0 0 0 9863323.0420482159 6954629.2465391159 0 6954629.2465391159 2250134.2487640381 0 0 0 0 -88936009.622264862 -46349649.473335266 0 -46349649.473335266 27410585.817180634 0 0 0 0 -122656640.41366577 -4099327.9400787354 0 -4099327.9400787354 10071003.906524658 0 0 0 0 13306344.905067444 155066944.7588501 0 155066944.7588501 -174484172.11325073 0 0 0 0 -164962.68115867581 875071.04311148915 0 875071.04311148915 715521.05751030147 0 0 0 0 57073530.419594765 542173725.72356606 0 542173725.72356606 -361193136.27154541 0 0 0 0 -218772070.65842056 202326509.69441986 0 202326509.69441986 -116245131.91499329 0 0 0 0 -262348183.08275986 -6326118.344830513 0 -6326118.344830513 131642422.77746582 0 0 0 0 -225994735.54151726 174056367.17250824 0 174056367.17250824 -37015737.22454834 0 0 0 0 -167435894.46366787 343768476.34092426 0 343768476.34092426 -133001327.95384216 0 0 0 0 -2692107.2077789307 -11087472.690750122 0 -11087472.690750122 50838504.561349869 0 0 0 0 -702107.3865237711 25286.938645943999 0 25286.938645943999 622876.82367169484 0 0 0 0 -4509897.0150470734 40719720.409870148 0 40719720.409870148 68476357.687156677 0 0 0 0 -7346687.2860760689 275439440.42796135 0 275439440.42796135 -194522248.6660614 0 0 0 0 58083808.605131149 120231829.07201004 0 120231829.07201004 344729.51319885254 0 0 0 0 -204271456.01563454 40401818.102294922 0 40401818.102294922 72297257.033843994 0 0 0 0 30068860.510715485 87655831.02161026 0 87655831.02161026 148099737.2469635 0 0 0 0 46557778.857894897 119454222.86724091 0 119454222.86724091 -123387370.45345688 0 0 0 0 -62674.440459471196 393502.38797375187 0 393502.38797375187 198756.74686161894 0 0 0 0 -50803493.600156784 36061263.105079651 0 36061263.105079651 -30301258.770980835 0 0 0 0 5840163.0944519043 18253975.240531921 0 18253975.240531921 -56384124.261962891 0 0 0 0 5433813.3145713806 11205692.531951904 0 11205692.531951904 -67657868.424636841 0 0 0 0 -27230346.059555054 11505851.830909729 0 11505851.830909729 -1198675.0554847717 0 0 0 0 11111.773135541007 918771.72126959264 0 918771.72126959264 394789.83031032234 0 0 0 0 11408960.902927399 32746003.834350586 0 32746003.834350586 24446.77938079834 0 0 0 0 26460412.565876007 18234280.133888245 0 18234280.133888245 12113665.637931824 0 0 0 0 -15118.443267562892 -1336324.3966155192 0 -1336324.3966155192 422170.52107853815 0 0 0 0 -19827400.088160515 14053169.257236481 0 14053169.257236481 -5959226.7642059326 0 0 0 0 206658.95917427912 1163270.1296890397 0 1163270.1296890397 1171316.8144709999 0 0 0 0 3454330.3179588318 2880700.2125291824 0 2880700.2125291824 2915340.3407592773 0 0 0 0 -72940689.238292694 28183561.008773804 0 28183561.008773804 2206877.7474746704 0 0 0 0 135780.92001523869 -390882.02349937242 0 -390882.02349937242 117219.83432464302 0 0 0 0 3880788.2541875839 12634181.366153717 0 12634181.366153717 -37398945.053649902 0 0 0 0 13871954.406097412 36915537.578216553 0 36915537.578216553 -48802364.133277893 0 0 0 0 12704767.856372833 28399097.805114746 0 28399097.805114746 -68171911.761100292 0 0 0 0 -42612121.959060669 108100878.88642883 0 108100878.88642883 -134785994.26325989 0 0 0 0 -175990716.65499115 166948259.04686737 0 166948259.04686737 -78593418.181640625 0 0 0 0 -295692688.95366478 62684739.814815521 0 62684739.814815521 8359727.4424285889 0 0 0 0 67817.846982424147 847437.58348113578 0 847437.58348113578 637551.58818458393 0 0 0 0 391741766.82087421 253759911.80228996 0 253759911.80228996 -272756647.66337585 0 0 0 0 -101098505.66595459 96404223.033111572 0 96404223.033111572 -60095749.557632446 0 0 0 0 -83183622.070085764 64555351.621858001 0 64555351.621858001 -12210155.494445801 0 0 0 0 18392251.494782448 2044029.1090068817 0 2044029.1090068817 -4829776.8744659424 0 0 0 0 29733.616264938144 -171722.15621842444 0 -171722.15621842444 42016.347855471075 0 0 0 0 -90261392.706420898 87851034.039077759 0 87851034.039077759 -77224288.375526428 0 0 0 0 -121273241.75897789 89553286.189222336 0 89553286.189222336 -57481012.301757812 0 0 0 0 -48883504.446510315 55181023.927906036 0 55181023.927906036 -46643869.534965515 0 0 0 0 -22990204.304210663 -15105464.889709473 0 -15105464.889709473 6196318.4732627869 0 0 0 0 4913712.7599945068 1693654.5228462219 0 1693654.5228462219 -4802575.1615905762 0 0 0 0 -527851403.05477524 -76998797.000965118 0 -76998797.000965118 665715373.36212158 0 0 0 0 465626933.03395844 1588381064.5077133 0 1588381064.5077133 1020320400.0503693 0 0 0 0 1542856303.3816948 -1002960693.8975677 0 -1002960693.8975677 952317513.88778853 0 0 0 0 977427.30790796317 -682820.13394517871 0 -682820.13394517871 -241147.51691555977 0 0 0 0 650911.8765944019 1246276.3037827946 0 1246276.3037827946 1067929.0513272826 0 0 0 0 -2528791.3299064636 -3928259.2979888916 0 -3928259.2979888916 3104754.0662155151 0 0 0 0 -3898726.4437828064 5901051.5775375366 0 5901051.5775375366 2074019.6040878296 0 0 0 0 43319.880771636963 6599673.6776199341 0 6599673.6776199341 -7602019.7602729797 0 0 0 0 2269503.8322944641 9034409.2842655182 0 9034409.2842655182 -26196514.405166626 0 0 0 0 5688317.3668823242 20348128.47492218 0 20348128.47492218 -16828090.740020752 0 0 0 0 -6757177.5312194824 22964614.239501953 0 22964614.239501953 -280512.99853906146 0 0 0 0 20036147.701156616 -41358306.270572662 0 -41358306.270572662 -179512749.12859344 0 0 0 0 6172636.7776575089 21221667.718504906 0 21221667.718504906 -37238741.705841064 0 0 0 0 1210064.9704358634 -384748.74877388356 0 -384748.74877388356 -642385.06349918619 0 0 0 0 3495672.2713737488 -3698269.401971817 0 -3698269.401971817 -32997746.750900269 0 0 0 0 1235636.3235206604 892257.233543396 0 892257.233543396 -4790586.3797683716 0 0 0 0 236476293.33114624 -188533536.52283478 0 -188533536.52283478 111853625.20889282 0 0 0 0 600138913.40102386 194698212.45954132 0 194698212.45954132 -96355854.706756592 0 0 0 0 541270452.15185547 194307969.98879242 0 194307969.98879242 -79095361.17767334 0 0 0 0 619088436.92900085 134138924.08039856 0 134138924.08039856 -29408838.56047821 0 0 0 0 523916.67899104301 -237143.98023107555 0 -237143.98023107555 -304352.0341341272 0 0 0 0 598994273.62347794 103952889.95968819 0 103952889.95968819 4948448.8829345703 0 0 0 0 428461852.09703827 128796427.37957001 0 128796427.37957001 154648107.69659233 0 0 0 0 567326208.98192978 174290040.98055267 0 174290040.98055267 10165989.920490265 0 0 0 0 494877685.57621002 293375795.7628746 0 293375795.7628746 97826433.603416443 0 0 0 0 314304713.13043976 130189488.94589996 0 130189488.94589996 -34325209.699996948 0 0 0 0 483463901.18161011 559678560.19723892 0 559678560.19723892 718527808.04980469 0 0 0 0 670423346.44968414 -219705534.2591629 0 -219705534.2591629 63703093.185760498 0 0 0 0 380210.6855299063 476456.04839584604 0 476456.04839584604 317158.84407263994 0 0 0 0 1118008382.6674118 183570612.61206055 0 183570612.61206055 -101439023.53080368 0 0 0 0 967700918.28555298 795855823.39074707 0 795855823.39074707 38130253.039016724 0 0 0 0 616111279.60587311 689517533.48156738 0 689517533.48156738 154185718.37304688 0 0 0 0 2822523.8709010351 778643.25678497367 0 778643.25678497367 -716077.17066885158 0 0 0 0 584174930.54421711 899861878.29138374 0 899861878.29138374 576800776.4249649 0 0 0 0 222694106.82282257 -93576140.005950928 0 -93576140.005950928 83436149.590339661 0 0 0 0 180019395.87374115 19941833.405006409 0 19941833.405006409 -165695685.98268127 0 0 0 0 -25135907.105849266 6390647.4651184082 0 6390647.4651184082 6690910.5137805939 0 0 0 0 -17412481.606596947 13140698.978652954 0 13140698.978652954 8953845.3839073181 0 0 0 0 -17383398.141395569 2833356.3816680908 0 2833356.3816680908 1555720.4683609009 0 0 0 0 -15572957.990133286 13477710.299873352 0 13477710.299873352 8260183.5240325928 0 0 0 0 -14515546.366629839 12023676.445672989 0 12023676.445672989 3045112.4843597412 0 0 0 0 -29515803.851675034 8054854.4745178223 0 8054854.4745178223 3219731.6385364532 0 0 0 0 -13651264.936988831 16487800.896015167 0 16487800.896015167 3155477.0056533813 0 0 0 0 -24166222.750994682 7224418.0434455872 0 7224418.0434455872 595128.16049194336 0 0 0 0 -28909934.876708984 -765749.04781341553 0 -765749.04781341553 -4875887.1988677979 0 0 0 0 -965769.65336814686 4021775.1113024284 0 4021775.1113024284 -108075.35076427087 0 0 0 0 20008104.922016382 9291253.9685297012 0 9291253.9685297012 -3854747.2475738525 0 0 0 0 11814736.882209778 25175549.838809967 0 25175549.838809967 94853189.621673584 0 0 0 0 28871665.558531761 -49564058.367343903 0 -49564058.367343903 21807475.646499634 0 0 0 0 7678003.7997655869 10924802.670682907 0 10924802.670682907 2557122.5305023193 0 0 0 0 4458169.5575224422 4657411.3599179247 0 4657411.3599179247 -3663555.0607074164 0 0 0 0 32184996.102400899 12127326.485111237 0 12127326.485111237 -19980093.063140869 0 0 0 0 14253896.235936642 -569576.4206905365 0 -569576.4206905365 -7631725.8899993896 0 0 0 0 5013451.8581601977 -1861580.026540149 0 -1861580.026540149 -5054387.951534491 0 0 0 0 15036248.428747177 5870345.0770835876 0 5870345.0770835876 -8421427.1541748047 0 0 0 0 17130822.694616318 748224.50128173828 0 748224.50128173828 2053766.6520233154 0 0 0 0 14682419.49564743 13457620.417770386 0 13457620.417770386 16453082.829986572 0 0 0 0 15433140.112773418 3510315.1991009712 0 3510315.1991009712 -3071499.4103240967 0 0 0 0 -653809.04791519733 908434.80399049143 0 908434.80399049143 1086960.7058802322 0 0 0 0 -30421639.724386692 1668332.5880622864 0 1668332.5880622864 4682870.9837493896 0 0 0 0 39763569.249018669 27881371.985061646 0 27881371.985061646 15088250.391159058 0 0 0 0 184123831.76476955 24505868.949485779 0 24505868.949485779 -54851822.232826233 0 0 0 0 6874.0633087338647 132741.32548462832 0 132741.32548462832 -34870.558022901416 0 0 0 0 -430492.83621821634 2200425.1323520797 0 2200425.1323520797 243817.49324608967 0 0 0 0 229156.71474504471 -6154398.6778030396 0 -6154398.6778030396 -4243441.4629974365 0 0 0 0 -11971351.705998659 6992846.5683403015 0 6992846.5683403015 4729157.9968109131 0 0 0 0 66853504.960559845 33287867.968120575 0 33287867.968120575 -6394177.2869415283 0 0 0 0 35164.17481765378 325653.68107669824 0 325653.68107669824 29154.670591082424 0 0 0 0 -7972646.3880472183 59144185.818431854 0 59144185.818431854 18370784.084632874 0 0 0 0 38687797.770095825 21978429.332897186 0 21978429.332897186 -2758111.560344696 0 0 0 0 -10553142.428225219 -2114827.6182425022 0 -2114827.6182425022 16806997.081268311 0 0 0 0 -368871.32549576485 4689798.4633812867 0 4689798.4633812867 -1397111.22916089 0 0 0 0 43260467.951451302 9812837.3674850464 0 9812837.3674850464 -12597731.032562256 0 0 0 0 26679215.603981018 3739797.9346466064 0 3739797.9346466064 -9129334.1951904297 0 0 0 0 33205398.184828758 -8147273.9658699036 0 -8147273.9658699036 9146188.4163970947 0 0 0 0 10801934.323569059 15675510.850521088 0 15675510.850521088 21127902.526092529 0 0 0 0 12493397.938274145 20832315.044500351 0 20832315.044500351 17401620.51789856 0 0 0 0 3795314.3887119293 26888381.288532257 0 26888381.288532257 1675383.6874237061 0 0 0 0 11330404.033836365 17336580.125717163 0 17336580.125717163 12643205.129669189 0 0 0 0 11812357.731897354 24307636.576721191 0 24307636.576721191 1368023.202331543 0 0 0 0 6972636.3919830322 9770555.7594871521 0 9770555.7594871521 -2297694.3503417969 0 0 0 0 -314422.99303947692 3273745.1290261745 0 3273745.1290261745 180976.26880487427 0 0 0 0 22264645.263134003 -2530121.4872436523 0 -2530121.4872436523 -18457850.037368774 0 0 0 0 26386834.414569855 23595791.022796631 0 23595791.022796631 7788381.1869506836 0 0 0 0 13234136.456668854 -23153242.759353638 0 -23153242.759353638 2854585.3787918091 0 0 0 0 52486.743301325245 88924.138587235473 0 88924.138587235473 -241699.22240860388 0 0 0 0 -13352092.208834171 19161065.624011993 0 19161065.624011993 -4999720.9120330811 0 0 0 0 -4881834.6325645447 8734693.1507110596 0 8734693.1507110596 801918.51518344879 0 0 0 0 -572698.1715939045 6248230.9948825836 0 6248230.9948825836 -2458651.4484100342 0 0 0 0 -4552314.3574895859 5711338.6945800781 0 5711338.6945800781 -11745113.604309082 0 0 0 0 -11398043.57336998 13885354.950601578 0 13885354.950601578 8416184.3053894043 0 0 0 0 -13943598.424371719 9117048.2474594116 0 9117048.2474594116 3209030.8606338501 0 0 0 0 -21831578.778198719 8781275.4722709656 0 8781275.4722709656 7352212.6477661133 0 0 0 0 -13943514.593343735 21762211.237991333 0 21762211.237991333 15216844.750089645 0 0 0 0 -8915440.9652762413 16861554.144813538 0 16861554.144813538 12696333.425918579 0 0 0 0 -13922970.716491699 10225535.232646942 0 10225535.232646942 10844685.184997559 0 0 0 0 -5867996.66512537 19031423.777269363 0 19031423.777269363 -20284379.45791626 0 0 0 0 8489131.4443216324 5028724.9687042236 0 5028724.9687042236 -24478318.437040329 0 0 0 0 -175107.03626598569 6366847.9107611328 0 6366847.9107611328 -2188605.0436030999 0 0 0 0 -8709655.7304606438 16431153.937015533 0 16431153.937015533 17988276.323432922 0 0 0 0 794529.6013555266 609247.58550484292 0 609247.58550484292 -864459.48223798722 0 0 0 0 8968745.6772542 2675739.0474586487 0 2675739.0474586487 -17536389.783843994 0 0 0 0 3930380.2706103325 7705226.5981860161 0 7705226.5981860161 5748850.7708587646 0 0 0 0 1846308.5790878031 6410409.6452750368 0 6410409.6452750368 -4219836.6822352875 0 0 0 0 13408533.490274429 22178877.796924591 0 22178877.796924591 -7784600.3181381226 0 0 0 0 6131557.9280395508 3783780.2405853271 0 3783780.2405853271 4899611.6870613098 0 0 0 0 -1853995.9477234948 2659278.1079584416 0 2659278.1079584416 3346724.5446427297 0 0 0 0 3651819.4056587219 7371423.5960235596 0 7371423.5960235596 4190786.9935951233 0 0 0 0 155257.28307056427 12705425.902507782 0 12705425.902507782 -12520464.154418945 0 0 0 0 12790714.581352234 24430259.608360291 0 24430259.608360291 -1428834.2744369507 0 0 0 0 15777961.009026527 9835246.6987228394 0 9835246.6987228394 7644375.5527038574 0 0 0 0 -3303806.6415367126 9273335.6047286987 0 9273335.6047286987 22671953.533672333 0 0 0 0 21329642.618358612 19986245.29246521 0 19986245.29246521 17728430.934394836 0 0 0 0 -10447309.433357239 4336340.9536895752 0 4336340.9536895752 25113634.866897583 0 0 0 0 -107943.54182994249 143296.79686107021 0 143296.79686107021 -32970.306757234037 0 0 0 0 -5353855.112077713 19492745.067876816 0 19492745.067876816 9251687.6900749207 0 0 0 0 -4865784.8957843781 28163724.650245667 0 28163724.650245667 1581396.1777276993 0 0 0 0 11691371.348503113 17534828.380199432 0 17534828.380199432 5757902.7723770142 0 0 0 0 -2151995.5329561234 3618246.3022575378 0 3618246.3022575378 10196723.891819 0 0 0 0 6331530.1479658484 14265789.34657523 0 14265789.34657523 7997720.121131897 0 0 0 0 -126311.79555380438 208911.48476943653 0 208911.48476943653 471597.20548194833 0 0 0 0 151091.18067741394 18458523.664375305 0 18458523.664375305 4278019.8318309784 0 0 0 0 -904381.83535579406 7326626.7692058664 0 7326626.7692058664 -420087.40555295069 0 0 0 0 -1029264.7740345001 23479243.941362381 0 23479243.941362381 5500359.4311163425 0 0 0 0 9081204.7546844482 11235952.044281006 0 11235952.044281006 11028021.806442261 0 0 0 0 -257209.15827178955 652806.07243347168 0 652806.07243347168 1131921.9579162598 0 0 0 0 -1880994.59139401 1147129.0959922029 0 1147129.0959922029 6196593.5641679205 0 0 0 0 2260180.1278754631 1909245.8538309596 0 1909245.8538309596 -644750.81065227464 0 0 0 0 3905507.0149230957 127252.73150634766 0 127252.73150634766 4033220.7436065674 0 0 0 0 -391164.16905956576 4528152.4448218253 0 4528152.4448218253 -3607805.7691938207 0 0 0 0 666167.36409968243 4410516.4988482222 0 4410516.4988482222 2652418.6470454596 0 0 0 0 -159870620.98996925 17131685.439659119 0 17131685.439659119 -2187084.0861816406 0 0 0 0 -1047674.6402879443 3393217.4597416529 0 3393217.4597416529 2811829.0081892461 0 0 0 0 15363626.603961468 115440563.9401474 0 115440563.9401474 -7702734.2927339077 0 0 0 0 124507594.99510574 -61343629.866081238 0 -61343629.866081238 -33690141.33416748 0 0 0 0 -12040816.179347515 -22080264.301422119 0 -22080264.301422119 58925790.273393631 0 0 0 0 -52284824.532011032 14830887.716403961 0 14830887.716403961 53146124.454666138 0 0 0 0 -3796345.8283042908 29851199.833095551 0 29851199.833095551 -15479520.806740046 0 0 0 0 16740769.504047431 -45148865.58198756 0 -45148865.58198756 -12479136.342132568 0 0 0 0 581417.35007483535 131414.75551584829 0 131414.75551584829 -617613.85581752472 0 0 0 0 2711308.4936408997 12302410.995685577 0 12302410.995685577 660829.5446472168 0 0 0 0 917298.10354217514 6559457.7245794926 0 6559457.7245794926 2131344.0367698669 0 0 0 0 2654979.600353241 12327752.138824463 0 12327752.138824463 4995934.1553192139 0 0 0 0 220174.90885543823 7619275.7567672729 0 7619275.7567672729 1323231.0258083344 0 0 0 0 2194116.7410984039 9987298.2220420837 0 9987298.2220420837 3935370.6676483154 0 0 0 0 1343595.0398225784 12450004.978134155 0 12450004.978134155 8975179.1245193481 0 0 0 0 -1207468.6681866646 17588999.47876358 0 17588999.47876358 -1313825.775138855 0 0 0 0 -600055.50556945801 12499365.205116272 0 12499365.205116272 7288589.1428833008 0 0 0 0 -2171650.7458233833 17211555.876459122 0 17211555.876459122 5228207.1865234375 0 0 0 0 3654730.4003019333 21391326.941711426 0 21391326.941711426 7204209.9774169922 0 0 0 0 1830610.3125619888 7162559.9721641541 0 7162559.9721641541 16822243.654634476 0 0 0 0 -8013979.7467374802 22984215.287845612 0 22984215.287845612 22765459.815048218 0 0 0 0 -3773022.6123008728 28132316.320968628 0 28132316.320968628 3807060.2755661011 0 0 0 0 -22251742.823671341 43932782.966011047 0 43932782.966011047 -7697323.02713871 0 0 0 0 868284.92000007629 10949283.796527863 0 10949283.796527863 5381215.3413543701 0 0 0 0 -211752.31934019236 593512.90053382842 0 593512.90053382842 686856.52097282931 0 0 0 0 3000986.1377301216 4227824.5890579224 0 4227824.5890579224 9359865.1757793427 0 0 0 0 3992209.4357171059 6810455.5529022217 0 6810455.5529022217 560496.24950408936 0 0 0 0 -431077.23559623701 3231126.7332566157 0 3231126.7332566157 293525.84403380938 0 0 0 0 2923081.5195150375 6244368.216999054 0 6244368.216999054 -7481870.4501104355 0 0 0 0 1879098.0417563822 414435.7996136602 0 414435.7996136602 -1991902.9558567517 0 0 0 0 13779267.26459837 -3791572.521194458 0 -3791572.521194458 -7170024.2934265137 0 0 0 0 -5052258.4568643868 4430381.5345555544 0 4430381.5345555544 4124796.9358978271 0 0 0 0 -132966.92802606756 4746818.4570263587 0 4746818.4570263587 2188099.9734296054 0 0 0 0 -2898311.545955658 1757394.1106719971 0 1757394.1106719971 5747372.4325752258 0 0 0 0 -48171.645540714264 2219553.70054245 0 2219553.70054245 -1360066.7172698975 0 0 0 0 387922.21727705002 1694778.3043899536 0 1694778.3043899536 -1228923.9059677124 0 0 0 0 94562.554053859785 1290686.1664289888 0 1290686.1664289888 -994016.30882518739 0 0 0 0 3400241.425134901 3189450.3620939599 0 3189450.3620939599 -472812.08603698388 0 0 0 0 3361887.5175094604 8959457.0411262512 0 8959457.0411262512 4088818.2847442627 0 0 0 0 -1266633.3716011047 11415864.405082703 0 11415864.405082703 8402229.8616790771 0 0 0 0 354656.52011675946 5526132.648598318 0 5526132.648598318 2440152.0267248265 0 0 0 0 -5611337.7272567749 11559623.600723267 0 11559623.600723267 2402160.4622192383 0 0 0 0 -5462904.5792770386 8208884.9866523743 0 8208884.9866523743 6367151.9281311035 0 0 0 0 -4971515.1165924072 5339132.9226226807 0 5339132.9226226807 5228035.8594741821 0 0 0 0 -5062485.288607657 4066021.4182251692 0 4066021.4182251692 9224677.7392730713 0 0 0 0 -4880314.8159637451 651432.98509216309 0 651432.98509216309 6078720.53515625 0 0 0 0 -4004956.1116027832 -1476866.339515686 0 -1476866.339515686 13932050.111393929 0 0 0 0 -5098572.5222349167 5963188.1132545471 0 5963188.1132545471 13066861.464889526 0 0 0 0 544651.45153999329 -7686210.6618232727 0 -7686210.6618232727 18607037.970386505 0 0 0 0 -4251681.5047416687 6784699.7670516968 0 6784699.7670516968 8880410.6575260162 0 0 0 0 -3051564.6533279419 13045325.59759903 0 13045325.59759903 29995384.448318481 0 0 0 0 -1212308.862487793 546065.46421813965 0 546065.46421813965 1789092.9834289551 0 0 0 0 -882572.82089614868 -2274679.0692710876 0 -2274679.0692710876 2956239.582244873 0 0 0 0 -2548611.091796875 -639258.57097625732 0 -639258.57097625732 3668478.6142654419 0 0 0 0 -4572135.6870937347 873219.28211593628 0 873219.28211593628 4996008.4904174805 0 0 0 0 -5675563.6362991333 1611398.6703872681 0 1611398.6703872681 5143047.3120880127 0 0 0 0 -3863852.1366577148 562656.92582702637 0 562656.92582702637 5131809.8869476318 0 0 0 0 -4232038.4757966995 1690066.8967895508 0 1690066.8967895508 3010605.8945617676 0 0 0 0 -2721772.6329498291 42305.767303466797 0 42305.767303466797 2877217.3704528809 0 0 0 0 -3997006.2011184692 1127551.9838867188 0 1127551.9838867188 2072216.3038330078 0 0 0 0 -2663620.782207489 605165.75819396973 0 605165.75819396973 2136796.7970352173 0 0 0 0 -2107820.2052202225 476077.53288841248 0 476077.53288841248 2058188.8022918701 0 0 0 0 -2427117.9621086121 -598583.62935638428 0 -598583.62935638428 -811510.48907470703 0 0 0 0 -403341840.64286041 757666084.8164978 0 757666084.8164978 -1418835118.3930664 0 0 0 0 -443369.49102228787 1547401.3170842137 0 1547401.3170842137 888326.99238124629 0 0 0 0 3933912.0383519316 1908590.8106235228 0 1908590.8106235228 890554.01644784585 0 0 0 0 -260318186.02572274 149632550.89114761 0 149632550.89114761 232713098.80841064 0 0 0 0 -1743064.5014423933 -36473.150149816647 0 -36473.150149816647 1261470.0445609353 0 0 0 0 514980.16193771362 2128848.740447998 0 2128848.740447998 1001853.6607017517 0 0 0 0 232304.25157935638 1507303.5303449966 0 1507303.5303449966 581412.46935457131 0 0 0 0 1863577.4099979401 3386556.76222229 0 3386556.76222229 1413942.4617919922 0 0 0 0 -730431.89926338196 2207383.9004821777 0 2207383.9004821777 3030909.3941650391 0 0 0 0 50128.078877070919 25565.772633435205 0 25565.772633435205 -72984.346639990807 0 0 0 0 1443426.6481785032 2005460.6061174441 0 2005460.6061174441 2400234.9474176317 0 0 0 0 414921.3254108429 1227492.2584457397 0 1227492.2584457397 -77139.604286193848 0 0 0 0 -4831677.4245119095 -1010020.020898819 0 -1010020.020898819 3991447.710357666 0 0 0 0 39202.531859016046 178585.16150638834 0 178585.16150638834 57596.681902889162 0 0 0 0 803754.65069961548 2640749.7843017578 0 2640749.7843017578 1162573.4118022919 0 0 0 0 452275.91211414337 2149423.1392612457 0 2149423.1392612457 -704.13945007324219 0 0 0 0 965185.09266960062 2314615.6319099739 0 2314615.6319099739 90438.410623894306 0 0 0 0 286678.15309906006 2148746.3515930176 0 2148746.3515930176 161.98662185668945 0 0 0 0 1233907.7801885605 2502159.6428260803 0 2502159.6428260803 1173924.2937927246 0 0 0 0 2480834.0707353894 2452992.0406449595 0 2452992.0406449595 1567639.4633119255 0 0 0 0 278773.54107570648 2152760.7301750183 0 2152760.7301750183 2547.1794815063477 0 0 0 0 116202.47187712463 2170590.6529920623 0 2170590.6529920623 69920.088770963252 0 0 0 0 1586277.6418657303 2439868.0047988892 0 2439868.0047988892 326456.56620025635 0 0 0 0 794681.38335710764 2361586.2461853027 0 2361586.2461853027 944566.32954406738 0 0 0 0 -560475.71349334717 2758665.2446289062 0 2758665.2446289062 203069.44397735596 0 0 0 0 559328.49610328674 1665539.2519378662 0 1665539.2519378662 366724.19352722168 0 0 0 0 37207.860402401071 585868.59045848064 0 585868.59045848064 1040338.4854080416 0 0 0 0 -54776832.513317108 155171791.67922974 0 155171791.67922974 297835.79293541278 0 0 0 0 415240.59483146667 2291975.1781692505 0 2291975.1781692505 693238.34106445312 0 0 0 0 1520465.6628688574 -10843467.032903194 0 -10843467.032903194 9429365.4842453003 0 0 0 0 1155370.0583944321 2208030.9325561523 0 2208030.9325561523 -573364.0737991333 0 0 0 0 1019977.3752543582 1107157.3630564492 0 1107157.3630564492 74728.625389561057 0 0 0 0 3028414.1126456261 4600662.5367736816 0 4600662.5367736816 8513.7654113769531 0 0 0 0 1805010.5588101114 1917829.3502399419 0 1917829.3502399419 -29602.963253431022 0 0 0 0 -282861.34667558502 1322390.234118022 0 1322390.234118022 -1015829.4720738232 0 0 0 0 1524285.5230579376 2017406.0404205322 0 2017406.0404205322 41016.021331787109 0 0 0 0 -62687.412817095872 1938491.9263525866 0 1938491.9263525866 -1394664.5725592989 0 0 0 0 795402.92554473877 1200726.8435058594 0 1200726.8435058594 -1242970.9233398438 0 0 0 0 -378938862.07440376 112642393.301548 0 112642393.301548 314751163.85728455 0 0 0 0 684317.3069046489 3375270.6531406417 0 3375270.6531406417 -1888908.3644629722 0 0 0 0 2511462.7954682079 1779614.981951721 0 1779614.981951721 -503775.81963934004 0 0 0 0 42774.283332824707 332959.34648895264 0 332959.34648895264 -1292289.734588623 0 0 0 0 2240401.255408287 3237951.2633571625 0 3237951.2633571625 -320406.90632629395 0 0 0 0 785755.00268173218 2221924.1550292969 0 2221924.1550292969 559183.73864746094 0 0 0 0 911470.31267265836 2249920.1679769699 0 2249920.1679769699 -754850.45032840967 0 0 0 0 1694654.7756881714 2205289.384999752 0 2205289.384999752 518620.32981872559 0 0 0 0 -31138.086952209473 2295694.2029418945 0 2295694.2029418945 -2084967.2711515427 0 0 0 0 5886922.2070837021 35045357.29750824 0 35045357.29750824 -12476328.530996323 0 0 0 0 58518590.391363144 -46303134.451164246 0 -46303134.451164246 9100044.6277618408 0 0 0 0 30404.822261811234 3284586.8427245431 0 3284586.8427245431 -572478.244319221 0 0 0 0 795876.72209400369 -8029.7994850249961 0 -8029.7994850249961 -661878.85036308318 0 0 0 0 -95376020.056023777 -114724008.89790893 0 -114724008.89790893 175139346.6040802 0 0 0 0 -24529544.331178665 -139475154.14013672 0 -139475154.14013672 -35010463.190429688 0 0 0 0 114175159.84890079 48560856.923591614 0 48560856.923591614 -269622711.17845154 0 0 0 0 193432102.86375904 -15708531.806724548 0 -15708531.806724548 -206007369.20890045 0 0 0 0 -109297769.41763878 96130983.925727844 0 96130983.925727844 12541442.881370544 0 0 0 0 -214300.81182615762 305163.68587358296 0 305163.68587358296 344103.57149565592 0 0 0 0 -37824114.529993057 39782306.758285522 0 39782306.758285522 54052348.981952667 0 0 0 0 -76447397.636895418 -1402125.6009273529 0 -1402125.6009273529 17057267.438964844 0 0 0 0 -36533225.367058128 19372141.856568575 0 19372141.856568575 6486822.6443481445 0 0 0 0 -15911874.71136713 8286532.9083251953 0 8286532.9083251953 3578319.3431015015 0 0 0 0 7247122.657324791 -3804313.2667121887 0 -3804313.2667121887 4371749.8214645386 0 0 0 0 4021849.1713426113 -2521464.8288726807 0 -2521464.8288726807 -5991994.8266143799 0 0 0 0 10478336.000580251 4146396.3759918213 0 4146396.3759918213 -10497314.994873047 0 0 0 0 9966229.369014293 -1488462.2340788841 0 -1488462.2340788841 -11197904.182144165 0 0 0 0 -5466245.4505112171 -27556797.304853439 0 -27556797.304853439 -426938.00393676758 0 0 0 0 151771949.68665457 77008110.279657364 0 77008110.279657364 -107388548.67144775 0 0 0 0 40773063.579315662 33330093.423984528 0 33330093.423984528 -33035434.281614304 0 0 0 0 4829718.2103003878 -1935774.3424781673 0 -1935774.3424781673 -4314456.9779244624 0 0 0 0 11168779.724273682 3459726.8856887817 0 3459726.8856887817 4743892.1692066193 0 0 0 0 -1286621.9381050686 3803517.4042732804 0 3803517.4042732804 861096.3759412095 0 0 0 0 11454739.696971893 133103947.0942688 0 133103947.0942688 -64408834.224212646 0 0 0 0 4037103.590373897 4326881.6584472246 0 4326881.6584472246 -3677186.8989500068 0 0 0 0 2429631.6323480606 515277.57341003418 0 515277.57341003418 -10024212.065330505 0 0 0 0 6653577.3672599792 6026390.5321960449 0 6026390.5321960449 -6937307.6044921875 0 0 0 0 260462.13272889482 -92761.951888207346 0 -92761.951888207346 -380936.42108745128 0 0 0 0 -33740737.732734561 -39336882.960763454 0 -39336882.960763454 14698740.707489014 0 0 0 0 3848747.6718518781 4444285.4335295297 0 4444285.4335295297 -3471072.8544727489 0 0 0 0 178812655.25944328 143518739.59083557 0 143518739.59083557 49822169.830854416 0 0 0 0 1800191.2654718757 4102198.0858039856 0 4102198.0858039856 -6809337.5181121826 0 0 0 0 2430002.6391881704 3270146.354850769 0 3270146.354850769 -10309039.534561157 0 0 0 0 2989767.6646425724 -2486796.3850932121 0 -2486796.3850932121 -11091360.049575806 0 0 0 0 1481091.328613162 2281150.0658941269 0 2281150.0658941269 -2620635.1759414673 0 0 0 0 403455.50896215439 -362726.48009109497 0 -362726.48009109497 -936197.91035461426 0 0 0 0 4598363.5424996167 13845168.307817459 0 13845168.307817459 14791071.155990601 0 0 0 0 906577.83082008362 1673041.7967224121 0 1673041.7967224121 -881179.70767307281 0 0 0 0 1198667.7381104715 1759076.0211390425 0 1759076.0211390425 -1593904.847084038 0 0 0 0 1458718.9927616119 815552.65963745117 0 815552.65963745117 -3064273.2155647278 0 0 0 0 6925051.6379089355 8771130.5646514893 0 8771130.5646514893 5273909.2419128418 0 0 0 0 1073900.200095234 551211.72142974474 0 551211.72142974474 -1834119.0048634168 0 0 0 0 632593.28169822693 1604418.8768768311 0 1604418.8768768311 -1913463.8817901611 0 0 0 0 1811210.5715646744 1237685.1207122803 0 1237685.1207122803 -1810847.7562980652 0 0 0 0 1398943.6644992828 64467.289596557617 0 64467.289596557617 -1290216.8733674884 0 0 0 0 4418677.0129613876 9854915.6890945435 0 9854915.6890945435 8793195.294631958 0 0 0 0 -26853.389172475669 24433.781669754535 0 24433.781669754535 -20767.387936189771 0 0 0 0 4906057.3886937499 8258490.0717029572 0 8258490.0717029572 6816414.9657287598 0 0 0 0 21374607.570599586 16014510.046161652 0 16014510.046161652 3997386.3242034912 0 0 0 0 12676854.620043695 10058887.504249573 0 10058887.504249573 10120.381042480469 0 0 0 0 6435823.489733696 8112216.077331543 0 8112216.077331543 6818778.7893676758 0 0 0 0 22107249.25899151 21302614.076747894 0 21302614.076747894 10651658.937492371 0 0 0 0 48182222.206370831 23566012.272922516 0 23566012.272922516 2179284.892074585 0 0 0 0 35785170.868835688 17143570.503469467 0 17143570.503469467 3566.8047256469727 0 0 0 0 29587049.577654839 26354734.100189209 0 26354734.100189209 14356583.9921875 0 0 0 0 37700771.130539894 27611107.76663208 0 27611107.76663208 14539904.91217041 0 0 0 0 15007110.459406614 16054465.74596405 0 16054465.74596405 14579242.824645996 0 0 0 0 11194627.362992764 17656099.55708313 0 17656099.55708313 20867064.735122681 0 0 0 0 18539975.714524508 28757252.893692017 0 28757252.893692017 30823689.203414917 0 0 0 0 376413.67581382726 1855026.9635343291 0 1855026.9635343291 -1361621.5294851456 0 0 0 0 28796449.34665538 21820480.223254681 0 21820480.223254681 9979713.5382995605 0 0 0 0 9175580.9136247635 -8403619.6560020447 0 -8403619.6560020447 -7883067.5652618408 0 0 0 0 44536727.135595083 15659070.351221085 0 15659070.351221085 -3362464.2594604492 0 0 0 0 42230643.711473465 16789650.033500671 0 16789650.033500671 -19330.315837589489 0 0 0 0 77791667.480345726 32858075.542007446 0 32858075.542007446 1024357.1999359131 0 0 0 0 44745843.111268044 16114974.882482529 0 16114974.882482529 -2222911.9451980591 0 0 0 0 -11512843.080116272 -24079446.009037018 0 -24079446.009037018 -7082214.3466445208 0 0 0 0 68302318.133205891 37343187.80692482 0 37343187.80692482 -8386092.9999084473 0 0 0 0 48963823.232601643 7917986.5232181549 0 7917986.5232181549 8350648.5040130615 0 0 0 0 118577856.8388567 34666154.432922363 0 34666154.432922363 -9413688.7074623108 0 0 0 0 97771955.905918479 94252148.84840107 0 94252148.84840107 74637919.743133545 0 0 0 0 586722.28686366347 322008.71963012218 0 322008.71963012218 -623345.6144827418 0 0 0 0 67955896.392770767 43674778.339988708 0 43674778.339988708 55077744.490646362 0 0 0 0 69355936.96485734 -4170886.982011795 0 -4170886.982011795 -18258668.091003418 0 0 0 0 99447871.469964504 47498073.524230957 0 47498073.524230957 815843.07841491699 0 0 0 0 75476690.63668251 9435007.2568283081 0 9435007.2568283081 -15883252.425418854 0 0 0 0 -10943609.555640221 32604081.786079407 0 32604081.786079407 16899028.397898644 0 0 0 0 24448220.5399189 58218139.096633911 0 58218139.096633911 16769695.434907913 0 0 0 0 -527191.7395246157 47047.979910861701 0 47047.979910861701 564902.51686015353 0 0 0 0 4742710.7681727409 -2054770.978225708 0 -2054770.978225708 -14588782.754981995 0 0 0 0 1544812.5056206821 235262.3419496119 0 235262.3419496119 -1435315.6597809112 0 0 0 0 -27848.891902923584 -3337321.0245742798 0 -3337321.0245742798 -12197074.548857689 0 0 0 0 31654510.53686285 40353205.744651794 0 40353205.744651794 38904661.277580261 0 0 0 0 1591487.2827629433 855493.41348297894 0 855493.41348297894 -1717265.0310756303 0 0 0 0 43529320.245554924 34852566.442070007 0 34852566.442070007 22252348.897972107 0 0 0 0 43588761.268781662 35571898.041862488 0 35571898.041862488 29475367.124710083 0 0 0 0 4164301.6551773548 -7004218.245426178 0 -7004218.245426178 -20979856.13508606 0 0 0 0 7604686.995970726 1568496.5499649048 0 1568496.5499649048 -17335003.33537674 0 0 0 0 4153480.480386734 -19459590.823951721 0 -19459590.823951721 -21313741.613128662 0 0 0 0 4587622.9413003922 -1668100.6047134399 0 -1668100.6047134399 -7735310.143371582 0 0 0 0 4683435.5526037216 -1655513.0410842896 0 -1655513.0410842896 -9640762.3653106689 0 0 0 0 2409593.6955709457 806590.4200592041 0 806590.4200592041 -4740797.6774749756 0 0 0 0 3072359.7165203094 -514447.23735046387 0 -514447.23735046387 -7012565.6971149445 0 0 0 0 1505282.6217954159 272341.74134063721 0 272341.74134063721 -7148766.6596221924 0 0 0 0 3940101.8010468483 160337.58335876465 0 160337.58335876465 -12092206.909612179 0 0 0 0 24178293.844244242 6982267.9282836914 0 6982267.9282836914 -13398430.970954895 0 0 0 0 12870752.550951004 38134917.414993286 0 38134917.414993286 -5282398.6746139526 0 0 0 0 8663558.4772071838 -7165232.1062240601 0 -7165232.1062240601 -21726048.017822266 0 0 0 0 3045021.1644248962 4575781.2094688416 0 4575781.2094688416 4822142.797958374 0 0 0 0 14675136.603183746 14419216.411727905 0 14419216.411727905 13968861.859619141 0 0 0 0 3391891.5734195709 -7082312.9144554138 0 -7082312.9144554138 -3150984.1173553467 0 0 0 0 1422800.0925959507 947956.67677134275 0 947956.67677134275 418628.29053145647 0 0 0 0 6328636.5397519404 2643675.4573568534 0 2643675.4573568534 -7751272.522643853 0 0 0 0 11256378.866142273 3156899.1033630371 0 3156899.1033630371 -7748985.2510147095 0 0 0 0 21978274.504665375 13371937.073326111 0 13371937.073326111 4907470.0918502808 0 0 0 0 -1107675.1193814278 9374255.46875 0 9374255.46875 19737447.819984436 0 0 0 0 51904.892879753839 1042283.892079901 0 1042283.892079901 904513.2742755264 0 0 0 0 11859528.201244771 -12138290.768790722 0 -12138290.768790722 -23303298.381958008 0 0 0 0 15654230.702049255 18785481.346946716 0 18785481.346946716 12554817.471837997 0 0 0 0 5855758.4097213792 2857644.3901025262 0 2857644.3901025262 -7366432.0388438925 0 0 0 0 30415767.079930067 -8396199.2477645874 0 -8396199.2477645874 -40006311.190124512 0 0 0 0 -28667249.686707497 482911.40377044678 0 482911.40377044678 -9709669.9398040771 0 0 0 0 20170950.518634796 11475084.709854126 0 11475084.709854126 -41004597.562630653 0 0 0 0 28589348.019067764 -1474956.8403015137 0 -1474956.8403015137 -22872321.430206299 0 0 0 0 64027684.312341928 19054991.992652893 0 19054991.992652893 -23913468.052520752 0 0 0 0 46425476.954044342 9614757.834487915 0 9614757.834487915 -23272094.630563736 0 0 0 0 54795532.207349777 -5008245.0134735107 0 -5008245.0134735107 -23843824.140090942 0 0 0 0 57725481.164948463 11919390.211273193 0 11919390.211273193 -29456826.172119141 0 0 0 0 53824347.167707443 4173262.7321472168 0 4173262.7321472168 -33826385.775100708 0 0 0 0 27943456.360789776 -1062753.3871517181 0 -1062753.3871517181 -25760854.609313965 0 0 0 0 36708406.22958374 37196179.226516724 0 37196179.226516724 -14602989.457303047 0 0 0 0 80977895.232861519 48804667.614778519 0 48804667.614778519 -15416249.554626465 0 0 0 0 51847569.103403091 33470966.950828552 0 33470966.950828552 -20560625.767181396 0 0 0 0 19582783.36305666 37652571.147364616 0 37652571.147364616 -696620.89944458008 0 0 0 0 21397025.421424866 30464971.512229919 0 30464971.512229919 -10757263.390151978 0 0 0 0 16937205.135595322 18618238.088756561 0 18618238.088756561 -9515241.974609375 0 0 0 0 35080829.878217697 26752179.164154053 0 26752179.164154053 -17181037.165481567 0 0 0 0 29706056.611421585 22057617.304351807 0 22057617.304351807 -15884858.567565918 0 0 0 0 37400317.472082138 1188662.726020813 0 1188662.726020813 -28270458.868637085 0 0 0 0 36630866.134805679 11504727.618270874 0 11504727.618270874 -22388580.903320312 0 0 0 0 27042038.110176086 9455423.1988220215 0 9455423.1988220215 -14397258.120880127 0 0 0 0 33317892.303962946 12391457.779266357 0 12391457.779266357 -17444952.60218811 0 0 0 0 28853937.496612549 6937524.8963165283 0 6937524.8963165283 -11158514.996643066 0 0 0 0 35379729.428501129 19046626.261154175 0 19046626.261154175 -2945514.1546325684 0 0 0 0 14496447.942563295 5462109.0227451324 0 5462109.0227451324 -11758384.071746826 0 0 0 0 3798.1289995894767 -129471.30724620074 0 -129471.30724620074 -358525.49740956351 0 0 0 0 6613072.1976318797 2588906.8341876836 0 2588906.8341876836 -5956462.3720617443 0 0 0 0 24236553.427841187 37650740.472270966 0 37650740.472270966 -22625345.9921875 0 0 0 0 27467970.580938339 3760751.4036560059 0 3760751.4036560059 -12347823.234573364 0 0 0 0 23388097.636510849 10532084.191925049 0 10532084.191925049 -6672165.9400863647 0 0 0 0 21768913.504039764 13269628.483078003 0 13269628.483078003 -10711828.762115479 0 0 0 0 23578413.729013443 11903806.775878906 0 11903806.775878906 -8102237.5285186768 0 0 0 0 22513377.335995197 15019031.774765015 0 15019031.774765015 -7198974.5189971924 0 0 0 0 14119585.082666397 16449202.243255615 0 16449202.243255615 -6662321.8619041443 0 0 0 0 11330573.08275032 14931495.923557281 0 14931495.923557281 -2317739.6294250488 0 0 0 0 12872547.467600822 9602766.7529220581 0 9602766.7529220581 -4264167.2585906982 0 0 0 0 9189896.1699962616 14280681.228904724 0 14280681.228904724 -2352728.0834393501 0 0 0 0 26376198.616492033 -5335577.1901264191 0 -5335577.1901264191 -1761117.2736206055 0 0 0 0 6662712.2596431365 3700210.0137643795 0 3700210.0137643795 -5530998.866677478 0 0 0 0 15794653.616822243 12778949.430168152 0 12778949.430168152 -5197308.9524993896 0 0 0 0 9179111.3863124847 -12496224.480003357 0 -12496224.480003357 4872130.6000976562 0 0 0 0 26079188.908943176 -8042407.1418685913 0 -8042407.1418685913 -11116663.595230103 0 0 0 0 20074287.079177856 10899424.094299316 0 10899424.094299316 -4508712.1779327393 0 0 0 0 22173078.905792236 -6408944.3412246704 0 -6408944.3412246704 3564994.0526123047 0 0 0 0 20762252.685667038 -9105083.2012367249 0 -9105083.2012367249 -9326830.124206543 0 0 0 0 19788439.935604095 -9415160.764465332 0 -9415160.764465332 1506956.3063049316 0 0 0 0 6360891.6041603088 1343258.9599456787 0 1343258.9599456787 -11421108.415603638 0 0 0 0 11420944.272102356 8573878.5415802002 0 8573878.5415802002 -27394911.979655266 0 0 0 0 26438542.352054596 -10546022.874832153 0 -10546022.874832153 -5895808.168762207 0 0 0 0 1922463.494682312 7029552.2707672119 0 7029552.2707672119 -7282380.9594116211 0 0 0 0 -10262001.095024109 19343085.302268982 0 19343085.302268982 -18312315.966537476 0 0 0 0 -8798461.6976737976 1727066.1205291748 0 1727066.1205291748 -755559.9997215271 0 0 0 0 3432915.3643074036 20071198.816055298 0 20071198.816055298 -34316013.935943604 0 0 0 0 3746808.3778686523 19251244.790634155 0 19251244.790634155 -21227661.283081055 0 0 0 0 2264649.6959838867 15742858.299079895 0 15742858.299079895 -23065612.083694458 0 0 0 0 9954760.3612537384 21380558.080947876 0 21380558.080947876 -27995880.559562683 0 0 0 0 24627238.674900055 36487738.242912292 0 36487738.242912292 -5229443.3432617188 0 0 0 0 8865884.9638748169 27177547.674156189 0 27177547.674156189 40489699.005310059 0 0 0 0 24460606.11920166 -9248749.6620025635 0 -9248749.6620025635 12797321.876251221 0 0 0 0 9545637.5620305538 31930832.084717751 0 31930832.084717751 -7020208.2880249023 0 0 0 0 11737516.741142273 25895545.31892395 0 25895545.31892395 -25154685.176452637 0 0 0 0 7498281.684047699 3452794.7398529053 0 3452794.7398529053 9125286.3711624146 0 0 0 0 2811604.0636949539 18525812.399145126 0 18525812.399145126 -9020085.8204040527 0 0 0 0 1794172.1871032715 728032.81843566895 0 728032.81843566895 -6985095.7931671143 0 0 0 0 6571430.0005378723 10000403.728942871 0 10000403.728942871 -18463419.987380981 0 0 0 0 13305439.382637024 -4808276.8911437988 0 -4808276.8911437988 -5045638.9711341858 0 0 0 0 12244161.682794571 -1636700.9197349548 0 -1636700.9197349548 -14182965.472351074 0 0 0 0 40808468.39623642 -4213001.5283584595 0 -4213001.5283584595 -9073777.8638000488 0 0 0 0 21800552.531879425 3062551.6699523926 0 3062551.6699523926 -7381374.6109619141 0 0 0 0 16424044.519248962 -645564.34099388123 0 -645564.34099388123 -8233881.2608642578 0 0 0 0 25622295.111791611 8727646.9624252319 0 8727646.9624252319 -7348754.6853027344 0 0 0 0 -8337481.7243499756 -2697116.4892425537 0 -2697116.4892425537 -2673040.5953979492 0 0 0 0 535290.90154401399 277258.38506406732 0 277258.38506406732 58347.308155048639 0 0 0 0 17635835.41481781 9757013.5841255188 0 9757013.5841255188 14906999.715241432 0 0 0 0 -6619855.2161026001 -14173822.214828491 0 -14173822.214828491 -19042795.81300354 0 0 0 0 3984726.7160415649 119166.11796569824 0 119166.11796569824 -37293055.116533279 0 0 0 0 -8235398.6978149414 8562995.6594047546 0 8562995.6594047546 -2065290.1849069595 0 0 0 0 -10821653.934770584 -3913807.9794635773 0 -3913807.9794635773 1334813.9412918091 0 0 0 0 -477635.89498034865 1124076.5855071358 0 1124076.5855071358 357416.09032434784 0 0 0 0 5800266.1214523315 18328720.703556061 0 18328720.703556061 -10653383.004203796 0 0 0 0 -9475466.7722873688 3991696.6452732086 0 3991696.6452732086 5905975.4753189087 0 0 0 0 -1870047.5477048531 403825.34767215839 0 403825.34767215839 777763.11483367905 0 0 0 0 -20339145.597759247 8068507.1588954926 0 8068507.1588954926 3438863.1058120728 0 0 0 0 -1906722.5695314407 17411597.127941132 0 17411597.127941132 1082716.0027313232 0 0 0 0 -5233993.0017347522 3801725.6084349081 0 3801725.6084349081 3161321.3443012545 0 0 0 0 2749327.5228127912 7072765.0543551352 0 7072765.0543551352 5235939.8180963248 0 0 0 0 5863863.3995838165 12575196.161594391 0 12575196.161594391 2815302.4146194458 0 0 0 0 -543947.25270271301 15253438.992164612 0 15253438.992164612 1981614.4893035889 0 0 0 0 -1181150.3236274719 20545611.959106445 0 20545611.959106445 -1773871.8376426697 0 0 0 0 8546977.0023870468 18445487.605751038 0 18445487.605751038 -1401995.4719848633 0 0 0 0 -594385.95590209961 16414680.560531616 0 16414680.560531616 235334.01807403564 0 0 0 0 -19491780.420474052 20184725.467990875 0 20184725.467990875 3676254.8294677734 0 0 0 0 -536977.30385017395 25857623.113174438 0 25857623.113174438 -3703541.61510849 0 0 0 0 14962009.727092266 26250195.370020866 0 26250195.370020866 -5826544.1126861572 0 0 0 0 -13100054.940656662 18451689.910743713 0 18451689.910743713 -930390.09378623962 0 0 0 0 -2518249.3788452148 30280441.308917999 0 30280441.308917999 -3807399.4805755615 0 0 0 0 159886.45614147186 28234701.971244812 0 28234701.971244812 116518.45477294922 0 0 0 0 -36349535.029819489 18545176.808197021 0 18545176.808197021 1459458.3127765656 0 0 0 0 -52239808.65663147 15414546.437353134 0 15414546.437353134 25274375.184761047 0 0 0 0 1873106.4718518057 5075769.9250675179 0 5075769.9250675179 5202856.4572525993 0 0 0 0 -20790752.628361225 23230483.54123497 0 23230483.54123497 -2013.8749694824219 0 0 0 0 -1645560.3142671585 -19722444.333700657 0 -19722444.333700657 42335813.968711853 0 0 0 0 -495664.36354161147 161164.77207091963 0 161164.77207091963 158209.06255080551 0 0 0 0 1261291.0172119141 35800415.428554535 0 35800415.428554535 61592172.633354187 0 0 0 0 -12380142.954265594 5249837.4392738342 0 5249837.4392738342 -3286860.6583709717 0 0 0 0 11692447.198699951 40729472.202133179 0 40729472.202133179 -8605100.1804761887 0 0 0 0 15372061.938278675 17071633.457393646 0 17071633.457393646 -23319823.61100769 0 0 0 0 1287000.2673606873 2670521.5163288116 0 2670521.5163288116 -12411539.558151245 0 0 0 0 -27198980.737255096 32427984.403808594 0 32427984.403808594 -3051738.7781524658 0 0 0 0 -227553.73126357142 181144.51852002554 0 181144.51852002554 255747.79950953647 0 0 0 0 -43542650.791757584 31362348.355846405 0 31362348.355846405 -9103194.8955535889 0 0 0 0 -50981434.769447327 19833575.857719421 0 19833575.857719421 2569255.7079467773 0 0 0 0 1355176.2036560904 3739004.8233851027 0 3739004.8233851027 4552187.1065761559 0 0 0 0 -30532807.457475662 29818072.456134796 0 29818072.456134796 -22325245.951934814 0 0 0 0 -28366521.333460808 23704129.26402092 0 23704129.26402092 -13390708.448394775 0 0 0 0 -33644532.625244141 27654896.541519165 0 27654896.541519165 -19805264.966644287 0 0 0 0 -66123339.66028595 41030024.979309082 0 41030024.979309082 -22077072.010959625 0 0 0 0 -26496121.257461548 27596325.775489807 0 27596325.775489807 -47359957.498199463 0 0 0 0 -28574460.697523117 26269889.851726532 0 26269889.851726532 -28083614.268920898 0 0 0 0 -44737746.929298401 26897584.275161743 0 26897584.275161743 -30868505.637939453 0 0 0 0 -14713939.810737133 15462931.314334869 0 15462931.314334869 -29065431.026977539 0 0 0 0 -23251433.563285828 22398430.638442993 0 22398430.638442993 -24653554.818115234 0 0 0 0 -22700109.803077698 22248403.096405029 0 22248403.096405029 -28071729.586463928 0 0 0 0 -16473994.048801422 22373200.541183472 0 22373200.541183472 -35042055.456436157 0 0 0 0 -28640989.354358673 22005163.013870239 0 22005163.013870239 -24038017.281234741 0 0 0 0 -22309056.637872696 27709148.76234436 0 27709148.76234436 -33166504.787322998 0 0 0 0 5241059.4885718245 3507150.7726485189 0 3507150.7726485189 1100053.9800230395 0 0 0 0 -23153866.036911964 32514423.008630753 0 32514423.008630753 -34686058.478057861 0 0 0 0 -27649129.652378082 24944705.796295166 0 24944705.796295166 -27138717.604141235 0 0 0 0 -23146763.974555969 35949319.22052002 0 35949319.22052002 -29453517.587188721 0 0 0 0 -291596.29792690277 24502399.566431046 0 24502399.566431046 -52327404.598899841 0 0 0 0 -14943917.71721077 39143858.912452698 0 39143858.912452698 -40289695.289840698 0 0 0 0 -71319736.414032936 80536995.011131287 0 80536995.011131287 -68058446.13470459 0 0 0 0 -77929914.967712402 82637150.292907715 0 82637150.292907715 -66292837.881404877 0 0 0 0 240440.50786838704 162915.48051333288 0 162915.48051333288 -160308.7152742371 0 0 0 0 -25599315.23409462 41990114.569885254 0 41990114.569885254 -68892957.288208008 0 0 0 0 -16031380.177177429 10087485.638587952 0 10087485.638587952 -6139554.2696342468 0 0 0 0 -9251398.2046642303 31259836.417175293 0 31259836.417175293 8923239.5848693848 0 0 0 0 -18619432.283496857 22292271.570953369 0 22292271.570953369 -13929462.016647339 0 0 0 0 -17856575.0664711 25160292.476196289 0 25160292.476196289 -10390557.075942993 0 0 0 0 -12982489.203266144 12161666.992179871 0 12161666.992179871 -10920990.89623332 0 0 0 0 -17508741.935150146 17560175.927261353 0 17560175.927261353 -21209363.363327026 0 0 0 0 -16113524.858746529 18697971.362400055 0 18697971.362400055 -24402617.951095581 0 0 0 0 -17428537.232440948 15348080.060943604 0 15348080.060943604 -20721606.075241089 0 0 0 0 -8538141.4641838074 11932562.193756104 0 11932562.193756104 -22851361.231567383 0 0 0 0 -9654205.8255748749 10358720.546844482 0 10358720.546844482 -22754162.415039062 0 0 0 0 -14697160.553209484 27000131.349699616 0 27000131.349699616 -7904947.6206970215 0 0 0 0 -958734.40312705701 79945.1865349859 0 79945.1865349859 1015606.7359980233 0 0 0 0 -8304707.1984882355 15556858.019542694 0 15556858.019542694 -22303671.178943634 0 0 0 0 -17773457.161987305 3124713.1744155884 0 3124713.1744155884 -4302181.3539452553 0 0 0 0 -545099.31465939479 37873.941239317879 0 37873.941239317879 564256.00964372605 0 0 0 0 -12969634.179102421 13361809.823385239 0 13361809.823385239 909862.96418762207 0 0 0 0 884576.99102306366 13156824.185326099 0 13156824.185326099 6987.2202911376953 0 0 0 0 -17106795.642345428 33256090.262329102 0 33256090.262329102 -9084636.3208312988 0 0 0 0 -9887948.573261261 27566624.571922302 0 27566624.571922302 -16251938.09148407 0 0 0 0 -18208379.251163483 28917178.253463745 0 28917178.253463745 -12728568.64666748 0 0 0 0 -20896942.833206177 25020141.053539276 0 25020141.053539276 -16652968.826690674 0 0 0 0 -17568900.465911865 29210325.084289551 0 29210325.084289551 -25518051.275863647 0 0 0 0 -16045178.947998047 29583100.0626297 0 29583100.0626297 -27917982.584655762 0 0 0 0 -8898795.0891227722 22722396.995063782 0 22722396.995063782 -20908357.260452271 0 0 0 0 -14022134.210746765 9683499.6308135986 0 9683499.6308135986 -8995180.0617370605 0 0 0 0 -19233042.139263153 16899983.400970459 0 16899983.400970459 -23659691.483420372 0 0 0 0 -15011997.066232681 19469482.491062164 0 19469482.491062164 -10447226.98727417 0 0 0 0 7415405.0628151894 27636360.20040226 0 27636360.20040226 -8761307.8107910156 0 0 0 0 2798564.4132785797 5131932.7730712891 0 5131932.7730712891 -10587289.34797287 0 0 0 0 11282786.810829163 13401818.764938354 0 13401818.764938354 16248.346397399902 0 0 0 0 -13454803.623573303 29335840.681343079 0 29335840.681343079 6521745.6079292297 0 0 0 0 -13961727.375230789 26024737.375932693 0 26024737.375932693 -6009477.4462661743 0 0 0 0 -18677412.986488342 26264842.301984787 0 26264842.301984787 4570.9993591308594 0 0 0 0 -11160205.643123627 27606675.086711884 0 27606675.086711884 -32528484.575492859 0 0 0 0 -10094135.877305984 23376807.487255096 0 23376807.487255096 -15751255.863445282 0 0 0 0 3992975.4205503101 2889752.1101101357 0 2889752.1101101357 1177127.9337677397 0 0 0 0 -15790368.403327942 21233925.690685272 0 21233925.690685272 -13623808.117687225 0 0 0 0 -14292364.222257614 16328678.327003479 0 16328678.327003479 -32585.641084758492 0 0 0 0 3089693.0112671573 -516871.82237361465 0 -516871.82237361465 -521281.34576932341 0 0 0 0 22758122.586616516 -7275967.9505262375 0 -7275967.9505262375 -25888420.536460876 0 0 0 0 1308883.2951339073 625051.25066464767 0 625051.25066464767 -381273.8019801937 0 0 0 0 1416533.0513954163 20204004.125808716 0 20204004.125808716 42664.038261413574 0 0 0 0 6387272.8785400391 7797773.3829040527 0 7797773.3829040527 -14637868.084793091 0 0 0 0 15234456.872383118 31667712.402740479 0 31667712.402740479 -22119334.04776001 0 0 0 0 139363.77054788778 93138.583677489311 0 93138.583677489311 24777.484580531716 0 0 0 0 1708908.5041503906 -2358928.3330688477 0 -2358928.3330688477 -35080847.615661621 0 0 0 0 123524816.3049612 -3847796.8432540894 0 -3847796.8432540894 -28310188.342727661 0 0 0 0 1897904.4459746834 340702.17133049015 0 340702.17133049015 -1139963.4397318698 0 0 0 0 5963732.9471244812 -1149235.9032497406 0 -1149235.9032497406 5160449.9119491577 0 0 0 0 2384723.5745722409 2923769.3922791937 0 2923769.3922791937 242294.00767377205 0 0 0 0 4562975.1943473816 2059746.5347213745 0 2059746.5347213745 -780607.55999755859 0 0 0 0 5584432.8979206085 2699332.0002574921 0 2699332.0002574921 -2583566.2089996338 0 0 0 0 4791900.8400840759 -1653099.3981800079 0 -1653099.3981800079 -2342270.9604644775 0 0 0 0 1512913.6918926951 611202.49528264534 0 611202.49528264534 -1444361.891796831 0 0 0 0 5235549.015953064 -1157655.1583976746 0 -1157655.1583976746 -2036743.6829862595 0 0 0 0 5569404.4345626831 -1118599.9370956421 0 -1118599.9370956421 -3124449.3779907227 0 0 0 0 -1220677.4083328247 4967126.8822402954 0 4967126.8822402954 -11806863.396143913 0 0 0 0 6141301.2460670471 -600364.89147758484 0 -600364.89147758484 -8154717.6364059448 0 0 0 0 784318.26146313921 99282.0713547552 0 99282.0713547552 -467446.43576062471 0 0 0 0 31067668.835086823 14343612.942779541 0 14343612.942779541 -23940848.809074402 0 0 0 0 -2583902.5484566689 28512952.144577026 0 28512952.144577026 -24088861.944641113 0 0 0 0 41720248.685756683 -19401750.76996994 0 -19401750.76996994 -8904575.0437660217 0 0 0 0 12779341.702465057 16361679.994552612 0 16361679.994552612 -21172103.623748779 0 0 0 0 -4368290.6974182129 1087432.3154468536 0 1087432.3154468536 8145537.0125274658 0 0 0 0 3402129.230802536 4685746.9605464935 0 4685746.9605464935 -6196483.2842941284 0 0 0 0 16075159.858711243 -39485.569976806641 0 -39485.569976806641 -13648383.209915161 0 0 0 0 2543741.5495448876 352744.16773395566 0 352744.16773395566 -1530093.6922415495 0 0 0 0 180601264.76947021 -174298664.39733887 0 -174298664.39733887 34720394.882514954 0 0 0 0 132645881.79975891 26983131.087028503 0 26983131.087028503 -151506053.55966949 0 0 0 0 -150933915.65660858 24110675.428825378 0 24110675.428825378 -71672143.042205811 0 0 0 0 -580173.63300874829 562873.25632748567 0 562873.25632748567 -64953.870521472534 0 0 0 0 -252075306.42394638 256347757.31340027 0 256347757.31340027 -236448593.88114166 0 0 0 0 -147327855.47532654 -55562743.267189026 0 -55562743.267189026 191345811.82675934 0 0 0 0 -456794339.46549606 308887579.53910828 0 308887579.53910828 954437.71433258057 0 0 0 0 -205891396.62696838 498997030.12170601 0 498997030.12170601 -209803179.31604004 0 0 0 0 -497087841.61886978 162198888.62133026 0 162198888.62133026 77894834.765182495 0 0 0 0 -135915316.37262344 86897048.404593468 0 86897048.404593468 28558832.005691528 0 0 0 0 -136739078.58646393 187823919.18548584 0 187823919.18548584 -61917017.875556946 0 0 0 0 -131309225.67323303 161018084.77365875 0 161018084.77365875 -149299852.89838409 0 0 0 0 275830814.63471508 -98596520.750628471 0 -98596520.750628471 -9050072.0040130615 0 0 0 0 452296300.84983826 224908943.10662079 0 224908943.10662079 -193268408.37695312 0 0 0 0 691016179.17446136 306389136.02851868 0 306389136.02851868 -370584016.56642914 0 0 0 0 820319297.53702164 -506494103.01818132 0 -506494103.01818132 153046567.78395844 0 0 0 0 253513.94414464943 436755.48907708004 0 436755.48907708004 -206894.7247101441 0 0 0 0 -3852973.817237854 7859209.1500244141 0 7859209.1500244141 -35038.731922303457 0 0 0 0 -3336011.8053588867 7468991.2095413208 0 7468991.2095413208 -14224334.807647705 0 0 0 0 204868646.34170151 -75301395.146499634 0 -75301395.146499634 30063101.38286972 0 0 0 0 212632776.76501465 -21937612.671379089 0 -21937612.671379089 -101962732.50032806 0 0 0 0 198150259.3319397 52292183.185195923 0 52292183.185195923 -94210745.225461483 0 0 0 0 177966247.69586945 41476179.966472626 0 41476179.966472626 -27010142.463157654 0 0 0 0 56687013.660842896 63567469.045642853 0 63567469.045642853 67709377.024047852 0 0 0 0 85817011.689632416 96738700.359294891 0 96738700.359294891 -13741924.71667099 0 0 0 0 483870.44732198305 106151.22364564054 0 106151.22364564054 -191920.81540387869 0 0 0 0 -85308667.114154816 249869893.01796722 0 249869893.01796722 789363517.13166046 0 0 0 0 67180647.156242371 172335384.61496735 0 172335384.61496735 102357890.41593933 0 0 0 0 221163497.00397849 174456758.82113028 0 174456758.82113028 -601527064.41111755 0 0 0 0 228029373.55776978 296117782.90395355 0 296117782.90395355 -138287650.1907959 0 0 0 0 226394923.60007095 57800613.44228363 0 57800613.44228363 -253162302.78445435 0 0 0 0 127760276.4426651 142293778.16594315 0 142293778.16594315 -177013429.4783783 0 0 0 0 -27698538.410892487 103375558.77419281 0 103375558.77419281 -159609456.38810349 0 0 0 0 -228711613.84261894 230703488.59816027 0 230703488.59816027 -236940743.18112183 0 0 0 0 -178886227.67701721 -42175081.333328247 0 -42175081.333328247 -280473067.10412598 0 0 0 0 76457446.488708496 581151936.20915985 0 581151936.20915985 -72948916.912635803 0 0 0 0 65810454.151275635 269330354.62252808 0 269330354.62252808 268520235.30702877 0 0 0 0 -446099.25323440321 359207.8747793287 0 359207.8747793287 -114403.26622379571 0 0 0 0 -109763306.15531492 -88311885.571619511 0 -88311885.571619511 319068275.50084686 0 0 0 0 -33845257.326694489 -11303568.208358765 0 -11303568.208358765 -542019.6376953125 0 0 0 0 32615191.769672394 -6020456.8574066162 0 -6020456.8574066162 -116259313.39500427 0 0 0 0 28114022.059280396 34318551.105243683 0 34318551.105243683 -323618055.21691895 0 0 0 0 28300808.228996277 39071460.786186218 0 39071460.786186218 -207134723.12831116 0 0 0 0 18632245.480518341 136614480.52534485 0 136614480.52534485 -222900838.06568909 0 0 0 0 -38726997.976600647 125900838.28458405 0 125900838.28458405 -190643047.81065369 0 0 0 0 78818649.744419336 153330482.79415131 0 153330482.79415131 131186160.3996582 0 0 0 0 83056615.848144531 110902140.67816162 0 110902140.67816162 11394963.392662048 0 0 0 0 74560841.932742119 216757392.59251356 0 216757392.59251356 185311220.79676056 0 0 0 0 72643128.401947975 206061058.06712437 0 206061058.06712437 155427632.85339355 0 0 0 0 141452441.79389191 210109727.4033432 0 210109727.4033432 17105948.258987427 0 0 0 0 136102269.69688034 280134285.24562073 0 280134285.24562073 120943204.34176636 0 0 0 0 10196101.22876358 100430646.6799469 0 100430646.6799469 66281711.620798111 0 0 0 0 11499788.105033875 109363108.47745514 0 109363108.47745514 -11415334.291954041 0 0 0 0 -90403885.120059967 45739102.872581482 0 45739102.872581482 12793178.755027771 0 0 0 0 98341701.963024139 132205223.27132797 0 132205223.27132797 -166337924.78311157 0 0 0 0 -73633175.414615631 81567299.928165436 0 81567299.928165436 22737529.746818542 0 0 0 0 -80570667.754646301 60620629.017593384 0 60620629.017593384 -38180370.456768036 0 0 0 0 1306913.7988486215 384096.56366879866 0 384096.56366879866 -531276.95541603863 0 0 0 0 195075.78857801761 646010.16835934203 0 646010.16835934203 -626750.15294270217 0 0 0 0 -103133295.63248062 35666253.825580597 0 35666253.825580597 -3557608.7350387573 0 0 0 0 -92472816.289031982 48316792.636175156 0 48316792.636175156 11158719.353256226 0 0 0 0 -306220207.04524994 28625655.229873657 0 28625655.229873657 20345794.40805912 0 0 0 0 21557.110594683327 282687.01954776794 0 282687.01954776794 -177901.00438326225 0 0 0 0 -36141603.35838604 -48921374.188593864 0 -48921374.188593864 -53630211.605461121 0 0 0 0 -15594504.726673126 -108967493.69468689 0 -108967493.69468689 61643754.945526123 0 0 0 0 9947223.7210922241 -75675944.941776276 0 -75675944.941776276 -149662650.43243027 0 0 0 0 -56635973.603298187 31755744.572284698 0 31755744.572284698 3839515.1217803955 0 0 0 0 -113433446.03079987 140061635.1361351 0 140061635.1361351 -102371386.84082031 0 0 0 0 3607563.341676712 34470225.400076389 0 34470225.400076389 66876468.865463257 0 0 0 0 6619020.0941047668 30501779.025196075 0 30501779.025196075 -81039617.545898438 0 0 0 0 45488410.948568344 46274989.308074951 0 46274989.308074951 -47320824.825531006 0 0 0 0 -90496823.369842529 8785131.9781990051 0 8785131.9781990051 75191870.131614685 0 0 0 0 40235871.887168884 67948175.020149231 0 67948175.020149231 91282929.70762825 0 0 0 0 37412395.273555756 72376000.929771423 0 72376000.929771423 84376442.248512268 0 0 0 0 26538181.248836517 -16636529.588039398 0 -16636529.588039398 10262228.212882996 0 0 0 0 246948.32898054086 -204392.02889446914 0 -204392.02889446914 -286323.04115425423 0 0 0 0 24384249.374092102 35125691.300853729 0 35125691.300853729 -3249539.3674964905 0 0 0 0 35317533.946426392 36831670.822616577 0 36831670.822616577 37462208.604377747 0 0 0 0 47066313.5414505 24906248.833492279 0 24906248.833492279 49211880.693992615 0 0 0 0 47035379.689168453 -21704485.089225769 0 -21704485.089225769 -5112256.2619781494 0 0 0 0 57904263.654747009 48657790.7850914 0 48657790.7850914 -619006.52391815186 0 0 0 0 26634219.219573975 15770697.622238159 0 15770697.622238159 -37613464.523548126 0 0 0 0 26529806.643180847 -12061208.144760132 0 -12061208.144760132 -14262704.893268585 0 0 0 0 5922383.1000709534 -9367274.0519523621 0 -9367274.0519523621 7709985.4373245239 0 0 0 0 4068325.6577682495 -4410786.071434021 0 -4410786.071434021 -3562302.9855818748 0 0 0 0 708721.40960028954 -601862.38413275592 0 -601862.38413275592 -859740.08705352247 0 0 0 0 4200356.7680168152 -3333837.2998161316 0 -3333837.2998161316 611268.66015625 0 0 0 0 9910554.8095664978 -9625430.9587402344 0 -9625430.9587402344 -20134604.550994873 0 0 0 0 -687956.41691493988 -6511898.0232067108 0 -6511898.0232067108 -21029271.370941162 0 0 0 0 55379772.508346558 36259474.618141174 0 36259474.618141174 -51958392.215097427 0 0 0 0 2733668.9082984924 257450.14223957062 0 257450.14223957062 -32873106.747283936 0 0 0 0 47732122.844047546 90129983.038007736 0 90129983.038007736 22380740.674781799 0 0 0 0 49907807.618980408 62169294.179187775 0 62169294.179187775 -126261272.45396805 0 0 0 0 25495040.151706696 32368364.025995255 0 32368364.025995255 -3916766.5622444153 0 0 0 0 21496149.771244049 37391416.633090973 0 37391416.633090973 22174976.287601471 0 0 0 0 41001467.332286835 59726172.03619957 0 59726172.03619957 -2874873.1799087524 0 0 0 0 44125159.520606995 45773645.96534729 0 45773645.96534729 -19409993.850311279 0 0 0 0 21065717.521892548 35013898.018615723 0 35013898.018615723 1267661.9043884277 0 0 0 0 38538442.636455536 23329047.011421204 0 23329047.011421204 1423727.1718902588 0 0 0 0 11877262.606674194 -1224252.9880599976 0 -1224252.9880599976 -5089558.3644199371 0 0 0 0 51724745.541315079 28291179.537408829 0 28291179.537408829 -1980129.1562652588 0 0 0 0 -9099622.468711853 15832097.485649109 0 15832097.485649109 48074014.377670288 0 0 0 0 -1580445.4961850625 1081665.5473766811 0 1081665.5473766811 580155.67700628412 0 0 0 0 -79425128.977428436 90412717.396221161 0 90412717.396221161 -156210701.68479538 0 0 0 0 -106484.11356518231 133528.89495860785 0 133528.89495860785 -120912.34739789739 0 0 0 0 7093484.055355072 -40247182.508628845 0 -40247182.508628845 -228663775.61931801 0 0 0 0 3081426.5640640259 139479362.14736557 0 139479362.14736557 22375873.437240601 0 0 0 0 29156653.109886169 10807301.721595764 0 10807301.721595764 -252404429.48355484 0 0 0 0 9071300.4179821014 14543482.772996902 0 14543482.772996902 -167913130.54101562 0 0 0 0 6112874.0237579346 59178943.216060638 0 59178943.216060638 143369498.01278305 0 0 0 0 -1279244.3498013318 489637.24063459411 0 489637.24063459411 342748.8964766569 0 0 0 0 -40762046.470991135 -5337639.0258388519 0 -5337639.0258388519 -117113908.3572998 0 0 0 0 33875700.479976654 19919068.884132385 0 19919068.884132385 -241594332.49615431 0 0 0 0 -6879290.4668288231 39749200.053631306 0 39749200.053631306 -22689225.472206116 0 0 0 0 22406750.433273315 40159024.521762848 0 40159024.521762848 -107875422.03706646 0 0 0 0 27607.059886902571 97451.883394286036 0 97451.883394286036 -168551.06943846866 0 0 0 0 -20198333.670540333 -12775197.753767967 0 -12775197.753767967 19047783.806022644 0 0 0 0 -27598886.569488525 1524708.5837554932 0 1524708.5837554932 -691079.35831260681 0 0 0 0 -74098517.532295227 -21101102.827651978 0 -21101102.827651978 1983841.8315582275 0 0 0 0 4870.8017721511424 9775.5574744027108 0 9775.5574744027108 -11268.560595901683 0 0 0 0 85226671.74842453 50732378.851913452 0 50732378.851913452 7735153.1396942139 0 0 0 0 81602696.936138153 75862432.916034698 0 75862432.916034698 47264301.747940063 0 0 0 0 98841023.844367981 64513149.401496887 0 64513149.401496887 41148535.349250793 0 0 0 0 -243954.01274496783 323565.74520826153 0 323565.74520826153 -290932.55946477875 0 0 0 0 42682248.005943298 16886377.361494064 0 16886377.361494064 41602885.492210388 0 0 0 0 11712563.519752502 53330855.709339142 0 53330855.709339142 15455165.112716675 0 0 0 0 -6428302.4635238647 58540010.146934509 0 58540010.146934509 72483922.83385849 0 0 0 0 11422606.047481537 -67942232.038097382 0 -67942232.038097382 -108296397.20716095 0 0 0 0 -140361157.04398727 -58114268.004584789 0 -58114268.004584789 -141473424.10866547 0 0 0 0 26752564.986013412 65930146.504369736 0 65930146.504369736 -146143142.37573242 0 0 0 0 -52937461.8834095 141735191.9467926 0 141735191.9467926 -137651320.65645599 0 0 0 0 -140717324.08969116 49564164.402805328 0 49564164.402805328 42986711.712150574 0 0 0 0 -89716443.928500175 -56823868.184243202 0 -56823868.184243202 232366017.24308777 0 0 0 0 -343595.86273021251 -86431.065741965547 0 -86431.065741965547 58525.583880376769 0 0 0 0 -191445609.58443069 155652537.26693344 0 155652537.26693344 -136100554.286026 0 0 0 0 65594705.959064484 57799643.653438568 0 57799643.653438568 -477586949.43633652 0 0 0 0 -77706030.720766068 -23799941.372346878 0 -23799941.372346878 -181804228.94063187 0 0 0 0 -900422.66372741945 80907.719101963565 0 80907.719101963565 184450.94857809669 0 0 0 0 -167981308.0939312 78726643.85100174 0 78726643.85100174 299647104.12322617 0 0 0 0 55645991.97895813 25639426.751560211 0 25639426.751560211 -318972380.38380075 0 0 0 0 -57356.628542048857 -44266.063194777817 0 -44266.063194777817 -161382.04777528718 0 0 0 0 -43332149.914690971 -30441082.081103325 0 -30441082.081103325 58981658.702430725 0 0 0 0 -44637888.445293427 82276395.515232086 0 82276395.515232086 -75989009.448150635 0 0 0 0 -27425804.261695862 50422939.652271271 0 50422939.652271271 -31201689.488777161 0 0 0 0 -62637965.586837769 69652450.116184235 0 69652450.116184235 -52697501.156284332 0 0 0 0 76197385.240276337 67665987.905651093 0 67665987.905651093 -155538494.68865204 0 0 0 0 -115641176.2437458 -85925186.222600937 0 -85925186.222600937 83222942.583778381 0 0 0 0 -18750.223982803524 -63755.807406285778 0 -63755.807406285778 -93135.41208181344 0 0 0 0 -53861888.166463852 140767079.48460007 0 140767079.48460007 -215680327.22965622 0 0 0 0 -164835730.56364822 80084411.013698578 0 80084411.013698578 -828043.72110557556 0 0 0 0 -10770260.186565399 2343672.6758995056 0 2343672.6758995056 -27436058.003143311 0 0 0 0 -9398826.2290210724 -44788305.802164078 0 -44788305.802164078 -114349388.17543793 0 0 0 0 -10380570.344141006 -29857484.73680687 0 -29857484.73680687 46123803.034812927 0 0 0 0 -23429755.26685524 19710119.061738968 0 19710119.061738968 44589371.537338257 0 0 0 0 -33573123.191587448 24346318.301709652 0 24346318.301709652 56336802.70350647 0 0 0 0 -76274528.475637436 4651514.0847301483 0 4651514.0847301483 47271477.10684967 0 0 0 0 -143350.40573718958 -155833.4953967873 0 -155833.4953967873 54587.677463725209 0 0 0 0 21742711.772342682 16320743.781749725 0 16320743.781749725 -11042997.240268707 0 0 0 0 -8888218.5507087708 -20921949.720417023 0 -20921949.720417023 1284107.3662834167 0 0 0 0 15457451.317062378 55166535.510225296 0 55166535.510225296 -70181815.529441833 0 0 0 0 -96349.771309699863 -80102.602726798505 0 -80102.602726798505 28563.240895444527 0 0 0 0 -42374446.649995804 103073401.42560005 0 103073401.42560005 -94354232.812362671 0 0 0 0 -152800276.7453537 103975103.76850128 0 103975103.76850128 -31228432.830546416 0 0 0 0 -154088083.07162476 157812638.00347137 0 157812638.00347137 -63851692.648757935 0 0 0 0 -88289809.667850494 49004575.656280518 0 49004575.656280518 75091264.423641205 0 0 0 0 -110379549.87744522 -20455956.557495117 0 -20455956.557495117 -43292243.91721344 0 0 0 0 -85583222.03017807 8931342.0845718384 0 8931342.0845718384 6503549.1878204346 0 0 0 0 -28880524.377059937 32711396.124473572 0 32711396.124473572 -19309011.970657349 0 0 0 0 -6631311.4229230881 35704261.681744576 0 35704261.681744576 11824302.028808594 0 0 0 0 -10381636.284450531 8308885.4776611328 0 8308885.4776611328 38133586.812841415 0 0 0 0 13598144.682318687 -14623155.630187988 0 -14623155.630187988 -7838322.1890563965 0 0 0 0 29236632.508110046 5941740.073343277 0 5941740.073343277 -12725634.272949219 0 0 0 0 -1272099.7666854858 12118803.781703949 0 12118803.781703949 2577169.9703903198 0 0 0 0 6495514.9907932281 8275129.8095340729 0 8275129.8095340729 4019022.6768112183 0 0 0 0 7482299.9638385773 438065.48505592346 0 438065.48505592346 35386429.276580811 0 0 0 0 3857032.3850517273 8806601.1253051758 0 8806601.1253051758 15058388.683904648 0 0 0 0 14345589.086112976 4752798.7377662659 0 4752798.7377662659 1940967.2235107422 0 0 0 0 -3682288.1120443344 73122.764453887939 0 73122.764453887939 1611167.9591369629 0 0 0 0 56809625.298681259 30431504.089176178 0 30431504.089176178 -43617917.471939087 0 0 0 0 46310151.894508362 35069954.492061615 0 35069954.492061615 -20986048.39925766 0 0 0 0 41023786.028430939 4910456.226108551 0 4910456.226108551 -23331218.805900574 0 0 0 0 19054919.260936737 16011268.11589241 0 16011268.11589241 -21864447.825790405 0 0 0 0 21891708.339752197 35494624.4463377 0 35494624.4463377 -4582956.7824783325 0 0 0 0 53166241.850296021 9844597.0292816162 0 9844597.0292816162 16354313.685922623 0 0 0 0 47818283.113754272 31715738.9376297 0 31715738.9376297 38752332.936814308 0 0 0 0 45725561.462173462 62162367.645454407 0 62162367.645454407 95597563.613063812 0 0 0 0 48554738.295982361 19670815.703330994 0 19670815.703330994 1666619.1271209717 0 0 0 0 99190200.498649597 45754090.06552124 0 45754090.06552124 10047596.197372437 0 0 0 0 -316081.88060386293 239728.02252268232 0 239728.02252268232 42126.782769463956 0 0 0 0 22237217.415550232 20904795.705108643 0 20904795.705108643 -6774982.9697799683 0 0 0 0 45988268.766324997 64463988.976929665 0 64463988.976929665 50641653.052780151 0 0 0 0 45138057.630310059 46123584.278877258 0 46123584.278877258 60503168.84885788 0 0 0 0 66297536.656600952 28125754.998657227 0 28125754.998657227 -22577992.828933716 0 0 0 0 2989187.3915634155 -13227186.031768799 0 -13227186.031768799 -11784923.222007751 0 0 0 0 -175771446.93481445 71595192.27469635 0 71595192.27469635 -21775713.017589569 0 0 0 0 -93350469.608364105 -33773236.23260498 0 -33773236.23260498 25417916.18359375 0 0 0 0 -131470.49081175402 96022.014519482851 0 96022.014519482851 10715.321797057986 0 0 0 0 52252605.417312622 55547074.538650513 0 55547074.538650513 -108347234.27661133 0 0 0 0 -33934391.530174255 150291251.17250061 0 150291251.17250061 -119596979.27697182 0 0 0 0 10030513.874835968 71531446.652206421 0 71531446.652206421 -49199156.01751709 0 0 0 0 -192992946.33796692 79528095.117351532 0 79528095.117351532 -6725390.5857391357 0 0 0 0 46727743.196060181 28213587.017723083 0 28213587.017723083 -21393077.992153168 0 0 0 0 51844259.921824574 10492642.945956886 0 10492642.945956886 -10266333.68522644 0 0 0 0 57929687.571311951 57122159.389492035 0 57122159.389492035 -92946263.049224854 0 0 0 0 26481433.403899193 70124140.104847908 0 70124140.104847908 -50919563.523712158 0 0 0 0 18743037.161503315 46981207.104236603 0 46981207.104236603 -36506066.378173828 0 0 0 0 -40344063.582672119 77530836.330276489 0 77530836.330276489 -7808686.695640564 0 0 0 0 -31643412.539585114 63984246.174591064 0 63984246.174591064 -8331701.6862435341 0 0 0 0 -8179300.3562164307 48966812.833709717 0 48966812.833709717 2639391.2085170746 0 0 0 0 -9199125.7110366821 44284492.364509583 0 44284492.364509583 -8632141.1759796143 0 0 0 0 15034068.127269745 39788278.959941864 0 39788278.959941864 -24199238.049873352 0 0 0 0 16790138.673705578 23997275.036465645 0 23997275.036465645 -8819074.5170211792 0 0 0 0 5775512.0436210632 12316550.521434784 0 12316550.521434784 -21188142.67591095 0 0 0 0 -690977.59091186523 30059964.266025543 0 30059964.266025543 -9241031.3822274208 0 0 0 0 1906839.774974823 22189550.342132568 0 22189550.342132568 -857130.27927017212 0 0 0 0 747669.6279258728 21430038.538793564 0 21430038.538793564 5327216.2712478638 0 0 0 0 -11724708.382205486 23562922.363800526 0 23562922.363800526 16188009.118614197 0 0 0 0 -6242180.9761962891 2903958.0878639221 0 2903958.0878639221 -18934263.466758728 0 0 0 0 -110846.14803314209 17126897.516448975 0 17126897.516448975 2454064.5090618134 0 0 0 0 679135.08303070068 -739880.73600578308 0 -739880.73600578308 -36224621.65512085 0 0 0 0 -16188083.158752441 14325173.278007507 0 14325173.278007507 -23726053.818857193 0 0 0 0 1489778.9279155731 21596983.644338608 0 21596983.644338608 -68994831.954307556 0 0 0 0 -4876.1754879169166 -51608.923307609744 0 -51608.923307609744 -64756.480525577441 0 0 0 0 21910799.831986427 29879947.642279148 0 29879947.642279148 -62387571.375801086 0 0 0 0 22264.263027878478 -35846.168589107692 0 -35846.168589107692 -37906.73339279741 0 0 0 0 37530208.219944 41974582.731132507 0 41974582.731132507 -67426136.752914429 0 0 0 0 -2848.6468467712402 16586329.114257812 0 16586329.114257812 -58057406.929481506 0 0 0 0 -19400889.216560364 32449364.133869171 0 32449364.133869171 -43273829.756965637 0 0 0 0 -20627468.913024902 27507135.821697235 0 27507135.821697235 -46963058.632263184 0 0 0 0 -11011681.13041687 -9998821.045173645 0 -9998821.045173645 -28373486.760440826 0 0 0 0 188849211.05314636 17009403.851699829 0 17009403.851699829 -81912602.791351318 0 0 0 0 -186370.09528050944 -28030.564286753535 0 -28030.564286753535 -35280.41986489296 0 0 0 0 77351433.443008423 -23123954.974395752 0 -23123954.974395752 -49495407.454782486 0 0 0 0 -8840345.5837551355 71841094.522496641 0 71841094.522496641 14637004.509483337 0 0 0 0 120624096.85920906 57248523.867835999 0 57248523.867835999 -10199990.17036438 0 0 0 0 -624390.1964884405 824398.32615040615 0 824398.32615040615 520489.64710457996 0 0 0 0 3921176.7348861694 30024568.303668976 0 30024568.303668976 17623904.721229553 0 0 0 0 19183980.903343201 27364499.651042938 0 27364499.651042938 6975462.0017776489 0 0 0 0 -2209218.7935370216 3134170.0716594122 0 3134170.0716594122 1824208.5182042383 0 0 0 0 57635395.767166138 42288294.851577759 0 42288294.851577759 3333957.1884880066 0 0 0 0 19846616.211342812 37060387.395901918 0 37060387.395901918 27792489.970733643 0 0 0 0 -44196267.393987656 995325.85112190247 0 995325.85112190247 86355042.139015198 0 0 0 0 -36801953.971439362 6599573.8465461731 0 6599573.8465461731 -48821128.026550293 0 0 0 0 61773139.531642437 58083711.287923336 0 58083711.287923336 40456374.217887878 0 0 0 0 -51725.333702087402 -22281219.250995636 0 -22281219.250995636 3004975.9887580872 0 0 0 0 -78068057.87739563 20162003.554607391 0 20162003.554607391 -18022675.394760132 0 0 0 0 -86986239.173156738 -44864239.859420776 0 -44864239.859420776 52690095.530292511 0 0 0 0 -31036592.617037535 50984281.891155183 0 50984281.891155183 57488735.794441223 0 0 0 0 -18282088.585653305 15127651.813601732 0 15127651.813601732 125361108.11783123 0 0 0 0 101815239.26558304 263200804.77841663 0 263200804.77841663 175397511.34822783 0 0 0 0 38840993.0858922 193596516.29058409 0 193596516.29058409 154256214.61212921 0 0 0 0 -6702475.0397395287 12849941.123431085 0 12849941.123431085 -12284126.979950089 0 0 0 0 194291059.01095057 54212783.088333368 0 54212783.088333368 -117961643.75056458 0 0 0 0 -180213713.62677765 94416296.290283203 0 94416296.290283203 200638246.57010269 0 0 0 0 27840978.347467564 129163302.28198114 0 129163302.28198114 158105489.22484684 0 0 0 0 183045578.63187027 196933497.0121727 0 196933497.0121727 16478559.955978394 0 0 0 0 63669014.906654358 80231100.897872925 0 80231100.897872925 62555795.16727829 0 0 0 0 -6874141.9387689196 13239777.648664216 0 13239777.648664216 -12167779.833747644 0 0 0 0 98823035.59009552 24299309.797683716 0 24299309.797683716 -102047737.86856842 0 0 0 0 28042809.153434753 29525378.248970032 0 29525378.248970032 -32755289.346229553 0 0 0 0 25945314.589633942 50328769.644716263 0 50328769.644716263 -189874250.85321045 0 0 0 0 -10481880.425855637 -48967281.803040504 0 -48967281.803040504 -45670836.975822449 0 0 0 0 4377975.4344329834 -16451420.184700012 0 -16451420.184700012 -66780158.516181946 0 0 0 0 -16271368.291225433 -36886882.202846527 0 -36886882.202846527 -56598271.585998535 0 0 0 0 66020671.420440674 15696585.232254028 0 15696585.232254028 -60347275.640424728 0 0 0 0 60387033.299943924 1906815.7782936096 0 1906815.7782936096 -16630452.040908813 0 0 0 0 -120647203.80479431 -79052058.891532898 0 -79052058.891532898 35269877.832855225 0 0 0 0 -43005114.736076355 479922023.07226562 0 479922023.07226562 -250154919.82823372 0 0 0 0 306955172.19718933 178659299.74455261 0 178659299.74455261 -221851311.1958313 0 0 0 0 252096345.19759369 -1927785.2721939087 0 -1927785.2721939087 -145820991.82322693 0 0 0 0 -534540144.52363586 13976993.044967651 0 13976993.044967651 -139542840.43255615 0 0 0 0 -188920.2410331089 31955.164891956374 0 31955.164891956374 18185.117892576382 0 0 0 0 19306986.805099487 16409056.976993561 0 16409056.976993561 -302260243.97961426 0 0 0 0 -67985491.421951294 -123079390.28196716 0 -123079390.28196716 -218912353.37712479 0 0 0 0 -610325090.07685471 165906669.75271606 0 165906669.75271606 45019798.21522522 0 0 0 0 643338.75345342513 187123.17017567903 0 187123.17017567903 -416741.97271494567 0 0 0 0 -61444568.071075439 -90657985.408435822 0 -90657985.408435822 -79094452.218624115 0 0 0 0 -41828947.157600403 49630450.50353241 0 49630450.50353241 -23643007.989365935 0 0 0 0 6166751.0370254517 101273629.19636917 0 101273629.19636917 -108699078.04293442 0 0 0 0 -236747799.26886749 90409309.677009583 0 90409309.677009583 -24741800.046584606 0 0 0 0 -42149242.856208801 290095621.13233948 0 290095621.13233948 -204326664.08792114 0 0 0 0 98032254.475219727 88503346.361495972 0 88503346.361495972 -116504575.70292664 0 0 0 0 -23606019.51770401 45669357.584533691 0 45669357.584533691 -27758346.161499023 0 0 0 0 -17406406.428230286 48500476.512119293 0 48500476.512119293 -29203465.526130676 0 0 0 0 -66172482.074081421 70786804.921398163 0 70786804.921398163 -31408555.268295288 0 0 0 0 -25961383.994535446 54981225.890798569 0 54981225.890798569 -33789134.136291504 0 0 0 0 -19137238.027984619 9357471.8555755615 0 9357471.8555755615 -4067343.0520877838 0 0 0 0 -61386612.680156708 35006867.905725479 0 35006867.905725479 -12124520.483436584 0 0 0 0 1988761.6330115786 563270.35115933605 0 563270.35115933605 -1191915.2648153491 0 0 0 0 3459821.2937972792 4617527.1102019679 0 4617527.1102019679 -835812.57128702849 0 0 0 0 4646459.9942054749 4412060.2017059326 0 4412060.2017059326 -731064.96590423584 0 0 0 0 8989156.7371692657 6531427.1444835663 0 6531427.1444835663 -2263674.1552505493 0 0 0 0 1582134.0792717934 7194523.7932929993 0 7194523.7932929993 643956.31535339355 0 0 0 0 1093867.9146308899 5633854.1931610107 0 5633854.1931610107 -1158572.8249664307 0 0 0 0 3797388.5499704592 4246360.6259242482 0 4246360.6259242482 -1323185.905197762 0 0 0 0 2089150.6032943726 7239399.4709243774 0 7239399.4709243774 -12437110.496297359 0 0 0 0 27736795.146263123 16805625.857322693 0 16805625.857322693 -42943354.687744141 0 0 0 0 5865046.3277816772 17824647.289245605 0 17824647.289245605 -17613071.093002319 0 0 0 0 -14750864.270309448 51838733.532814026 0 51838733.532814026 -46527048.054779053 0 0 0 0 -4257500.7828826904 43632551.419158936 0 43632551.419158936 -43974207.593399048 0 0 0 0 -13822692.398773193 32005914.447395325 0 32005914.447395325 -9559019.8397827148 0 0 0 0 18696736.133068085 -38578985.548648834 0 -38578985.548648834 -51339693.453430176 0 0 0 0 53377161.953611374 -2088661.600982666 0 -2088661.600982666 -24043557.262138367 0 0 0 0 -18336309.929153442 -17104202.894283295 0 -17104202.894283295 -1920852.8039550781 0 0 0 0 991359.55253612064 -72692.093638440128 0 -72692.093638440128 -793104.9745864924 0 0 0 0 6885441.4280942883 -1640962.6265054662 0 -1640962.6265054662 -4411132.981235072 0 0 0 0 9257012.6661186218 -10806925.335212708 0 -10806925.335212708 -8935277.4035606384 0 0 0 0 12743858.398571014 -7674468.6304111481 0 -7674468.6304111481 -8710286.5537948608 0 0 0 0 16151548.345867157 -6961546.2734413147 0 -6961546.2734413147 -22456453.278064728 0 0 0 0 13870369.854854584 1402386.4230117798 0 1402386.4230117798 -8752913.3094669282 0 0 0 0 14873799.514709473 1719264.2286987305 0 1719264.2286987305 -16148437.042520523 0 0 0 0 8298473.365648306 -2032673.4802416814 0 -2032673.4802416814 -5474833.9043190591 0 0 0 0 17368365.180019379 7559418.4551811218 0 7559418.4551811218 -1362195.3109893799 0 0 0 0 19099038.676664829 9972782.7088718414 0 9972782.7088718414 -3980846.6337966919 0 0 0 0 -6117584.5566482544 9642400.6947937012 0 9642400.6947937012 7459213.9457702637 0 0 0 0 45239123.637298584 -31581576.773284912 0 -31581576.773284912 -170981.51766967773 0 0 0 0 44730231.164966583 19395043.896484375 0 19395043.896484375 17171197.501426697 0 0 0 0 529500.26665844582 436632.48913310654 0 436632.48913310654 -388951.56596400402 0 0 0 0 -9521582.2900810242 24264337.837852478 0 24264337.837852478 24559273.121002197 0 0 0 0 5343176.9614944458 21134143.669891357 0 21134143.669891357 12423769.747711182 0 0 0 0 3346462.0617909431 31730517.442698479 0 31730517.442698479 19339153.694519043 0 0 0 0 -21196761.809379578 14606007.833480835 0 14606007.833480835 20214715.675949097 0 0 0 0 59705390.985420227 14066944.483978271 0 14066944.483978271 -8562841.794342041 0 0 0 0 101207.14517875388 7926.9205155596137 0 7926.9205155596137 -365048.80179036222 0 0 0 0 29992686.758148193 23456125.094963074 0 23456125.094963074 25414324.283050537 0 0 0 0 806198.48374084849 5590979.3695173543 0 5590979.3695173543 -2694226.1668395959 0 0 0 0 477078.03074169159 18516942.637758255 0 18516942.637758255 2406796.0776519775 0 0 0 0 7812395.1141059399 20957738.602859974 0 20957738.602859974 -8918071.2498779297 0 0 0 0 386968.22253417969 3585414.1402740479 0 3585414.1402740479 -2390507.9599456787 0 0 0 0 -68197.66389465332 1591060.189414978 0 1591060.189414978 -115807.37152862549 0 0 0 0 2092507.5502529573 2314133.6863774881 0 2314133.6863774881 -254071.66788897105 0 0 0 0 1490755.0953407288 1009777.7238998413 0 1009777.7238998413 -643704.18078613281 0 0 0 0 2279011.8531086575 1986562.589002437 0 1986562.589002437 16319.456035673618 0 0 0 0 9140240.5499801636 1131392.6036148071 0 1131392.6036148071 4190376.9541625977 0 0 0 0 873038.95563436858 3861546.5649428428 0 3861546.5649428428 47820.867877045646 0 0 0 0 312316.39003304765 121930.49353985488 0 121930.49353985488 55043.187965109944 0 0 0 0 11702589.819992065 11334060.453407288 0 11334060.453407288 -6888442.254119873 0 0 0 0 -1083497.3476352692 3236645.3374671936 0 3236645.3374671936 -1554874.743270874 0 0 0 0 -481692.05899810791 3485822.8734970093 0 3485822.8734970093 2352461.3302268982 0 0 0 0 -2983198.6509780884 -1301908.7356414795 0 -1301908.7356414795 -1372927.2613525391 0 0 0 0 -2656447.0710754395 9811591.1712265015 0 9811591.1712265015 7261786.9647216797 0 0 0 0 28744.959884643555 2628116.3401565552 0 2628116.3401565552 -383408.30291748047 0 0 0 0 10447631.605758667 -330462.90084838867 0 -330462.90084838867 731328.46762084961 0 0 0 0 77570.171489067376 534897.61745068245 0 534897.61745068245 -223085.12848927395 0 0 0 0 1520685.8218096886 1330669.9007215668 0 1330669.9007215668 -1133130.2715813927 0 0 0 0 -2846056.844367981 7750063.7861328125 0 7750063.7861328125 15129918.53087616 0 0 0 0 14688941.693597794 -10258788.295150757 0 -10258788.295150757 7988925.9841918945 0 0 0 0 -21996019.503656149 2967080.8742570877 0 2967080.8742570877 15285184.60534668 0 0 0 0 -11447084.952651978 -1790871.0350341797 0 -1790871.0350341797 6268439.3298950195 0 0 0 0 -71754546.787952423 49725192.208454132 0 49725192.208454132 -4421148.8811645508 0 0 0 0 4278416.3726043701 -1188611.7382507324 0 -1188611.7382507324 -444252.20724487305 0 0 0 0 -58793.567759077065 160010.62546781451 0 160010.62546781451 -11725.745511846151 0 0 0 0 4106776.4019220537 5228291.7110628504 0 5228291.7110628504 -500191.98834076058 0 0 0 0 308264.77880577557 1382848.1023957767 0 1382848.1023957767 -713029.6780741103 0 0 0 0 -48088.798971176147 1420206.6111717224 0 1420206.6111717224 28782.683151245117 0 0 0 0 3342924.3410943029 2590608.3488247488 0 2590608.3488247488 -152099.46801204607 0 0 0 0 2018284.3142797542 3126995.0299624391 0 3126995.0299624391 668611.17722178251 0 0 0 0 1038178.5003185272 2111828.3328514099 0 2111828.3328514099 -538858.7770690918 0 0 0 0 -275415.33863830566 3813161.510635376 0 3813161.510635376 2367458.8073730469 0 0 0 0 331262.70799255371 2018953.6774597168 0 2018953.6774597168 -291250.80451965332 0 0 0 0 -579726.50349619053 1517771.8296640553 0 1517771.8296640553 -650620.23497147858 0 0 0 0 342658.8823056221 2060704.2846603394 0 2060704.2846603394 -859233.42863464355 0 0 0 0 -565063.93081665039 2756495.6712036133 0 2756495.6712036133 -2237586.5531425476 0 0 0 0 -653045.00176239014 968793.90922546387 0 968793.90922546387 -623053.71850585938 0 0 0 0 -169562.216796875 3264619.7476348877 0 3264619.7476348877 -2198509.2936325073 0 0 0 0 -124147.10195040703 2335918.6737606525 0 2335918.6737606525 -549617.56131744385 0 0 0 0 3472259.1488663722 6456612.8412843775 0 6456612.8412843775 456422.06688301358 0 0 0 0 -275653.72468158696 2604528.1370541304 0 2604528.1370541304 1104184.2943841165 0 0 0 0 -7021.5536629669368 4756.2281682919711 0 4756.2281682919711 -2473.8883471675217 0 0 0 0 11532128.591003418 54019463.378875732 0 54019463.378875732 7904969.8513622284 0 0 0 0 -126843.31754907547 2456656.4089104496 0 2456656.4089104496 1175727.643374756 0 0 0 0 -546651.32539367676 1198006.4326553345 0 1198006.4326553345 -798590.96305847168 0 0 0 0 70571103.025695801 27363948.430046082 0 27363948.430046082 -133710838.16223145 0 0 0 0 -226190311.00836182 -23547337.794677734 0 -23547337.794677734 -17233668.394317627 0 0 0 0 116015.39328209125 124383.94142262265 0 124383.94142262265 -32417.445440392941 0 0 0 0 5340632.8070831299 7137311.5821685791 0 7137311.5821685791 -4685403.1292419434 0 0 0 0 3879594.8668809813 1338337.3891394753 0 1338337.3891394753 -1127438.22069332 0 0 0 0 926423.01003158651 352014.48871106841 0 352014.48871106841 -843186.76675252989 0 0 0 0 -8809395.6566619873 46788599.187419891 0 46788599.187419891 -35418719.467178345 0 0 0 0 -7000178.187286377 74124493.181350708 0 74124493.181350708 -19813926.983383179 0 0 0 0 -4754922.1623306274 60950710.324867249 0 60950710.324867249 -48199031.790924072 0 0 0 0 31891173.905899048 102769462.11558533 0 102769462.11558533 -49363293.699493408 0 0 0 0 -1522885.9311141968 4954886.748550415 0 4954886.748550415 -1697995.3329925537 0 0 0 0 2051195.4557132721 -3450607.7737016678 0 -3450607.7737016678 -7689194.1190185547 0 0 0 0 2301715.7356262207 4344141.9316711426 0 4344141.9316711426 -4411741.9455566406 0 0 0 0 -230221.85577580798 4197180.5112667382 0 4197180.5112667382 -276186.66871150967 0 0 0 0 2852506.3200965864 3365503.3991063219 0 3365503.3991063219 -2565561.2807204053 0 0 0 0 -798276.19296264648 3388129.3158721924 0 3388129.3158721924 -1499433.8390045166 0 0 0 0 -606026.07055473328 5183067.7273483276 0 5183067.7273483276 -2198801.5295715332 0 0 0 0 2006536.7433320917 5717476.2940857857 0 5717476.2940857857 1204286.8463391981 0 0 0 0 -1691634.7850255743 2246858.741223447 0 2246858.741223447 924814.33993717958 0 0 0 0 294641.83315596916 2357758.6940301443 0 2357758.6940301443 523142.58123165742 0 0 0 0 -9507388.3821372986 29722595.860523224 0 29722595.860523224 -67797535.653251648 0 0 0 0 -1868263.9002342224 -4963461.1308364868 0 -4963461.1308364868 -28144098.171005249 0 0 0 0 -6349584.4095039368 4200786.2901992798 0 4200786.2901992798 6954462.6110954285 0 0 0 0 22735093.278793335 -65349623.106155396 0 -65349623.106155396 -97039214.3409729 0 0 0 0 39220466.084506989 -74527607.453525543 0 -74527607.453525543 -207206243.58348083 0 0 0 0 67871578.232185364 29010214.845115662 0 29010214.845115662 -284336661.38308716 0 0 0 0 56498484.669960022 41969005.448265076 0 41969005.448265076 -135659736.9644928 0 0 0 0 3233351.6247253418 91761515.858955383 0 91761515.858955383 -70841722.833641052 0 0 0 0 11386952.596847534 157377160.35521698 0 157377160.35521698 -166733508.11787796 0 0 0 0 18560095.223495483 47243151.088058472 0 47243151.088058472 -56950488.162902832 0 0 0 0 26775101.383392334 52755467.66400528 0 52755467.66400528 -109279024.15779114 0 0 0 0 -4970142.8962783813 58325142.510826111 0 58325142.510826111 -61290479.449035645 0 0 0 0 -1642356.5181121826 69787117.635734558 0 69787117.635734558 -58702514.037820816 0 0 0 0 776527.37350463867 78962032.193763733 0 78962032.193763733 -36487778.155273438 0 0 0 0 -7389216.991355896 59831741.83216095 0 59831741.83216095 -37232794.546669483 0 0 0 0 246285.51846694946 90182284.103317261 0 90182284.103317261 -25917323.463920593 0 0 0 0 -4053037.6525650024 49531478.13394165 0 49531478.13394165 20016554.750526428 0 0 0 0 -10730400.102330208 93975785.770552635 0 93975785.770552635 -20767141.006973267 0 0 0 0 -9839721.0114212036 30936168.911483765 0 30936168.911483765 38445718.386871338 0 0 0 0 -10723408.934825897 22015187.912670135 0 22015187.912670135 8161701.931350708 0 0 0 0 -9707129.0509433746 64791891.203062057 0 64791891.203062057 -16632844.424453735 0 0 0 0 -11653453.516346931 28222029.578162193 0 28222029.578162193 -33079062.510147095 0 0 0 0 -13905292.503887177 35177915.638847351 0 35177915.638847351 -45546957.922859192 0 0 0 0 -9106954.1149482727 59719081.817771912 0 59719081.817771912 -33141461.059326172 0 0 0 0 -19952774.819282532 30610241.584262848 0 30610241.584262848 -43787626.041740417 0 0 0 0 -24484923.102174759 41663169.426357269 0 41663169.426357269 -55301114.355987549 0 0 0 0 -6212170.4791717529 29617079.650497437 0 29617079.650497437 -47371830.417720795 0 0 0 0 -6896430.307975769 55134699.071311951 0 55134699.071311951 -65861346.560760498 0 0 0 0 -31376168.168258667 62745822.975509644 0 62745822.975509644 -60845813.992404938 0 0 0 0 -29293346.188531876 68568601.660834312 0 68568601.660834312 -47873546.247039795 0 0 0 0 -19333298.094512939 46652512.786144257 0 46652512.786144257 -50556273.545394897 0 0 0 0 -45318006.275296092 39611810.817425847 0 39611810.817425847 -77437309.922790527 0 0 0 0 -45836238.237617493 52351662.44506073 0 52351662.44506073 -51533222.968681335 0 0 0 0 -46039479.961357117 69170102.96761322 0 69170102.96761322 -51606616.803237915 0 0 0 0 -12356965.331871033 53242989.539493561 0 53242989.539493561 -50584146.997558594 0 0 0 0 4360886.3258590698 56443020.30506134 0 56443020.30506134 -81121630.510543823 0 0 0 0 16038756.941558838 484468.55993652344 0 484468.55993652344 -41408830.711349487 0 0 0 0 13034463.455749512 -9568138.1886367798 0 -9568138.1886367798 -8155741.673532486 0 0 0 0 -112362307.64849854 83272950.388946533 0 83272950.388946533 -90587082.15133667 0 0 0 0 -98320053.148612976 95921946.628822327 0 95921946.628822327 -79869883.484901428 0 0 0 0 504760.22465833277 297654.64880607021 0 297654.64880607021 -319761.44785194844 0 0 0 0 -70420107.115261078 381358.19371032715 0 381358.19371032715 -88760285.002197266 0 0 0 0 -1198508.8258590698 55673021.219688416 0 55673021.219688416 -74897992.884384155 0 0 0 0 956871.69979858398 58967367.917510986 0 58967367.917510986 -82014477.976425171 0 0 0 0 3931388.1545944214 76181542.094284058 0 76181542.094284058 -49284641.098823547 0 0 0 0 -1299142.0197410583 69168416.723464966 0 69168416.723464966 -57776058.630081177 0 0 0 0 -12459383.971412659 51025511.396652222 0 51025511.396652222 -52179382.596328735 0 0 0 0 -10624656.821762085 49014712.131416321 0 49014712.131416321 -55982986.856632233 0 0 0 0 -24362551.944137573 30827700.071117401 0 30827700.071117401 -78546655.67980957 0 0 0 0 560349.26871109009 296002106.13382053 0 296002106.13382053 147896505.40183258 0 0 0 0 230301354.57259369 144254679.43384933 0 144254679.43384933 -102006172.23700714 0 0 0 0 501616.67353680264 797826.32436186261 0 797826.32436186261 -133393.01774877682 0 0 0 0 257136526.48282623 193693629.19682121 0 193693629.19682121 -35457391.011529922 0 0 0 0 -124037530.98542023 -40211635.945739746 0 -40211635.945739746 62671047.026939392 0 0 0 0 34676230.290725708 33802420.947238922 0 33802420.947238922 -43926837.211063385 0 0 0 0 484206104.37464905 115640965.96474457 0 115640965.96474457 -8627834.0612354279 0 0 0 0 459221377.67330456 117739053.84532309 0 117739053.84532309 26952965.667930603 0 0 0 0 57688226.951004028 35877925.924045563 0 35877925.924045563 -26480069.285722733 0 0 0 0 1676810.9708836656 2093487.6511047576 0 2093487.6511047576 -529906.90465139225 0 0 0 0 -78169816.158368111 -18918543.358873367 0 -18918543.358873367 12666689.288162231 0 0 0 0 353965685.9118576 15384271.364803314 0 15384271.364803314 203621053.78269958 0 0 0 0 3117221.6161646903 3631151.1470427848 0 3631151.1470427848 -1232398.4542426839 0 0 0 0 -106090753.17141724 -41640545.359394073 0 -41640545.359394073 33239968.686630249 0 0 0 0 -66264227.192108154 -55188552.105743408 0 -55188552.105743408 617894.14443206787 0 0 0 0 1030292882.071434 267562217.80779076 0 267562217.80779076 -125082383.79555511 0 0 0 0 851621737.49114227 842178945.77407455 0 842178945.77407455 352369449.24854279 0 0 0 0 744443681.02987671 479996122.16988945 0 479996122.16988945 86493993.871520996 0 0 0 0 285482562.86848736 539044437.26864529 0 539044437.26864529 258685323.81072617 0 0 0 0 708892389.58304596 660848861.91629601 0 660848861.91629601 675032829.65835953 0 0 0 0 945803.17787363392 1438696058.5288839 0 1438696058.5288839 954918976.09269714 0 0 0 0 716522520.6581707 767439713.46875501 0 767439713.46875501 1212150380.7888794 0 0 0 0 1632583291.6210899 1688456166.7409954 0 1688456166.7409954 -1366358.0793228149 0 0 0 0 1812223029.8850708 1267485384.6233673 0 1267485384.6233673 37673042.570583344 0 0 0 0 3198507775.6458664 1193791898.4970818 0 1193791898.4970818 6021394.8379745483 0 0 0 0 -23908306.060038567 2589486.1902122498 0 2589486.1902122498 9409935.3754882812 0 0 0 0 1862133.283573823 1263961.5979111623 0 1263961.5979111623 1133990.2067982554 0 0 0 0 1731369285.8709488 1142300427.2877808 0 1142300427.2877808 414080421.50785065 0 0 0 0 1498914.0938674454 1890058.4557240847 0 1890058.4557240847 3032883.1244576015 0 0 0 0 -6794847.2076721191 6105970.1810321808 0 6105970.1810321808 9196556.01612854 0 0 0 0 3407670.429901123 2271704.7937545776 0 2271704.7937545776 3055687.2184264511 0 0 0 0 1562918146.3324966 1407801770.2606087 0 1407801770.2606087 354165123.95041656 0 0 0 0 1577789734.296669 1187736967.1094055 0 1187736967.1094055 1140314861.1562347 0 0 0 0 832564.26358083263 724258.50769431144 0 724258.50769431144 114822.0254483192 0 0 0 0 1512913361.7516184 -358486413.24806833 0 -358486413.24806833 -172962011.12916565 0 0 0 0 1668658744.8794708 1024672521.1674805 0 1024672521.1674805 331895162.10809326 0 0 0 0 4562336.2430419922 23245140.23664856 0 23245140.23664856 -33645175.890716553 0 0 0 0 5247510.2413890101 4944906.6880611498 0 4944906.6880611498 1712668.8959786205 0 0 0 0 -131095042.18699646 -104938630.98923874 0 -104938630.98923874 -117192285.38633728 0 0 0 0 746811667.13458252 30101158.502380371 0 30101158.502380371 -215782207.11580658 0 0 0 0 6119432.5091178827 3021736.8223899528 0 3021736.8223899528 -1352416.1717493564 0 0 0 0 -111374701.22749329 327774437.78612518 0 327774437.78612518 80993972.553352356 0 0 0 0 -205374745.51085663 35382094.324800491 0 35382094.324800491 102400944.23930359 0 0 0 0 -469555146.92819214 -220891474.87512207 0 -220891474.87512207 -143781000.24188232 0 0 0 0 169910.86375066824 162931.17981057242 0 162931.17981057242 141560.80816702731 0 0 0 0 -43658447.49432373 -183864047.97184372 0 -183864047.97184372 -778183.15749549866 0 0 0 0 4539411.8227882385 4169194.9951286316 0 4169194.9951286316 5368033.5913238525 0 0 0 0 2867112.5917954929 2163901.8335559443 0 2163901.8335559443 1569481.6920657791 0 0 0 0 2487739.6937561035 2356849.9492721558 0 2356849.9492721558 7110100.5980307609 0 0 0 0 3874768.959487915 12690633.398750305 0 12690633.398750305 5636853.2379150391 0 0 0 0 1748960.4809036255 8343672.6809844971 0 8343672.6809844971 -1328897.2164001465 0 0 0 0 3301780.4109802246 4268541.9932098389 0 4268541.9932098389 9278697.2742099762 0 0 0 0 -1727196.3519630432 2625366.3758201599 0 2625366.3758201599 5156491.7615509033 0 0 0 0 3263663.5044819675 1548043.4826807175 0 1548043.4826807175 357272.12831438705 0 0 0 0 14523976.622175217 18478947.860439301 0 18478947.860439301 3790051.0330429077 0 0 0 0 19021324.193748474 12867070.854995728 0 12867070.854995728 11356.171028137207 0 0 0 0 9204564.4386138916 5403490.0278167725 0 5403490.0278167725 5324369.6599917412 0 0 0 0 -524769.36301040649 15741389.413082123 0 15741389.413082123 -10619.189598083496 0 0 0 0 -2188462.4254150391 22245894.522888184 0 22245894.522888184 516892.09227752686 0 0 0 0 5793035.3395385742 24275160.272068024 0 24275160.272068024 -68802.04615020752 0 0 0 0 -19827156.019012451 1651725.7133865356 0 1651725.7133865356 4246184.7645874023 0 0 0 0 3393453.3810207229 1263689.538598584 0 1263689.538598584 -142028.95484929532 0 0 0 0 2035158.5261383057 7385277.4019851685 0 7385277.4019851685 5678607.5216236115 0 0 0 0 8061842.8173599243 18830478.61283493 0 18830478.61283493 -4067742.2521514893 0 0 0 0 4121916.9945163727 7072678.5564222336 0 7072678.5564222336 4362848.4437866211 0 0 0 0 5595854.464805603 11004046.180145264 0 11004046.180145264 2057307.6437072754 0 0 0 0 2985888.5378799438 4590778.8740959167 0 4590778.8740959167 6483148.0270233154 0 0 0 0 5838304.876335144 6622158.8783340454 0 6622158.8783340454 4119681.1480140686 0 0 0 0 -2103943.6474151611 75325330.80267334 0 75325330.80267334 -62006755.608173504 0 0 0 0 6722966.6972651593 3964349.710167136 0 3964349.710167136 -1295423.0703475676 0 0 0 0 65677248.839672089 15422354.103741646 0 15422354.103741646 -14168970.294677734 0 0 0 0 55993260.874794006 -9383101.1258020401 0 -9383101.1258020401 38431118.784347534 0 0 0 0 7163481.9381232597 4284894.9097739104 0 4284894.9097739104 -1377578.5671950472 0 0 0 0 -415188536.52233887 65781008.960021973 0 65781008.960021973 47043813.247802734 0 0 0 0 48164331.790405273 17543375.64006424 0 17543375.64006424 10817498.175704956 0 0 0 0 8054712.8297462463 6541562.4834518433 0 6541562.4834518433 1125662.6982955933 0 0 0 0 -82540134.205088913 -98520031.175063461 0 -98520031.175063461 -4814751.4122543335 0 0 0 0 -454846.42216361873 259131.15860117972 0 259131.15860117972 235195.85511027277 0 0 0 0 622177.42944335938 17097700.46018219 0 17097700.46018219 -5294229.9890594482 0 0 0 0 655723.67895014305 571698.60439970531 0 571698.60439970531 323247.00043427944 0 0 0 0 -32209063.290214539 35808905.105133057 0 35808905.105133057 -986364.81103515625 0 0 0 0 45666808.947357178 72759777.329877853 0 72759777.329877853 9692197.4674987793 0 0 0 0 -17764631.358032227 -8181056.8134307861 0 -8181056.8134307861 9776136.7366333008 0 0 0 0 -20064447.75428772 -7085942.8855667114 0 -7085942.8855667114 31874941.191833496 0 0 0 0 -70721288.79364109 -30893485.617248058 0 -30893485.617248058 11228018.532279968 0 0 0 0 -2110214.2886155918 1060937.3380936608 0 1060937.3380936608 1413154.3023966886 0 0 0 0 -74239315.772415161 6062903.7319145203 0 6062903.7319145203 17580464.948898315 0 0 0 0 -39366100.111785889 28033283.879053116 0 28033283.879053116 29290296.841156006 0 0 0 0 41799933.909862518 49491997.759012222 0 49491997.759012222 -29013199.567092896 0 0 0 0 -103388918.10431671 61448388.458429337 0 61448388.458429337 22157062.282699585 0 0 0 0 -285281.58126074634 494499.51908894442 0 494499.51908894442 224485.23575709388 0 0 0 0 531552847.85774231 52180331.382316589 0 52180331.382316589 -127678462.15052414 0 0 0 0 148797927.46308899 -50598584.76745224 0 -50598584.76745224 28483085.125213623 0 0 0 0 79413533.44883728 96609439.642936707 0 96609439.642936707 61062265.20816803 0 0 0 0 56634034.040939331 27769777.179924011 0 27769777.179924011 38704310.647675991 0 0 0 0 -5450741.8580474854 8834997.9528579712 0 8834997.9528579712 31325953.048322678 0 0 0 0 149880013.47877884 -2161663.0045156479 0 -2161663.0045156479 -19773077.158149719 0 0 0 0 -860861.09075322002 1636547.7206572574 0 1636547.7206572574 651945.77472245693 0 0 0 0 -2705333.7360699065 5703460.2037950587 0 5703460.2037950587 -3140152.482098069 0 0 0 0 145099756.91887665 64736071.69405365 0 64736071.69405365 -8111486.8716416359 0 0 0 0 91934429.509567261 -32277267.239988327 0 -32277267.239988327 -33526554.01436615 0 0 0 0 -7716629.1455612183 22655441.274471283 0 22655441.274471283 12224275.279010773 0 0 0 0 -17972290.997703552 4907428.7431297302 0 4907428.7431297302 -5223888.139251709 0 0 0 0 -38533518.671577454 17316492.528425217 0 17316492.528425217 13166413.45513916 0 0 0 0 -4443816.9563271683 1974316.1494338736 0 1974316.1494338736 7150328.3226759881 0 0 0 0 -6943870.3922405243 -14724864.190255165 0 -14724864.190255165 7855604.4713287354 0 0 0 0 1072805.8647766113 19725366.171348572 0 19725366.171348572 2199643.9282836914 0 0 0 0 -2218388.2514479291 6112918.3734544553 0 6112918.3734544553 4965443.2421635911 0 0 0 0 14764535.196586609 -44809503.748596191 0 -44809503.748596191 114386407.34844971 0 0 0 0 18519573.562683105 47225648.612537384 0 47225648.612537384 40519998.8150177 0 0 0 0 -27117687.979812622 12500615.342063904 0 12500615.342063904 15583599.004676819 0 0 0 0 95947989.299705505 -45287334.802593231 0 -45287334.802593231 -2831959.4596405029 0 0 0 0 -29591775.607727051 7372687.3542404175 0 7372687.3542404175 56130549.566436768 0 0 0 0 -26852035.274353027 11313346.800140381 0 11313346.800140381 28091573.537628174 0 0 0 0 -28409270.535797119 16674644.710769653 0 16674644.710769653 5769057.9408187866 0 0 0 0 -40455155.567657471 -14650487.168136597 0 -14650487.168136597 -3981977.3261413574 0 0 0 0 68941795.689453125 86429178.340545654 0 86429178.340545654 85771938.289428711 0 0 0 0 10547372.850952148 12402687.249382019 0 12402687.249382019 -28642568.916654587 0 0 0 0 2546187.8984787874 614306.96213515475 0 614306.96213515475 -273614.94951593503 0 0 0 0 131885155.71276093 75269067.706626892 0 75269067.706626892 147992683.93467712 0 0 0 0 145814500.39393616 79793681.341438293 0 79793681.341438293 28774594.481796265 0 0 0 0 18348714.916259766 16761765.497024536 0 16761765.497024536 -29739120.186998367 0 0 0 0 90020386.763961792 69034907.459915161 0 69034907.459915161 10283633.697967529 0 0 0 0 59570759.740867615 22199477.502655029 0 22199477.502655029 -12903211.58480835 0 0 0 0 128774596.65036011 93638467.609573364 0 93638467.609573364 25611728.038787842 0 0 0 0 166538863.55200195 74581490.187911987 0 74581490.187911987 -18405309.012573242 0 0 0 0 171117713.99050903 76963423.132965088 0 76963423.132965088 -31492520.842262268 0 0 0 0 166522484.65892029 76454249.970146179 0 76454249.970146179 4086989.799621582 0 0 0 0 152527656.44280243 69473166.15952301 0 69473166.15952301 20935196.022827148 0 0 0 0 189185432.79244995 54895152.267547607 0 54895152.267547607 -106457702.85183716 0 0 0 0 172790790.92558289 140106784.82027435 0 140106784.82027435 -16853149.230041504 0 0 0 0 156315171.94169617 147250288.61917877 0 147250288.61917877 113835743.07521057 0 0 0 0 178600286.54896545 117730736.49835205 0 117730736.49835205 28596436.657640457 0 0 0 0 178273691.58566284 93932780.412536621 0 93932780.412536621 -21788606.522186279 0 0 0 0 206078932.27319336 257390964.4680481 0 257390964.4680481 177581593.05621433 0 0 0 0 259683402.62466431 -28979786.609817505 0 -28979786.609817505 -54708569.998746872 0 0 0 0 26088691.418647766 -60172003.100166321 0 -60172003.100166321 -58162590.408302307 0 0 0 0 592452.52929190174 155768.75242223032 0 155768.75242223032 144170.64016600326 0 0 0 0 305471631.55168152 200291143.57879639 0 200291143.57879639 27951726.357391357 0 0 0 0 366561119.98919678 -199601692.00846863 0 -199601692.00846863 12205529.454528809 0 0 0 0 12748966.265586853 25534426.131633759 0 25534426.131633759 -8657316.683807373 0 0 0 0 25264789.795855641 24959275.281823039 0 24959275.281823039 -20178293.604217529 0 0 0 0 -62954159.198139191 28980315.022506714 0 28980315.022506714 105642629.37927723 0 0 0 0 9235054.7189331055 21036949.775417328 0 21036949.775417328 -13295578.799041748 0 0 0 0 -817986.20040288195 378331.51134291012 0 378331.51134291012 -179060.17919446528 0 0 0 0 -22667076.789827347 -87610370.193284035 0 -87610370.193284035 2538537.3645629883 0 0 0 0 -224981860.53049088 -17978110.169952393 0 -17978110.169952393 -1529649.805015564 0 0 0 0 -164268922.24217987 -88794809.251174927 0 -88794809.251174927 -144446030.99191284 0 0 0 0 -47716638.709375381 -12225456.533443451 0 -12225456.533443451 -7050453.9480056763 0 0 0 0 -169136289.59016991 11269583.871351242 0 11269583.871351242 13737982.259536743 0 0 0 0 -62156585.981636047 -2577694.5691986084 0 -2577694.5691986084 4724236.6502227783 0 0 0 0 -107163905.35037994 -18613210.563064575 0 -18613210.563064575 3973874.3304290771 0 0 0 0 -447101.50798014132 7912222.9299582308 0 7912222.9299582308 -655336.70277063176 0 0 0 0 -2903754.0174036734 836656.69545833068 0 836656.69545833068 -179385.64071043208 0 0 0 0 -21318314.983032227 3698753.5475769043 0 3698753.5475769043 -1159761.3668823242 0 0 0 0 1394919.7786369324 29772613.792892456 0 29772613.792892456 20732424.765922546 0 0 0 0 6380309.6713142395 15808757.198934555 0 15808757.198934555 -17607868.321289062 0 0 0 0 12392075.302459717 1686001.3966522217 0 1686001.3966522217 14878409.757080078 0 0 0 0 458828.01595685817 268646.59075704589 0 268646.59075704589 -275644.88800212555 0 0 0 0 60654707.473052979 19816112.089950562 0 19816112.089950562 -7700643.098449707 0 0 0 0 68629813.433746338 15460064.047775269 0 15460064.047775269 -20100121.754089355 0 0 0 0 -6229783.6716918945 769666.39639282227 0 769666.39639282227 -10062544.267181396 0 0 0 0 79964158.801574707 8961269.0696105957 0 8961269.0696105957 -23517858.595275879 0 0 0 0 66200716.493927002 -42428720.39251709 0 -42428720.39251709 -10381506.366882324 0 0 0 0 75130696.888223648 22241867.92339325 0 22241867.92339325 -7582049.013092041 0 0 0 0 -23418299.160461426 -38053914.283477783 0 -38053914.283477783 -4327186.443145752 0 0 0 0 152424.16337451595 3387928.3407179657 0 3387928.3407179657 79614.479008179158 0 0 0 0 -63923455.125305176 -15208513.151153564 0 -15208513.151153564 3789824.4007568359 0 0 0 0 1784997.9633636475 1522926.3651161194 0 1522926.3651161194 -364395.693359375 0 0 0 0 -412847.31974305958 5640015.1550950408 0 5640015.1550950408 900291.87008315325 0 0 0 0 -11397000.698955536 -29430810.445919037 0 -29430810.445919037 -20309358.834533691 0 0 0 0 5267317.993685456 1416577.3444642145 0 1416577.3444642145 -1595053.1432378516 0 0 0 0 -4398540.8424372533 3199103.9603569303 0 3199103.9603569303 3699511.6006556787 0 0 0 0 -915781.79563261755 3849257.2903376985 0 3849257.2903376985 -1520574.5989616942 0 0 0 0 -12822021.183944702 10674432.942333221 0 10674432.942333221 13600800.008605957 0 0 0 0 -1054699.4250259399 -2839566.0056343079 0 -2839566.0056343079 -10366448.618865967 0 0 0 0 112619575.30981445 -27888404.579406738 0 -27888404.579406738 -5832174.966796875 0 0 0 0 142761012.67734528 23276798.092132568 0 23276798.092132568 -9596784.7508544922 0 0 0 0 -10308215.440307617 -1580102.4173583984 0 -1580102.4173583984 -12966897.421264648 0 0 0 0 -40941670.917564392 921536.8193359375 0 921536.8193359375 -6484276.0366134644 0 0 0 0 -1655390.4467102755 3460635.4166319426 0 3460635.4166319426 -101057.21938859113 0 0 0 0 7206020.2692565918 8806260.6090087891 0 8806260.6090087891 9448404.5262451172 0 0 0 0 -89323573.574256897 -41460581.516090393 0 -41460581.516090393 -12426793.497428894 0 0 0 0 -51421730.0442276 -25072044.858196259 0 -25072044.858196259 -5343601.0772399902 0 0 0 0 -56896493.827766418 -9304158.9414367676 0 -9304158.9414367676 -3596026.3019943237 0 0 0 0 -16107225.402423859 -41648135.419116974 0 -41648135.419116974 -44312606.687164307 0 0 0 0 -219496.25569123775 -184.45407625287771 0 -184.45407625287771 127741.53804108128 0 0 0 0 -54576372.536453247 -24174326.65801239 0 -24174326.65801239 -22931850.401855469 0 0 0 0 5488102.5329055786 20197440.01654911 0 20197440.01654911 24206144.102996826 0 0 0 0 5946617.5775985718 16303420.792785645 0 16303420.792785645 5748255.5720062256 0 0 0 0 6479020.5114898682 8821771.4532318115 0 8821771.4532318115 9469676.1645011902 0 0 0 0 897485.22968265042 3439835.6770316586 0 3439835.6770316586 -2869468.6330298726 0 0 0 0 -9876383.777923584 5290253.1130371094 0 5290253.1130371094 13057788.860568047 0 0 0 0 -8600289.1275787354 23848970.457511902 0 23848970.457511902 11422934.752044678 0 0 0 0 22136667.656730652 24205888.171257019 0 24205888.171257019 23728840.551734924 0 0 0 0 -1941620.0299668063 1860105.6917223763 0 1860105.6917223763 2783328.080696892 0 0 0 0 -24389796.282749176 19572745.506103516 0 19572745.506103516 17610680.185455322 0 0 0 0 161595069.75382996 9339346.5924758911 0 9339346.5924758911 16957984.011505127 0 0 0 0 -29602402.920639038 8357514.6043586731 0 8357514.6043586731 20390565.225570679 0 0 0 0 -1238667.9499515463 1454901.0374957412 0 1454901.0374957412 1449035.2756438181 0 0 0 0 -11570675.579704285 5193600.2034578323 0 5193600.2034578323 -33780310.413467407 0 0 0 0 158354613.56040955 47805921.16885376 0 47805921.16885376 141708610.11218262 0 0 0 0 184755659.81352234 -76403463.744689941 0 -76403463.744689941 184585924.39749527 0 0 0 0 192355763.21881104 -23907442.256408691 0 -23907442.256408691 99582822.174407959 0 0 0 0 135513871.98922729 -7758355.8340454102 0 -7758355.8340454102 203290609.30792236 0 0 0 0 188661768.85449982 26007828.035766602 0 26007828.035766602 37352467.269683838 0 0 0 0 171303857.40222168 48568047.790924072 0 48568047.790924072 37045362.170394897 0 0 0 0 181072883.20051575 38889548.324554443 0 38889548.324554443 17056139.555374146 0 0 0 0 173921764.48031998 49117814.415733337 0 49117814.415733337 57518940.841949463 0 0 0 0 170356434.27033997 60590077.077041626 0 60590077.077041626 26506610.210102081 0 0 0 0 175412156.60852051 23761787.8175354 0 23761787.8175354 6830746.4857177734 0 0 0 0 132507476.05615234 32377624.148742676 0 32377624.148742676 6622643.80747509 0 0 0 0 159792008.85546875 46690908.793457031 0 46690908.793457031 -18783617.846740723 0 0 0 0 174480743.30465698 46304060.015777588 0 46304060.015777588 -4185224.7514343262 0 0 0 0 158615854.59426117 76246156.693252563 0 76246156.693252563 -15110653.582763672 0 0 0 0 151457491.99755859 66939346.085571289 0 66939346.085571289 -14865645.018791199 0 0 0 0 150998306.38040924 62961889.284954071 0 62961889.284954071 -19293960.356689453 0 0 0 0 137414760.3218689 69303080.067047119 0 69303080.067047119 -22021594.210006714 0 0 0 0 152778775.56002426 65955839.371994019 0 65955839.371994019 -27355756.084014893 0 0 0 0 153015120.31726074 71393310.084838867 0 71393310.084838867 -27064315.052886963 0 0 0 0 148754396.95295715 70244730.419433594 0 70244730.419433594 -18771806.434501648 0 0 0 0 148726065.13764572 69733333.079669952 0 69733333.079669952 -23443570.003448486 0 0 0 0 107621395.51074219 49612308.906082153 0 49612308.906082153 -5966862.6266937256 0 0 0 0 124163279.91059875 43779506.395553589 0 43779506.395553589 -19019923.746917725 0 0 0 0 34909475.943479538 213596.23173952103 0 213596.23173952103 6013609.7637786865 0 0 0 0 -2102212.6815869212 4958216.943521373 0 4958216.943521373 5258494.5625223517 0 0 0 0 80293840.827415466 34137731.631896973 0 34137731.631896973 -7881776.1620178223 0 0 0 0 135153778.57246399 15164221.295349121 0 15164221.295349121 -48186005.534255981 0 0 0 0 116214712.21296692 59974304.99079895 0 59974304.99079895 -17833524.635986328 0 0 0 0 141786255.76748657 47224550.974807739 0 47224550.974807739 -30496602.371740341 0 0 0 0 136332431.54248047 63075067.323104858 0 63075067.323104858 -14028549.1197052 0 0 0 0 104419238.67961884 93153866.861721039 0 93153866.861721039 -6000103.3756408691 0 0 0 0 143881525.70370483 69404373.881881714 0 69404373.881881714 -22104822.893768311 0 0 0 0 1959596.3182858918 2010040.5255486593 0 2010040.5255486593 1190991.2978250273 0 0 0 0 17989316.179969788 18210928.990543365 0 18210928.990543365 6666163.3874725103 0 0 0 0 -2001254.3435827997 4224558.1336313225 0 4224558.1336313225 5538417.0636340082 0 0 0 0 188068273.28668213 -13149959.481750488 0 -13149959.481750488 81831412.479156494 0 0 0 0 181021649.53592491 22964599.355934143 0 22964599.355934143 9516280.9868774414 0 0 0 0 156275595.9269104 82516356.545349121 0 82516356.545349121 -26773918.357757568 0 0 0 0 13555097.591194153 6335941.4819173813 0 6335941.4819173813 4109153.7194519043 0 0 0 0 -83202631.088157237 303230405.74747545 0 303230405.74747545 -39199714.047973633 0 0 0 0 162627882.46307373 -940124.71304321289 0 -940124.71304321289 117785845.80941772 0 0 0 0 7849567.4890554398 4829753.4387116302 0 4829753.4387116302 -1681999.2674306314 0 0 0 0 9937785.4968109131 6195181.0084686279 0 6195181.0084686279 3864644.0507126153 0 0 0 0 -21621306.082145691 27863000.125 0 27863000.125 162921827.72238159 0 0 0 0 -378619.79186808039 463037.25738787092 0 463037.25738787092 459146.16460525617 0 0 0 0 898612346.23423767 -38058563.646751404 0 -38058563.646751404 -778688895.24261475 0 0 0 0 313703716.59169006 -92399291.111480713 0 -92399291.111480713 118265951.07339478 0 0 0 0 252662675.14191437 236888115.97447968 0 236888115.97447968 -207145968.68933105 0 0 0 0 -25866.515662223101 197991.91608148068 0 197991.91608148068 74675.061440044083 0 0 0 0 520569280.0087738 689601645.16815186 0 689601645.16815186 -2003164824.3693593 0 0 0 0 231307565.09693146 -125483443.87394714 0 -125483443.87394714 800772336.41629028 0 0 0 0 2363781.1020413693 2143624.8383450918 0 2143624.8383450918 452343.96331032366 0 0 0 0 27155262.541416168 15447680.903739929 0 15447680.903739929 1354126.1863555908 0 0 0 0 111407356.93657684 257978667.81829071 0 257978667.81829071 134284654.07574081 0 0 0 0 15856144.879592896 137542766.95124054 0 137542766.95124054 264008351.04131317 0 0 0 0 12600629.191196442 21418550.211587906 0 21418550.211587906 6325793.3611907959 0 0 0 0 15277308.669563293 10338707.0744133 0 10338707.0744133 1401288.2452468872 0 0 0 0 1575417.2579447958 2108418.1852113008 0 2108418.1852113008 786071.58759409562 0 0 0 0 4250801.1925048828 6912615.3371963501 0 6912615.3371963501 10359320.52633667 0 0 0 0 29868184.019477844 15278718.414432526 0 15278718.414432526 -3510493.7784042358 0 0 0 0 -10432382.042692184 9636237.7814769745 0 9636237.7814769745 18372544.009963989 0 0 0 0 583701.44041306665 528696.80347340927 0 528696.80347340927 185425.50578148663 0 0 0 0 911950.91748632025 458185.26400066353 0 458185.26400066353 41243.275352310389 0 0 0 0 58398570.221940994 26579015.599082947 0 26579015.599082947 -19914617.411987305 0 0 0 0 54864359.806594849 15234246.096321106 0 15234246.096321106 -18218015.891952515 0 0 0 0 42399409.988342285 14239107.234344482 0 14239107.234344482 -16864948.217102051 0 0 0 0 31071830.342308044 31091553.130226135 0 31091553.130226135 159637.19577026367 0 0 0 0 47044660.676044464 29808607.965346336 0 29808607.965346336 -15268007.908905029 0 0 0 0 29843622.171234131 49706090.647735596 0 49706090.647735596 -24284116.95464325 0 0 0 0 14594665.291717529 19431137.179229736 0 19431137.179229736 -4949524.3022918701 0 0 0 0 15855096.797676086 21635906.370666504 0 21635906.370666504 -5622889.0639648438 0 0 0 0 -83394787.160381317 281671638.67081928 0 281671638.67081928 71386876.925689697 0 0 0 0 -82788785.413524628 306430747.37580299 0 306430747.37580299 -241380803.80232239 0 0 0 0 335558938.04563904 103850524.08328247 0 103850524.08328247 -434174.28760168131 0 0 0 0 95781330.599210739 -104381330.71331692 0 -104381330.71331692 -121948383.94450378 0 0 0 0 -242968.47941467445 -229186.14709812216 0 -229186.14709812216 463985.1189920716 0 0 0 0 -55983740.652620316 28661930.34756279 0 28661930.34756279 202861551.27909851 0 0 0 0 341227674.89091873 153080199.69202423 0 153080199.69202423 -128142426.92277527 0 0 0 0 168641428.20913696 -78254968.441165924 0 -78254968.441165924 -62667578.972099304 0 0 0 0 -84517883.744567871 -113818642.50524902 0 -113818642.50524902 131707751.57785988 0 0 0 0 -84409760.719250679 -110239226.26089263 0 -110239226.26089263 -231352784.80615234 0 0 0 0 -80890484.70891571 -34817786.436889648 0 -34817786.436889648 37183238.654441833 0 0 0 0 -40217406.304893494 -38006978.222610474 0 -38006978.222610474 37424631.62603569 0 0 0 0 92693640.328132629 217023633.81945801 0 217023633.81945801 44694419.208892822 0 0 0 0 -4426515.194732666 76413629.419532776 0 76413629.419532776 84216715.474508286 0 0 0 0 -915800.47702658596 78179.909871254116 0 78179.909871254116 1527895.7895777822 0 0 0 0 23677888.006007195 46431707.037443161 0 46431707.037443161 114793429.04370117 0 0 0 0 -16359264.99490881 -25310360.103011131 0 -25310360.103011131 19606457.851333618 0 0 0 0 3444317.0776138306 -13055760.376457214 0 -13055760.376457214 -24954146.121925354 0 0 0 0 -20425424.977561951 -20632452.779098511 0 -20632452.779098511 50512244.992736816 0 0 0 0 -28108024.86516571 -10320153.976547241 0 -10320153.976547241 47210109.139892578 0 0 0 0 637866.60146133229 213923.96576001681 0 213923.96576001681 -273043.49408389069 0 0 0 0 -910748.20610473491 2563261.1582589895 0 2563261.1582589895 -1730977.6468980536 0 0 0 0 29394256.420394897 67213117.414123535 0 67213117.414123535 80026215.79662323 0 0 0 0 37455826.234024048 42834655.281723022 0 42834655.281723022 36394190.552841187 0 0 0 0 49152494.880260468 -16363425.477897644 0 -16363425.477897644 12930785.077285767 0 0 0 0 -15977518.372241974 17494693.463493347 0 17494693.463493347 81497506.117004395 0 0 0 0 -35237482.387466431 47836430.161148071 0 47836430.161148071 122308875.25003052 0 0 0 0 3040464.2051925659 24563850.598579407 0 24563850.598579407 119147137.82977295 0 0 0 0 77978032.146339417 9938609.9938201904 0 9938609.9938201904 102634529.85510254 0 0 0 0 7233389.1731567383 67330966.552566528 0 67330966.552566528 74953746.146270752 0 0 0 0 -22202186.521743774 6735107.2759246826 0 6735107.2759246826 68100609.894256592 0 0 0 0 -82091.236760200933 456268.50954638049 0 456268.50954638049 -143906.59490268119 0 0 0 0 22334923.744728088 -10950411.505447388 0 -10950411.505447388 -45002459.748188019 0 0 0 0 -139858107.78998566 -394118021.52341461 0 -394118021.52341461 -268818447.98762512 0 0 0 0 -45257718.113067627 35516772.525360107 0 35516772.525360107 -62312309.824180603 0 0 0 0 65777595.628723145 -32916344.009017944 0 -32916344.009017944 -39941349.666778564 0 0 0 0 -84462908.097759247 103494252.43319321 0 103494252.43319321 -80380468.907409668 0 0 0 0 -194276466.86877823 138991177.30768585 0 138991177.30768585 -63250529.579315186 0 0 0 0 -257519283.96605682 36190390.773574829 0 36190390.773574829 12762981.312072754 0 0 0 0 109265380.72031069 186211328.77154732 0 186211328.77154732 6190689.5080413818 0 0 0 0 -123947.99982611835 1389508.0121159125 0 1389508.0121159125 -1557865.0682017282 0 0 0 0 133419609.13536072 24168009.638183594 0 24168009.638183594 48335049.086990356 0 0 0 0 8942488.8605451584 189559198.6331954 0 189559198.6331954 25395971.306472778 0 0 0 0 -55969135.077528 589905.15642356873 0 589905.15642356873 77710056.336761475 0 0 0 0 92020600.162605286 53571960.87059021 0 53571960.87059021 48283091.796569824 0 0 0 0 -88411941.304718018 101538341.50466919 0 101538341.50466919 39877235.206550598 0 0 0 0 20998806.790343285 115513679.31513977 0 115513679.31513977 -2189007.9425811768 0 0 0 0 -40681743.779567719 -9970650.0825614929 0 -9970650.0825614929 12048312.064498901 0 0 0 0 -63934526.385002136 -30104373.056991577 0 -30104373.056991577 30728564.776535034 0 0 0 0 -189862565.76359558 329089623.14602661 0 329089623.14602661 -279408042.8169899 0 0 0 0 -183227260.05318451 -34025127.790779114 0 -34025127.790779114 14643772.433227539 0 0 0 0 -527196760.39102173 78301149.917175293 0 78301149.917175293 -16499890.232990265 0 0 0 0 -222631790.15136719 198601387.02387238 0 198601387.02387238 -26217863.658752441 0 0 0 0 69515147.902786255 97715535.032318115 0 97715535.032318115 -34414160.690086365 0 0 0 0 177302805.71313095 260068568.22686005 0 260068568.22686005 -461415708.53782654 0 0 0 0 44988306.934013367 173303578.27024078 0 173303578.27024078 -243680592.08956909 0 0 0 0 135096030.54430771 21420224.028675079 0 21420224.028675079 -353441549.76637268 0 0 0 0 440341619.42667389 79346935.154296875 0 79346935.154296875 -366177625.42953873 0 0 0 0 -90461041.120952606 -4511997.2553329468 0 -4511997.2553329468 120560041.28769684 0 0 0 0 -520194.19198358804 747819.32724038698 0 747819.32724038698 -97479.41551249451 0 0 0 0 -325043814.90645599 164133218.32820892 0 164133218.32820892 345623.27305201901 0 0 0 0 8835714.0396347046 -9972703.9056777954 0 -9972703.9056777954 -588395.92115783691 0 0 0 0 -904399366.42103577 60375824.791595459 0 60375824.791595459 204975305.44622421 0 0 0 0 20629086.851898193 18500256.473613739 0 18500256.473613739 47777887.224266052 0 0 0 0 -1115238.1438207217 1196479.4679302648 0 1196479.4679302648 -138910.73274102644 0 0 0 0 41328556.903162003 44142137.624620438 0 44142137.624620438 92594.384918212891 0 0 0 0 111896.95242670551 402355.20223429054 0 402355.20223429054 -684948.55340304226 0 0 0 0 185546892.7117033 -226661642.39861774 0 -226661642.39861774 -401384218.39785767 0 0 0 0 -207036.53251791233 113981.10102040321 0 113981.10102040321 -119698.5246155858 0 0 0 0 -1227334861.3792725 -3650518.7654418945 0 -3650518.7654418945 193963799.39732361 0 0 0 0 -689572404.02684784 696091530.75807953 0 696091530.75807953 -740846669.32049561 0 0 0 0 -273683995.631073 -263213215.90000916 0 -263213215.90000916 -61806381.269287109 0 0 0 0 -525731490.54245186 248764898.70547485 0 248764898.70547485 -25369309.36869812 0 0 0 0 -59249036.202224731 -70660842.478485107 0 -70660842.478485107 -240320731.83451843 0 0 0 0 451643551.73936796 -203797745.26675832 0 -203797745.26675832 -450887229.03437805 0 0 0 0 363019093.90177917 470376070.95771027 0 470376070.95771027 -425782453.37443542 0 0 0 0 -212923344.38092804 507595075.69522858 0 507595075.69522858 -229048146.50393677 0 0 0 0 501955646.83522034 -61919825.275032043 0 -61919825.275032043 -242592914.09281921 0 0 0 0 41358139.534309387 146880250.37380981 0 146880250.37380981 -271523203.85713768 0 0 0 0 81100626.866149902 192862830.79559326 0 192862830.79559326 -234923322.67390442 0 0 0 0 -34177792.180587769 212903181.02127838 0 212903181.02127838 -233853870.97336674 0 0 0 0 -176875625.23780823 71676186.318723679 0 71676186.318723679 -44937239.75944519 0 0 0 0 -22107844.285568237 -7665850.2416992188 0 -7665850.2416992188 -54825922.622412682 0 0 0 0 -252885431.56676865 -7498052.3049278259 0 -7498052.3049278259 279287576.28915405 0 0 0 0 -301934764.37419891 229330658.15549469 0 229330658.15549469 136079718.66323853 0 0 0 0 -166434687.75808716 -322739192.38413239 0 -322739192.38413239 -31289040.153579712 0 0 0 0 -663191.62018198241 543548.41210688464 0 543548.41210688464 165830.05863481387 0 0 0 0 -7410265.5325050354 12836015.006015778 0 12836015.006015778 -26537848.058555603 0 0 0 0 68707383.905311584 110892537.04161835 0 110892537.04161835 -578232798.64321899 0 0 0 0 -309114667.63499641 -381335533.65839005 0 -381335533.65839005 232204977.4868927 0 0 0 0 -45964774.521755219 49134478.177654266 0 49134478.177654266 -74157132.772659302 0 0 0 0 -11272365.622829437 34467061.837928772 0 34467061.837928772 19602921.964624405 0 0 0 0 -1249532.9574393425 1056694.9253572505 0 1056694.9253572505 -362558.90822793171 0 0 0 0 -8787048.9431667328 -9035942.1100344658 0 -9035942.1100344658 5017540.1815185547 0 0 0 0 163817149.0376358 188036008.28092575 0 188036008.28092575 137666751.62123871 0 0 0 0 149921228.70183945 124890191.67020798 0 124890191.67020798 129521258.58260155 0 0 0 0 -1260105.8993049422 1175673.0073769316 0 1175673.0073769316 1378700.7889512554 0 0 0 0 -1952967.9480354823 1688838.9192428924 0 1688838.9192428924 -580281.15911284834 0 0 0 0 -4327066.0082130432 -64654.091690063477 0 -64654.091690063477 14872297.051170349 0 0 0 0 89185542.868807793 57337990.738853455 0 57337990.738853455 -30773784.678390503 0 0 0 0 -104051336.29309082 78096257.583511353 0 78096257.583511353 117305333.84416389 0 0 0 0 -144520515.96652222 -2397332.8957061768 0 -2397332.8957061768 -168555137.78312874 0 0 0 0 -120906602.12641907 -77425904.040740967 0 -77425904.040740967 -50232261.64225769 0 0 0 0 104637.80278372765 1663405.6816861127 0 1663405.6816861127 -846080.01788714901 0 0 0 0 -135509745.08390808 -113213801.72003174 0 -113213801.72003174 -79695230.721359253 0 0 0 0 -6347642.1779670715 14992869.969020844 0 14992869.969020844 6418740.4364776611 0 0 0 0 9221732.085067749 6663652.7760620117 0 6663652.7760620117 9590492.3511352539 0 0 0 0 -205659843.28499794 -59307199.13394928 0 -59307199.13394928 -27182377.912841797 0 0 0 0 -2709996.7016088199 949937.3650820069 0 949937.3650820069 2156351.6771218032 0 0 0 0 -114292503.9317627 -81198065.875839233 0 -81198065.875839233 -33681422.856071472 0 0 0 0 -61151811.150772095 -54759950.784088135 0 -54759950.784088135 -88537060.993017197 0 0 0 0 -120231142.63190985 -37210884.397435188 0 -37210884.397435188 11721004.753921509 0 0 0 0 -87679445.135066986 -48840489.133704185 0 -48840489.133704185 4375307.1170654297 0 0 0 0 -39094755.100376129 -31673547.297779083 0 -31673547.297779083 13449861.245803833 0 0 0 0 -106791011.18766785 22491907.413551331 0 22491907.413551331 -613697.32297515869 0 0 0 0 -128285239.29957581 -64749310.529907227 0 -64749310.529907227 -30775739.958919525 0 0 0 0 -3293389.99376297 22380375.086624146 0 22380375.086624146 187161173.64770508 0 0 0 0 -2752659.1992251081 1149774.9215339292 0 1149774.9215339292 1116221.2776894905 0 0 0 0 -47060409.973114014 -24208281.050052643 0 -24208281.050052643 -7950687.0786132812 0 0 0 0 -61763065.774684906 16038450.0548172 0 16038450.0548172 33381353.909038544 0 0 0 0 -111006222.72600365 -72626766.90144825 0 -72626766.90144825 -14955073.53465271 0 0 0 0 -81175737.929927826 -56767192.737815857 0 -56767192.737815857 -7366972.4901046753 0 0 0 0 -107698575.38020456 -48483583.103702724 0 -48483583.103702724 4390869.1585845947 0 0 0 0 89541884.154563904 171450025.46539116 0 171450025.46539116 168383710.59046936 0 0 0 0 -152836979.50802612 -50208308.547088623 0 -50208308.547088623 -23766834.253322601 0 0 0 0 -1948774.7929321239 684587.80773346312 0 684587.80773346312 893878.71518307924 0 0 0 0 111916004.42446041 148482232.24041939 0 148482232.24041939 100184552.94442749 0 0 0 0 166097605.91693497 200618177.7156105 0 200618177.7156105 150251893.99732971 0 0 0 0 225350430.49131775 113325929.81290436 0 113325929.81290436 25693033.706516266 0 0 0 0 114266376.41505909 81432583.435183525 0 81432583.435183525 188660625.83280945 0 0 0 0 126882984.56302261 53910964.422042847 0 53910964.422042847 52624163.600059509 0 0 0 0 35215984.205932617 96737993.447288513 0 96737993.447288513 36748808.753593445 0 0 0 0 170330627.77536774 135846151.15886688 0 135846151.15886688 117585822.05710793 0 0 0 0 111418594.47717857 179111712.02533531 0 179111712.02533531 152209751.81338501 0 0 0 0 313031467.27242279 259222856.07754898 0 259222856.07754898 192167336.17512512 0 0 0 0 -277177.56041256431 422579.1294867117 0 422579.1294867117 252005.03277000412 0 0 0 0 61759851.743286133 -2058909.6870231628 0 -2058909.6870231628 -85132470.648021698 0 0 0 0 150546242.65456581 57454927.080276489 0 57454927.080276489 -132104286.49343872 0 0 0 0 123743648.75039291 59814279.754325867 0 59814279.754325867 12225311.106464386 0 0 0 0 77967092.697128296 105079376.13652039 0 105079376.13652039 102730811.70576954 0 0 0 0 152315577.90696144 109425695.60899544 0 109425695.60899544 20000401.748535156 0 0 0 0 63222356.939609528 105727698.02471161 0 105727698.02471161 206778760.22842407 0 0 0 0 148492852.6639328 41527775.925849915 0 41527775.925849915 107616006.73284912 0 0 0 0 93065537.454536438 114185025.82000732 0 114185025.82000732 93143692.360092163 0 0 0 0 89947257.621170044 50434534.081436157 0 50434534.081436157 79943517.017688751 0 0 0 0 107015174.07238388 89398095.549892426 0 89398095.549892426 16810622.804908752 0 0 0 0 89209804.3051759 118393175.24833423 0 118393175.24833423 34746010.14654541 0 0 0 0 50860474.934841156 23909318.902435303 0 23909318.902435303 -42352821.06155014 0 0 0 0 12904435.903621674 136491845.18021107 0 136491845.18021107 -9471107.5568847656 0 0 0 0 118355286.76766968 88932418.362930298 0 88932418.362930298 11211106.24382782 0 0 0 0 114976689.47069168 36581135.1534729 0 36581135.1534729 -61128174.576171875 0 0 0 0 84815093.116519928 24757797.969680786 0 24757797.969680786 -56194013.440950394 0 0 0 0 96603359.987064362 40751509.065885544 0 40751509.065885544 -86144694.376342773 0 0 0 0 42753179.648336411 9342699.1132335663 0 9342699.1132335663 -80180961.965820312 0 0 0 0 642281.22681836144 457689.33093017805 0 457689.33093017805 -102550.65426654369 0 0 0 0 56467506.987860829 25519934.152797014 0 25519934.152797014 2006480.6064224243 0 0 0 0 -43423609.700799942 66401783.534076691 0 66401783.534076691 -48084405.553127289 0 0 0 0 33060773.526485443 10180698.187480927 0 10180698.187480927 -15651650.992851257 0 0 0 0 3523750.6216964722 7651170.8822364807 0 7651170.8822364807 -14205605.024280548 0 0 0 0 106678620.20752716 -55087235.921432495 0 -55087235.921432495 -24703362.111964226 0 0 0 0 23604802.154060364 -29876058.197143555 0 -29876058.197143555 -19720029.05583477 0 0 0 0 124832594.22243118 7995150.1331558228 0 7995150.1331558228 -83545634.005905151 0 0 0 0 125201008.04204535 8969245.4029736519 0 8969245.4029736519 -128399920.40979767 0 0 0 0 155602123.00637627 -26528512.330596924 0 -26528512.330596924 -105022692.72363281 0 0 0 0 78423133.79327774 63174439.97511673 0 63174439.97511673 1242084.9103927612 0 0 0 0 75940501.929878235 -61487197.557689667 0 -61487197.557689667 39311096.612186432 0 0 0 0 193149981.75792122 13986319.620014191 0 13986319.620014191 -9303966.9671478271 0 0 0 0 117562285.977108 102567415.71016121 0 102567415.71016121 83132659.783996582 0 0 0 0 482793.14770451561 219154.6802408807 0 219154.6802408807 166855.4695942495 0 0 0 0 39663917.725009918 44161517.959682465 0 44161517.959682465 57110847.421310425 0 0 0 0 53105465.352710724 53525442.258113861 0 53525442.258113861 23635931.885856628 0 0 0 0 49546322.638530731 -8311097.1456069946 0 -8311097.1456069946 25291593.60058403 0 0 0 0 52815739.449554443 49363112.026824951 0 49363112.026824951 -835074.88195800781 0 0 0 0 39544607.882263184 46134316.61706543 0 46134316.61706543 30464894.221862793 0 0 0 0 54141686.4635849 46350978.789558411 0 46350978.789558411 1747109.8866119385 0 0 0 0 -94730.080969842151 62963.673133127391 0 62963.673133127391 107589.32791613415 0 0 0 0 86840648.695928574 7110040.1285972595 0 7110040.1285972595 35797451.072498322 0 0 0 0 32372564.138275146 9408046.2047729492 0 9408046.2047729492 -47861349.853996277 0 0 0 0 -53441.859696593136 -97379.04902953282 0 -97379.04902953282 31879.935052169487 0 0 0 0 13096657.841300964 -8619590.9710884094 0 -8619590.9710884094 -18154955.534240723 0 0 0 0 25606021.418022156 6437247.8657341003 0 6437247.8657341003 -454449.31764221191 0 0 0 0 -153962.66143539548 100091.37067293935 0 100091.37067293935 184364.51713737473 0 0 0 0 43880257.340381145 9655418.040145874 0 9655418.040145874 -3291126.405921936 0 0 0 0 38882864.806045532 -5802544.4914665222 0 -5802544.4914665222 5339453.4060745239 0 0 0 0 53792667.234161377 34260294.836601257 0 34260294.836601257 -3927979.8439331055 0 0 0 0 34618531.42678833 9001973.0085926056 0 9001973.0085926056 -422389.73969268799 0 0 0 0 24075022.356090546 1945204.4815940857 0 1945204.4815940857 1845408.240983963 0 0 0 0 16684298.216856003 8442140.7401580811 0 8442140.7401580811 7735933.2231521606 0 0 0 0 51085009.33045578 21173066.929035187 0 21173066.929035187 40466873.228378296 0 0 0 0 65028351.319604874 35915809.120456696 0 35915809.120456696 10471287.14831543 0 0 0 0 25156997.417427063 54476855.802375793 0 54476855.802375793 35511754.195800781 0 0 0 0 24440087.569831848 35077535.426979065 0 35077535.426979065 15971154.854839325 0 0 0 0 53265989.862419128 29514712.748855591 0 29514712.748855591 11091037.301050186 0 0 0 0 48476813.229095459 34327312.741149902 0 34327312.741149902 27506298.458099365 0 0 0 0 37298180.729492188 20426639.767002106 0 20426639.767002106 12321527.117141724 0 0 0 0 49465171.323760986 32347833.871513367 0 32347833.871513367 15267139.557373047 0 0 0 0 37717120.558994293 29972170.200214386 0 29972170.200214386 29389073.074913025 0 0 0 0 48496396.782226562 36207477.414741516 0 36207477.414741516 11947780.985488892 0 0 0 0 50510884.640548706 39581767.221473694 0 39581767.221473694 17079829.154531479 0 0 0 0 52722967.89730072 38220873.042907715 0 38220873.042907715 13432058.780212402 0 0 0 0 52560833.330764771 32283412.553131104 0 32283412.553131104 12569791.91595459 0 0 0 0 56512912.343185425 12158745.448822021 0 12158745.448822021 -3199959.3659515381 0 0 0 0 66206212.59161377 39626233.716773987 0 39626233.716773987 14769404.210662842 0 0 0 0 63442883.194168091 34347828.943572998 0 34347828.943572998 5486371.2314910889 0 0 0 0 57491340.339736938 43279383.935203552 0 43279383.935203552 18331384.248092651 0 0 0 0 64810462.54529953 52059609.23474884 0 52059609.23474884 43476614.534011841 0 0 0 0 -17354579.747054696 -8989781.257558465 0 -8989781.257558465 18629754.278167725 0 0 0 0 129045184.90883636 31565384.718780518 0 31565384.718780518 8788810.2613525391 0 0 0 0 -215127.75201925103 -90925.746610132046 0 -90925.746610132046 20831.24201881513 0 0 0 0 121890236.31710815 47782411.298400879 0 47782411.298400879 15251447.335128784 0 0 0 0 -3583960.470770821 -1005659.9359369068 0 -1005659.9359369068 543665.31520331837 0 0 0 0 128220984.40811157 20498692.185180664 0 20498692.185180664 -31304201.769897461 0 0 0 0 -111367.62274879962 -5579.0169322472066 0 -5579.0169322472066 75025.651097029448 0 0 0 0 1102267.2618704399 641577.42299460527 0 641577.42299460527 803965.40028870106 0 0 0 0 -159252.32111477852 -53888.005989134312 0 -53888.005989134312 343412.31588745117 0 0 0 0 43411403.103755951 36501974.08026886 0 36501974.08026886 24881545.62671566 0 0 0 0 34067898.439014435 22202058.313217163 0 22202058.313217163 17032980.385650635 0 0 0 0 5481819.0834018085 2246992.7420160268 0 2246992.7420160268 736147.51421342045 0 0 0 0 43895947.11668396 32191011.56703949 0 32191011.56703949 24112925.370254517 0 0 0 0 50723846.50213623 32754776.725357056 0 32754776.725357056 13234171.227714539 0 0 0 0 49101957.077911377 44065892.826118469 0 44065892.826118469 10246352.803119659 0 0 0 0 49531801.26342392 37516948.376296997 0 37516948.376296997 14171185.443527222 0 0 0 0 48960485.325920105 41618644.13457489 0 41618644.13457489 23217677.018875122 0 0 0 0 42100661.56539917 37628527.505393982 0 37628527.505393982 24503096.975463867 0 0 0 0 41934548.64408493 39480790.544647217 0 39480790.544647217 32405291.642162323 0 0 0 0 50982424.096256256 50606327.039512634 0 50606327.039512634 24837172.828063965 0 0 0 0 22578013.803722143 7187697.2790791988 0 7187697.2790791988 -2791168.7532043457 0 0 0 0 2041437.2433084946 1277954.1016280511 0 1277954.1016280511 -290935.01740808785 0 0 0 0 1898693.9266243931 854324.035478618 0 854324.035478618 104845.62945282459 0 0 0 0 5043965.9918903112 9656852.2729377449 0 9656852.2729377449 -12377480.862297058 0 0 0 0 1893366.7423086083 7946777.2614993993 0 7946777.2614993993 2259357.9715277832 0 0 0 0 9515634.8243637085 3413335.0857772827 0 3413335.0857772827 -2149852.7390487194 0 0 0 0 13821082.975715637 11126972.729614258 0 11126972.729614258 -2438589.984916687 0 0 0 0 15662232.700828552 16568674.219936371 0 16568674.219936371 2772732.0391387939 0 0 0 0 7408455.3889694214 -1616454.0158309937 0 -1616454.0158309937 13001352.0521698 0 0 0 0 -2223025.4511795044 8653938.9897289276 0 8653938.9897289276 22768923.058685303 0 0 0 0 90774825.233070374 43236811.641998291 0 43236811.641998291 -22836705.448448181 0 0 0 0 3802488.1099700928 -30443207.400585175 0 -30443207.400585175 -17997200.38469696 0 0 0 0 -62833509.833084106 -9018689.3724212646 0 -9018689.3724212646 17619847.641281128 0 0 0 0 -18959147.570676804 93072571.921192169 0 93072571.921192169 -19256866.364028931 0 0 0 0 -4127727.1451072693 1168294.0605430603 0 1168294.0605430603 5665630.9040985107 0 0 0 0 3353390.8692092896 8073915.1999206543 0 8073915.1999206543 -638428.59429931641 0 0 0 0 6682187.9464263916 3745248.5274887085 0 3745248.5274887085 3965597.9800415039 0 0 0 0 10958318.79485321 -637047.65201568604 0 -637047.65201568604 -136853.36010742188 0 0 0 0 6886042.2150497437 4783373.5015258789 0 4783373.5015258789 4478338.4733276367 0 0 0 0 248075.70532484911 56919.209068220109 0 56919.209068220109 -12384.406491532922 0 0 0 0 35090640.307830811 11973297.867324829 0 11973297.867324829 3430694.9396448135 0 0 0 0 -522185.86166791804 3022483.4372186661 0 3022483.4372186661 2345019.1004241221 0 0 0 0 660656.25599059835 4024991.3677314408 0 4024991.3677314408 2473374.7832558397 0 0 0 0 1238153.5282783508 682509.32410049438 0 682509.32410049438 -246581.76944732666 0 0 0 0 -3092084.9768027514 3425773.6424824526 0 3425773.6424824526 2834542.5635907985 0 0 0 0 -7587648.6580047607 4513065.6069793701 0 4513065.6069793701 -2396954.0706939697 0 0 0 0 -5880926.1403083801 -2772416.3270368576 0 -2772416.3270368576 -4026880.4136810303 0 0 0 0 -311268.68046569824 7419321.9742126465 0 7419321.9742126465 -1484021.2339630127 0 0 0 0 -16665281.03787899 -11375182.103988647 0 -11375182.103988647 -9012263.1204986572 0 0 0 0 466191.64448547363 28598062.56741333 0 28598062.56741333 52143450.465621948 0 0 0 0 -3182488.3444442749 -5963241.7899932861 0 -5963241.7899932861 5973157.0402069092 0 0 0 0 -6028636.1770172119 8638958.1751441956 0 8638958.1751441956 20973287.507949829 0 0 0 0 2552912.220085144 10173265.552444458 0 10173265.552444458 -39058.571784973145 0 0 0 0 -11770391.118309021 2038094.7173080444 0 2038094.7173080444 -1146673.5055236816 0 0 0 0 -1996542.8150838325 5327898.1330557633 0 5327898.1330557633 4975970.1788875908 0 0 0 0 1404854.635723317 1121233.7992171273 0 1121233.7992171273 -410512.81343269534 0 0 0 0 -151899409.41017151 -1046827.8663368225 0 -1046827.8663368225 4547492.3644638062 0 0 0 0 -147029974.07341003 111587751.99402618 0 111587751.99402618 -46346272.025260925 0 0 0 0 -275524644.42616272 154527509.65840912 0 154527509.65840912 -9522909.4794769287 0 0 0 0 -148737938.68379211 -217278016.08245468 0 -217278016.08245468 83611115.439489365 0 0 0 0 -22143228.189605713 -159781029.65130615 0 -159781029.65130615 28589327.833629608 0 0 0 0 -332556684.88292694 -3833516.409198761 0 -3833516.409198761 191499467.70106506 0 0 0 0 -24002959.8542099 120982765.07991028 0 120982765.07991028 23285495.84728241 0 0 0 0 15823847.239830017 49643060.138343811 0 49643060.138343811 6720158.2494506836 0 0 0 0 7337666.0833740234 39304486.061294556 0 39304486.061294556 15865890.511955261 0 0 0 0 20451448.171089172 35685735.019950867 0 35685735.019950867 6139626.3279571533 0 0 0 0 -3147638.8689651489 -6043136.8467025757 0 -6043136.8467025757 -28394973.183074951 0 0 0 0 22416163.506614685 41867170.613800049 0 41867170.613800049 -62561919.093597412 0 0 0 0 301135608.40100098 281317705.56819153 0 281317705.56819153 157139242.37250519 0 0 0 0 33510807.499065399 108309912.51012802 0 108309912.51012802 71453792.036476135 0 0 0 0 166890854.504776 166969793.80679321 0 166969793.80679321 24019694.411632538 0 0 0 0 143635444.88607788 -76525799.278190613 0 -76525799.278190613 -38110381.851662636 0 0 0 0 84877922.069869995 -318394055.62810326 0 -318394055.62810326 198113206.56468964 0 0 0 0 542157414.6754303 -51507146.473262787 0 -51507146.473262787 -38197385.182086945 0 0 0 0 1080512073.8041954 -133427295.23507309 0 -133427295.23507309 -256271683.11996078 0 0 0 0 123568980.3984375 267196205.0957756 0 267196205.0957756 550110336.34712601 0 0 0 0 31149257.385192871 13132593.486240387 0 13132593.486240387 -129262728.15046692 0 0 0 0 -308922144.72988892 171113449.76404572 0 171113449.76404572 263518679.8837738 0 0 0 0 -131283.36197235994 516955.84823010489 0 516955.84823010489 456177.82664662413 0 0 0 0 46740798.488262177 148271690.7734642 0 148271690.7734642 150305731.99378204 0 0 0 0 -5081876.0988540649 173190433.89382553 0 173190433.89382553 201258661.47321701 0 0 0 0 -184894930.59152222 212939311.06925964 0 212939311.06925964 333032330.61202621 0 0 0 0 262806950.55566406 181050526.8723526 0 181050526.8723526 67847339.396281242 0 0 0 0 -497451755.42250061 -27402616.788604736 0 -27402616.788604736 403568739.57884979 0 0 0 0 614157.78752726875 855489.38172458671 0 855489.38172458671 -245847.86653508805 0 0 0 0 -371256083.34225464 130313122.29494858 0 130313122.29494858 175032546.34107208 0 0 0 0 381179904.80058289 177346414.98915863 0 177346414.98915863 -465647641.48008728 0 0 0 0 269734484.01446533 -218715514.21279526 0 -218715514.21279526 140968533.77390289 0 0 0 0 51194790.640083313 116358924.03066254 0 116358924.03066254 -27098344.422973633 0 0 0 0 35077117.210945129 -69694818.542469025 0 -69694818.542469025 -53693620.370513916 0 0 0 0 1961915.6058771466 2327314.4935037624 0 2327314.4935037624 -884181.84575359151 0 0 0 0 -149249264.1578598 41701768.651462555 0 41701768.651462555 53405792.095199585 0 0 0 0 235647562.94394684 -5761954.5234298706 0 -5761954.5234298706 -38645887.409820557 0 0 0 0 533176740.50003815 -112204833.91823959 0 -112204833.91823959 -70013483.511795044 0 0 0 0 -581342.97069988959 1633915.0835598884 0 1633915.0835598884 2072539.9765185118 0 0 0 0 37590444.692245483 -373524729.96582794 0 -373524729.96582794 -1105202064.681076 0 0 0 0 194531396.15908813 -46535378.957168579 0 -46535378.957168579 75875887.825012207 0 0 0 0 220958964.75868225 34224771.621650696 0 34224771.621650696 18990167.627403259 0 0 0 0 193120661.10359955 -3133754.0903396606 0 -3133754.0903396606 -31078859.524642944 0 0 0 0 200360939.73262024 28706419.153999329 0 28706419.153999329 -35832089.627186775 0 0 0 0 213482794.87240505 -24389568.994364262 0 -24389568.994364262 -38387441.942077637 0 0 0 0 81662918.816764832 -12860769.148662567 0 -12860769.148662567 -2367524.8428268433 0 0 0 0 215457805.21224213 -5811683.5465488434 0 -5811683.5465488434 -38277924.295524597 0 0 0 0 186284785.48855591 -46452003.648723602 0 -46452003.648723602 -11610558.491615295 0 0 0 0 -1247970.9799247719 1168517.6662463886 0 1168517.6662463886 422394.75817616656 0 0 0 0 -21193135.763118744 -7660022.6126155853 0 -7660022.6126155853 -12529978.481941223 0 0 0 0 63222969.241250038 58638073.915838718 0 58638073.915838718 -21908620.178161621 0 0 0 0 48783613.774456024 -278904.7326965332 0 -278904.7326965332 -29646305.631622314 0 0 0 0 121735790.19039917 68812652.24105072 0 68812652.24105072 -14651469.067148209 0 0 0 0 1979533.7539700195 8016938.5787408669 0 8016938.5787408669 1732255.5368469059 0 0 0 0 -1741366.8308753967 13132532.052108765 0 13132532.052108765 7131704.4348754883 0 0 0 0 11793824.590309143 12879936.600532532 0 12879936.600532532 6615172.5716533661 0 0 0 0 12314407.537826538 8474675.9658737183 0 8474675.9658737183 6996718.2069473267 0 0 0 0 15393541.482601166 2364656.2045593262 0 2364656.2045593262 6196554.773900032 0 0 0 0 65496394.54699707 -81278996.537521362 0 -81278996.537521362 87755699.630722046 0 0 0 0 -21056229.421825409 20795019.759597778 0 20795019.759597778 9714031.5215530396 0 0 0 0 1053826.5387135418 7736553.8953490574 0 7736553.8953490574 765012.66084135324 0 0 0 0 -337821829.0495224 370515846.90569305 0 370515846.90569305 -368158084.74331665 0 0 0 0 -288748181.34876251 -56823623.233978271 0 -56823623.233978271 283486692.91432953 0 0 0 0 14031858.181238174 85133611.801322937 0 85133611.801322937 100655978.45374298 0 0 0 0 14060765.519615173 105856861.74996185 0 105856861.74996185 -79245833.166614532 0 0 0 0 33969564.419052124 217115249.74581909 0 217115249.74581909 -2365549.3677043915 0 0 0 0 -211676248.33902025 235403009.8674202 0 235403009.8674202 5338891.329246521 0 0 0 0 128130169.0080719 178423846.79934692 0 178423846.79934692 13087571.759277344 0 0 0 0 -775691.05811476149 225236.80913046002 0 225236.80913046002 396097.80234016292 0 0 0 0 -171008828.27070618 -264960751.22296143 0 -264960751.22296143 -159173812.11737061 0 0 0 0 -146631223.50984192 -213585029.95501709 0 -213585029.95501709 -77920732.354888916 0 0 0 0 -8077272.0817670822 -10896199.621300697 0 -10896199.621300697 -183772520.06794739 0 0 0 0 -264892486.4703598 -253751743.72529602 0 -253751743.72529602 1823120.8730926514 0 0 0 0 186380.46967386804 7705694.8771947082 0 7705694.8771947082 -167706.81097528711 0 0 0 0 -214894969.18998718 -88578077.392837524 0 -88578077.392837524 92372042.594144821 0 0 0 0 -34652831.066050053 12655390.358903408 0 12655390.358903408 45523936.380950928 0 0 0 0 21498680.435905457 15097121.674453735 0 15097121.674453735 -8077945.418435812 0 0 0 0 24827931.968067169 28130500.918791771 0 28130500.918791771 5178721.3612670898 0 0 0 0 250561437.02650452 103205370.43855286 0 103205370.43855286 27300573.873317719 0 0 0 0 344700317.33918762 20747378.306629181 0 20747378.306629181 -99299146.385421753 0 0 0 0 329167059.7618866 61573860.130306244 0 61573860.130306244 -118435941.73529053 0 0 0 0 11877999.039581299 70495892.016357422 0 70495892.016357422 84473807.869171143 0 0 0 0 312141236.13839722 -94112937.891681671 0 -94112937.891681671 -36946005.16847229 0 0 0 0 -4556574.6855163574 24117306.908756256 0 24117306.908756256 55770468.782119751 0 0 0 0 -34346.30238475278 479809.86098870728 0 479809.86098870728 -193703.76183124259 0 0 0 0 4382691.0155944824 -15570525.089836121 0 -15570525.089836121 -12654493.592140198 0 0 0 0 27836546.856185913 34205959.885650635 0 34205959.885650635 8557636.0719451904 0 0 0 0 -44059263.409538269 5400203.7682609558 0 5400203.7682609558 5430583.2962627411 0 0 0 0 285869120.64013481 115150728.79934621 0 115150728.79934621 -29831696.840019226 0 0 0 0 -2572081.2987347627 8192572.3963109609 0 8192572.3963109609 4768205.5344988778 0 0 0 0 -154943508.82749176 -1588454.4827003479 0 -1588454.4827003479 119018503.03276062 0 0 0 0 64274548.740859985 -118712885.67770386 0 -118712885.67770386 126104868.6205864 0 0 0 0 225554247.95588684 183084254.57685852 0 183084254.57685852 -162516060.46889877 0 0 0 0 -5698982.2438974064 255591.60267237294 0 255591.60267237294 7390315.933409445 0 0 0 0 -17845658.713363647 12217462.763248444 0 12217462.763248444 -4518976.4368281364 0 0 0 0 -28014406.703159332 13579242.782588959 0 13579242.782588959 9408834.8381500244 0 0 0 0 -20694116.418113708 6248485.2204933167 0 6248485.2204933167 10917008.636942625 0 0 0 0 20003872.057434082 20345058.338932037 0 20345058.338932037 -5926483.2807922363 0 0 0 0 21439206.929112434 39240178.009539008 0 39240178.009539008 -13931172.469520569 0 0 0 0 -1491261.4665992465 3856673.3106381539 0 3856673.3106381539 -3279448.1824704073 0 0 0 0 69393763.913078308 36230547.688207626 0 36230547.688207626 -31546159.330352783 0 0 0 0 8139867.3020935059 45128133.013122559 0 45128133.013122559 -16302673.091316223 0 0 0 0 -38689921.51247406 41587814.906902313 0 41587814.906902313 -1236480.5401954651 0 0 0 0 -3880423.1552276611 25353668.003005981 0 25353668.003005981 -5792894.3255580664 0 0 0 0 -60666219.849693298 49433477.540649414 0 49433477.540649414 -11092734.000038147 0 0 0 0 -36799184.784599304 31261480.657905579 0 31261480.657905579 -7654352.995595932 0 0 0 0 -13816826.612279892 82430968.885139465 0 82430968.885139465 -42228421.798835754 0 0 0 0 113714816.30423737 89566260.181648254 0 89566260.181648254 -44563942.413804054 0 0 0 0 -156389214.91630936 -12908300.976132393 0 -12908300.976132393 -30895140.360809326 0 0 0 0 -68293680.297586441 164951052.69224453 0 164951052.69224453 37182042.517555237 0 0 0 0 66269503.491065979 75071458.73286438 0 75071458.73286438 -9110940.0992431641 0 0 0 0 -26660243.623687744 45033896.904174805 0 45033896.904174805 146806594.10187531 0 0 0 0 1717061.2705612183 28687603.45142746 0 28687603.45142746 -5021140.211227417 0 0 0 0 -95803349.257263184 16038018.011411667 0 16038018.011411667 10885063.443868637 0 0 0 0 -1385469.3436156362 3157105.4878645204 0 3157105.4878645204 250976.89019220322 0 0 0 0 -2255062.8654883122 4736796.3144529676 0 4736796.3144529676 8133972.4704471901 0 0 0 0 28805939.165489197 81820548.366966248 0 81820548.366966248 9267707.2374801636 0 0 0 0 263294328.59101105 -7697859.6944484711 0 -7697859.6944484711 -41897628.819702148 0 0 0 0 -1272889.8084273254 3056747.0745848985 0 3056747.0745848985 4897293.9922654852 0 0 0 0 -2247204.7052764893 -44775723.438919067 0 -44775723.438919067 49365007.432285309 0 0 0 0 -11582739.308235168 -37108526.907079697 0 -37108526.907079697 186174076.05909729 0 0 0 0 -88548103.460983276 104205546.95812607 0 104205546.95812607 431157900.85350037 0 0 0 0 -132366196.53204346 586674036.50962067 0 586674036.50962067 108520133.42614746 0 0 0 0 175363131.55918884 301985641.7517128 0 301985641.7517128 -367405058.86733627 0 0 0 0 -94253206.769069672 153669912.17077923 0 153669912.17077923 11032612.306533813 0 0 0 0 55951985.655302048 27694016.93017149 0 27694016.93017149 -106269283.26081848 0 0 0 0 -54742.618401848711 461519.84879377671 0 461519.84879377671 -341309.64437552541 0 0 0 0 176952342.36077118 173621696.71609116 0 173621696.71609116 -145058571.27507257 0 0 0 0 24653771.659729004 159801518.27038956 0 159801518.27038956 -145947534.15836334 0 0 0 0 301724937.66387939 33099599.935146332 0 33099599.935146332 -263150669.35913086 0 0 0 0 -54401985.194595337 -62280735.000724792 0 -62280735.000724792 -190151857.97077179 0 0 0 0 -184462039.80103302 -95915505.776649475 0 -95915505.776649475 88962829.315193176 0 0 0 0 -39860179.199813843 -9930835.6086826324 0 -9930835.6086826324 -18227315.288139343 0 0 0 0 -753571.07908158377 959609.13357771561 0 959609.13357771561 -50155.353565986734 0 0 0 0 -114821959.47761536 -248762226.87250519 0 -248762226.87250519 -280953991.34238434 0 0 0 0 -492003346.14161682 -235198677.8921051 0 -235198677.8921051 224925032.90370178 0 0 0 0 -268673869.32728577 -283355831.48278427 0 -283355831.48278427 -156687015.92567444 0 0 0 0 -191958902.80189514 -27468512.310905457 0 -27468512.310905457 51311149.654865265 0 0 0 0 -146370807.19263458 69872269.845695496 0 69872269.845695496 162202152.7672081 0 0 0 0 -150516322.89899325 -41348249.688331842 0 -41348249.688331842 40644942.005744934 0 0 0 0 -69975140.409053802 53148645.251399994 0 53148645.251399994 113334267.41797638 0 0 0 0 -104845089.84561825 -27266780.970555782 0 -27266780.970555782 30755220.789138794 0 0 0 0 -101610467.41782379 20796448.701313019 0 20796448.701313019 110127589.67472076 0 0 0 0 -60541286.951137543 40217457.797260284 0 40217457.797260284 51313247.339347839 0 0 0 0 -43196221.598632812 23476060.072360992 0 23476060.072360992 62001991.465312958 0 0 0 0 -55918844.086143494 79069132.747085571 0 79069132.747085571 75127229.865859985 0 0 0 0 -45226442.440498352 58901715.344814301 0 58901715.344814301 73870231.6926651 0 0 0 0 14122565.4451828 157703382.64232063 0 157703382.64232063 157293705.17861938 0 0 0 0 -7445895.1040649414 3634188.3579826355 0 3634188.3579826355 8874147.2448730469 0 0 0 0 -21017204.35507369 -5072637.1942330599 0 -5072637.1942330599 4587745.6369247437 0 0 0 0 -47889429.82157135 3395091.1111106873 0 3395091.1111106873 22410808.488521576 0 0 0 0 -20892168.690673828 -3201782.7613220215 0 -3201782.7613220215 14479481.430366516 0 0 0 0 -13715413.836616516 -14314975.801780701 0 -14314975.801780701 -14719241.218753815 0 0 0 0 -42477221.416439056 -17379050.133686066 0 -17379050.133686066 7966626.0795440674 0 0 0 0 -47582797.451538086 -30483055.000553131 0 -30483055.000553131 -19862468.256126404 0 0 0 0 -2339792.9661903381 -1795062.292722702 0 -1795062.292722702 -2630321.6928215027 0 0 0 0 109365132.50803375 -58875118.359899521 0 -58875118.359899521 19915865.47833252 0 0 0 0 -2180230.797395695 2242163.3620234579 0 2242163.3620234579 320510.42471169215 0 0 0 0 -32630845.161521912 -16105562.147434235 0 -16105562.147434235 -14363481.724552155 0 0 0 0 28143219.028121948 82102659.537822723 0 82102659.537822723 -45173481.583576202 0 0 0 0 -461262290.19088745 -58352349.646713257 0 -58352349.646713257 300649648.91856766 0 0 0 0 -371633570.63191986 -18672161.158061981 0 -18672161.158061981 93954374.676589966 0 0 0 0 -237911771.54471207 179519201.02378178 0 179519201.02378178 -15925909.014183044 0 0 0 0 -38508456.526329041 11539336.735538483 0 11539336.735538483 86976389.719604492 0 0 0 0 3879549.0852127075 22702383.870518684 0 22702383.870518684 -37268644.875293732 0 0 0 0 226409071.75325012 373702673.87333679 0 373702673.87333679 247067720.55168152 0 0 0 0 248916.99504230544 102644.47412967123 0 102644.47412967123 67187.323802692816 0 0 0 0 33663348.0234375 -1354294.3584632874 0 -1354294.3584632874 -48666915.937698364 0 0 0 0 109173843.18238831 953112111.61120415 0 953112111.61120415 269028268.94675446 0 0 0 0 334823643.91233826 -94020270.180831909 0 -94020270.180831909 -271253726.49089622 0 0 0 0 -10921125.639282227 15610801.438407898 0 15610801.438407898 30752608.25856781 0 0 0 0 466564.07247484848 -199801.74865266681 0 -199801.74865266681 740907.80638734996 0 0 0 0 13883440.202781677 -47605992.115962982 0 -47605992.115962982 -17812285.287033081 0 0 0 0 26125179.371429443 24026072.221763611 0 24026072.221763611 17653109.049003601 0 0 0 0 -20688974.57774353 -2838228.6667900085 0 -2838228.6667900085 91416375.795032501 0 0 0 0 -24766304.682235718 2746895.2496261597 0 2746895.2496261597 62168934.856071472 0 0 0 0 14931775.627288818 -1627723.0318908691 0 -1627723.0318908691 60703280.139728546 0 0 0 0 -3151445.1549229398 3271148.2895426471 0 3271148.2895426471 1063374.7180221919 0 0 0 0 -6386507.92628479 1549053.0087776184 0 1549053.0087776184 2861928.4793243408 0 0 0 0 -175676.39857294317 440175.23075359873 0 440175.23075359873 103562.65325188451 0 0 0 0 430903.82083129883 14165004.391487122 0 14165004.391487122 15770657.011024475 0 0 0 0 -1457880.1471932472 3495555.5149313025 0 3495555.5149313025 2885169.8782532923 0 0 0 0 3701954.2333221436 2260911.5898637772 0 2260911.5898637772 429383.49262237549 0 0 0 0 7185387.6318054199 5257446.3925628662 0 5257446.3925628662 2558151.9842144251 0 0 0 0 -8314140.3091506958 1603400.2406616211 0 1603400.2406616211 2705762.7480316162 0 0 0 0 -7681157.5783233643 1155389.1943647861 0 1155389.1943647861 2989409.8248138428 0 0 0 0 -1229881.4403381348 6328198.857219696 0 6328198.857219696 -1709820.9393005371 0 0 0 0 -3843800.327796936 4220939.9673118591 0 4220939.9673118591 -1480271.0817947388 0 0 0 0 -3177198.6747894287 5540564.528263092 0 5540564.528263092 1078913.5697860718 0 0 0 0 440856.76877072267 164533.73106557503 0 164533.73106557503 -416869.81004063413 0 0 0 0 9971846.9159088135 2026885.9601306915 0 2026885.9601306915 -1658446.1853485107 0 0 0 0 -5493840.3134155273 7703760.2387428284 0 7703760.2387428284 1676220.2391204834 0 0 0 0 6937731.8842544556 1867881.000213623 0 1867881.000213623 -1396673.7090606689 0 0 0 0 466233.05908183381 2714989.8710573185 0 2714989.8710573185 -234610.25018988643 0 0 0 0 -10577524.351928711 7905127.2457733154 0 7905127.2457733154 14695994.940202713 0 0 0 0 239505.22857666016 2957.9201202392578 0 2957.9201202392578 -1900390.6531219482 0 0 0 0 -20334873.695129395 8343392.97605896 0 8343392.97605896 24886601.599411011 0 0 0 0 -23342447.761535645 -2485424.2745666504 0 -2485424.2745666504 11020333.542377472 0 0 0 0 -2398680.0450897217 5965332.627784729 0 5965332.627784729 13256098.817184448 0 0 0 0 -793668.33304644004 677122.72211527824 0 677122.72211527824 1902051.7315275073 0 0 0 0 -1037765.9100189209 4007865.8037452698 0 4007865.8037452698 -4120086.9152641296 0 0 0 0 4622025.7822113037 -3723265.9740447998 0 -3723265.9740447998 1123696.2747268677 0 0 0 0 -1287.3433227539062 5375840.937828064 0 5375840.937828064 -4201506.4898834229 0 0 0 0 -5099414.6469116211 6650005.5087432861 0 6650005.5087432861 -2573405.9902191162 0 0 0 0 -1479145.6311035156 5391502.1731109619 0 5391502.1731109619 -4719256.5003662109 0 0 0 0 862032.30762529373 317922.71047670022 0 317922.71047670022 -809778.99849098548 0 0 0 0 -1182178.0924129486 2931498.3909497261 0 2931498.3909497261 -7583365.1087036133 0 0 0 0 -769191.34951200709 214690.96510287374 0 214690.96510287374 3937790.3164866064 0 0 0 0 -921.43600463867188 1602077.1086120605 0 1602077.1086120605 606320.86908721924 0 0 0 0 293442.69723510742 20302919.989772797 0 20302919.989772797 769463407.86909866 0 0 0 0 920929.07089918107 633018.15530810412 0 633018.15530810412 -1062018.8179164976 0 0 0 0 -522959838.24848938 -194513129.41599274 0 -194513129.41599274 781546596.91787076 0 0 0 0 774265.38081601635 -1300173.0963918958 0 -1300173.0963918958 2140140.8116358621 0 0 0 0 -7816464.7665405273 -11540477.824672699 0 -11540477.824672699 92063.469309329987 0 0 0 0 -30434004.202911377 391851.72834777832 0 391851.72834777832 23012742.777584076 0 0 0 0 -27485606.099456787 -7263995.7588500977 0 -7263995.7588500977 15055339.610343933 0 0 0 0 104416.37176322937 203428518.72492313 0 203428518.72492313 -126014035.39920998 0 0 0 0 -92659285.964229584 137579111.38401699 0 137579111.38401699 121512017.95271873 0 0 0 0 -311455.70514309965 729765.88657943532 0 729765.88657943532 -691213.50418312289 0 0 0 0 -202892585.08392334 -238383193.63315201 0 -238383193.63315201 -93965857.106580734 0 0 0 0 86462034.696746826 42684281.406191826 0 42684281.406191826 59560785.103111267 0 0 0 0 216491878.0437851 58500125.154783249 0 58500125.154783249 -123545080.47750473 0 0 0 0 -853843.03024879657 2252431.5155767445 0 2252431.5155767445 -2177984.5283986367 0 0 0 0 28398689.661697388 -46630531.242452621 0 -46630531.242452621 -114241124.22852111 0 0 0 0 79706744.107444763 194790588.20594168 0 194790588.20594168 151005603.12236023 0 0 0 0 175560375.52341008 16246329.423379183 0 16246329.423379183 -249159839.37260437 0 0 0 0 179137486.24628448 202457286.16425705 0 202457286.16425705 63851850.625195503 0 0 0 0 -42073369.010971069 67546384.767684937 0 67546384.767684937 165779929.29032612 0 0 0 0 52151217.485668182 22129534.104410172 0 22129534.104410172 -78650643.895523071 0 0 0 0 69173690.862832069 158609635.40913868 0 158609635.40913868 46015877.697483063 0 0 0 0 251039132.78599548 234563775.59119678 0 234563775.59119678 -14927584.526275635 0 0 0 0 160691260.08172607 142390032.44826889 0 142390032.44826889 28643528.133262634 0 0 0 0 122974743.00836182 1798908.9929304123 0 1798908.9929304123 -75310069.074050903 0 0 0 0 341041.73088614736 783985.73640375398 0 783985.73640375398 376178.78415419627 0 0 0 0 -265344441.69818115 33528679.110450745 0 33528679.110450745 82156876.429389954 0 0 0 0 -213301630.49787903 246971367.32354546 0 246971367.32354546 -232473327.92807388 0 0 0 0 55978261.050201416 -84067303.321071625 0 -84067303.321071625 -14533193.000930786 0 0 0 0 -126132689.44003296 -80886555.764278412 0 -80886555.764278412 112157698.81791306 0 0 0 0 21503975.419136047 46598408.37597084 0 46598408.37597084 8047529.8809661865 0 0 0 0 -15750675.431396484 -6768631.5139122009 0 -6768631.5139122009 -52784714.482229233 0 0 0 0 -56513202.663574219 61149286.208423615 0 61149286.208423615 -69021688.591255188 0 0 0 0 -97664296.020111084 73077709.873882294 0 73077709.873882294 -45472029.176506042 0 0 0 0 -67564944.055206299 107626581.51025009 0 107626581.51025009 -83209927.655387878 0 0 0 0 -142322913.67666626 146662684.41628838 0 146662684.41628838 -73387385.43661499 0 0 0 0 -155755446.71670532 107524444.95306396 0 107524444.95306396 -77170357.585870743 0 0 0 0 -185749380.91529846 143556241.05986404 0 143556241.05986404 -56899804.281188965 0 0 0 0 -278097.80020141602 153629447.92393684 0 153629447.92393684 -448215650.17873764 0 0 0 0 -126422974.23223877 232694610.13473511 0 232694610.13473511 -167237502.66715288 0 0 0 0 -13756108.658653259 308130739.7415514 0 308130739.7415514 -966087592.07178497 0 0 0 0 -112043268.51437378 220884366.47644806 0 220884366.47644806 -266815837.77490997 0 0 0 0 -81893051.142593384 352101538.85217953 0 352101538.85217953 -997859417.70108783 0 0 0 0 -681997037.42635345 558996600.85852432 0 558996600.85852432 -538497712.24959373 0 0 0 0 -166435822.1998291 521216803.4349575 0 521216803.4349575 -998125614.70147324 0 0 0 0 -508880928.96508789 376589735.99073982 0 376589735.99073982 64694165.26019907 0 0 0 0 -49803259.216629028 -63005071.720693588 0 -63005071.720693588 59192987.030677795 0 0 0 0 -715104072.47084045 -865438673.9748621 0 -865438673.9748621 -987982265.09433365 0 0 0 0 308632.85120401252 1062766.1300713513 0 1062766.1300713513 -1368370.3068821505 0 0 0 0 -429393958.87253571 -673560722.53064895 0 -673560722.53064895 -520136562.90006256 0 0 0 0 -143027574.17062378 -347196700.87853432 0 -347196700.87853432 -378810835.30861855 0 0 0 0 -354308278.06361389 -171090418.42833138 0 -171090418.42833138 56858845.418230057 0 0 0 0 -484129078.61776924 -431899542.13705289 0 -431899542.13705289 -217607754.39241791 0 0 0 0 87621049.342559814 -687979770.02473974 0 -687979770.02473974 -1318200410.3534927 0 0 0 0 -26467607.840148926 -468917553.52271652 0 -468917553.52271652 -625666722.59085083 0 0 0 0 -168760973.85768127 -380204862.83263302 0 -380204862.83263302 -367273067.15927505 0 0 0 0 298684615.99603271 -247264834.89992046 0 -247264834.89992046 -836873898.95131874 0 0 0 0 305169861.40055847 -323985374.48357773 0 -323985374.48357773 -820318831.32872009 0 0 0 0 130676716.36976624 -150289924.24779987 0 -150289924.24779987 -359083832.21177483 0 0 0 0 -8522704.9880828857 -171741335.29818439 0 -171741335.29818439 -245327281.87025833 0 0 0 0 38808087.798736572 -280248034.92915344 0 -280248034.92915344 -542846790.13199329 0 0 0 0 -30473990.268737793 -151146388.33623457 0 -151146388.33623457 -263503668.31277084 0 0 0 0 7277137.2735595703 -44075259.205515862 0 -44075259.205515862 -123644679.33228207 0 0 0 0 42499230.747650146 -9065569.3173809052 0 -9065569.3173809052 -146897246.47073936 0 0 0 0 24202522.135345459 -117636108.08155155 0 -117636108.08155155 -365372430.30074286 0 0 0 0 56380927.169712067 14584820.863006592 0 14584820.863006592 -9809646.4853286743 0 0 0 0 42309174.390014648 -2936060.0734806061 0 -2936060.0734806061 63625110.595977426 0 0 0 0 1040831.4197246386 3234064.4803824499 0 3234064.4803824499 -3626548.0991621674 0 0 0 0 202984710.85209656 -1550608.511882782 0 -1550608.511882782 -152693429.62063885 0 0 0 0 -5718644.3150787354 80321126.874673843 0 80321126.874673843 -68902084.384099483 0 0 0 0 98592806.447288513 76851764.777923584 0 76851764.777923584 7853250.2497181892 0 0 0 0 1809946.1622670949 5922381.3133013546 0 5922381.3133013546 -5141713.1270694835 0 0 0 0 16783440.872421265 -237548.87859725952 0 -237548.87859725952 11204551.893615723 0 0 0 0 28671234.672836304 -42125903.683487892 0 -42125903.683487892 22952740.083440781 0 0 0 0 18499367.85760498 67532705.9146595 0 67532705.9146595 47209014.974912167 0 0 0 0 30177269.011795044 -9707247.0178068876 0 -9707247.0178068876 -146551712.48863983 0 0 0 0 45555828.908836365 -52118948.563037395 0 -52118948.563037395 -128397973.74694824 0 0 0 0 48944654.234725952 61300048.739208221 0 61300048.739208221 -43411698.725464821 0 0 0 0 5410546.7243322544 7805867.5054115485 0 7805867.5054115485 -534347.70424891484 0 0 0 0 6805064.8473510742 9775540.6231651306 0 9775540.6231651306 16874731.318946838 0 0 0 0 -1977569.4786911011 45941935.85884738 0 45941935.85884738 95619587.443858147 0 0 0 0 25384912.674621582 6581334.4938545227 0 6581334.4938545227 -2199012.0413284302 0 0 0 0 4052276.6821237355 819506.36081271991 0 819506.36081271991 705629.69702790957 0 0 0 0 396458.33100116253 2742829.2814266812 0 2742829.2814266812 2260056.8561147582 0 0 0 0 24392044.600708008 42875811.540678024 0 42875811.540678024 24185307.797145844 0 0 0 0 2739587.3786084279 5306258.2814972065 0 5306258.2814972065 -94795.652498336509 0 0 0 0 -249728.26318359375 2200227.3843612671 0 2200227.3843612671 2916628.0834350586 0 0 0 0 299489.30293509271 4369118.8470743019 0 4369118.8470743019 2045660.5070591252 0 0 0 0 3096239.7936074175 3878904.1305346647 0 3878904.1305346647 697161.36243259569 0 0 0 0 761080.74591064453 1886948.1243019104 0 1886948.1243019104 955340.17774963379 0 0 0 0 3026338.5237149 4221018.2338188346 0 4221018.2338188346 964625.22587064793 0 0 0 0 879210.60339355469 1554257.4615917206 0 1554257.4615917206 813857.53741455078 0 0 0 0 -3677175.201385498 5595932.8069152832 0 5595932.8069152832 7030675.2391915321 0 0 0 0 -68908.254822287709 2105985.1025940403 0 2105985.1025940403 4787808.5549381478 0 0 0 0 4666677.3871002197 5710618.4069976807 0 5710618.4069976807 2258914.9230545759 0 0 0 0 3469631.0012378693 3601003.0815341473 0 3601003.0815341473 6122293.2673034668 0 0 0 0 1125888.7753760302 1970030.3583353609 0 1970030.3583353609 1074770.6536700213 0 0 0 0 648558.30458769947 722862.3873193264 0 722862.3873193264 881218.45427300781 0 0 0 0 21758945.841156006 -15377380.304161072 0 -15377380.304161072 34719324.3242836 0 0 0 0 4619928.8237457275 10264113.202354431 0 10264113.202354431 6547288.6227710247 0 0 0 0 7643331.809627533 4608553.6278452873 0 4608553.6278452873 -495840.76920700073 0 0 0 0 21189091.444625854 -6281226.2776851654 0 -6281226.2776851654 -20962939.701347351 0 0 0 0 -831020.74150848389 -28738202.033245087 0 -28738202.033245087 26940184.297592163 0 0 0 0 -89529.876853942871 32204996.927330017 0 32204996.927330017 -22386856.94203949 0 0 0 0 -49327689.682510376 112145851.74646759 0 112145851.74646759 -137796707.02848673 0 0 0 0 -50168098.748031616 14544425.692134857 0 14544425.692134857 16467137.42401123 0 0 0 0 87646.853076465428 212230.38934619352 0 212230.38934619352 398591.01892701909 0 0 0 0 -35148385.485229492 94347772.535007477 0 94347772.535007477 -69639902.390944958 0 0 0 0 -39353.490427181125 1158600.8489168393 0 1158600.8489168393 4458657.5275131026 0 0 0 0 -19411064.399147034 17702794.61277771 0 17702794.61277771 -6697004.426940918 0 0 0 0 -1177010.8259353638 1301802.4859437943 0 1301802.4859437943 2674612.6491966248 0 0 0 0 -2412280.2445678711 5371014.8779659271 0 5371014.8779659271 16796499.447871864 0 0 0 0 1106.0583877563477 7858648.0291004181 0 7858648.0291004181 8098556.0651054382 0 0 0 0 -5613084.586265564 4346020.850944519 0 4346020.850944519 7164775.488658905 0 0 0 0 -2276232.3228530884 4591663.3095979691 0 4591663.3095979691 6744932.9980697632 0 0 0 0 -2637253.5704040527 6234653.2560844421 0 6234653.2560844421 7809177.4435482025 0 0 0 0 -2886086.4154272079 4534306.0696308613 0 4534306.0696308613 3920928.5550308228 0 0 0 0 -142850.02000427246 7108464.9052124023 0 7108464.9052124023 4588759.9316711426 0 0 0 0 -1444258.2061347961 6631606.476811409 0 6631606.476811409 3983778.0418395996 0 0 0 0 -1371305.2342033386 6445975.3482942581 0 6445975.3482942581 4449887.258972168 0 0 0 0 1054.4037704467773 7796212.2415142059 0 7796212.2415142059 4582493.6234340668 0 0 0 0 -117006.59124755859 6478012.0502033234 0 6478012.0502033234 6343564.2220115662 0 0 0 0 322614.04909515381 7608019.2151355743 0 7608019.2151355743 3794711.1436500549 0 0 0 0 -688102.85202026367 6150580.9753360748 0 6150580.9753360748 3409612.2321166992 0 0 0 0 404895.36008453369 7301748.0157737732 0 7301748.0157737732 4047211.4366474152 0 0 0 0 678863.16915130615 10230678.341838837 0 10230678.341838837 2243179.8193416595 0 0 0 0 4615481.550868988 6338332.6813774109 0 6338332.6813774109 2886746.8872032166 0 0 0 0 -2663.7217250016952 8033197.6324902065 0 8033197.6324902065 3501073.1666488647 0 0 0 0 -826392.49584197998 6361904.8372535706 0 6361904.8372535706 973911.09763598442 0 0 0 0 -8677785.0048141479 1233316.4195823669 0 1233316.4195823669 6270678.0407180786 0 0 0 0 3507733.479385376 10548591.119821548 0 10548591.119821548 6683774.8753051758 0 0 0 0 -1276035.4926089193 3897816.9268849324 0 3897816.9268849324 4333957.1417975239 0 0 0 0 -16293364.223403931 -540866.86029243469 0 -540866.86029243469 7804415.9492721558 0 0 0 0 2967196.7459030151 4721438.9564838409 0 4721438.9564838409 2581994.6231620312 0 0 0 0 -4740541.6416473389 -811525.86175537109 0 -811525.86175537109 -196249.04766845703 0 0 0 0 -1124102.7479095459 14546310.65152359 0 14546310.65152359 8242824.4619350433 0 0 0 0 6170138.2506408691 8796067.1387686729 0 8796067.1387686729 12746035.635444641 0 0 0 0 18705696.300354004 31763229.669582367 0 31763229.669582367 34085468.705352783 0 0 0 0 -34238089.279880524 -11182873.305072784 0 -11182873.305072784 20222720.406082153 0 0 0 0 -2073078.0704498291 6379439.6438884735 0 6379439.6438884735 4641767.5255508423 0 0 0 0 -1182961.3952983953 4418083.586637808 0 4418083.586637808 5792176.0465388391 0 0 0 0 36704544.909950256 -19980021.701658249 0 -19980021.701658249 -3513584.2549133301 0 0 0 0 4471664.1057052612 4972947.9780044556 0 4972947.9780044556 11372343.155793309 0 0 0 0 190604.16463475674 2119333.1780470926 0 2119333.1780470926 691088.10558136925 0 0 0 0 -11854642.055206299 40296240.510845184 0 40296240.510845184 30593161.024642944 0 0 0 0 28687514.647270203 13517291.063419342 0 13517291.063419342 -5098465.4580925703 0 0 0 0 -1218291.2360126632 5421093.7736687176 0 5421093.7736687176 7286670.1097157337 0 0 0 0 547651.06636778452 1528045.9973241128 0 1528045.9973241128 3236225.9797374737 0 0 0 0 3940133.5693297386 8237156.5410122871 0 8237156.5410122871 25905333.557579041 0 0 0 0 8362726.5298080444 23473047.862808228 0 23473047.862808228 41953784.234207153 0 0 0 0 240599.4107392747 509558.87709207647 0 509558.87709207647 978829.06021277234 0 0 0 0 1843107.2029724121 7238109.0783996582 0 7238109.0783996582 20179853.509547234 0 0 0 0 9257224.1758651733 13558963.592460632 0 13558963.592460632 21105918.096066952 0 0 0 0 6630206.798242569 5838715.5271921158 0 5838715.5271921158 21128307.031684875 0 0 0 0 3390152.2527542114 10628665.948112488 0 10628665.948112488 17122765.873733521 0 0 0 0 1323700.6160049438 27980665.285198212 0 27980665.285198212 36237707.555465698 0 0 0 0 12127178.986700058 32178205.534427166 0 32178205.534427166 40839792.437927246 0 0 0 0 4297355.1513495445 21986820.688452721 0 21986820.688452721 40201875.870010376 0 0 0 0 12589659.845787048 12908979.863044739 0 12908979.863044739 17772670.928939819 0 0 0 0 -3370950.468170166 13423862.374713898 0 13423862.374713898 17834799.077755928 0 0 0 0 14828999.275182724 31799942.407308578 0 31799942.407308578 18530372.892936707 0 0 0 0 -7967613.8631439209 30103362.688156128 0 30103362.688156128 18424411.058372498 0 0 0 0 -16067071.810884476 22746455.867918015 0 22746455.867918015 34047797.792182922 0 0 0 0 -12939424.782447815 28053852.274896622 0 28053852.274896622 21111957.458938599 0 0 0 0 -20128552.20554924 10587707.707641602 0 10587707.707641602 15117102.349060059 0 0 0 0 3871938.5592803955 20451685.634607315 0 20451685.634607315 17825702.173583984 0 0 0 0 15362406.708175659 64873789.734115601 0 64873789.734115601 15476265.565419197 0 0 0 0 -19196338.799858093 74343966.253585815 0 74343966.253585815 13644647.046646118 0 0 0 0 24995941.713104248 124957178.22267914 0 124957178.22267914 71382366.198383808 0 0 0 0 -12672687.280685425 59795368.477470398 0 59795368.477470398 44903425.702058792 0 0 0 0 -12874791.038283914 48108192.461333387 0 48108192.461333387 24498869.665359497 0 0 0 0 8784770.1040802002 32985225.284915924 0 32985225.284915924 10080487.244335651 0 0 0 0 -1556175.0896987915 49380309.514881134 0 49380309.514881134 7570566.3207550049 0 0 0 0 11756055.833953857 22031453.725570679 0 22031453.725570679 -23277130.448226929 0 0 0 0 41270738.388057709 57139903.462005615 0 57139903.462005615 -44880579.740318298 0 0 0 0 11226990.201095581 28117729.629161835 0 28117729.629161835 -12385724.367294312 0 0 0 0 5246292.6766662598 23923507.519012451 0 23923507.519012451 -4959016.5837249756 0 0 0 0 4133809.7742156982 11954100.710929871 0 11954100.710929871 -7232075.3958740234 0 0 0 0 1325151.8235473633 27558525.726280212 0 27558525.726280212 6161164.3959159851 0 0 0 0 3563938.8872756958 8253247.1166572571 0 8253247.1166572571 7914363.1450195312 0 0 0 0 4292478.6918640137 16045396.851303101 0 16045396.851303101 16031262.402622223 0 0 0 0 4677803.304063797 16116250.850064754 0 16116250.850064754 214117.10819244385 0 0 0 0 4848149.4456329346 6331097.7508544922 0 6331097.7508544922 1643522.4498214722 0 0 0 0 68428295.847816467 -70333100.004291534 0 -70333100.004291534 20854794.377622604 0 0 0 0 -99997865.930618286 -148972547.64896679 0 -148972547.64896679 -99042150.201869011 0 0 0 0 -9554110.1928634644 -39910146.439352036 0 -39910146.439352036 17989159.460515022 0 0 0 0 -222338250.79743958 28046351.773365021 0 28046351.773365021 47864843.112146914 0 0 0 0 67563651.175880432 -52427058.404106617 0 -52427058.404106617 41390554.363798141 0 0 0 0 -64435156.089152336 64092135.809381783 0 64092135.809381783 -133714817.62545776 0 0 0 0 -122095311.59575272 -14156669.028237581 0 -14156669.028237581 335096945.26492023 0 0 0 0 5292452.3113214299 8105409.5832295921 0 8105409.5832295921 662309.99766761344 0 0 0 0 5334262.0797042847 8510268.1568183899 0 8510268.1568183899 6390447.3252677917 0 0 0 0 5211946.3151376359 7864167.4080052357 0 7864167.4080052357 95637.754907207287 0 0 0 0 -10537827.348220825 175264117.59556007 0 175264117.59556007 48482441.49772644 0 0 0 0 9287257.0993728638 7760475.47082901 0 7760475.47082901 8995614.0405502319 0 0 0 0 -84110800.637939453 22322448.797988892 0 22322448.797988892 290970388.98618758 0 0 0 0 65605353.119560242 85940120.733092785 0 85940120.733092785 -11840006.978039742 0 0 0 0 -19795966.366333008 59390621.579366684 0 59390621.579366684 -11423712.126310736 0 0 0 0 66757139.480827332 129233417.76535606 0 129233417.76535606 -259585420.57398987 0 0 0 0 -57015671.18963623 68364150.322956085 0 68364150.322956085 8961397.5919208527 0 0 0 0 4996050.5821685791 139182655.73657799 0 139182655.73657799 -234100185.99819088 0 0 0 0 -127555207.01953125 182610890.60153437 0 182610890.60153437 -232032565.40672874 0 0 0 0 99203775.779678345 185673239.03850603 0 185673239.03850603 -623007212.05480576 0 0 0 0 93209580.092987061 136458324.05677104 0 136458324.05677104 -522693274.96425056 0 0 0 0 -62633751.929595947 295986143.54058361 0 295986143.54058361 -595966138.94717646 0 0 0 0 84211370.056137085 28185305.143730164 0 28185305.143730164 -298032116.03942204 0 0 0 0 91560510.619163513 3310936.1388788223 0 3310936.1388788223 -446562763.28736305 0 0 0 0 252101348.81445312 67599843.406259537 0 67599843.406259537 -627509254.37314415 0 0 0 0 142320787.175457 -158046227.61548376 0 -158046227.61548376 -570673979.84040642 0 0 0 0 422755547.0030899 -206028196.11482286 0 -206028196.11482286 -1018054663.571434 0 0 0 0 300888033.77163696 -82913924.987610817 0 -82913924.987610817 -683002568.45974255 0 0 0 0 287139300.36320114 -23829085.867727995 0 -23829085.867727995 -916738100.74028778 0 0 0 0 516690228.59387207 -89025166.437277794 0 -89025166.437277794 -909079359.48102903 0 0 0 0 291451304.657547 85067663.42120266 0 85067663.42120266 -955996316.89762974 0 0 0 0 189429321.10087585 231098782.08552265 0 231098782.08552265 -1026659690.2784119 0 0 0 0 414725679.17124939 80637404.399402618 0 80637404.399402618 -1088722243.8629398 0 0 0 0 286359998.54225254 152464187.60433978 0 152464187.60433978 -1482614517.6614838 0 0 0 0 -915979154.96646118 252880598.09433508 0 252880598.09433508 -171174407.15933609 0 0 0 0 163099865.37406921 413666223.77870607 0 413666223.77870607 -1882899919.91784 0 0 0 0 -439303929.25987244 864294646.48620796 0 864294646.48620796 -1389368971.7366686 0 0 0 0 -306397585.87789917 570346161.77980804 0 570346161.77980804 -784815068.66796398 0 0 0 0 -113591131.64070892 -157534824.96330738 0 -157534824.96330738 -66932063.890842438 0 0 0 0 -123474952.66230774 1246109546.7203565 0 1246109546.7203565 497422157.20079207 0 0 0 0 -135450942.68104553 -74871104.048431396 0 -74871104.048431396 -274627234.35476875 0 0 0 0 -94099233.119842529 5113662.8887481689 0 5113662.8887481689 -132267906.96391678 0 0 0 0 -476339950.33453369 29374658.513307571 0 29374658.513307571 -115648543.33140755 0 0 0 0 -208825437.04759979 336278656.75303078 0 336278656.75303078 -481254789.72210407 0 0 0 0 -50163079.939954758 249697375.17748439 0 249697375.17748439 -581080131.77616119 0 0 0 0 100755638.70955658 42969433.088438034 0 42969433.088438034 -4745803.1120729446 0 0 0 0 54957800.564254761 15657541.813443661 0 15657541.813443661 -11849134.009741783 0 0 0 0 37900582.144058228 -109392688.91614938 0 -109392688.91614938 -174599871.42335987 0 0 0 0 187647752.47798157 -2840500.7947511673 0 -2840500.7947511673 -105561667.41821563 0 0 0 0 133515078.11782837 194679559.00879765 0 194679559.00879765 194729511.92625618 0 0 0 0 -1121939.5790800601 1924479.1778356954 0 1924479.1778356954 579774.91644950409 0 0 0 0 328046254.12823486 101518057.33252287 0 101518057.33252287 -186815467.8691785 0 0 0 0 42754996.115905762 38788370.769850731 0 38788370.769850731 -2177880.8696980476 0 0 0 0 -1300809.2043043375 3372545.3033430963 0 3372545.3033430963 1147761.1321504472 0 0 0 0 43140106.034381866 34825699.988482833 0 34825699.988482833 20572464.893998146 0 0 0 0 -277823081.30752563 42416150.455779463 0 42416150.455779463 -13229177.577903971 0 0 0 0 126121789.75009155 147466244.04865313 0 147466244.04865313 141108382.28193521 0 0 0 0 113385807.53598785 158354372.53232864 0 158354372.53232864 141478285.84779114 0 0 0 0 254998961.84861755 165840699.1134426 0 165840699.1134426 82540159.656522006 0 0 0 0 297135.93609082373 885401.97229665332 0 885401.97229665332 159453.26659775141 0 0 0 0 124139438.43959045 -101941545.60665894 0 -101941545.60665894 -346731995.61771035 0 0 0 0 -69034.039023254067 -319545.06099318527 0 -319545.06099318527 -303340.73534574627 0 0 0 0 26597655.783867836 -121375174.91539249 0 -121375174.91539249 -37343524.827836037 0 0 0 0 -231956687.36532593 102094595.21864629 0 102094595.21864629 155280009.78056431 0 0 0 0 6457872.9077400509 5873483.9537300337 0 5873483.9537300337 -2250228.6017763577 0 0 0 0 321712187.69916534 832519650.65193415 0 832519650.65193415 886297460.75582886 0 0 0 0 193325651.19824219 415269484.30440044 0 415269484.30440044 565150941.25829124 0 0 0 0 15703423.634140015 21540506.150673866 0 21540506.150673866 14361357.924318314 0 0 0 0 7035307.7456130981 15057592.472062111 0 15057592.472062111 15363688.858947754 0 0 0 0 23721640.191696167 8706858.4924292564 0 8706858.4924292564 -4299520.0556974411 0 0 0 0 45900291.670471191 26968480.937690735 0 26968480.937690735 6360358.4996843338 0 0 0 0 9369216.4240397625 10745047.986281404 0 10745047.986281404 -3449405.0561258174 0 0 0 0 45143484.307647705 9543674.9944562912 0 9543674.9944562912 -5403650.0024249554 0 0 0 0 16305251.459793091 12038176.110538483 0 12038176.110538483 14258202.239519119 0 0 0 0 -287744327.45766449 -157666326.29777646 0 -157666326.29777646 -77111323.77641964 0 0 0 0 294227928.96778107 175967673.36938763 0 175967673.36938763 -41758475.161327362 0 0 0 0 761235277.8006897 486488900.55304909 0 486488900.55304909 -46006971.356096268 0 0 0 0 231296285.71652222 -31975396.756807327 0 -31975396.756807327 -212817602.76768112 0 0 0 0 63288625.001937866 -480092339.82423782 0 -480092339.82423782 -347306623.29929781 0 0 0 0 1033106612.695816 -108336569.47936726 0 -108336569.47936726 -860484385.54037285 0 0 0 0 -3068629.7991027832 -1478351.1259598732 0 -1478351.1259598732 -90506322.962351799 0 0 0 0 183171800.78578186 -58323081.434945345 0 -58323081.434945345 -268658523.2878437 0 0 0 0 161522040.97784042 -17275491.018813014 0 -17275491.018813014 -168290069.88831902 0 0 0 0 2590406.5494368225 209750.65794721153 0 209750.65794721153 -3132509.2197136027 0 0 0 0 23101963.119594574 -6492849.4612232447 0 -6492849.4612232447 -283870309.53126049 0 0 0 0 -24955102.022102356 23015591.113954782 0 23015591.113954782 -44373140.569809437 0 0 0 0 8983662.319992058 8149600.9983554455 0 8149600.9983554455 -3415324.6814305559 0 0 0 0 5564320.8626458123 9547375.4317607135 0 9547375.4317607135 5869467.251927889 0 0 0 0 2312260.5019302368 8844446.1761703491 0 8844446.1761703491 -7871866.5279643536 0 0 0 0 6129674.5713775493 11249881.542684661 0 11249881.542684661 2045459.3197736754 0 0 0 0 -3504796.6702880859 11409786.112636566 0 11409786.112636566 -2987804.3435181379 0 0 0 0 33667866.391532898 -3618976.6361675262 0 -3618976.6361675262 27530251.628889084 0 0 0 0 15504224.84082357 11575003.902499231 0 11575003.902499231 -7243212.6717677824 0 0 0 0 61580046.553848267 -3247778.0853943825 0 -3247778.0853943825 338169.28386688232 0 0 0 0 45676559.443069458 10941223.920186043 0 10941223.920186043 -11911079.122458011 0 0 0 0 53898919.874664307 -108406606.95023727 0 -108406606.95023727 -86536277.813442111 0 0 0 0 57755611.201094627 -38388049.116605252 0 -38388049.116605252 15395786.374559402 0 0 0 0 5667243.3878692053 8970837.8094182946 0 8970837.8094182946 1265398.8918296725 0 0 0 0 433922.69681549072 9986039.5494270325 0 9986039.5494270325 2886460.8145281076 0 0 0 0 -6623231.2218933105 -75006396.298300266 0 -75006396.298300266 152100965.23858416 0 0 0 0 882662.90730285645 6787698.7047195435 0 6787698.7047195435 -2590827.4940872192 0 0 0 0 1990545.6532897949 16361057.711917877 0 16361057.711917877 -8323572.7264976501 0 0 0 0 -207705.63528823853 17021547.815544128 0 17021547.815544128 -10492893.976974487 0 0 0 0 3121041.1991958618 14130163.103040695 0 14130163.103040695 -11801937.227783203 0 0 0 0 -2507146.5634841919 13738544.753833771 0 13738544.753833771 -10784969.757701874 0 0 0 0 5557931.4253540039 9977891.3293838501 0 9977891.3293838501 -22671415.252727509 0 0 0 0 -2306993.9279632568 19103483.073223114 0 19103483.073223114 -15890884.922740936 0 0 0 0 340858.12125875242 75770.170430459082 0 75770.170430459082 -28308.517807418481 0 0 0 0 6347662.8941764832 32141047.534385681 0 32141047.534385681 -5696172.5460510254 0 0 0 0 6007597.740898354 6834822.1114930417 0 6834822.1114930417 -1234956.8066534009 0 0 0 0 -5888100.3619537354 9897193.9744110107 0 9897193.9744110107 -13502483.089637756 0 0 0 0 -17338130.756164551 16411406.470245361 0 16411406.470245361 -1095710.3401947021 0 0 0 0 5159199.6795196533 22089963.732826233 0 22089963.732826233 -24825272.123802185 0 0 0 0 4904863.0722198486 20870503.230667114 0 20870503.230667114 -13596738.298988342 0 0 0 0 11075494.192016602 19411851.778915405 0 19411851.778915405 -13255939.877182007 0 0 0 0 -20023382.810661316 1315479.971622467 0 1315479.971622467 -77527974.776443481 0 0 0 0 7951990.2273616791 6645846.0575208664 0 6645846.0575208664 -2764260.7212982178 0 0 0 0 -1232513.489063127 120713.15605278639 0 120713.15605278639 941360.40801409259 0 0 0 0 17125637.603935242 -7180172.9734344482 0 -7180172.9734344482 10264682.043989182 0 0 0 0 -1587617.9164012326 5306968.5258688685 0 5306968.5258688685 4117967.2797695324 0 0 0 0 -31400070.142986298 -64197932.051688671 0 -64197932.051688671 -82100914.687278748 0 0 0 0 41319341.094024658 -52343545.45999527 0 -52343545.45999527 -112793677.21589661 0 0 0 0 -23639241.128135681 18274700.536460876 0 18274700.536460876 -69837916.19997406 0 0 0 0 70345222.688709259 85832238.830034256 0 85832238.830034256 -42871118.280143738 0 0 0 0 27736815.997566223 58285550.273685455 0 58285550.273685455 -30410325.641601562 0 0 0 0 85673531.788009644 21123733.341121674 0 21123733.341121674 -94053075.815210342 0 0 0 0 12190701.851202011 18321127.59245491 0 18321127.59245491 25037569.33555603 0 0 0 0 -11716887.07724762 21228189.64466095 0 21228189.64466095 61098841.78729248 0 0 0 0 -25770894.058883667 61751158.924026489 0 61751158.924026489 41884095.279602051 0 0 0 0 1536962.3657006174 1160863.3462503701 0 1160863.3462503701 -93020.022987954319 0 0 0 0 -20415997.969320297 42972383.433956146 0 42972383.433956146 101441014.01101685 0 0 0 0 -1975435.137338249 5149185.0564622805 0 5149185.0564622805 4634759.1435047295 0 0 0 0 -12791337.350518227 12214039.119694233 0 12214039.119694233 88430242.213439941 0 0 0 0 44696531.685852051 -55008363.855957031 0 -55008363.855957031 208780623.05862427 0 0 0 0 -1496345.6578292847 60586.577827453613 0 60586.577827453613 44580657.994247437 0 0 0 0 135428321.75713921 36267286.597919464 0 36267286.597919464 -98995378.671009064 0 0 0 0 16532143.429538727 -17254849.425688744 0 -17254849.425688744 30348007.006790161 0 0 0 0 8091935.7541408539 6969195.9535808563 0 6969195.9535808563 21703121.710784912 0 0 0 0 10604687.727600098 2527989.1042747498 0 2527989.1042747498 -4152737.1599502563 0 0 0 0 13845720.47439003 13677655.503869057 0 13677655.503869057 -2666209.5323104858 0 0 0 0 10747588.153575897 18361328.376911163 0 18361328.376911163 -820316.66956806183 0 0 0 0 6542497.9452896118 15755595.552669525 0 15755595.552669525 -143192.24025726318 0 0 0 0 5070532.3378410209 4226118.0045239963 0 4226118.0045239963 -484918.15969828516 0 0 0 0 42392546.735099792 9396286.70794487 0 9396286.70794487 -15941761.203399658 0 0 0 0 4640102.2311468124 21889398.698997974 0 21889398.698997974 32503753.656967163 0 0 0 0 -7936003.1913452148 15098547.21446228 0 15098547.21446228 -11881513.069595337 0 0 0 0 7322613.9520297311 6557442.8196448199 0 6557442.8196448199 -3120201.5399677977 0 0 0 0 -5592773.9982376099 17670651.009208679 0 17670651.009208679 -9995891.1890640259 0 0 0 0 5021367.209936142 17038242.985028267 0 17038242.985028267 -15983630.405822754 0 0 0 0 187627.78912392631 308378.28163446859 0 308378.28163446859 -217372.21609127056 0 0 0 0 3246320.8439903259 24016791.548439026 0 24016791.548439026 19313980.59079361 0 0 0 0 10713757.316566467 14032201.45998764 0 14032201.45998764 -2208226.154876709 0 0 0 0 3541757.974772064 4726667.9046283523 0 4726667.9046283523 3157416.8494045353 0 0 0 0 19312385.641450882 6747719.7477893829 0 6747719.7477893829 -11890527.910679817 0 0 0 0 14282344.151689529 16311342.795036316 0 16311342.795036316 5367479.0509414673 0 0 0 0 -2879684.1522369385 37292205.370529175 0 37292205.370529175 55065630.570930481 0 0 0 0 24959766.484544754 996954.3400478363 0 996954.3400478363 -3770382.8461151123 0 0 0 0 1693848.3099194616 2118345.5981333964 0 2118345.5981333964 1991851.2867136346 0 0 0 0 525177.61389732361 2228654.8224601746 0 2228654.8224601746 13262225.866508484 0 0 0 0 20068980.436565399 -2698316.4906349182 0 -2698316.4906349182 8343575.4682884216 0 0 0 0 15866860.612457275 -1636528.346282959 0 -1636528.346282959 8117525.4705123901 0 0 0 0 -83351.549232202582 52457.722956489772 0 52457.722956489772 102420.63258812949 0 0 0 0 39039447.393707275 20268018.376399994 0 20268018.376399994 13030722.784873009 0 0 0 0 41322987.308559418 29661941.0782547 0 29661941.0782547 17388396.857992172 0 0 0 0 26905517.481468201 13804702.655658722 0 13804702.655658722 -21382.132461547852 0 0 0 0 64662261.15430069 17926436.800209045 0 17926436.800209045 -318199.93878936768 0 0 0 0 15759835.698848724 11772650.96232605 0 11772650.96232605 6225637.1068267822 0 0 0 0 17334777.889842987 3591145.9067077637 0 3591145.9067077637 5183285.8448257446 0 0 0 0 32746448.15404892 8325681.1546401978 0 8325681.1546401978 -592154.71836090088 0 0 0 0 31520024.221948624 -600215.32027816772 0 -600215.32027816772 -2418787.4913635254 0 0 0 0 27449888.282764435 2184664.6618309021 0 2184664.6618309021 5323808.9220190048 0 0 0 0 7637865.1012153625 42650641.272094727 0 42650641.272094727 10951365.206481934 0 0 0 0 107041349.3968811 -2383694.0652275085 0 -2383694.0652275085 -6112524.5304107666 0 0 0 0 95728910.619391918 69648338.386287212 0 69648338.386287212 18915914.937103271 0 0 0 0 111397294.06314421 -76986898.244566441 0 -76986898.244566441 -60160061.855735779 0 0 0 0 138501981.57287598 45078828.28792572 0 45078828.28792572 28604332.730194092 0 0 0 0 499369.00467769057 601544.29202502407 0 601544.29202502407 677688.3410923006 0 0 0 0 29874203.864175797 -23128105.085794449 0 -23128105.085794449 -1790921.6693649292 0 0 0 0 36545629.269126892 105749862.04686737 0 105749862.04686737 154912436.16025543 0 0 0 0 -1425854.8210449219 26504790.891929626 0 26504790.891929626 107002711.50880051 0 0 0 0 36811134.296760559 53474565.062362671 0 53474565.062362671 -3004733.5726165771 0 0 0 0 -10839789.551216125 8790659.8313369751 0 8790659.8313369751 -22257625.96125412 0 0 0 0 -15294592.091526031 -102964047.46888924 0 -102964047.46888924 -5020552.4828643799 0 0 0 0 1578555.8430411778 2640256.1467275266 0 2640256.1467275266 5002170.5603043791 0 0 0 0 -51792016.517700195 -2058941.1375846863 0 -2058941.1375846863 6012327.4482727051 0 0 0 0 1200975.9432523726 2960878.3148669302 0 2960878.3148669302 3811997.3008829709 0 0 0 0 7504790.8474349976 -31695920.071937561 0 -31695920.071937561 -4033717.8670196533 0 0 0 0 9629566.1294060666 8623094.6333965994 0 8623094.6333965994 -5738850.7318897331 0 0 0 0 12437253.186769485 25880249.772906721 0 25880249.772906721 -14379770.691174984 0 0 0 0 7651219.4014968872 5873404.8672447205 0 5873404.8672447205 12636823.43731308 0 0 0 0 -11183043.940589905 15561523.373764038 0 15561523.373764038 -148186440.85375977 0 0 0 0 3314627.2956069168 6255655.5389198046 0 6255655.5389198046 11889022.83380953 0 0 0 0 21650884.244750977 24621289.08413744 0 24621289.08413744 -76784986.346680641 0 0 0 0 2289278.4348602295 25166493.94607234 0 25166493.94607234 14305154.476531029 0 0 0 0 6926064.9232444763 25597961.228271395 0 25597961.228271395 -13180461.54970336 0 0 0 0 6134575.6121368408 24424355.043962479 0 24424355.043962479 22913700.965455234 0 0 0 0 -646991.19885253906 44589071.053369522 0 44589071.053369522 -17779520.406495094 0 0 0 0 2874345.5433616638 29084627.61785382 0 29084627.61785382 -16270940.745292664 0 0 0 0 -6242909.0506134033 42395063.301250935 0 42395063.301250935 21058247.501870155 0 0 0 0 15579168.349533081 59207159.209071636 0 59207159.209071636 -26773657.46481514 0 0 0 0 10857733.033791315 13144147.432887897 0 13144147.432887897 4425218.2483659573 0 0 0 0 13246400.916809082 35733826.325751185 0 35733826.325751185 -90100407.568763971 0 0 0 0 10272277.773376465 24570285.223617554 0 24570285.223617554 -43371287.850493431 0 0 0 0 37037667.441865921 37377609.840988159 0 37377609.840988159 -61988822.082935333 0 0 0 0 -13252925.15196228 45804883.029117584 0 45804883.029117584 -17876754.765265942 0 0 0 0 -14390054.640274048 31871829.453984737 0 31871829.453984737 -16679272.24594593 0 0 0 0 145898.52347169444 348982.59273392055 0 348982.59273392055 713664.61175319517 0 0 0 0 32564388.000289917 65554845.027833462 0 65554845.027833462 -82105008.699823737 0 0 0 0 2722326.8612060547 76304231.111293197 0 76304231.111293197 -7174473.0980186462 0 0 0 0 11866260.008486092 12214330.848029278 0 12214330.848029278 2774733.1511656106 0 0 0 0 17952312.176757812 -17366360.89136219 0 -17366360.89136219 -128312441.08343033 0 0 0 0 67449915.583740234 24251067.982688427 0 24251067.982688427 -168530402.20751572 0 0 0 0 17584236.75875473 21757662.614110947 0 21757662.614110947 -18197505.163761139 0 0 0 0 -33148746.894546509 78868439.444497585 0 78868439.444497585 241796469.1982646 0 0 0 0 35326913.665786743 165959146.06338358 0 165959146.06338358 11877916.400930405 0 0 0 0 91512188.134490967 149362248.76070595 0 149362248.76070595 14577857.82744801 0 0 0 0 82552559.738357544 96667799.110512733 0 96667799.110512733 181459620.01074028 0 0 0 0 6545418.5018615723 38738188.971135139 0 38738188.971135139 24126443.805513382 0 0 0 0 24390741.801696777 42773445.608142853 0 42773445.608142853 25023432.030640364 0 0 0 0 3097111.4020236917 1699592.802591952 0 1699592.802591952 -1029062.1666584382 0 0 0 0 -11166762.121261597 42156479.49767971 0 42156479.49767971 85750763.804989815 0 0 0 0 -25313346.700439453 -2608593.4924693108 0 -2608593.4924693108 119609081.38505983 0 0 0 0 94215683.443351746 -109003874.54070234 0 -109003874.54070234 212603187.89249039 0 0 0 0 1042535.5227390602 532879.38953090226 0 532879.38953090226 -316707.84693771787 0 0 0 0 119621708.46031952 43725272.43129158 0 43725272.43129158 -90950392.808906555 0 0 0 0 -77369459.629455566 99934653.891077995 0 99934653.891077995 640381497.48001385 0 0 0 0 43806388.508651733 -7428175.8561229855 0 -7428175.8561229855 -30685091.040520161 0 0 0 0 547559.94541931152 16197069.636350513 0 16197069.636350513 7611709.5035527349 0 0 0 0 -4670471.6719913483 -4639942.3580310047 0 -4639942.3580310047 -43165567.394069433 0 0 0 0 10549307.046447754 -6342703.3936432451 0 -6342703.3936432451 -46901653.911007941 0 0 0 0 5056570.5937952064 3119276.0864799172 0 3119276.0864799172 -1897064.6623777442 0 0 0 0 27234208.2760849 6224380.9130408168 0 6224380.9130408168 -87079345.142631292 0 0 0 0 -2276835.5388565063 10575857.530700207 0 10575857.530700207 42477829.482013226 0 0 0 0 -8902525.7261810303 37563771.547875404 0 37563771.547875404 33743933.133564472 0 0 0 0 5531362.6222381592 13387119.641691685 0 13387119.641691685 34935588.122789383 0 0 0 0 3896017.2483978271 -10966492.289711952 0 -10966492.289711952 81677350.381845474 0 0 0 0 27672608.152015686 9570650.5703462064 0 9570650.5703462064 -44894426.551963136 0 0 0 0 60474603.045333862 15633614.690824032 0 15633614.690824032 -58852494.509067535 0 0 0 0 28048500.31892395 10738407.2316643 0 10738407.2316643 -38194072.907368481 0 0 0 0 60102636.360992432 55063183.726394653 0 55063183.726394653 228336.60154819489 0 0 0 0 32468005.911381721 47659773.464005291 0 47659773.464005291 -11569744.875452042 0 0 0 0 8406346.4584884644 889531.53599309921 0 889531.53599309921 -66627013.242917418 0 0 0 0 48876001.033409119 13079569.097112864 0 13079569.097112864 -64847507.712019831 0 0 0 0 -7540355.3891448975 -25838444.23821789 0 -25838444.23821789 -131577232.70599222 0 0 0 0 -11440454.665634155 -26324190.417933345 0 -26324190.417933345 -60759437.310162663 0 0 0 0 -53267023.865570068 -5774167.8017445803 0 -5774167.8017445803 -19583731.704554737 0 0 0 0 -17849954.945663452 -50205240.009456158 0 -50205240.009456158 -164911506.21894932 0 0 0 0 -40328955.62991333 84169306.953335524 0 84169306.953335524 -328202375.7988987 0 0 0 0 -46817921.17935133 7524878.2576492131 0 7524878.2576492131 -104055072.31793451 0 0 0 0 -152242895.32514954 107745405.44662285 0 107745405.44662285 -59143921.818548203 0 0 0 0 -209370538.76470947 174743996.36866713 0 174743996.36866713 -184750168.62074423 0 0 0 0 29871229.529402733 -2569267.1342096925 0 -2569267.1342096925 -116766868.3630085 0 0 0 0 -20181041.610778809 45968248.378091574 0 45968248.378091574 -189688898.19325256 0 0 0 0 -18804966.050704956 19877456.39932847 0 19877456.39932847 -52981426.530886173 0 0 0 0 36286711.883514404 54855613.616177559 0 54855613.616177559 -98996823.69368124 0 0 0 0 -92950309.984451294 102837017.26486731 0 102837017.26486731 66279575.777697563 0 0 0 0 -113665696.18686676 169124929.67612576 0 169124929.67612576 -142156271.59218979 0 0 0 0 255712.83898925781 240812733.20871639 0 240812733.20871639 -37533364.894892693 0 0 0 0 -377231951.32262421 469865175.0740726 0 469865175.0740726 -93603077.100055695 0 0 0 0 -442613512.43122864 390702595.05686283 0 390702595.05686283 -129098119.84483957 0 0 0 0 -149324701.20077515 164711368.42962074 0 164711368.42962074 -226031784.69524288 0 0 0 0 -293809354.46069336 165435867.89071512 0 165435867.89071512 153339614.27540398 0 0 0 0 508397.46326865256 -45410.595859643072 0 -45410.595859643072 -2583341.2482883921 0 0 0 0 -509276752.05929565 594358572.69285059 0 594358572.69285059 -174826802.14381027 0 0 0 0 46167024.558113098 -148867222.19347644 0 -148867222.19347644 -845006709.00056553 0 0 0 0 -710356725.38668823 433070314.00320148 0 433070314.00320148 63330928.71268177 0 0 0 0 -96665652.937225342 292100365.82262135 0 292100365.82262135 -818368294.93700242 0 0 0 0 -317709728.18444061 -160275811.65006685 0 -160275811.65006685 613030693.16147423 0 0 0 0 -367736.96632504836 309370.26889176061 0 309370.26889176061 -195699.34845606715 0 0 0 0 -110051116.5461731 539398528.89983463 0 539398528.89983463 -2144283630.3415618 0 0 0 0 -66275488.556243896 176572669.37773037 0 176572669.37773037 300403445.29454994 0 0 0 0 528305.47815228626 969877.1647713352 0 969877.1647713352 -641233.74631018937 0 0 0 0 -2699052.4258078858 920441.82309014071 0 920441.82309014071 67545.34315330605 0 0 0 0 -651595.03456115723 1899256.0358753204 0 1899256.0358753204 2860305.9881310463 0 0 0 0 65901052.211029053 21320973.657216072 0 21320973.657216072 69567182.968458176 0 0 0 0 28479314.630233765 74871708.759678423 0 74871708.759678423 28020669.285841942 0 0 0 0 37899315.696853638 85879605.439776897 0 85879605.439776897 103569840.93616104 0 0 0 0 -3713556.8466496579 2608191.8551299497 0 2608191.8551299497 -930561.6568943304 0 0 0 0 53046200.685762405 69657436.962501585 0 69657436.962501585 36227861.526092529 0 0 0 0 44868952.882965088 37723308.523203373 0 37723308.523203373 29288318.741589069 0 0 0 0 75081556.024224281 91912709.762301356 0 91912709.762301356 74189377.041236877 0 0 0 0 -1490833.097114563 2567512.5658993721 0 2567512.5658993721 2640928.6737203598 0 0 0 0 171626.54382705688 1299067.3211343288 0 1299067.3211343288 -75607.9470911026 0 0 0 0 425328.31007578969 1371716.28616064 0 1371716.28616064 -639941.68461064016 0 0 0 0 -58597727.553897858 177619262.1171844 0 177619262.1171844 -587880184.51008606 0 0 0 0 -14701223.259162903 139425601.34842825 0 139425601.34842825 -555341278.87481213 0 0 0 0 -70673115.076309204 148351871.86893022 0 148351871.86893022 -551846103.23394012 0 0 0 0 -230496107.88768005 63947011.624655724 0 63947011.624655724 -590603596.07514763 0 0 0 0 -83111996.633901596 271878118.09174418 0 271878118.09174418 -815218071.71303177 0 0 0 0 -69128900.071609497 198532879.87720203 0 198532879.87720203 -440047855.97384644 0 0 0 0 106504507.54094696 250128716.21485281 0 250128716.21485281 -557665069.12310505 0 0 0 0 110332993.41325378 187930410.68405628 0 187930410.68405628 -463998418.26686382 0 0 0 0 -299558657.48007202 283056512.85335398 0 283056512.85335398 -184569049.64156485 0 0 0 0 -300086933.77838135 290360397.58834696 0 290360397.58834696 -75404144.239162445 0 0 0 0 5847974.1185657978 168627622.93861583 0 168627622.93861583 -34813416.76757431 0 0 0 0 -524646335.89905548 41273462.029658318 0 41273462.029658318 -14634497.420620918 0 0 0 0 -557672793.45973253 326424276.1899702 0 326424276.1899702 35442963.756428719 0 0 0 0 -662149325.04558563 534385671.84562063 0 534385671.84562063 -319888965.87319469 0 0 0 0 -451913890.85523224 359351001.16648197 0 359351001.16648197 -234628515.17807984 0 0 0 0 -663960291.79309905 -32881719.394597486 0 -32881719.394597486 -794710402.09237576 0 0 0 0 171775.65552008338 -28858.498453537002 0 -28858.498453537002 -1105502.8788398546 0 0 0 0 -1172664160.2012177 1143956676.6348011 0 1143956676.6348011 -714112274.82222939 0 0 0 0 -117908658.5160675 -174080430.43297291 0 -174080430.43297291 -103230781.59500027 0 0 0 0 -637081384.97653198 515846557.57166386 0 515846557.57166386 49374097.629535675 0 0 0 0 -90735577.878616333 352552284.52684212 0 352552284.52684212 -548441294.164814 0 0 0 0 -558056748.59675598 923678850.96951962 0 923678850.96951962 -350534479.42184639 0 0 0 0 -1499119622.8957901 963496486.75473142 0 963496486.75473142 -365070333.18549192 0 0 0 0 -733770242.34017944 618384161.92124033 0 618384161.92124033 -647264468.09169579 0 0 0 0 1727012597.3212433 61701606.71699962 0 61701606.71699962 -777390960.87443709 0 0 0 0 83187.815609410463 921894.08748126961 0 921894.08748126961 -1298548.9100034514 0 0 0 0 176437.50961098203 2211410.7260223199 0 2211410.7260223199 -2540121.0100688357 0 0 0 0 111385988.46908569 136235203.9543066 0 136235203.9543066 -567256781.31751966 0 0 0 0 -945799523.78638077 427919239.22247696 0 427919239.22247696 126923314.22507954 0 0 0 0 -500313548.50279617 14922008.485994011 0 14922008.485994011 154949550.62490082 0 0 0 0 -43842264.349716187 776982165.24307096 0 776982165.24307096 58435976.747314662 0 0 0 0 1406156091.2113392 213785575.80301037 0 213785575.80301037 -632108185.2575258 0 0 0 0 -47966724.788322449 801504299.54324198 0 801504299.54324198 17033072.225030899 0 0 0 0 56442.966416017909 2679171.3161113802 0 2679171.3161113802 -1494242.6230503994 0 0 0 0 189303990.46335602 33075496.567774296 0 33075496.567774296 4185062.5895957947 0 0 0 0 167856182.42192841 -17498113.064795971 0 -17498113.064795971 -106458867.14500618 0 0 0 0 63838074.401565552 -97114612.287614822 0 -97114612.287614822 -86841119.744010925 0 0 0 0 -214593032.3536377 -107914005.95061493 0 -107914005.95061493 810990.04297733307 0 0 0 0 673640.23564481363 711677.26036738115 0 711677.26036738115 -304836.52176243451 0 0 0 0 -1105095585.053627 673543906.69413424 0 673543906.69413424 -406244361.99095917 0 0 0 0 -55118344.064254761 687963549.39434242 0 687963549.39434242 1330819663.9424379 0 0 0 0 -211776897.30979919 989073825.82798004 0 989073825.82798004 12447374.038086474 0 0 0 0 127215254.14506531 1031871323.5097902 0 1031871323.5097902 13518576.41497333 0 0 0 0 -904395182.26570129 -340209731.3548708 0 -340209731.3548708 -853795672.99875379 0 0 0 0 90829711.70419693 1355257465.1544747 0 1355257465.1544747 -1456805790.2924647 0 0 0 0 175000871.35227203 187340049.68999332 0 187340049.68999332 -679954845.08042777 0 0 0 0 176477382.33743286 266508793.17599684 0 266508793.17599684 161976123.63137448 0 0 0 0 647529307.78242493 -387363871.46881783 0 -387363871.46881783 -160631129.92762583 0 0 0 0 -676906585.17794037 140145261.8974154 0 140145261.8974154 -139369224.38762188 0 0 0 0 -38149806.2918396 33729093.215973794 0 33729093.215973794 -241591827.75013065 0 0 0 0 -162796871.40952682 149813694.68381959 0 149813694.68381959 -256966081.02023029 0 0 0 0 -318123848.82807922 192602797.53894544 0 192602797.53894544 -242331918.13306826 0 0 0 0 -35263196.828231812 268069413.55535138 0 268069413.55535138 -369182593.4013145 0 0 0 0 -9732383.2035903931 253965614.00302541 0 253965614.00302541 -370903197.16885233 0 0 0 0 405524317.76444626 323403307.43313545 0 323403307.43313545 -523026943.45456648 0 0 0 0 186717958.71078491 387031134.40764982 0 387031134.40764982 -534558315.2942102 0 0 0 0 182214388.5697937 101665714.44287616 0 101665714.44287616 -362131658.36683416 0 0 0 0 85198573.343753815 153049190.76573712 0 153049190.76573712 -347962272.16288137 0 0 0 0 254086511.68515778 605556163.0273298 0 605556163.0273298 -977111224.17668366 0 0 0 0 -783391995.7053299 1239581599.9759481 0 1239581599.9759481 -851255985.61352468 0 0 0 0 -558251283.33866882 755895700.99484801 0 755895700.99484801 -589804670.5356555 0 0 0 0 -54759198.799667358 -152492768.94531 0 -152492768.94531 -545946941.23911607 0 0 0 0 -417451392.51954269 573403787.60228324 0 573403787.60228324 -357040355.59845972 0 0 0 0 548020.7940594852 42385.045547919348 0 42385.045547919348 -2314870.7222219184 0 0 0 0 -252781302.97822571 538215962.69230556 0 538215962.69230556 -257129755.69336438 0 0 0 0 -15409015.498176575 256428647.48073369 0 256428647.48073369 34134309.099461198 0 0 0 0 231672.44629989937 64991.213845010847 0 64991.213845010847 -851646.38069229154 0 0 0 0 -963347495.24102592 1085046818.6136379 0 1085046818.6136379 -520353645.4746083 0 0 0 0 675562065.91025543 -206594968.21406311 0 -206594968.21406311 -239939583.08170867 0 0 0 0 -193366957.00290203 257573795.05847874 0 257573795.05847874 -520793360.06116772 0 0 0 0 -529212760.40771484 265616813.18985188 0 265616813.18985188 -382506685.40465152 0 0 0 0 118255147.82222748 99133822.130431712 0 99133822.130431712 -534018100.31412315 0 0 0 0 -56024719.802463531 57440124.718931496 0 57440124.718931496 -132788252.53189611 0 0 0 0 111267230.38859558 -111099186.26487422 0 -111099186.26487422 -219701698.73812938 0 0 0 0 50133860.693756104 155179922.03787276 0 155179922.03787276 266003534.20036733 0 0 0 0 26434997.630279541 -20529160.622312069 0 -20529160.622312069 -61404801.030470431 0 0 0 0 97081908.473125458 779150558.33638847 0 779150558.33638847 -859452723.79935849 0 0 0 0 65430995.928467751 -78462264.715891361 0 -78462264.715891361 -224270802.53470817 0 0 0 0 115670406.6391449 193555243.90635931 0 193555243.90635931 -691706725.74145806 0 0 0 0 347127486.38499451 306882448.40874124 0 306882448.40874124 -677035234.16083241 0 0 0 0 90964525.072311401 214759857.41606218 0 214759857.41606218 -676597255.63195503 0 0 0 0 -61703795.632354736 145281315.9915297 0 145281315.9915297 -681572028.2332046 0 0 0 0 -89948989.59018898 28508577.937136948 0 28508577.937136948 -1053969185.0921092 0 0 0 0 -171055681.15846252 309914816.57239914 0 309914816.57239914 -418121676.36239457 0 0 0 0 90942028.576553345 325392796.28344274 0 325392796.28344274 -813159527.24766934 0 0 0 0 -154572097.97525787 373040016.70172638 0 373040016.70172638 -426441868.67265534 0 0 0 0 98368721.602966309 432897545.82422423 0 432897545.82422423 -409192955.4500277 0 0 0 0 148368755.79408264 180113983.29157168 0 180113983.29157168 -451011558.07004738 0 0 0 0 366578828.06327057 -185948585.63169599 0 -185948585.63169599 7620511.2092238665 0 0 0 0 -508166103.06881714 332790799.59791136 0 332790799.59791136 -167454420.03035331 0 0 0 0 -231291772.19559479 165061273.12516749 0 165061273.12516749 -257185628.02829963 0 0 0 0 -324683702.34133911 613943965.71081066 0 613943965.71081066 -936557294.9168191 0 0 0 0 111793289.41122437 357325110.13516021 0 357325110.13516021 -2225264078.91992 0 0 0 0 -571680735.65873718 1016673784.0777807 0 1016673784.0777807 -972221838.727144 0 0 0 0 -457243.31913157552 622439.36254768353 0 622439.36254768353 159668.25056482872 0 0 0 0 -472145021.58052158 502200196.86918676 0 502200196.86918676 603530995.37221599 0 0 0 0 -396954.62122923881 732712.08329742774 0 732712.08329742774 -913779.09386535175 0 0 0 0 -59043288.2688694 1421724775.4924176 0 1421724775.4924176 -464748730.67297792 0 0 0 0 289365802.79203033 -392510047.70802867 0 -392510047.70802867 -945801818.42523193 0 0 0 0 279543363.22608948 -313182764.03284168 0 -313182764.03284168 -1570184495.8478575 0 0 0 0 277102875.84013367 -62213242.672093391 0 -62213242.672093391 -107014066.03621043 0 0 0 0 535476330.46000671 -26083866.867272377 0 -26083866.867272377 -1004029033.7113075 0 0 0 0 -751903.32455468178 1463948.686426701 0 1463948.686426701 -1826616.4874954019 0 0 0 0 721647237.87836456 703562808.75402164 0 703562808.75402164 -91463854.725357324 0 0 0 0 662520982.07459641 401624729.61675012 0 401624729.61675012 -159974145.89478874 0 0 0 0 151357502.30397797 224375384.01063776 0 224375384.01063776 -126322977.82402939 0 0 0 0 316179259.11941528 -16278356.6098077 0 -16278356.6098077 -625854222.02687788 0 0 0 0 268808265.93908691 507114630.27832186 0 507114630.27832186 -1129117604.2236018 0 0 0 0 -85153033.765533447 270202086.80340326 0 270202086.80340326 -580676350.78686976 0 0 0 0 256133485.92383003 -24323930.917692989 0 -24323930.917692989 -374888267.12277412 0 0 0 0 -245999885.87404633 128703036.80753887 0 128703036.80753887 -112879589.02020383 0 0 0 0 -313534068.25792313 203616820.86735678 0 203616820.86735678 -246583622.33774543 0 0 0 0 -212102867.80618286 182180587.9095006 0 182180587.9095006 -245120225.31047744 0 0 0 0 -74504813.30122757 215618372.12945107 0 215618372.12945107 -340981201.90243959 0 0 0 0 -215254816.41324615 330091201.78936064 0 330091201.78936064 -428059642.83138585 0 0 0 0 -379985196.85367203 527864960.77638704 0 527864960.77638704 -523150871.53273129 0 0 0 0 -287332676.47775269 407314001.74932802 0 407314001.74932802 -368624010.91028821 0 0 0 0 -102883908.37522888 596240850.03457212 0 596240850.03457212 -760849943.21167803 0 0 0 0 96257310.173900604 523819441.85851312 0 523819441.85851312 -809292392.16137314 0 0 0 0 -1091886802.6099463 785361786.02378368 0 785361786.02378368 -456510229.91062903 0 0 0 0 -229540476.82911682 958347310.08750665 0 958347310.08750665 -1360054293.5481944 0 0 0 0 131717052.31131744 -137310608.0444932 0 -137310608.0444932 -1415431102.0795422 0 0 0 0 -36429520.513343811 140645867.57452488 0 140645867.57452488 -148449795.55823898 0 0 0 0 2955732.1767826341 1461548.382212763 0 1461548.382212763 -2071143.5710561366 0 0 0 0 -331717.44385127351 1209547.4784170911 0 1209547.4784170911 -1186707.6513110064 0 0 0 0 -51362973.884590149 253364305.05504513 0 253364305.05504513 138795486.28904235 0 0 0 0 1791002.5041598752 833414.50766035891 0 833414.50766035891 -1219309.9360294617 0 0 0 0 135514539.81492996 114512064.57054341 0 114512064.57054341 -593902484.12177682 0 0 0 0 121497590.38546753 630765496.92125273 0 630765496.92125273 -783198548.98578596 0 0 0 0 82329227.162155151 577562530.05361342 0 577562530.05361342 -545324642.21672189 0 0 0 0 255113755.70786285 354694420.98136854 0 354694420.98136854 -605624178.32695341 0 0 0 0 198316080.99238586 655814112.67170978 0 655814112.67170978 -783013567.0215354 0 0 0 0 128136690.9060421 878302292.73957336 0 878302292.73957336 -1488203255.7542415 0 0 0 0 -363125036.3030014 314211666.26345706 0 314211666.26345706 -596004853.43479824 0 0 0 0 -300676888.67569733 920564095.5157721 0 920564095.5157721 -777934994.12728024 0 0 0 0 63079516.517784119 616569866.68871951 0 616569866.68871951 -390928825.87509465 0 0 0 0 -16359304.960460663 468956662.33124542 0 468956662.33124542 -331425371.2787714 0 0 0 0 66683097.544002533 94765733.945396602 0 94765733.945396602 131239950.69523001 0 0 0 0 -55267603.740386963 611497486.41301322 0 611497486.41301322 -159826232.15940976 0 0 0 0 26202785.882913589 217573901.34731433 0 217573901.34731433 23285271.516863346 0 0 0 0 82045253.431747437 494442249.48358631 0 494442249.48358631 299687162.38054347 0 0 0 0 155942341.26615143 42394460.211915493 0 42394460.211915493 570616730.69165277 0 0 0 0 -115280980.85375214 296952722.6679343 0 296952722.6679343 667321856.41265941 0 0 0 0 908177.4908840619 356595.49729846691 0 356595.49729846691 -585424.42189526686 0 0 0 0 292789882.67951965 138900945.49579525 0 138900945.49579525 552962866.16860175 0 0 0 0 300785273.62098694 559304012.63057756 0 559304012.63057756 730163540.76257253 0 0 0 0 -144443463.48669434 262031103.57622814 0 262031103.57622814 1455647072.7232769 0 0 0 0 261618.97693145275 29763.560154542327 0 29763.560154542327 -145612.33041287001 0 0 0 0 242492224.21789551 50925530.81126973 0 50925530.81126973 -274710881.22760683 0 0 0 0 34589953.218572617 112161886.56793594 0 112161886.56793594 513472256.25390673 0 0 0 0 265308356.19441223 382818710.05731797 0 382818710.05731797 -50978001.442285538 0 0 0 0 -96776.790229797363 334601086.809793 0 334601086.809793 422783949.49121928 0 0 0 0 -36487573.535964966 120830440.03788114 0 120830440.03788114 -192645886.496979 0 0 0 0 337114.94971466064 477023210.21866727 0 477023210.21866727 -600426607.98214436 0 0 0 0 -66243372.280632019 243084683.06725931 0 243084683.06725931 -848826479.67376995 0 0 0 0 -355267.50624084473 448281729.47350407 0 448281729.47350407 -975243605.95313334 0 0 0 0 -102693809.61476135 369674074.48365736 0 369674074.48365736 -1023927431.0197678 0 0 0 0 45529236.077251434 451504259.86148977 0 451504259.86148977 -1129021783.7025013 0 0 0 0 -316250552.00552583 754530535.15850568 0 754530535.15850568 -868526938.12150478 0 0 0 0 -311958553.10654068 857428752.39903307 0 857428752.39903307 617955496.67409039 0 0 0 0 350640794.96602726 4885851.7429775 0 4885851.7429775 -1864458223.1219649 0 0 0 0 -392359.07800171524 722230.91938978992 0 722230.91938978992 -894088.17885590903 0 0 0 0 -301187980.39332581 671183023.22912741 0 671183023.22912741 -1085125468.7710004 0 0 0 0 -916917258.04172516 451673952.26869011 0 451673952.26869011 -335251052.00501251 0 0 0 0 738230867.21556723 143410311.21765277 0 143410311.21765277 -829083955.35830307 0 0 0 0 61018987.75198555 141974257.50504112 0 141974257.50504112 -1191803849.2802277 0 0 0 0 219367688.27918243 -166772744.38195992 0 -166772744.38195992 -598342221.41976595 0 0 0 0 97859953.518852234 73474942.481149673 0 73474942.481149673 -2404789391.5361061 0 0 0 0 -7571283.5817947388 548371945.96090698 0 548371945.96090698 -1995309223.7209702 0 0 0 0 -676778787.5434494 -264985214.67989683 0 -264985214.67989683 -1532342000.7335382 0 0 0 0 233896.09809875488 183458014.87303591 0 183458014.87303591 -1498774854.2613683 0 0 0 0 -41358830.730377197 493386358.17497158 0 493386358.17497158 -1131492217.2671299 0 0 0 0 -312406923.83885193 206557607.37960291 0 206557607.37960291 -1051940695.666111 0 0 0 0 7256817.7021026611 12882628.190811157 0 12882628.190811157 43600727.889353275 0 0 0 0 8116493.117515564 8627874.3575172424 0 8627874.3575172424 36525783.548843384 0 0 0 0 -9730425.9124145508 9338234.1211090088 0 9338234.1211090088 36511064.509996057 0 0 0 0 22546172.834480286 4967189.36977005 0 4967189.36977005 27829454.40738678 0 0 0 0 23449394.088943481 8269728.039431572 0 8269728.039431572 39733674.064117432 0 0 0 0 29795795.41217041 694361.00407218933 0 694361.00407218933 36625755.834396362 0 0 0 0 19520255.000480652 4288822.371427536 0 4288822.371427536 39513299.699508667 0 0 0 0 17523681.931793213 3027161.3337059021 0 3027161.3337059021 41001745.121734619 0 0 0 0 7421778.6423789859 -1445562.2233145684 0 -1445562.2233145684 39118657.822013855 0 0 0 0 25441640.371353149 4139569.6543960571 0 4139569.6543960571 39140982.923940659 0 0 0 0 55830367.532857895 5396282.1536560059 0 5396282.1536560059 -46172942.545398712 0 0 0 0 14608896.16372662 13206948.404747874 0 13206948.404747874 -6980578.0511910254 0 0 0 0 17549101.629989624 4414824.2426719666 0 4414824.2426719666 39537171.154655457 0 0 0 0 35973257.899715424 8150177.6745910645 0 8150177.6745910645 -25815444.334163666 0 0 0 0 57820599.680007458 -24009364.329792023 0 -24009364.329792023 -16088580.361358643 0 0 0 0 83457714.485445976 -8557281.7527160645 0 -8557281.7527160645 -39992047.156597137 0 0 0 0 108182435.04231238 10244439.95539093 0 10244439.95539093 -42125849.248006582 0 0 0 0 99276781.969611883 19792071.602310181 0 19792071.602310181 -10285602.312782288 0 0 0 0 105562374.21102214 24482321.40430069 0 24482321.40430069 -18194445.745178223 0 0 0 0 -22819012.448027372 24696420.492090583 0 24696420.492090583 -5823340.0720806122 0 0 0 0 67396281.09980011 71500577.778541565 0 71500577.778541565 28154533.21295166 0 0 0 0 33848175.984070778 -4663367.7079696655 0 -4663367.7079696655 -24055160.49804306 0 0 0 0 -20166813.906555176 35923300.162155151 0 35923300.162155151 18468100.591295242 0 0 0 0 21684393.393493652 16538611.372886658 0 16538611.372886658 43691330.009588718 0 0 0 0 14121773.77645874 4078327.6317634583 0 4078327.6317634583 40713245.264705658 0 0 0 0 12626130.434885856 13397029.624396382 0 13397029.624396382 -8719143.7084710971 0 0 0 0 -4047976.4235916138 18692333.956672668 0 18692333.956672668 65397559.997032166 0 0 0 0 -2036416.7795434734 14260637.306353483 0 14260637.306353483 989265.35386277921 0 0 0 0 13362876.74805069 38449994.499193192 0 38449994.499193192 -11748454.51292181 0 0 0 0 2429174.6669120789 18250689.055515289 0 18250689.055515289 -3261371.0935287476 0 0 0 0 2859156.5258858018 11825421.812139783 0 11825421.812139783 -6792628.757083117 0 0 0 0 4950842.558721656 9816433.4683750682 0 9816433.4683750682 2280818.6189304488 0 0 0 0 -1416564.2925801277 68942095.022803009 0 68942095.022803009 84000874.641407013 0 0 0 0 -6700501.0876731873 3766120.19161129 0 3766120.19161129 43172525.013065338 0 0 0 0 -8888117.9896316528 11672306.547657013 0 11672306.547657013 60871764.002443314 0 0 0 0 3686364.3356552124 13633275.336326599 0 13633275.336326599 23673530.02596283 0 0 0 0 -39438855.213142395 455540.74746608734 0 455540.74746608734 21053582.430810928 0 0 0 0 -107099397.8152647 75837312.370633602 0 75837312.370633602 25720548.250423431 0 0 0 0 39599760.650787354 34930391.185243607 0 34930391.185243607 28852839.994476318 0 0 0 0 44191312.111019135 70906614.170742989 0 70906614.170742989 -131956543.00608063 0 0 0 0 -5136395.1684112549 40873664.293014526 0 40873664.293014526 -111169611.15578747 0 0 0 0 -60164036.274645805 -49388931.578726768 0 -49388931.578726768 -70531268.868469238 0 0 0 0 -10450100.36680603 29242426.317653656 0 29242426.317653656 -25749769.772521973 0 0 0 0 17657773.475025177 7481629.0263671875 0 7481629.0263671875 -54625351.718284607 0 0 0 0 7483259.826675415 -10039250.214682579 0 -10039250.214682579 15390252.544933319 0 0 0 0 32441620.940696716 4855080.7358875275 0 4855080.7358875275 -3312235.572467804 0 0 0 0 12092586.014724731 5995785.8112282753 0 5995785.8112282753 281540.03454971313 0 0 0 0 34319313.497653961 3049664.6148872375 0 3049664.6148872375 -17076020.332588196 0 0 0 0 37321399.492530823 11910669.738672256 0 11910669.738672256 7360991.105887413 0 0 0 0 95961526.93019104 71817587.675174713 0 71817587.675174713 34393258.099437714 0 0 0 0 22382940.880264282 15409815.266056061 0 15409815.266056061 22523703.081919432 0 0 0 0 39126466.493091583 3499232.2439184189 0 3499232.2439184189 8795104.1535720825 0 0 0 0 6058192.8591495855 3977089.2837655265 0 3977089.2837655265 1725521.6441495726 0 0 0 0 37174860.889892578 188946.41647148132 0 188946.41647148132 3216050.7079334259 0 0 0 0 29784959.551681519 2233804.1608381271 0 2233804.1608381271 10950830.754398346 0 0 0 0 9479183.455104053 13268855.77079794 0 13268855.77079794 6408882.9949437482 0 0 0 0 -46223736.625072479 154821822.08789062 0 154821822.08789062 85785061.532175064 0 0 0 0 65013574.183425903 -21919512.576869965 0 -21919512.576869965 -55752865.630943298 0 0 0 0 96395328.712244987 -44145763.94839859 0 -44145763.94839859 -67564734.967121124 0 0 0 0 4357282.7942201514 1410656.1874403758 0 1410656.1874403758 -2899337.6401404822 0 0 0 0 -34482848.378940582 17566980.006809235 0 17566980.006809235 -7467562.3453531265 0 0 0 0 -48790239.454612732 31749830.614358425 0 31749830.614358425 1553583.2445333004 0 0 0 0 -66529805.390590668 -2482945.8668069839 0 -2482945.8668069839 7239417.1481714249 0 0 0 0 -4401513.9105834961 18489715.716090679 0 18489715.716090679 -17481496.396687508 0 0 0 0 1045353.3705062866 -23723733.44355011 0 -23723733.44355011 -13149041.700379848 0 0 0 0 5984515.4722213745 44742027.781587124 0 44742027.781587124 10953028.411486626 0 0 0 0 10090067.553181639 14233732.297741937 0 14233732.297741937 6039249.0686527491 0 0 0 0 12988457.458515167 32019358.639938354 0 32019358.639938354 1829359.9502449036 0 0 0 0 -5533664.7978274822 29745144.555676848 0 29745144.555676848 14803041.920688629 0 0 0 0 118633937.87928772 -101567975.00328875 0 -101567975.00328875 103405861.82399511 0 0 0 0 -76470.818690099753 9122327.6271151025 0 9122327.6271151025 1953838.0976162814 0 0 0 0 -9762992.9347076416 41339724.28504467 0 41339724.28504467 31492923.55600071 0 0 0 0 28663557.589630127 14830975.973544598 0 14830975.973544598 3685360.8448104858 0 0 0 0 38196188.673118591 1771319.8225698471 0 1771319.8225698471 3141362.1995820999 0 0 0 0 342425795.84068298 -65424101.307509899 0 -65424101.307509899 -108351821.40655899 0 0 0 0 283803069.87804794 320163242.86753845 0 320163242.86753845 -422813269.22770834 0 0 0 0 27889853.460700989 8214610.4813585281 0 8214610.4813585281 6835095.5411949158 0 0 0 0 24397200.105690002 13861366.386463165 0 13861366.386463165 19891958.146492004 0 0 0 0 32778046.952199936 5857670.3135623932 0 5857670.3135623932 37664560.124073029 0 0 0 0 833354.01687317807 1136538.7052336428 0 1136538.7052336428 1199278.9257020894 0 0 0 0 32967987.491706848 -3016900.205121994 0 -3016900.205121994 24082151.364906311 0 0 0 0 47468352.144943237 3732267.282951355 0 3732267.282951355 11061121.657473564 0 0 0 0 12511139.471927678 5238224.8045750093 0 5238224.8045750093 -4334033.0641128058 0 0 0 0 19706393.25213623 14977846.65852356 0 14977846.65852356 15413825.57226181 0 0 0 0 36708216.195587158 11297628.140266418 0 11297628.140266418 -8690786.2561340332 0 0 0 0 10035222.462196078 10184144.10206278 0 10184144.10206278 -360409.92632007261 0 0 0 0 4025353.930975914 6107645.1503969431 0 6107645.1503969431 -3655730.2560763359 0 0 0 0 8910864.091623906 9327884.5256483592 0 9327884.5256483592 -1293965.2569784923 0 0 0 0 4371573.6331176758 1119017.6916189194 0 1119017.6916189194 -3306114.5260906219 0 0 0 0 4003480.4246225357 3706599.772818327 0 3706599.772818327 -5629678.1950072274 0 0 0 0 5070258.6429224014 5577528.1574542522 0 5577528.1574542522 -5924528.3454360962 0 0 0 0 5734572.662191391 4138163.7869439125 0 4138163.7869439125 -8334038.6663088799 0 0 0 0 3074411.5918566016 2032005.2778462884 0 2032005.2778462884 -3487064.3207087042 0 0 0 0 10549721.353830669 16645030.445434311 0 16645030.445434311 1728098.3131692808 0 0 0 0 4918704.1979789734 6186639.1069021225 0 6186639.1069021225 -4163273.6846986413 0 0 0 0 -34321320.209194183 -4844421.05626297 0 -4844421.05626297 -24339995.363880157 0 0 0 0 9918898.8176010307 3774187.9269730635 0 3774187.9269730635 -7690514.5233132076 0 0 0 0 10939012.739792507 3573282.3354061004 0 3573282.3354061004 -7108137.6597821824 0 0 0 0 23704291.310031891 9706464.5015945435 0 9706464.5015945435 -3307959.7275848389 0 0 0 0 3740359.7283668518 1922451.5020727366 0 1922451.5020727366 -4054516.2333429456 0 0 0 0 11336123.646332636 6637726.2970992923 0 6637726.2970992923 -3217816.5802213205 0 0 0 0 1836096.9262084961 19126948.513053894 0 19126948.513053894 -29064882.132415771 0 0 0 0 -7518624.6490197182 11254672.247103691 0 11254672.247103691 -5420445.9881439209 0 0 0 0 17762332.08935833 21885819.762292862 0 21885819.762292862 -38376113.520591736 0 0 0 0 -7029517.0324392319 12963074.39655304 0 12963074.39655304 -13084729.259483337 0 0 0 0 6496365.2629396683 2770857.8112967503 0 2770857.8112967503 -5709399.9479994262 0 0 0 0 15017926.191095352 -11368785.084604263 0 -11368785.084604263 -40007078.820044398 0 0 0 0 17657751.458973542 16448875.068703309 0 16448875.068703309 -9942412.1210327148 0 0 0 0 11675470.211773302 5069838.1313993903 0 5069838.1313993903 -4097855.8394078068 0 0 0 0 6784667.1061657462 7993337.4186888756 0 7993337.4186888756 -772213.96287735458 0 0 0 0 49372836.70249939 -23333399.294107437 0 -23333399.294107437 -26241875.036265373 0 0 0 0 1637999.8516312935 910595.36664604209 0 910595.36664604209 -1391921.6551692635 0 0 0 0 34947681.055943489 -15760846.229019165 0 -15760846.229019165 -25968636.980388641 0 0 0 0 15250568.400056839 11239999.20676136 0 11239999.20676136 -33966807.904289246 0 0 0 0 -7077419.8321399689 -7816638.5996341705 0 -7816638.5996341705 11111166.529613495 0 0 0 0 54817614.569012642 -35760190.36365509 0 -35760190.36365509 -10544788.237148285 0 0 0 0 54905333.325013161 8812044.3900270462 0 8812044.3900270462 -10857158.703437805 0 0 0 0 95962598.539567947 75050546.499601364 0 75050546.499601364 -26993113.398620605 0 0 0 0 24117430.282885671 133413615.0483799 0 133413615.0483799 -530839.07750320435 0 0 0 0 -48209638.857175678 35349618.141525686 0 35349618.141525686 -30018341.396018982 0 0 0 0 31465474.678947449 761254.83047771454 0 761254.83047771454 -51435070.453762054 0 0 0 0 81452926.096552849 594736.0966835022 0 594736.0966835022 -51680016.637367249 0 0 0 0 -36407743.683891296 43988802.040143967 0 43988802.040143967 47151584.125572205 0 0 0 0 15638039.810806274 155300450.57032299 0 155300450.57032299 7443553.2508411407 0 0 0 0 36334053.572273254 145151262.39160919 0 145151262.39160919 -185539048.11180353 0 0 0 0 -20267240.226970673 90285122.916041374 0 90285122.916041374 -12720360.772284508 0 0 0 0 32934948.519683838 33238883.788420677 0 33238883.788420677 -10851758.037622452 0 0 0 0 61565965.065711975 13717303.124926567 0 13717303.124926567 -1323751.92786026 0 0 0 0 51802084.720584869 47394458.904294014 0 47394458.904294014 -54539460.251676083 0 0 0 0 138964049.85207558 1494830.7446227074 0 1494830.7446227074 -31062277.35692215 0 0 0 0 13687149.743213654 28114115.78461647 0 28114115.78461647 36847000.993364215 0 0 0 0 21236760.248085022 44963444.930822372 0 44963444.930822372 35027134.733478546 0 0 0 0 5152881.193402864 5974570.5546070617 0 5974570.5546070617 588139.36025025044 0 0 0 0 -30609839.97756958 75550685.2819767 0 75550685.2819767 78251633.611700058 0 0 0 0 -31964182.947994232 18266412.381404877 0 18266412.381404877 123719410.52163506 0 0 0 0 -32353079.555335045 38393762.615612507 0 38393762.615612507 54517526.687137604 0 0 0 0 -224114839.44441986 161040590.56391335 0 161040590.56391335 -137922618.4885025 0 0 0 0 -4911188.9114959463 1909823.9086774648 0 1909823.9086774648 2250357.3263048399 0 0 0 0 -120551716.1090641 172018120.2028141 0 172018120.2028141 -154122807.6513176 0 0 0 0 18618061.495414734 -53154125.262888908 0 -53154125.262888908 -318656131.45188904 0 0 0 0 -3496566.9662151337 -4709834.3243436813 0 -4709834.3243436813 -6440244.8959617615 0 0 0 0 74591039.50386095 49130936.674958229 0 49130936.674958229 -182188136.00656891 0 0 0 0 64465.885546038859 294425.36073499371 0 294425.36073499371 118872.18269523652 0 0 0 0 167076.05003434606 -598020.03612265596 0 -598020.03612265596 -1356130.0436898796 0 0 0 0 -51950526.299507141 29359465.205647469 0 29359465.205647469 162120891.5574826 0 0 0 0 -128750741.29159164 194883666.49368477 0 194883666.49368477 -68739478.518033981 0 0 0 0 -125358085.83487892 12985480.875083923 0 12985480.875083923 63096243.832978606 0 0 0 0 -144771092.20459473 -77168894.595694542 0 -77168894.595694542 -92382782.661563873 0 0 0 0 -79559104.871957779 104055548.6751461 0 104055548.6751461 -287253157.61921024 0 0 0 0 209416239.72112578 133826792.91387606 0 133826792.91387606 -4539154.0532016754 0 0 0 0 100982843.57919884 30963509.070390224 0 30963509.070390224 66674424.48249054 0 0 0 0 116659726.04781723 -22522956.572921753 0 -22522956.572921753 232464466.01978707 0 0 0 0 189917329.95814323 -40412195.343782425 0 -40412195.343782425 53676918.312599182 0 0 0 0 182308199.8447504 -17102877.511032104 0 -17102877.511032104 -13443281.401779175 0 0 0 0 5404471.8826141357 -30878909.533433914 0 -30878909.533433914 33040513.584653854 0 0 0 0 67560096.817254066 -18856889.561576843 0 -18856889.561576843 -1905802.0849952698 0 0 0 0 -8064.8119668969885 -39646.697466704994 0 -39646.697466704994 -350228.19637357979 0 0 0 0 145870756.47426414 -15761960.405510902 0 -15761960.405510902 -130851681.82771492 0 0 0 0 197455126.50432587 277822397.48361397 0 277822397.48361397 -39593970.015098572 0 0 0 0 48359792.420288086 303155478.85433197 0 303155478.85433197 196890879.27023315 0 0 0 0 -5752842.3569125338 12364966.817873623 0 12364966.817873623 -11914098.704494767 0 0 0 0 32373228.515636444 96825209.875377655 0 96825209.875377655 55517626.88243103 0 0 0 0 8674494.57380867 -20775289.951575279 0 -20775289.951575279 -11501752.424354553 0 0 0 0 -98900147.470569611 -18604119.529737473 0 -18604119.529737473 73063152.524932861 0 0 0 0 29475150.195398331 19995117.020078659 0 19995117.020078659 3350944.083732605 0 0 0 0 22231409.34606266 35184064.902402878 0 35184064.902402878 6300463.5086669922 0 0 0 0 16509234.146310806 26293914.726318359 0 26293914.726318359 252717.27407836914 0 0 0 0 8066595.1013031006 26824034.876472473 0 26824034.876472473 5099833.6379165649 0 0 0 0 -3999900.164262387 11832041.36710521 0 11832041.36710521 -11069240.128121356 0 0 0 0 15333313.402332306 25342645.052257538 0 25342645.052257538 1363373.5009174347 0 0 0 0 -26767205.9259758 47039342.773399353 0 47039342.773399353 42146390.448120117 0 0 0 0 132472925.97992039 164368238.53794861 0 164368238.53794861 35729784.591384888 0 0 0 0 -4954801.3718195427 7774013.8949469868 0 7774013.8949469868 4076771.8629886098 0 0 0 0 -46102578.703707546 117068818.5691731 0 117068818.5691731 4814247.6928482056 0 0 0 0 174323650.11469054 26729413.653100967 0 26729413.653100967 1618153.8890266418 0 0 0 0 1669252.1609802002 669472.60718928371 0 669472.60718928371 -1389564.3473536177 0 0 0 0 -4630829.9474674128 3746194.992629969 0 3746194.992629969 1786968.9925944991 0 0 0 0 169904211.27956688 37551268.554706573 0 37551268.554706573 4562196.3874893188 0 0 0 0 174373566.61449003 73632074.554330826 0 73632074.554330826 114015439.26226425 0 0 0 0 6558430.7345371246 21197350.278701782 0 21197350.278701782 -2225345.2558898926 0 0 0 0 -3159604.3523427574 13850056.441962877 0 13850056.441962877 -2868051.1187856114 0 0 0 0 -23424361.382778049 35631704.257389069 0 35631704.257389069 24756562.555873871 0 0 0 0 -101699725.44281638 -4523379.0895695686 0 -4523379.0895695686 41216854.351364136 0 0 0 0 164860276.46576405 63132446.852891922 0 63132446.852891922 -28125242.66286087 0 0 0 0 -1403227.0577141887 979868.09620880627 0 979868.09620880627 473825.41630418599 0 0 0 0 152332765.05644113 23048802.246620178 0 23048802.246620178 -41612368.852134705 0 0 0 0 13292209.778264046 -9568261.5813941956 0 -9568261.5813941956 -8351179.9812431335 0 0 0 0 140753360.40410757 -23236174.006977081 0 -23236174.006977081 -40656338.076631546 0 0 0 0 122640242.86867189 39392327.643356323 0 39392327.643356323 21742851.885478973 0 0 0 0 2016750.1625175476 19620732.163431168 0 19620732.163431168 137926.5479850769 0 0 0 0 1210028.2796401978 20918345.42905426 0 20918345.42905426 -160488.78449058533 0 0 0 0 7715193.1283454895 25389895.356246948 0 25389895.356246948 2868235.4182701111 0 0 0 0 309195.70706892014 26911162.820310593 0 26911162.820310593 6443652.1233825684 0 0 0 0 460699.73840332031 25877041.760757446 0 25877041.760757446 4577923.2276763916 0 0 0 0 7701998.2215459347 29761123.09199667 0 29761123.09199667 6422079.3986282349 0 0 0 0 -1503665.8571052551 26311589.037559509 0 26311589.037559509 11305856.650035858 0 0 0 0 -720025.75685119629 26609527.531745911 0 26609527.531745911 4131419.0480690002 0 0 0 0 -1413554.339381218 25984688.793703079 0 25984688.793703079 5336494.0727310181 0 0 0 0 -7828355.586359024 27376753.212993622 0 27376753.212993622 9290934.2643127441 0 0 0 0 -3300904.2578277588 28805780.377120972 0 28805780.377120972 5853297.3658599854 0 0 0 0 -6976140.0460929871 23159379.783031464 0 23159379.783031464 20624795.508300781 0 0 0 0 -19884822.220844269 37389767.606285095 0 37389767.606285095 9565751.6830024719 0 0 0 0 1008474.087928772 34390091.599726677 0 34390091.599726677 888978.08852386475 0 0 0 0 61563.900980429724 192659.07278485224 0 192659.07278485224 396677.22977859154 0 0 0 0 -18820771.045970917 21874305.047000885 0 21874305.047000885 35912628.122066498 0 0 0 0 -6302675.1396961212 54323375.195159912 0 54323375.195159912 9838592.6957778931 0 0 0 0 8539007.1159248352 21309328.989691734 0 21309328.989691734 29641646.713615417 0 0 0 0 2390327.7811126709 8385215.233291626 0 8385215.233291626 24473353.10865593 0 0 0 0 -7413955.3698577881 19420591.395654678 0 19420591.395654678 14685599.891365051 0 0 0 0 3452226.8682403564 10454064.509552002 0 10454064.509552002 9053009.777130127 0 0 0 0 -3011900.3121795654 19083820.789180756 0 19083820.789180756 5796315.8376731873 0 0 0 0 -4244857.7704162598 25612998.842212677 0 25612998.842212677 9801455.3873519897 0 0 0 0 -495587.78077602386 21944772.687150002 0 21944772.687150002 9045230.5530929565 0 0 0 0 -2211251.5274505615 16193268.172477722 0 16193268.172477722 15928238.129505157 0 0 0 0 -70430214.219543457 -17102774.501716614 0 -17102774.501716614 35819806.768100739 0 0 0 0 3976710.9061026573 18503880.431668282 0 18503880.431668282 9098256.2966842651 0 0 0 0 14543659.693069458 18565225.612316132 0 18565225.612316132 18781694.868898392 0 0 0 0 3165591.0820579529 24435148.766708374 0 24435148.766708374 33495868.443870068 0 0 0 0 5001293.0642871857 25193846.892951965 0 25193846.892951965 14210022.772930145 0 0 0 0 8964157.5106716156 12173891.650468826 0 12173891.650468826 31305711.414855957 0 0 0 0 7153936.0001659393 1996708.46185112 0 1996708.46185112 9495269.7335968018 0 0 0 0 6953393.6687507629 21031614.327709198 0 21031614.327709198 26916282.459899902 0 0 0 0 271699.15712434147 427493.5410000328 0 427493.5410000328 588811.14684921503 0 0 0 0 265954.98291384801 614072.23082219437 0 614072.23082219437 1202316.6619986743 0 0 0 0 10616533.748161316 9778544.0764694214 0 9778544.0764694214 16739626.13274765 0 0 0 0 2062405.916103363 11288374.470466614 0 11288374.470466614 16551187.92301178 0 0 0 0 13164514.688205719 9539424.6130867004 0 9539424.6130867004 17691663.715454102 0 0 0 0 1350323.5071144104 13528748.362316132 0 13528748.362316132 16415159.502483368 0 0 0 0 7834449.3604478836 21995793.564619541 0 21995793.564619541 32548664.8800354 0 0 0 0 591355.15730330721 1129498.5653423108 0 1129498.5653423108 2149499.6401665024 0 0 0 0 874121.59321078751 1394693.9474883806 0 1394693.9474883806 1861639.3102257513 0 0 0 0 5597538.5502603054 4241830.0210707188 0 4241830.0210707188 19778638.881187439 0 0 0 0 1044331.2181064896 1812610.6146007758 0 1812610.6146007758 3414545.3027728535 0 0 0 0 7633008.2203350067 22337235.98227787 0 22337235.98227787 26983697.610565186 0 0 0 0 1327071.2159347534 4089001.6843070984 0 4089001.6843070984 22758549.568698883 0 0 0 0 8929769.0639801025 23364479.462989807 0 23364479.462989807 19635825.767974854 0 0 0 0 11287376.199134827 12212360.261863708 0 12212360.261863708 22197006.464630127 0 0 0 0 -35285870.035762787 67055407.760650635 0 67055407.760650635 93555673.123947144 0 0 0 0 5567210.6867408752 20030425.373577714 0 20030425.373577714 10602784.092968941 0 0 0 0 9903985.6990966797 15711581.06080246 0 15711581.06080246 15421128.595775604 0 0 0 0 5869973.7164916992 15867614.924798489 0 15867614.924798489 2858653.7019109726 0 0 0 0 14014419.567111969 11355184.05280304 0 11355184.05280304 -29975.310203552246 0 0 0 0 8277498.9257555306 9812400.4440709446 0 9812400.4440709446 -4410619.057315113 0 0 0 0 3815125.0537490845 16664163.246429443 0 16664163.246429443 5269484.1432409286 0 0 0 0 7391300.5339536667 10354268.288407221 0 10354268.288407221 8832880.0163171291 0 0 0 0 11430705.053871155 8490530.7298564911 0 8490530.7298564911 -1253150.2504577637 0 0 0 0 6928773.5900798049 10359068.079682704 0 10359068.079682704 -3887870.5433385028 0 0 0 0 5995982.3101272583 12585238.193155527 0 12585238.193155527 6673298.4418263435 0 0 0 0 5333062.3673820496 12083985.778413296 0 12083985.778413296 4298546.2499680519 0 0 0 0 1442332.4080886841 11138996.85378027 0 11138996.85378027 6349416.6498951912 0 0 0 0 5218177.5731344223 9569324.9571503401 0 9569324.9571503401 -3147619.5392923355 0 0 0 0 596797.76707839966 9261212.5017170906 0 9261212.5017170906 2811909.1903810501 0 0 0 0 2008676.6403694153 13105060.191822529 0 13105060.191822529 1631136.3986816406 0 0 0 0 3016786.7652435303 10346162.541687965 0 10346162.541687965 -3884976.6390953064 0 0 0 0 6177762.6461715698 14592102.89507103 0 14592102.89507103 7086150.9786548615 0 0 0 0 440944.65673065186 11555966.011169434 0 11555966.011169434 6379199.2477397919 0 0 0 0 2496006.374786377 13328094.931594849 0 13328094.931594849 6630238.2121658325 0 0 0 0 2725050.8160171509 14744866.33697176 0 14744866.33697176 8250955.9157657623 0 0 0 0 524065.2371673584 9191182.2762413025 0 9191182.2762413025 3977191.2395248413 0 0 0 0 1166155.7639160156 11227360.392000437 0 11227360.392000437 7909992.3459625244 0 0 0 0 1359764.4472961426 12681495.972258568 0 12681495.972258568 10959189.70999527 0 0 0 0 6720798.4851904474 5069537.2064641863 0 5069537.2064641863 -2963904.9694742872 0 0 0 0 2034124.8504333496 14901105.092110634 0 14901105.092110634 9769592.3331362009 0 0 0 0 967265.84776306152 14377804.851266384 0 14377804.851266384 9638141.5250711441 0 0 0 0 6742742.7333297729 11574182.237888336 0 11574182.237888336 10455131.314525843 0 0 0 0 5081672.91822052 8715240.7929446697 0 8715240.7929446697 9930044.0606074333 0 0 0 0 5492006.451965332 9884206.1599560976 0 9884206.1599560976 12790076.82247591 0 0 0 0 420099.10770797729 15376359.99338913 0 15376359.99338913 5401102.0399384499 0 0 0 0 5535339.166469574 8608596.8143239021 0 8608596.8143239021 9520082.9770874977 0 0 0 0 4224804.4702584445 11084503.341224058 0 11084503.341224058 -4993539.6454929523 0 0 0 0 1375057.5969047546 14845645.724872589 0 14845645.724872589 2325198.2873077393 0 0 0 0 5295888.7968578339 11613093.19745636 0 11613093.19745636 4192204.1428222656 0 0 0 0 5578526.3305753507 10694057.583280431 0 10694057.583280431 -4073822.9976889403 0 0 0 0 5656455.6705245972 8014655.8093166351 0 8014655.8093166351 9620423.0290436298 0 0 0 0 5646661.1854782104 9869484.7466533184 0 9869484.7466533184 6557265.3760681152 0 0 0 0 5928093.8011817932 8292417.666336298 0 8292417.666336298 8315225.3783679008 0 0 0 0 3455330.110496521 8800451.675825119 0 8800451.675825119 6173909.4044678211 0 0 0 0 4574410.2964019775 8087321.0409793854 0 8087321.0409793854 100839.09643363953 0 0 0 0 6506283.0277252197 10372041.686264515 0 10372041.686264515 1793877.1443257332 0 0 0 0 5548440.1833913885 8275414.8544439385 0 8275414.8544439385 -3961725.9857782735 0 0 0 0 82551624.287757874 64706064.959144592 0 64706064.959144592 13247098.354722977 0 0 0 0 6543661.8980979919 10454492.936843395 0 10454492.936843395 5121257.5429234505 0 0 0 0 6393414.1919183731 10462519.107769847 0 10462519.107769847 5146529.3287582397 0 0 0 0 63522406.874671936 139662377.9518261 0 139662377.9518261 45020717.037033081 0 0 0 0 5469034.9459603373 8720561.9446176626 0 8720561.9446176626 -1810982.556648707 0 0 0 0 90509146.384204865 31805982.867603302 0 31805982.867603302 -60750206.882324219 0 0 0 0 51901769.747459412 29698112.235822678 0 29698112.235822678 23631067.422784567 0 0 0 0 28995035.164608002 18656545.132723808 0 18656545.132723808 -4543236.945098877 0 0 0 0 44045401.735427856 2962393.2954397202 0 2962393.2954397202 -25433109.822666168 0 0 0 0 13883162.311683655 6088720.1070346832 0 6088720.1070346832 -13626912.675964355 0 0 0 0 27811033.407310486 -1546551.0961093903 0 -1546551.0961093903 1227893.3041772842 0 0 0 0 524806.76019560546 76073.183398772031 0 76073.183398772031 -901815.87931997702 0 0 0 0 45927796.67098999 12979717.216400146 0 12979717.216400146 -16335439.637729645 0 0 0 0 47520203.158699036 3813528.3478364944 0 3813528.3478364944 14192561.340606689 0 0 0 0 80433321.33228302 43842687.906808853 0 43842687.906808853 -6276448.5981695652 0 0 0 0 75371417.549171448 5162137.1370582581 0 5162137.1370582581 -8770595.319858551 0 0 0 0 48122761.621353149 13426266.823495865 0 13426266.823495865 -35277730.42206192 0 0 0 0 69047725.007055998 15064240.689756393 0 15064240.689756393 -60870870.505615234 0 0 0 0 69325796.774971008 20664917.83455658 0 20664917.83455658 -13437891.730247498 0 0 0 0 3745337.9147338867 9981612.9805698395 0 9981612.9805698395 -603820.36634492874 0 0 0 0 -91050.021752299741 321577.79272256233 0 321577.79272256233 -826454.1680620471 0 0 0 0 5635948.1206988171 8406160.121815443 0 8406160.121815443 -4857409.4953083619 0 0 0 0 47265775.541637421 2749784.7749109268 0 2749784.7749109268 -13756260.700632095 0 0 0 0 4784757.5679454803 11231804.937271357 0 11231804.937271357 -3997013.3567047119 0 0 0 0 15742191.315441132 13300949.365851402 0 13300949.365851402 -29005729.501356125 0 0 0 0 1781467.3908263631 2505289.2531968225 0 2505289.2531968225 -3423539.8195029357 0 0 0 0 2605550.4189836718 6261131.6022210773 0 6261131.6022210773 -1355230.5355111645 0 0 0 0 -2173423.4105606079 1666407.8409957886 0 1666407.8409957886 -13647589.862365723 0 0 0 0 8672351.4775362015 -6244106.7585139275 0 -6244106.7585139275 -7911664.7863616943 0 0 0 0 47712632.856945038 53062781.373835564 0 53062781.373835564 29931469.297981262 0 0 0 0 96363616.301879883 -21682733.786125183 0 -21682733.786125183 -57790213.687725067 0 0 0 0 -56621307.377288818 -28592704.87115097 0 -28592704.87115097 -6390911.3833217621 0 0 0 0 504752.87563217618 793707.36883776844 0 793707.36883776844 -1023542.2288774638 0 0 0 0 11606320.284172058 23216720.708936691 0 23216720.708936691 7317744.9386615753 0 0 0 0 59758240.428070068 36508723.529628754 0 36508723.529628754 -8459692.5857448578 0 0 0 0 53331448.068294525 32892358.307200432 0 32892358.307200432 -10491044.530891418 0 0 0 0 33710349.200359344 -8160532.0067381859 0 -8160532.0067381859 -13150973.063816071 0 0 0 0 64870498.257568359 30040354.604545593 0 30040354.604545593 -12432059.624843597 0 0 0 0 -4424475.2757263184 4758004.1206245422 0 4758004.1206245422 -7436138.494644165 0 0 0 0 -821627.94373083115 1431288.0342751052 0 1431288.0342751052 -1163497.3806975149 0 0 0 0 -8665768.4087429047 9771037.3645467758 0 9771037.3645467758 -11134650.660320282 0 0 0 0 -10763593.466659546 4109903.9416999817 0 4109903.9416999817 -558712.2791223526 0 0 0 0 -6482787.3859710693 138006533.83743668 0 138006533.83743668 -47393911.709026337 0 0 0 0 9596164.8019676208 24888617.159883499 0 24888617.159883499 -37320744.610790253 0 0 0 0 -448229.47172976099 863424.94081698731 0 863424.94081698731 -235422.62038972764 0 0 0 0 -72495715.297454834 -28216163.769111633 0 -28216163.769111633 113334796.92572784 0 0 0 0 65045959.35482204 54101625.36826399 0 54101625.36826399 14273600.875152588 0 0 0 0 103774647.37633514 58846903.49997139 0 58846903.49997139 8839547.5020866394 0 0 0 0 -53997618.658203125 -13511951.230104446 0 -13511951.230104446 23362113.446205139 0 0 0 0 85009011.287376404 7960912.5578689575 0 7960912.5578689575 -10366999.760779858 0 0 0 0 -385242.44118645415 472051.65588488337 0 472051.65588488337 -247278.17383560073 0 0 0 0 -97193849.177764893 59666165.404470444 0 59666165.404470444 86190316.442993164 0 0 0 0 80493005.609039307 167166711.85108948 0 167166711.85108948 109466485.52758026 0 0 0 0 165027881.28236389 -38760586.994846344 0 -38760586.994846344 87100111.281595945 0 0 0 0 57773517.069915771 76927673.14497757 0 76927673.14497757 94772447.580253601 0 0 0 0 671576.84481529333 340739.68671248946 0 340739.68671248946 -1228061.252065408 0 0 0 0 -10505538.2735672 33431101.944217682 0 33431101.944217682 80308307.269790649 0 0 0 0 -10282087.16859436 906236.70437908173 0 906236.70437908173 31815001.3195858 0 0 0 0 4064993.2682304382 1079611.4322729111 0 1079611.4322729111 -1211296.3391876221 0 0 0 0 45019268.93724823 35776973.766385555 0 35776973.766385555 12809084.092094421 0 0 0 0 1591409.9450836182 -1515995.138053894 0 -1515995.138053894 2159184.7481842041 0 0 0 0 2946746.4132232666 -1827315.0315570831 0 -1827315.0315570831 240799.15578842163 0 0 0 0 2639689.5177116394 -1111454.2247343063 0 -1111454.2247343063 -1311282.9832038879 0 0 0 0 4831558.2581710815 2497722.9265594482 0 2497722.9265594482 2885088.2928738594 0 0 0 0 28001745.798782349 22755230.098175049 0 22755230.098175049 1165061.988079071 0 0 0 0 45553735.596366882 36160552.90164566 0 36160552.90164566 -12016982.210136414 0 0 0 0 56778434.595409393 40452385.107780457 0 40452385.107780457 -7688567.8486557007 0 0 0 0 46196255.657348633 34114313.357849121 0 34114313.357849121 -5976523.7919597626 0 0 0 0 42899175.02897644 32162575.952236176 0 32162575.952236176 -6429225.4948616028 0 0 0 0 45248740.219558716 26418242.265672684 0 26418242.265672684 -18490693.500255585 0 0 0 0 -6373062.0106506348 30664995.152977228 0 30664995.152977228 9178394.4883737564 0 0 0 0 24688671.316604614 30376231.843059063 0 30376231.843059063 2637702.1205060482 0 0 0 0 15124965.164035797 55656315.458313167 0 55656315.458313167 30119297.021917343 0 0 0 0 31694446.286956787 29216029.649947405 0 29216029.649947405 -45760419.451869488 0 0 0 0 -4333202.2092285156 29763551.540172428 0 29763551.540172428 -45255354.077153683 0 0 0 0 20553270.015945435 28647675.635640979 0 28647675.635640979 -94250582.67256999 0 0 0 0 19107832.016204834 12225034.342490911 0 12225034.342490911 -24868391.374884315 0 0 0 0 -8894274.1167106628 86988339.84129712 0 86988339.84129712 -45845101.120669365 0 0 0 0 -33158933.548858643 23246665.449066639 0 23246665.449066639 -24667607.477269173 0 0 0 0 -2296949.8955841064 44990844.828065872 0 44990844.828065872 19342035.284953117 0 0 0 0 22173869.142723083 36129971.404442549 0 36129971.404442549 20811493.29158926 0 0 0 0 -1117957.1666619722 622640.35060891509 0 622640.35060891509 -223304.47882148903 0 0 0 0 -26394017.995986938 17622347.422097683 0 17622347.422097683 -5452367.2503364086 0 0 0 0 -5491667.0871887207 -5683593.6397619247 0 -5683593.6397619247 1521891.4784536362 0 0 0 0 -49200746.463647842 28845618.027069211 0 28845618.027069211 2869515.6639242172 0 0 0 0 -38166994.549575806 -148220.57804679871 0 -148220.57804679871 17928136.55489707 0 0 0 0 -101741.89602658153 6162239.2029338423 0 6162239.2029338423 1360986.8230851919 0 0 0 0 -2575200.9710922241 5562978.7322006226 0 5562978.7322006226 -5040113.1728610992 0 0 0 0 5889979.9951095749 3645933.7204463715 0 3645933.7204463715 -4405184.1151392609 0 0 0 0 42817378.738222122 82118329.301295519 0 82118329.301295519 -51756369.96168375 0 0 0 0 1307598.2084655389 5682116.8664656375 0 5682116.8664656375 -739109.76903138356 0 0 0 0 69416.378829956055 3420334.5222201347 0 3420334.5222201347 -3342609.5859012604 0 0 0 0 -173724.99871826172 3489901.6261930466 0 3489901.6261930466 -2213595.7340865135 0 0 0 0 3916950.0758996233 5364580.1999094924 0 5364580.1999094924 -3137682.1202201457 0 0 0 0 -131391.29853820801 4070498.609254837 0 4070498.609254837 -2980444.6165237427 0 0 0 0 -182975.86807250977 3903108.3959612846 0 3903108.3959612846 -2451232.6919226646 0 0 0 0 1170297.3313461207 4389482.2516388167 0 4389482.2516388167 -1650489.0773994364 0 0 0 0 -3754652.85998106 8521304.8123135567 0 8521304.8123135567 -7864093.3342227936 0 0 0 0 1815952.8549499512 3523007.685546875 0 3523007.685546875 189191.72425842285 0 0 0 0 -1527797.3573387973 2507034.1576509387 0 2507034.1576509387 -781197.65232769982 0 0 0 0 29391506.309249878 -14336980.984718323 0 -14336980.984718323 -198151963.01524162 0 0 0 0 -47924804.129798889 232926555.30300522 0 232926555.30300522 201077811.71801376 0 0 0 0 289358917.0437355 -189772956.3797102 0 -189772956.3797102 -106564665.2912674 0 0 0 0 -172206741.27757263 -102939393.26952171 0 -102939393.26952171 218978446.766222 0 0 0 0 -211344984.93557739 2786202.2629985809 0 2786202.2629985809 54677606.767421722 0 0 0 0 203581.51249694824 1424106.576128006 0 1424106.576128006 -454134.5832195282 0 0 0 0 -512295.61622533761 2433436.282356197 0 2433436.282356197 -2420141.2401957801 0 0 0 0 -54448876.717773438 -15122614.305213928 0 -15122614.305213928 -71347917.940689087 0 0 0 0 410388.35822486877 1770328.0503749847 0 1770328.0503749847 -397831.98239135742 0 0 0 0 -3303660.3915721886 2170146.355180189 0 2170146.355180189 -354275.4768350129 0 0 0 0 128205.69299316406 2065214.6528511047 0 2065214.6528511047 -137653.84159851074 0 0 0 0 -644544.56209624559 4460466.6466336511 0 4460466.6466336511 -1665076.1262086253 0 0 0 0 885111.92525938153 4575091.8846159 0 4575091.8846159 -1630716.3471830604 0 0 0 0 -4345749.3226568876 2897993.1931705754 0 2897993.1931705754 -41679.221714793704 0 0 0 0 1032901.4277114868 3385170.1344976425 0 3385170.1344976425 330433.62092399597 0 0 0 0 1732569.5551757812 3446499.1759033203 0 3446499.1759033203 320329.04731941223 0 0 0 0 -6842363.3897086009 5732064.6869765557 0 5732064.6869765557 -447065.3477728531 0 0 0 0 3416289.9629516602 2034119.6364660263 0 2034119.6364660263 15500.505413532257 0 0 0 0 -799422.11144121364 3097029.4248786597 0 3097029.4248786597 -1243506.2011646747 0 0 0 0 -5081788.2568394504 4331854.3052758556 0 4331854.3052758556 -648249.2850177763 0 0 0 0 -538836.28676795959 2864242.9906835556 0 2864242.9906835556 -638070.26668357849 0 0 0 0 1858854.6594085693 28961336.882307053 0 28961336.882307053 18794257.034814358 0 0 0 0 -875714.83804321289 1955485.0124998093 0 1955485.0124998093 1059067.9576990604 0 0 0 0 609383.60750843957 1573730.2468783194 0 1573730.2468783194 -430998.31109608477 0 0 0 0 -564960.59125900269 1807134.6377475262 0 1807134.6377475262 -177034.40954303741 0 0 0 0 -406327.15876061097 1045436.8481107121 0 1045436.8481107121 -13211.126197798876 0 0 0 0 -6973250.0118865967 30288309.169656754 0 30288309.169656754 50021690.998216152 0 0 0 0 -3353779.605255127 51393040.202013969 0 51393040.202013969 129039385.58797359 0 0 0 0 39422167.816879272 302148554.34277725 0 302148554.34277725 -538615884.82551908 0 0 0 0 41635482.144325256 347993607.55431461 0 347993607.55431461 -415322665.38285065 0 0 0 0 1563857.6381645203 193356880.36600614 0 193356880.36600614 -377552606.96656609 0 0 0 0 -85225345.884155273 182072690.86965942 0 182072690.86965942 -367749707.06957245 0 0 0 0 229077.07497860864 2000316.1890747247 0 2000316.1890747247 -615003.51917892462 0 0 0 0 -64826121.827972412 252151671.58235168 0 252151671.58235168 -428741085.7930088 0 0 0 0 -89982731.091873169 230304648.18394279 0 230304648.18394279 -225081616.28407097 0 0 0 0 158959818.67883301 106502338.75604343 0 106502338.75604343 -310163542.51296425 0 0 0 0 220601.43746317923 42637.409344037995 0 42637.409344037995 -166985.81561187888 0 0 0 0 -25055663.798278809 177573722.28570843 0 177573722.28570843 -189488059.69581223 0 0 0 0 -367726508.16749573 318429480.34475708 0 318429480.34475708 -216487737.65248108 0 0 0 0 -82217903.618400574 452268434.36808062 0 452268434.36808062 -361710203.51760674 0 0 0 0 -384514144.5063324 600857375.52581215 0 600857375.52581215 -402689048.72141647 0 0 0 0 -136638597.53550911 58427154.175209522 0 58427154.175209522 -230013864.38986588 0 0 0 0 -43304989.230213165 119256065.04126263 0 119256065.04126263 -191484854.25678158 0 0 0 0 -105801445.8562355 -4196329.9301137924 0 -4196329.9301137924 28042262.511693954 0 0 0 0 1505875.0734580904 1794473.4898374691 0 1794473.4898374691 -1683941.3928788016 0 0 0 0 -211479284.73421478 106979045.5853014 0 106979045.5853014 -22925737.047550201 0 0 0 0 378140785.70822144 288257808.55945587 0 288257808.55945587 -275350464.85194588 0 0 0 0 8053842.6558647156 8342046.9842910767 0 8342046.9842910767 -3663281.4432549477 0 0 0 0 61829.690123666078 2108208.8254272589 0 2108208.8254272589 -628884.40028320905 0 0 0 0 3915733.8496017456 12675469.987927437 0 12675469.987927437 6863834.3783226013 0 0 0 0 716179.24360592477 2236835.7083503958 0 2236835.7083503958 -2853062.9299565097 0 0 0 0 490376.60935213324 1849399.4646196775 0 1849399.4646196775 -2140057.330771816 0 0 0 0 60683859.367713928 -2411487.3528242111 0 -2411487.3528242111 -22438800.998121262 0 0 0 0 -430036139.88877106 500273111.44933987 0 500273111.44933987 -265841557.51320648 0 0 0 0 -504213193.20708466 458980483.6266489 0 458980483.6266489 -281075365.10704947 0 0 0 0 -472807374.6057663 271887357.75364399 0 271887357.75364399 156314079.30889988 0 0 0 0 -501213758.20874023 99743554.657792091 0 99743554.657792091 -199640210.96310616 0 0 0 0 -408962755.53156281 525369048.35522032 0 525369048.35522032 -456981548.299757 0 0 0 0 123021227.83701324 605179347.65505219 0 605179347.65505219 -628221478.3920393 0 0 0 0 -164773.16718666628 412086.62181085534 0 412086.62181085534 -535325.97021524934 0 0 0 0 678622097.2314682 376193610.38737249 0 376193610.38737249 -545682582.62486672 0 0 0 0 -621806311.84377289 572206493.88569736 0 572206493.88569736 -61427257.882034302 0 0 0 0 -1043224.4819107056 270245606.86573505 0 270245606.86573505 279537922.51690388 0 0 0 0 413624068.25875092 -38346934.002095222 0 -38346934.002095222 -107612753.43615055 0 0 0 0 344043682.45988464 241998124.00797272 0 241998124.00797272 -526744860.19382572 0 0 0 0 97980248.486449242 251953151.07129866 0 251953151.07129866 -353157805.03963661 0 0 0 0 -32805435.811271667 57419062.153346062 0 57419062.153346062 -55954496.962985992 0 0 0 0 -45245194.581985474 9736436.2464065552 0 9736436.2464065552 -2332098.3178739548 0 0 0 0 247058.70299043134 340429.06683474104 0 340429.06683474104 -360077.66554147843 0 0 0 0 995947.63361064531 248572.3249515919 0 248572.3249515919 -467.34377017151564 0 0 0 0 815719.5419921875 682726.55646133423 0 682726.55646133423 -1741112.4570083618 0 0 0 0 388024.24134063721 652725.5548286438 0 652725.5548286438 -997502.96706008911 0 0 0 0 862514.45689487457 570400.40353274345 0 570400.40353274345 -944502.94415664673 0 0 0 0 650297.34702301025 164647.02630996704 0 164647.02630996704 -116043.52376556396 0 0 0 0 1285195.0070802942 47634.282596529927 0 47634.282596529927 -342895.97227618448 0 0 0 0 987762.40243530273 35046.454347610474 0 35046.454347610474 -827227.40013694763 0 0 0 0 121588.81098937988 327069.27797698975 0 327069.27797698975 -156991.03077316284 0 0 0 0 1166044.0532538164 234583.47782066045 0 234583.47782066045 -397343.03618097142 0 0 0 0 213245.26203918457 -5612.8740119934082 0 -5612.8740119934082 -1196256.3983306885 0 0 0 0 -392150.34053039551 806737.4419708252 0 806737.4419708252 -1061224.6473388672 0 0 0 0 1405286.0850830078 386883.59664154053 0 386883.59664154053 -1247455.7085113525 0 0 0 0 11205.734840362333 -4915.4792975941673 0 -4915.4792975941673 -7800.4218103280291 0 0 0 0 102841304.89732361 12993115.515674591 0 12993115.515674591 -30220289.687023163 0 0 0 0 230110.68839645386 1015637.277100563 0 1015637.277100563 -1856530.5805358887 0 0 0 0 364278.27693557739 1218225.36444664 0 1218225.36444664 -1856519.0268249512 0 0 0 0 1402863.5394650549 33404.912667443044 0 33404.912667443044 -71993.558538112324 0 0 0 0 348503.1907879971 1385850.3242623587 0 1385850.3242623587 -650930.98749937117 0 0 0 0 55751581.737350464 56016701.863948822 0 56016701.863948822 5732661.8295936584 0 0 0 0 34939683.949256897 40979669.763395309 0 40979669.763395309 86144579.572547913 0 0 0 0 -80296205.86725235 45792699.90002203 0 45792699.90002203 -15903032.155563354 0 0 0 0 -173161236.13568115 235893560.33320236 0 235893560.33320236 -297830606.55727959 0 0 0 0 -10605.082691818476 67243.034372274298 0 67243.034372274298 -28696.76817715494 0 0 0 0 65387471.04737854 88446480.281272888 0 88446480.281272888 77078647.074549675 0 0 0 0 -77950606.735061646 -96176842.041402817 0 -96176842.041402817 -268750122.3057251 0 0 0 0 190102415.91149902 38216566.869476318 0 38216566.869476318 -201369484.29226685 0 0 0 0 -114541671.16923523 18082765.230384827 0 18082765.230384827 261170401.45129013 0 0 0 0 -23852830.568847656 61161226.60244751 0 61161226.60244751 -141968634.53845215 0 0 0 0 86148.276202253997 649974.45162487403 0 649974.45162487403 -221598.97897400893 0 0 0 0 442108.18270722777 515043.88248271402 0 515043.88248271402 41457.89318515826 0 0 0 0 -23783688.98626709 -35044181.069103241 0 -35044181.069103241 106687075.93429565 0 0 0 0 -247074959.38737488 -441369284.21477127 0 -441369284.21477127 86770127.00088501 0 0 0 0 264807475.86367798 29317607.714490891 0 29317607.714490891 -46446662.946540833 0 0 0 0 25378453.81880188 47311761.737096786 0 47311761.737096786 38931487.876289368 0 0 0 0 47744666.231216431 13568866.14984417 0 13568866.14984417 -11080520.400651932 0 0 0 0 94995222.052368164 35695938.691577911 0 35695938.691577911 -31467477.54473877 0 0 0 0 32202229.884368896 -11833793.760280609 0 -11833793.760280609 -35607220.702933311 0 0 0 0 42974636.56778717 20211950.529537201 0 20211950.529537201 -42305013.557346344 0 0 0 0 47418936.47743988 6961189.8885478973 0 6961189.8885478973 -34284438.909189582 0 0 0 0 -12125338.5831604 65756933.143238068 0 65756933.143238068 -71139724.231420517 0 0 0 0 15029304.445426941 10911963.09528923 0 10911963.09528923 -34467901.083847046 0 0 0 0 4155969.6194400787 41993406.692194462 0 41993406.692194462 -51118538.888660431 0 0 0 0 32151465.406799316 11086384.198783875 0 11086384.198783875 -49001734.5618577 0 0 0 0 25557117.499221802 19146749.137252808 0 19146749.137252808 -28812681.893417358 0 0 0 0 29566458.581207275 -21762716.158092499 0 -21762716.158092499 -35190732.154239893 0 0 0 0 32823613.960224152 1450422.8274297714 0 1450422.8274297714 22631578.285263062 0 0 0 0 54241047.528495789 33395538.501184464 0 33395538.501184464 83390418.093608379 0 0 0 0 7199263.8732948303 46242640.8490417 0 46242640.8490417 80099612.703205109 0 0 0 0 13473431.032726526 49218272.59299621 0 49218272.59299621 -114961851.49380875 0 0 0 0 -65949513.181655884 -51376635.085128784 0 -51376635.085128784 -31326982.694046021 0 0 0 0 10224383.130010605 73732727.11131382 0 73732727.11131382 44495676.645721436 0 0 0 0 -21904955.960100174 104129291.08638263 0 104129291.08638263 12836704.412395477 0 0 0 0 48825290.803161621 -17365236.170549393 0 -17365236.170549393 -156027992.6407547 0 0 0 0 114847558.08255768 234630109.69532299 0 234630109.69532299 219594714.59267843 0 0 0 0 149440286.47180176 163286613.51817989 0 163286613.51817989 130836780.26664448 0 0 0 0 51102527.485010624 136206445.26824445 0 136206445.26824445 229027349.86748886 0 0 0 0 62112640.012992859 43073498.327091217 0 43073498.327091217 55867435.672309875 0 0 0 0 3501422.9960784912 1201584.2976226807 0 1201584.2976226807 -1658512.3283977509 0 0 0 0 3862307.9463348389 2593992.1063919067 0 2593992.1063919067 -1194121.4571094513 0 0 0 0 1868248.9367446899 388476.91423034668 0 388476.91423034668 -1016752.4191017151 0 0 0 0 182066521.4919281 88626833.139022827 0 88626833.139022827 206107230.45031357 0 0 0 0 1170838.0612212382 439438.34162461339 0 439438.34162461339 -1046201.6967370017 0 0 0 0 248800939.36190796 197664869.99376678 0 197664869.99376678 155134244.85049438 0 0 0 0 129588695.03166199 155880007.15842819 0 155880007.15842819 207471062.4250679 0 0 0 0 214910260.80944824 232570582.68737411 0 232570582.68737411 276087108.60205078 0 0 0 0 45825.045968789607 30254.739219685318 0 30254.739219685318 -27862.799512081314 0 0 0 0 290941747.98230362 32288144.988642693 0 32288144.988642693 224288766.03481293 0 0 0 0 -47965055.186828613 62561309.452453613 0 62561309.452453613 47046883.031703949 0 0 0 0 158191342.02166748 283037899.4678154 0 283037899.4678154 83793607.845741272 0 0 0 0 117827771.47102356 43954963.160364151 0 43954963.160364151 43220322.265195847 0 0 0 0 198175482.07577133 218503058.41283131 0 218503058.41283131 125622563.63670349 0 0 0 0 -6753179.6015625 13678500.788387299 0 13678500.788387299 53106783.192073822 0 0 0 0 1468281.2850875854 1018417.1716594696 0 1018417.1716594696 38031729.734455109 0 0 0 0 -4690485.0652923584 11253096.732631683 0 11253096.732631683 35498636.098579407 0 0 0 0 -4666826.8089065552 4983715.0201244354 0 4983715.0201244354 50250890.702316284 0 0 0 0 4189391.7354125977 3461923.9458885193 0 3461923.9458885193 310766.4023771286 0 0 0 0 2348741.1830387115 2767101.4989075661 0 2767101.4989075661 985374.41792678833 0 0 0 0 1965221.680847168 1645644.437335968 0 1645644.437335968 678319.04436397552 0 0 0 0 2448438.8285140991 1473829.696434021 0 1473829.696434021 -636388.84553527832 0 0 0 0 -9176123.7184906006 9503235.313117981 0 9503235.313117981 -5010080.574754715 0 0 0 0 2044923.5240707397 1362533.4449501038 0 1362533.4449501038 77844.640037536621 0 0 0 0 1020938.4724480566 1193350.20717234 0 1193350.20717234 -848249.73358250153 0 0 0 0 2413665.2907943726 1957729.3288192749 0 1957729.3288192749 -168906.40102386475 0 0 0 0 67797.588900251314 10076.533152848482 0 10076.533152848482 -17636.353151667863 0 0 0 0 -850819.73071639054 747885.56873337319 0 747885.56873337319 -334905.29681039508 0 0 0 0 2231490.8075976372 2412824.9544657469 0 2412824.9544657469 705107.74940109253 0 0 0 0 7936617.9684524536 24267986.409650803 0 24267986.409650803 39999744.35842514 0 0 0 0 1403985.4165745396 1265259.1697534968 0 1265259.1697534968 -883385.10383639205 0 0 0 0 42800308.436233521 1936975.9175109863 0 1936975.9175109863 -73674586.532394409 0 0 0 0 38271083.075866699 51380247.661392212 0 51380247.661392212 -27080788.656349182 0 0 0 0 61721316.682495117 62492338.679698944 0 62492338.679698944 -44706261.022129059 0 0 0 0 56344234.604759216 57319731.941743851 0 57319731.941743851 -126177366.95681763 0 0 0 0 50537562.903640747 -10704971.567234039 0 -10704971.567234039 -60466808.341781616 0 0 0 0 31625503.04794693 94174128.764198303 0 94174128.764198303 73410686.463645935 0 0 0 0 71945626.83392334 98375997.751441956 0 98375997.751441956 33233347.141475677 0 0 0 0 73150774.814605713 83222533.677988052 0 83222533.677988052 62086551.258968353 0 0 0 0 -29421307.188301086 28385591.68021965 0 28385591.68021965 54660521.518928528 0 0 0 0 129424661.78672791 159730680.2092247 0 159730680.2092247 142882962.53152466 0 0 0 0 112491435.1964035 150349862.24580956 0 150349862.24580956 146071238.85184479 0 0 0 0 71344418.79410553 110967281.56011391 0 110967281.56011391 109278804.81371307 0 0 0 0 84388010.016242981 106667868.8114233 0 106667868.8114233 110687616.88772583 0 0 0 0 62774684.198509216 94878060.838597298 0 94878060.838597298 189014141.16134644 0 0 0 0 65427352.040397644 134418745.71417809 0 134418745.71417809 116345702.10895157 0 0 0 0 160954111.32807159 212116397.07008553 0 212116397.07008553 136673021.08609772 0 0 0 0 37594344.167453766 219829068.82321358 0 219829068.82321358 275236529.29186344 0 0 0 0 68367066.505233765 109731945.88933563 0 109731945.88933563 57616544.56158638 0 0 0 0 31147111.692947388 134276313.29779434 0 134276313.29779434 156849724.97106171 0 0 0 0 38261578.950897217 198631209.01824951 0 198631209.01824951 169923839.29068565 0 0 0 0 96725239.52494812 210197252.12906265 0 210197252.12906265 86857826.923351765 0 0 0 0 44931361.179325104 112663620.70835781 0 112663620.70835781 74945693.6847229 0 0 0 0 37926097.296867371 141685612.33857346 0 141685612.33857346 35541177.444955826 0 0 0 0 131076.11433004634 -164415.2879599873 0 -164415.2879599873 24370.644646373577 0 0 0 0 -36995113.40423584 71569451.224826813 0 71569451.224826813 -19553800.423400879 0 0 0 0 477019.57501983643 55853.008695244789 0 55853.008695244789 -634954.37166595459 0 0 0 0 1710635.7615785487 585119.02822802402 0 585119.02822802402 -796495.60405922355 0 0 0 0 77711.203527987003 -118430.89405282866 0 -118430.89405282866 -35799.675472422037 0 0 0 0 -46999789.276359558 -603914.59232139587 0 -603914.59232139587 -998427.360414505 0 0 0 0 45647315.268257141 63228187.233455658 0 63228187.233455658 -105222922.86313248 0 0 0 0 151035036.83963394 146124492.27863884 0 146124492.27863884 99830249.661846161 0 0 0 0 210519424.16667175 95533020.483348846 0 95533020.483348846 37339850.563196421 0 0 0 0 133608610.08357239 104799289.15036774 0 104799289.15036774 64589064.516956329 0 0 0 0 203514144.8689537 170110359.2600174 0 170110359.2600174 107838788.48619843 0 0 0 0 136802983.93969154 59306422.416188717 0 59306422.416188717 38064329.753562927 0 0 0 0 924657.77584083751 191682.17553205998 0 191682.17553205998 -503041.57066454832 0 0 0 0 -920205.98892211914 765366.50136184692 0 765366.50136184692 1241840.5972824097 0 0 0 0 372877.42753982544 -862731.28360843658 0 -862731.28360843658 -2545519.1112976074 0 0 0 0 -1751860.5098876953 -506491.69829559326 0 -506491.69829559326 1398737.965921402 0 0 0 0 1260299.2277931464 -399763.39266601391 0 -399763.39266601391 -172183.73724408448 0 0 0 0 908368.68131256104 133462.78205680847 0 133462.78205680847 -711645.76422691345 0 0 0 0 1329324.6072540283 496911.51025009155 0 496911.51025009155 -1307286.4495010376 0 0 0 0 1070929.7911300659 -533753.18070220947 0 -533753.18070220947 531292.96976470947 0 0 0 0 6775286.9819316864 -246879.45472574234 0 -246879.45472574234 -5275708.0772666931 0 0 0 0 329989.52530248184 -203448.75573859084 0 -203448.75573859084 57930.14771703817 0 0 0 0 99239.492922131903 -89071.534457697533 0 -89071.534457697533 25693.279698394239 0 0 0 0 5766.3579597473145 5507618.2792396545 0 5507618.2792396545 -8473366.4415016174 0 0 0 0 -11236732.2787323 11891325.811603546 0 11891325.811603546 -3976446.709028244 0 0 0 0 -9861090.628616333 5373305.9761505127 0 5373305.9761505127 236021.81046676636 0 0 0 0 449318.93691253662 21977864.054977417 0 21977864.054977417 -16897896.785743713 0 0 0 0 -7913765.6600074768 16805690.532448769 0 16805690.532448769 -16765035.152397156 0 0 0 0 -3949388.4963989258 8614320.4245281219 0 8614320.4245281219 -10673444.448547363 0 0 0 0 -7315286.2164154053 15371761.967926025 0 15371761.967926025 -22467322.942806244 0 0 0 0 1277905.7725615799 757365.42965601152 0 757365.42965601152 -529484.44157122145 0 0 0 0 -1973494.438949585 1079327.5382328033 0 1079327.5382328033 -7764349.6301746368 0 0 0 0 -5312490.1777229309 4786995.9035320282 0 4786995.9035320282 -4233643.8731746674 0 0 0 0 -3879.2859344482422 -1979482.4218521118 0 -1979482.4218521118 -2837131.9950265884 0 0 0 0 -3145516.2857513428 -2307156.500043869 0 -2307156.500043869 248694.86141967773 0 0 0 0 867322.66811390407 572502.28540308494 0 572502.28540308494 -358122.00469034351 0 0 0 0 1401085.2296466827 4767694.4418568611 0 4767694.4418568611 -5930513.8037109375 0 0 0 0 7166611.9889373779 -4815087.8632698059 0 -4815087.8632698059 -7979415.4571933746 0 0 0 0 3564974.5904159546 -781583.41395187378 0 -781583.41395187378 2728240.4686050415 0 0 0 0 -927311.50924682617 23673291.646999359 0 23673291.646999359 -71679330.871189117 0 0 0 0 436141.4551581461 179589.34660214512 0 179589.34660214512 -295654.83710194938 0 0 0 0 14134972.562942505 -20306235.036552429 0 -20306235.036552429 8527712.2834243774 0 0 0 0 -8887092.6386260986 37833029.534856796 0 37833029.534856796 -47325643.290444374 0 0 0 0 4999289.9570350647 20665016.859948158 0 20665016.859948158 -74302263.686775208 0 0 0 0 -65012780.533538818 5618373.6707267761 0 5618373.6707267761 -66657720.389709473 0 0 0 0 -20439042.740150452 33318698.951820374 0 33318698.951820374 -43645507.288772583 0 0 0 0 137250.18272399902 19506144.591896057 0 19506144.591896057 -66995975.988880157 0 0 0 0 2341697.0892810822 8306546.2089362144 0 8306546.2089362144 -35581394.065956116 0 0 0 0 -3028026.8682556152 32893923.047561646 0 32893923.047561646 -50004610.709321976 0 0 0 0 -13054676.539554596 42502649.807435989 0 42502649.807435989 -18368241.725833893 0 0 0 0 -7873497.3542022705 43602451.006538391 0 43602451.006538391 -32895540.185876846 0 0 0 0 -26817021.242931366 44353328.643407822 0 44353328.643407822 -18220202.001930237 0 0 0 0 3803701.5167503357 54722697.830572128 0 54722697.830572128 -27532296.873493195 0 0 0 0 4298872.7508716583 30127704.432118416 0 30127704.432118416 -16508161.757049561 0 0 0 0 12277439.572422028 35943837.717300415 0 35943837.717300415 -15397696.537574768 0 0 0 0 -5560419.720533371 52134720.472706795 0 52134720.472706795 -41210233.819038391 0 0 0 0 -45119868.723060608 73978895.501373291 0 73978895.501373291 -54910575.091367722 0 0 0 0 2507567.9939994812 -37076763.214776993 0 -37076763.214776993 -76496341.590970516 0 0 0 0 -77898804.189430237 7236097.487493515 0 7236097.487493515 3676791.5110244751 0 0 0 0 -83298155.557655811 42601787.494838595 0 42601787.494838595 -3942830.4991073608 0 0 0 0 226790.70800990704 -20032.817912341096 0 -20032.817912341096 -368067.06304044928 0 0 0 0 4051282.6692352295 -17060732.119098663 0 -17060732.119098663 1822180.3136985302 0 0 0 0 -30003547.634777069 5384850.0573878288 0 5384850.0573878288 -4929660.0620918274 0 0 0 0 -21817449.702159882 23236101.116199493 0 23236101.116199493 -10732838.64528656 0 0 0 0 -19260819.119621277 21547817.915597916 0 21547817.915597916 -10042338.773395538 0 0 0 0 -19379772.925201416 35715014.500352859 0 35715014.500352859 -25523831.328310013 0 0 0 0 46750845.638626099 37869897.115186691 0 37869897.115186691 -10255152.209278107 0 0 0 0 36553149.074203491 61443006.23818326 0 61443006.23818326 26434004.119472504 0 0 0 0 101430546.05088425 49384061.489318848 0 49384061.489318848 -23767641.093997955 0 0 0 0 -29712763.483253479 21234681.567401886 0 21234681.567401886 7139010.956952095 0 0 0 0 -26931587.821243286 40352610.497690201 0 40352610.497690201 -23225608.407526016 0 0 0 0 41290510.646316528 38608778.7006073 0 38608778.7006073 -18813438.935264587 0 0 0 0 -106289530.72018051 67021865.292933464 0 67021865.292933464 6391696.8232727051 0 0 0 0 -75599014.288749695 -12423304.829490185 0 -12423304.829490185 -795712.51848983765 0 0 0 0 122018842.74591064 65043238.953760147 0 65043238.953760147 -31529127.471839905 0 0 0 0 51788640.520597458 14537386.779542446 0 14537386.779542446 -29013056.666278839 0 0 0 0 111023043.26461029 26400851.144477844 0 26400851.144477844 8248362.3087835312 0 0 0 0 3516595.458742653 1787622.1626800187 0 1787622.1626800187 724104.2433329029 0 0 0 0 87889731.204063416 52595694.108147621 0 52595694.108147621 -5357337.943359375 0 0 0 0 70131777.554546356 14965007.906772137 0 14965007.906772137 -11335757.017837524 0 0 0 0 29032698.907051086 5488164.4120845795 0 5488164.4120845795 12024432.409647942 0 0 0 0 1158685.7777757947 496623.00714145694 0 496623.00714145694 176048.74324196856 0 0 0 0 15040233.824313164 21518625.186123371 0 21518625.186123371 -61841128.388214111 0 0 0 0 33936065.630588531 51320596.33780098 0 51320596.33780098 -14874694.061968803 0 0 0 0 131031440.39522171 13297545.011227608 0 13297545.011227608 -49068722.841367722 0 0 0 0 139631615.58035183 122783342.06552505 0 122783342.06552505 67127809.678401947 0 0 0 0 164910793.7522316 69414940.92519784 0 69414940.92519784 -116114492.89599991 0 0 0 0 132794620.15646362 5783286.1854324341 0 5783286.1854324341 -181562636.79433823 0 0 0 0 65257497.75932312 -46468065.664791107 0 -46468065.664791107 -193081980.14053917 0 0 0 0 -22168488.278442383 17134468.233264923 0 17134468.233264923 -62094025.471026421 0 0 0 0 50873197.105667114 199934284.43503189 0 199934284.43503189 382073126.37308502 0 0 0 0 336626.65749814548 250126.34393639024 0 250126.34393639024 -137876.69361718069 0 0 0 0 109548589.50689697 173811621.94351578 0 173811621.94351578 359244635.09361267 0 0 0 0 87305801.464092255 134465841.58515167 0 134465841.58515167 170681939.9806366 0 0 0 0 71399701.545227051 136401007.31091309 0 136401007.31091309 367551429.85198975 0 0 0 0 159100707.49835968 71407009.880105972 0 71407009.880105972 201049542.48337173 0 0 0 0 210490155.22154999 144673000.12551117 0 144673000.12551117 100940870.25559616 0 0 0 0 72136719.387203217 -16719419.302412987 0 -16719419.302412987 78150440.245197296 0 0 0 0 95383854.219207764 235503379.72502708 0 235503379.72502708 316684322.17951202 0 0 0 0 18529054.738674164 39073599.510502815 0 39073599.510502815 34038857.709896088 0 0 0 0 -51886954.06086731 -8374214.6785907745 0 -8374214.6785907745 76451441.864068031 0 0 0 0 9870499.2720413208 36521311.465333939 0 36521311.465333939 147979700.39899826 0 0 0 0 12195775.598570824 31230228.921363115 0 31230228.921363115 52831824.084453583 0 0 0 0 -36408090.965042114 16592705.957639694 0 16592705.957639694 61238613.460550308 0 0 0 0 -38784485.443069458 23901759.500911713 0 23901759.500911713 38769675.059810638 0 0 0 0 -44785269.151977539 12656769.235309601 0 12656769.235309601 18534625.487085342 0 0 0 0 -53803915.152153015 -5446591.1606407166 0 -5446591.1606407166 51339301.962171555 0 0 0 0 -54895994.353099823 -8134319.4507303238 0 -8134319.4507303238 22162130.049678802 0 0 0 0 -39057785.347759247 -13245989.431071281 0 -13245989.431071281 23486936.834129333 0 0 0 0 -86170131.968414307 -64414877.115697861 0 -64414877.115697861 -10486711.445253372 0 0 0 0 -29768619.658653259 -40908310.83672142 0 -40908310.83672142 -139675434.25039291 0 0 0 0 15586076.653953552 60135913.811038971 0 60135913.811038971 -123062545.23526764 0 0 0 0 -99543041.561763763 2792849.2817230225 0 2792849.2817230225 26447865.938506603 0 0 0 0 -33382.749212294817 320914.04122342309 0 320914.04122342309 -112641.54076907947 0 0 0 0 -19401297.056877136 -19935578.256189346 0 -19935578.256189346 -15359218.216097832 0 0 0 0 -78876138.320065498 8307742.7087469101 0 8307742.7087469101 25997493.609790802 0 0 0 0 -64471274.055290222 83787740.905866623 0 83787740.905866623 -24753485.160629272 0 0 0 0 -1519440.0888061523 38233042.924654007 0 38233042.924654007 -36268142.320306778 0 0 0 0 11362766.803817749 29911622.715595245 0 29911622.715595245 -31225896.757621765 0 0 0 0 7261556.2961502075 41902265.119279861 0 41902265.119279861 -159435295.78760147 0 0 0 0 62079328.770706177 66666423.023471832 0 66666423.023471832 -30711118.87909317 0 0 0 0 9516131.4550704956 109721488.95116043 0 109721488.95116043 60722534.429962158 0 0 0 0 107017462.65175629 153143260.17638206 0 153143260.17638206 107254067.81410217 0 0 0 0 112617324.06191921 94709832.167638063 0 94709832.167638063 58500088.811122894 0 0 0 0 49106443.01260376 81484661.854171753 0 81484661.854171753 176745166.16030931 0 0 0 0 75865761.603645325 84238558.730447769 0 84238558.730447769 -43323229.431564331 0 0 0 0 41610417.175308228 -11214449.797245026 0 -11214449.797245026 -51361616.090913773 0 0 0 0 101889516.11351776 99431881.831729889 0 99431881.831729889 11498161.209369659 0 0 0 0 5357707.4616088867 -1010058.8483276367 0 -1010058.8483276367 61659164.225353241 0 0 0 0 15819675.922668457 -70078834.728729248 0 -70078834.728729248 -243046071.56085014 0 0 0 0 22761931.773953438 45806979.817600131 0 45806979.817600131 -106035034.14159012 0 0 0 0 -162606.20054905303 954989.27422555094 0 954989.27422555094 -309338.51469411305 0 0 0 0 1274282.0846557617 4605631.6938476562 0 4605631.6938476562 -214077120.23869228 0 0 0 0 50854036.0414505 -18555409.696681976 0 -18555409.696681976 -214821976.96253967 0 0 0 0 5331746.3279571533 492455.78651428223 0 492455.78651428223 1442013.2176799774 0 0 0 0 -79079819.684707642 37329067.545391083 0 37329067.545391083 -82444239.970870972 0 0 0 0 -11808868.325683594 -5101524.0266265869 0 -5101524.0266265869 -71434780.632095337 0 0 0 0 22297.855722337961 24683.113761861809 0 24683.113761861809 -22358.825708135962 0 0 0 0 -61786732.568862915 -101448154.20139313 0 -101448154.20139313 -229765937.71561432 0 0 0 0 -6439302.2236175537 36114204.758522034 0 36114204.758522034 -61604536.571380615 0 0 0 0 5010360.9658813477 81709550.969818115 0 81709550.969818115 -203387703.38923836 0 0 0 0 31939102.666107178 8620224.0101089478 0 8620224.0101089478 -79370718.373783112 0 0 0 0 -20183075.548583984 116526774.22031403 0 116526774.22031403 -60104625.208091736 0 0 0 0 6032884.0617017746 12421525.290030241 0 12421525.290030241 14909641.79574585 0 0 0 0 -3248345.2328109741 9786384.1957473755 0 9786384.1957473755 35094770.290275574 0 0 0 0 -9348231.6337203979 6849322.4843444824 0 6849322.4843444824 37372811.953824997 0 0 0 0 -12682077.175758362 6527990.1592311859 0 6527990.1592311859 52141944.076194763 0 0 0 0 -5553114.9588851929 -1984606.2556495667 0 -1984606.2556495667 13834941.154407501 0 0 0 0 -10694304.432102203 2579191.0586137772 0 2579191.0586137772 25475666.451381683 0 0 0 0 -10092340.889781952 -3897246.3465232849 0 -3897246.3465232849 28988557.625461578 0 0 0 0 378730.70151138306 20043859.076429367 0 20043859.076429367 25639855.276351929 0 0 0 0 -7309159.5857849121 16441685.552173615 0 16441685.552173615 48523536.852584839 0 0 0 0 -6816143.1165084839 12293878.397935867 0 12293878.397935867 30643500.608730316 0 0 0 0 -7514226.9127502441 8759209.5806694031 0 8759209.5806694031 43221028.145367622 0 0 0 0 -2983971.8942871094 11949279.482069016 0 11949279.482069016 41127608.056991577 0 0 0 0 -18518942.260192871 50050415.682489395 0 50050415.682489395 82129397.106284618 0 0 0 0 -14845728.612953186 26381382.942218781 0 26381382.942218781 101546864.27087593 0 0 0 0 -15671018.841293335 24782379.522716522 0 24782379.522716522 76549131.33464241 0 0 0 0 10376851.778747559 42537542.223302841 0 42537542.223302841 20765188.675033569 0 0 0 0 -2019214.7377624512 67199668.588535309 0 67199668.588535309 -2759955.6613693237 0 0 0 0 -29678320.259716034 50944763.06105423 0 50944763.06105423 44834070.313522339 0 0 0 0 -18296042.72829628 29501256.46647644 0 29501256.46647644 16599075.17755127 0 0 0 0 12099977.286521912 -4001849.1926631927 0 -4001849.1926631927 27093086.858332396 0 0 0 0 -22898704.543094635 -2422271.5306425095 0 -2422271.5306425095 82472672.756900787 0 0 0 0 -22222802.799324036 58254570.560415268 0 58254570.560415268 69524167.959178925 0 0 0 0 -1079811.4875157066 358124.42916437238 0 358124.42916437238 606066.40390852932 0 0 0 0 54102167.585876465 53279000.419926405 0 53279000.419926405 16577278.758125305 0 0 0 0 17160873.833862305 48140737.641122818 0 48140737.641122818 68794662.3007617 0 0 0 0 -2178813.3284921143 7438767.5731381495 0 7438767.5731381495 -3859033.3331061387 0 0 0 0 -10542909.300750732 -9160345.0952825546 0 -9160345.0952825546 31885146.372837067 0 0 0 0 -1320607.4019737244 87884627.676143646 0 87884627.676143646 81297840.274058342 0 0 0 0 46091313.497242928 99563700.008013725 0 99563700.008013725 82624722.915275574 0 0 0 0 -2850608.2509025149 8480418.3961232062 0 8480418.3961232062 -3501808.6975991791 0 0 0 0 16664263.853115082 62739859.65455246 0 62739859.65455246 115097993.88117981 0 0 0 0 51650825.46600163 75188340.221278906 0 75188340.221278906 32780461.452484131 0 0 0 0 -14384439.240371704 38664841.567155838 0 38664841.567155838 106128406.21727753 0 0 0 0 -5324829.5562171936 92794571.622627258 0 92794571.622627258 27468857.720300674 0 0 0 0 59469057.833441377 89439489.767133474 0 89439489.767133474 20152570.197162628 0 0 0 0 39714198.115423203 26343362.478350639 0 26343362.478350639 36511824.395931244 0 0 0 0 61615703.059139252 58321121.132450104 0 58321121.132450104 19098363.800922394 0 0 0 0 68397001.651676178 45023633.606704712 0 45023633.606704712 37089426.631278992 0 0 0 0 81250042.594937325 86175727.112342358 0 86175727.112342358 72918889.132278442 0 0 0 0 93183653.93985033 42712445.728236198 0 42712445.728236198 8933136.0663986206 0 0 0 0 69514951.073356628 44065035.435525894 0 44065035.435525894 47573915.280151367 0 0 0 0 42776938.366884232 48800114.638841629 0 48800114.638841629 152633183.25563049 0 0 0 0 -858461.8307762146 13265420.700120926 0 13265420.700120926 17170239.11882782 0 0 0 0 -7376204.2327194214 9961208.5175590515 0 9961208.5175590515 31754997.054771423 0 0 0 0 41772758.235641479 -44758562.086372375 0 -44758562.086372375 69802203.474321365 0 0 0 0 -1454861.4932416398 3335150.3659808114 0 3335150.3659808114 -4051693.033808399 0 0 0 0 -2034762.4882736206 6644627.2266616821 0 6644627.2266616821 20738204.105101109 0 0 0 0 1560798.4771324396 2175866.1194031648 0 2175866.1194031648 -2193239.7199644917 0 0 0 0 118802931.9426384 114100257.84332275 0 114100257.84332275 73741400.264625549 0 0 0 0 -172659597.22864532 -1974224.1154975891 0 -1974224.1154975891 210927290.71816826 0 0 0 0 -636352524.02335358 55095304.640310287 0 55095304.640310287 204843534.27128029 0 0 0 0 98472914.951675415 51108354.524991989 0 51108354.524991989 178664146.30656052 0 0 0 0 -283970972.51514244 257183268.95968199 0 257183268.95968199 131028032.42704773 0 0 0 0 -921173062.71631241 -496345620.70508099 0 -496345620.70508099 402371448.94563103 0 0 0 0 294545413.82325745 53502658.642873764 0 53502658.642873764 -109687361.52422333 0 0 0 0 252390398.95458984 116806751.84759712 0 116806751.84759712 -181729279.79972363 0 0 0 0 -253300896.48527527 417120175.59687996 0 417120175.59687996 -146961778.84173584 0 0 0 0 -710825.05466532661 2132060.1643083314 0 2132060.1643083314 -3846206.7216246538 0 0 0 0 -274729711.20964813 416461474.01590347 0 416461474.01590347 -800011799.46696472 0 0 0 0 107375997.5548687 101566335.01457977 0 101566335.01457977 104792047.52061462 0 0 0 0 131579322.28298187 114993025.41311646 0 114993025.41311646 86830325.388866425 0 0 0 0 163682663.15032196 185562714.32116318 0 185562714.32116318 170110136.11370087 0 0 0 0 111952781.56419373 251182014.04133224 0 251182014.04133224 264017547.52656174 0 0 0 0 245416064.34048843 279014107.19446945 0 279014107.19446945 227105246.3707962 0 0 0 0 333699698.58099747 240349540.36281586 0 240349540.36281586 119593527.27651215 0 0 0 0 285982785.15716553 212715986.12882233 0 212715986.12882233 129083960.57148743 0 0 0 0 -956485279.59446716 -295630658.67783928 0 -295630658.67783928 15080343.713607788 0 0 0 0 -12689.69693503622 237397.21992704738 0 237397.21992704738 -968445.04875644296 0 0 0 0 -315449.13156899903 1164863.8738680631 0 1164863.8738680631 -2650474.2404757105 0 0 0 0 337108337.56761599 274229655.90445817 0 274229655.90445817 196061247.28987885 0 0 0 0 -259058.1455552578 172155659.98266673 0 172155659.98266673 372625765.5541153 0 0 0 0 16034039.479825974 129617645.42300034 0 129617645.42300034 239515972.59359741 0 0 0 0 63070282.379806519 143793876.16309357 0 143793876.16309357 208131099.7923336 0 0 0 0 50560007.614837646 114092353.97116661 0 114092353.97116661 153709908.46884155 0 0 0 0 123788849.80866694 190105678.16747856 0 190105678.16747856 210750085.53855133 0 0 0 0 -21964369.535785675 227111829.34239578 0 227111829.34239578 311937907.25397873 0 0 0 0 35812695.263961315 194990419.95309138 0 194990419.95309138 326642952.32279968 0 0 0 0 38155441.064926147 194006670.20021629 0 194006670.20021629 220285153.68294334 0 0 0 0 -2326715.7487163544 186342430.58992386 0 186342430.58992386 394010830.91876221 0 0 0 0 -80268539.689176559 292711594.50303841 0 292711594.50303841 350119356.69862938 0 0 0 0 -94763286.070774555 321921570.2267611 0 321921570.2267611 119760854.75553131 0 0 0 0 -25382132.441907883 250905674.64578819 0 250905674.64578819 185080380.83293343 0 0 0 0 -48432973.605529785 294763640.24159241 0 294763640.24159241 280117635.83026361 0 0 0 0 75448977.257135391 373026353.53018856 0 373026353.53018856 136391868.02575874 0 0 0 0 37785910.303514481 282191915.21304131 0 282191915.21304131 281869441.43948364 0 0 0 0 86680441.469078064 239869593.10511398 0 239869593.10511398 269832810.64926815 0 0 0 0 142710254.06622314 309967070.61380672 0 309967070.61380672 271530838.14263153 0 0 0 0 261936432.88117218 256786855.56645584 0 256786855.56645584 221604740.82824802 0 0 0 0 251155876.21694183 283337976.5017662 0 283337976.5017662 228646120.58647346 0 0 0 0 280596535.04092026 297750694.94923782 0 297750694.94923782 259487935.56028748 0 0 0 0 343695325.78239441 217145972.25780106 0 217145972.25780106 267134004.16236877 0 0 0 0 456777816.94936371 167266129.89102554 0 167266129.89102554 252957433.04356098 0 0 0 0 423247876.23184967 265318482.64487839 0 265318482.64487839 222911272.28982735 0 0 0 0 251501850.65921021 309868144.84958076 0 309868144.84958076 251421733.74961853 0 0 0 0 742396645.62313843 284638618.04346085 0 284638618.04346085 102675740.1055603 0 0 0 0 732107667.28724599 562602691.77484095 0 562602691.77484095 45779305.104259491 0 0 0 0 441996028.40762329 407753628.81805229 0 407753628.81805229 105971564.32903671 0 0 0 0 449939117.23082352 327323688.73092508 0 327323688.73092508 151856367.20787811 0 0 0 0 264718149.91468811 362646200.04287529 0 362646200.04287529 155044812.36650848 0 0 0 0 415057174.47785187 422258124.32979584 0 422258124.32979584 133982550.26924133 0 0 0 0 400099407.41587067 439141194.70327568 0 439141194.70327568 106453986.64102554 0 0 0 0 230036286.02140045 414912018.3178215 0 414912018.3178215 110678569.80311298 0 0 0 0 446639970.20741332 641865633.95539033 0 641865633.95539033 112381810.43434143 0 0 0 0 160631670.61410713 304358647.97764111 0 304358647.97764111 52153410.87171936 0 0 0 0 115914896.39790344 304117248.67129898 0 304117248.67129898 235026448.10334778 0 0 0 0 284922508.3026371 342821164.97693062 0 342821164.97693062 123308132.0332756 0 0 0 0 130765631.04483032 328457091.31252098 0 328457091.31252098 138133928.80620289 0 0 0 0 176304215.07698822 315132117.04079533 0 315132117.04079533 13243995.240839958 0 0 0 0 17483622.970397949 252822530.05052567 0 252822530.05052567 77721278.766054153 0 0 0 0 137609741.12535095 308917611.11896992 0 308917611.11896992 100612407.57537878 0 0 0 0 137917598.04699087 317510508.45454597 0 317510508.45454597 283083395.14894485 0 0 0 0 281120182.30324936 519929313.20683479 0 519929313.20683479 217724289.59671021 0 0 0 0 257873576.46000671 401108124.45445061 0 401108124.45445061 94063177.866039276 0 0 0 0 89693386.134315491 171077085.001719 0 171077085.001719 -252178803.31806183 0 0 0 0 63963916.032341003 167486875.06046295 0 167486875.06046295 116236032.8770175 0 0 0 0 -8962414.3411235809 327900019.19511414 0 327900019.19511414 -415202341.15966225 0 0 0 0 -47048357.279392242 -48814969.572832584 0 -48814969.572832584 -241688161.63446569 0 0 0 0 -391899498.84933043 254554841.89383984 0 254554841.89383984 104872311.44558334 0 0 0 0 -4859787.9386329651 275306422.70654583 0 275306422.70654583 55852867.530445099 0 0 0 0 5267920.8584671021 115271066.28336883 0 115271066.28336883 36291094.728433609 0 0 0 0 -11076068.339539528 211622155.74666286 0 211622155.74666286 56236941.426212311 0 0 0 0 -42947626.972564697 203755708.75958824 0 203755708.75958824 88873520.006874084 0 0 0 0 -51555255.058662415 187654451.64852619 0 187654451.64852619 95403773.791682243 0 0 0 0 -51278081.861228943 157457180.9328146 0 157457180.9328146 73101578.619173527 0 0 0 0 13576551.279159546 165999940.30223846 0 165999940.30223846 73009382.023133278 0 0 0 0 11547204.638180017 115927354.86208493 0 115927354.86208493 63037889.968898773 0 0 0 0 -2975836.1040878296 175354606.75706863 0 175354606.75706863 67943852.384849548 0 0 0 0 85103795.414337158 173734273.58407974 0 173734273.58407974 46877613.795597076 0 0 0 0 13076989.722755432 210034824.09786987 0 210034824.09786987 54479830.126937866 0 0 0 0 62484808.410018921 128581597.22223282 0 128581597.22223282 67229922.1769104 0 0 0 0 128060857.32208633 170303111.12188339 0 170303111.12188339 107656339.56435776 0 0 0 0 161017040.56054688 103375875.89998436 0 103375875.89998436 81221159.996572495 0 0 0 0 141082997.52856445 133097795.15446281 0 133097795.15446281 56025143.994632721 0 0 0 0 142295883.21716309 164572417.82062721 0 164572417.82062721 42056609.971122742 0 0 0 0 -143777904.06984341 59293859.740900278 0 59293859.740900278 30491487.277257919 0 0 0 0 45994112.205566406 210381558.04346752 0 210381558.04346752 36582006.387104988 0 0 0 0 -560531602.79341888 67824987.735302925 0 67824987.735302925 208341206.82394409 0 0 0 0 -134003884.77638245 270171818.00374126 0 270171818.00374126 81318435.546834946 0 0 0 0 -2257007.2722358704 185831512.62752628 0 185831512.62752628 62866192.09041214 0 0 0 0 706014017.82330322 228033708.00946426 0 228033708.00946426 187881224.83397579 0 0 0 0 366749.1365021877 -872.49741850141436 0 -872.49741850141436 -1211750.2083335295 0 0 0 0 338236627.76391983 160776076.13191986 0 160776076.13191986 308126207.87978554 0 0 0 0 192007084.89678955 146423553.00825787 0 146423553.00825787 279733339.8665638 0 0 0 0 271666745.90499878 293045527.1919632 0 293045527.1919632 196221512.71498489 0 0 0 0 686754766.06754303 375579571.97853851 0 375579571.97853851 124852239.13902378 0 0 0 0 500864185.17125702 -38018899.070279121 0 -38018899.070279121 -104754328.53645325 0 0 0 0 -43642451.239868164 442746586.52494812 0 442746586.52494812 208332928.85883141 0 0 0 0 381734.41398142371 438478.82020607032 0 438478.82020607032 -2782724.0289911348 0 0 0 0 128817572.0242672 197416617.78064233 0 197416617.78064233 79212083.133144379 0 0 0 0 126564150.46538544 176047714.36042786 0 176047714.36042786 29244476.198890686 0 0 0 0 38780346.360359192 146544806.62598038 0 146544806.62598038 96011919.354240417 0 0 0 0 149260847.50756073 102532460.4634676 0 102532460.4634676 151879955.1258316 0 0 0 0 105455839.96884537 191168326.71549797 0 191168326.71549797 37749409.320980072 0 0 0 0 -1828241998.0525246 282558420.84644127 0 282558420.84644127 744515442.03012085 0 0 0 0 -1026878425.7018776 -911304599.56578064 0 -911304599.56578064 -284759451.68320465 0 0 0 0 102016293.87095642 645182741.56553078 0 645182741.56553078 130894398.69839859 0 0 0 0 -374640583.35980225 -75545966.243463516 0 -75545966.243463516 -370319156.29675293 0 0 0 0 -13464.285314727575 290560.84172389843 0 290560.84172389843 -965511.70871249121 0 0 0 0 370779046.63267899 214212471.09103179 0 214212471.09103179 9471283.5118980408 0 0 0 0 30507.912104614079 662614.22124329023 0 662614.22124329023 -2558405.9735862156 0 0 0 0 319101477.40514374 77329807.14907074 0 77329807.14907074 14876510.286750793 0 0 0 0 87901520.581268311 170626676.59113216 0 170626676.59113216 3585652.0913314819 0 0 0 0 144049154.70466614 101246701.49099731 0 101246701.49099731 66101570.919496536 0 0 0 0 214932607.07616425 171016455.13588905 0 171016455.13588905 -4899110.8580322266 0 0 0 0 182413960.35853577 100860761.5111084 0 100860761.5111084 7772584.8451943398 0 0 0 0 169625170.29563904 128703545.01134682 0 128703545.01134682 -52299803.794372559 0 0 0 0 96658814.298797607 94186864.381774902 0 94186864.381774902 -16842678.521689415 0 0 0 0 32220642.490234375 134906217.42967033 0 134906217.42967033 -26541762.688619614 0 0 0 0 88980971.005218506 123540652.21671486 0 123540652.21671486 -93097128.286052704 0 0 0 0 -81444397.467147827 168243223.4922924 0 168243223.4922924 -18612129.98352623 0 0 0 0 32214026.670822144 148086864.4592247 0 148086864.4592247 -157801524.3061409 0 0 0 0 -40062623.594177246 205283100.79705429 0 205283100.79705429 -30245284.078559875 0 0 0 0 84050608.212007523 153143521.93472481 0 153143521.93472481 -52764613.437198639 0 0 0 0 11386027.145877838 198011642.6198144 0 198011642.6198144 36424721.596099854 0 0 0 0 -15654574.354248047 157097948.50383186 0 157097948.50383186 61190074.382621765 0 0 0 0 -176290776.07421112 163853877.63782692 0 163853877.63782692 61810017.707281113 0 0 0 0 -12969950.820861816 139768808.00750446 0 139768808.00750446 65338502.794595718 0 0 0 0 -42415935.284423828 176198293.95838928 0 176198293.95838928 -63212598.841327667 0 0 0 0 -77065420.879440308 140520147.24055672 0 140520147.24055672 -52667445.98233366 0 0 0 0 -134152528.97816467 210601252.32353401 0 210601252.32353401 -136033408.75106049 0 0 0 0 -115942370.41625404 152839450.39569116 0 152839450.39569116 -317468293.300457 0 0 0 0 -172130268.77345276 119078894.06194878 0 119078894.06194878 -295947021.79479599 0 0 0 0 -358834828.384758 -16062577.757612228 0 -16062577.757612228 -275398378.49119949 0 0 0 0 -41224314.17755127 24848786.783998489 0 24848786.783998489 -341999035.22331333 0 0 0 0 -27280860.488342285 51892265.873588562 0 51892265.873588562 -289664430.62691116 0 0 0 0 24718299.887771606 57691502.692464828 0 57691502.692464828 -129114167.50508118 0 0 0 0 995356.12216949463 109472700.26123571 0 109472700.26123571 -229137775.03544617 0 0 0 0 103395901.72530365 78000201.246524811 0 78000201.246524811 -129960159.98526764 0 0 0 0 29280724.446975708 77030110.119522095 0 77030110.119522095 -79736366.466707706 0 0 0 0 37476122.842018127 -11775509.899403572 0 -11775509.899403572 -98824632.22297287 0 0 0 0 39091127.781486511 4566041.5084609985 0 4566041.5084609985 -165262178.05407333 0 0 0 0 -15888290.663360596 -37879605.212726593 0 -37879605.212726593 -188946327.14755821 0 0 0 0 -55476742.568954468 -77844737.832765579 0 -77844737.832765579 -99128434.167350769 0 0 0 0 9721707.9739303589 -44354646.626087189 0 -44354646.626087189 -83629340.524763107 0 0 0 0 1573725.8201593887 928900.62927814899 0 928900.62927814899 -596635.7164361591 0 0 0 0 -58253420.566040039 -100783345.06097412 0 -100783345.06097412 -239241469.32484055 0 0 0 0 17421713.267662048 23566130.239990234 0 23566130.239990234 18082497.797859192 0 0 0 0 -106852162.38999939 27009728.718187332 0 27009728.718187332 -6436337.399055481 0 0 0 0 -242136.33938675188 1099256.4026112729 0 1099256.4026112729 -418838.48637690418 0 0 0 0 240079.15211101621 44990.315980685875 0 44990.315980685875 -376297.93550520763 0 0 0 0 290560585.64039612 20617669.444332123 0 20617669.444332123 -27364029.751262665 0 0 0 0 293831287.1170311 52737637.661036015 0 52737637.661036015 -103695031.35279846 0 0 0 0 246527974.24359131 43536434.9920578 0 43536434.9920578 85879458.553607941 0 0 0 0 225123649.94195557 153891750.4089756 0 153891750.4089756 125311862.34009171 0 0 0 0 288481190.40663147 43188695.202194214 0 43188695.202194214 -66575846.236820221 0 0 0 0 240889377.41499329 85986481.894312859 0 85986481.894312859 -43379508.728637695 0 0 0 0 101690382.86758423 36426645.372596741 0 36426645.372596741 -43499665.536306381 0 0 0 0 185975425.07680893 92466079.7735672 0 92466079.7735672 -65985300.562095642 0 0 0 0 252467058.05098724 141527046.98079967 0 141527046.98079967 -22401999.58266449 0 0 0 0 197957140.29008102 61376283.170283318 0 61376283.170283318 12551222.927707672 0 0 0 0 107765511.23162842 54621604.242963791 0 54621604.242963791 -33134561.522720337 0 0 0 0 105878127.70146179 40440278.717441559 0 40440278.717441559 -74576576.154975891 0 0 0 0 -6420291.836151123 -42191923.856912613 0 -42191923.856912613 -58160390.356105804 0 0 0 0 62901174.374794006 79324883.729820251 0 79324883.729820251 -12133515.665195465 0 0 0 0 236704869.44316101 109143275.7073822 0 109143275.7073822 -63599630.383758545 0 0 0 0 242153595.71016312 175217283.51287079 0 175217283.51287079 38692141.586681366 0 0 0 0 272903653.36959076 61161055.547922134 0 61161055.547922134 -82780068.064907074 0 0 0 0 293884060.03539276 81090543.599943161 0 81090543.599943161 -115701105.66815186 0 0 0 0 389032723.83943176 61284678.365966797 0 61284678.365966797 -177988935.02508926 0 0 0 0 384362733.9788208 126123688.21824646 0 126123688.21824646 -114532360.850851 0 0 0 0 290536001.29711914 35002782.626638412 0 35002782.626638412 -120963190.24662399 0 0 0 0 313637375.32076263 59405757.829698563 0 59405757.829698563 -105263616.96016693 0 0 0 0 543862.08831438608 392780.67843962926 0 392780.67843962926 -224697.14927834203 0 0 0 0 446441.12414893135 659926.17400101782 0 659926.17400101782 -649865.95354498643 0 0 0 0 610194193.71020508 -26370538.00761795 0 -26370538.00761795 -88211314.04259491 0 0 0 0 -680435432.83340454 137388559.59493256 0 137388559.59493256 -69249164.958568573 0 0 0 0 -73807866.073135376 -27671241.19449234 0 -27671241.19449234 178768.28443145752 0 0 0 0 -180176965.33976746 52816922.479814529 0 52816922.479814529 33930432.956535339 0 0 0 0 146070648.57200241 35614411.621068954 0 35614411.621068954 -63553043.495830536 0 0 0 0 -7147293.7399902344 195872577.59523678 0 195872577.59523678 -185344459.64650345 0 0 0 0 -64634861.752960205 90020542.994556427 0 90020542.994556427 38511842.869951248 0 0 0 0 45945784.455944061 92194808.765342712 0 92194808.765342712 31063834.541912079 0 0 0 0 -766051.31842530146 927845.62012845557 0 927845.62012845557 -844350.23079124093 0 0 0 0 -36437839.893280029 -19874984.041584015 0 -19874984.041584015 -2691655.9266710281 0 0 0 0 -13862081.688545227 62496584.301897049 0 62496584.301897049 27077874.535663605 0 0 0 0 2462064.3667221069 2764260.7094802856 0 2764260.7094802856 25863118.47851944 0 0 0 0 6222258.8378829956 3005400.2111005783 0 3005400.2111005783 -5014730.2800693512 0 0 0 0 10869360.478363037 -1552422.9363870621 0 -1552422.9363870621 -820466.88569450378 0 0 0 0 6813390.9252510071 5141627.7126817703 0 5141627.7126817703 466213.38283157349 0 0 0 0 -664664.65202170424 1061747.5457558604 0 1061747.5457558604 -1267729.1184440758 0 0 0 0 117560633.09750366 -20763810.653354645 0 -20763810.653354645 2213626.853990078 0 0 0 0 3427644.4668502808 1948241.3445930481 0 1948241.3445930481 -77496.969966888428 0 0 0 0 3130731.2121124268 2624952.8355140686 0 2624952.8355140686 962331.44557189941 0 0 0 0 3474678.4143676758 2791723.325425148 0 2791723.325425148 -327665.54522132874 0 0 0 0 2590598.3380317688 -2112194.4433742762 0 -2112194.4433742762 -838535.61515617371 0 0 0 0 723566.4239079915 367091.15169098228 0 367091.15169098228 -817583.74773482606 0 0 0 0 -3666911.1472015381 -17121507.72940731 0 -17121507.72940731 -17199407.168857574 0 0 0 0 30623659.834991455 12105702.537254333 0 12105702.537254333 -35813662.655041695 0 0 0 0 85072880.994342804 179022329.08869171 0 179022329.08869171 125275052.89049911 0 0 0 0 -6638520.710814476 5576768.503644824 0 5576768.503644824 -95407726.164829254 0 0 0 0 273228.04493221827 146665.97557681426 0 146665.97557681426 -337576.49401456583 0 0 0 0 39175035.738723755 78419169.589037895 0 78419169.589037895 142667512.38218498 0 0 0 0 53847956.389015198 24220090.573501587 0 24220090.573501587 24226228.271182895 0 0 0 0 138577671.84674835 51846714.76382637 0 51846714.76382637 17784962.334131241 0 0 0 0 174147.12056671456 1386686.9244477078 0 1386686.9244477078 -1381818.4023852833 0 0 0 0 68049623.409923553 120123179.49967194 0 120123179.49967194 -23620870.130174637 0 0 0 0 119004165.47486877 50050060.496730804 0 50050060.496730804 34838942.78975296 0 0 0 0 400326690.5614624 18424736.762989044 0 18424736.762989044 -134633248.79179859 0 0 0 0 -218843.7149089966 606666.43198675849 0 606666.43198675849 -1089358.3713636808 0 0 0 0 -1426245476.1870308 607388560.02083945 0 607388560.02083945 76962708.757219315 0 0 0 0 -1218872589.3089294 181296122.16244578 0 181296122.16244578 -101879560.80302429 0 0 0 0 -469165.51257932186 -189539.21152059361 0 -189539.21152059361 -1233338.4699034146 0 0 0 0 -1303113683.2514458 241377989.38999963 0 241377989.38999963 95160917.836644173 0 0 0 0 445346603.78192902 -285053437.079813 0 -285053437.079813 -51947157.88209343 0 0 0 0 698246992.10264587 -215719390.89101601 0 -215719390.89101601 -153385580.87712288 0 0 0 0 223596298.27767944 30106507.494814396 0 30106507.494814396 -70437380.356765747 0 0 0 0 160355309.21470642 -51104532.219064713 0 -51104532.219064713 -156922412.972682 0 0 0 0 103209401.86392403 144808318.22666407 0 144808318.22666407 -251636036.03305435 0 0 0 0 -179925654.99620056 283980605.06286049 0 283980605.06286049 -175097487.52436543 0 0 0 0 -6193063.8913574219 133439622.34690857 0 133439622.34690857 -155242987.82907677 0 0 0 0 -3072402.782623291 200550957.87034988 0 200550957.87034988 -322824252.57323837 0 0 0 0 -445718862.62731934 79998043.122823715 0 79998043.122823715 -244787693.1318531 0 0 0 0 -206405412.26493835 286878297.3163681 0 286878297.3163681 -256382391.7041626 0 0 0 0 -156027383.87205505 157115813.47140694 0 157115813.47140694 -315629951.03411102 0 0 0 0 -144152385.28973389 268619045.2179451 0 268619045.2179451 -247409498.98146439 0 0 0 0 -105497.10938810557 424037.82970880251 0 424037.82970880251 -161691.48030144256 0 0 0 0 -39098411.846851349 238187796.60486698 0 238187796.60486698 -458676620.52601242 0 0 0 0 -51150856.2918396 38824230.761157036 0 38824230.761157036 89993130.585102081 0 0 0 0 -77314563.214645386 312573793.68826008 0 312573793.68826008 -382297101.67737198 0 0 0 0 -12062746.853736877 186663805.45042992 0 186663805.45042992 -362665640.25375748 0 0 0 0 -144896587.97869873 174713746.96756935 0 174713746.96756935 -106809203.20670044 0 0 0 0 118400731.33914322 193065885.03335533 0 193065885.03335533 -400942439.1531868 0 0 0 0 -121868102.01075745 83494766.100196838 0 83494766.100196838 -71027489.742965698 0 0 0 0 304453015.51887512 322585920.07690668 0 322585920.07690668 110852475.23003578 0 0 0 0 -344187.92754812166 786907.28468360379 0 786907.28468360379 -883453.67846531421 0 0 0 0 465156184.53740692 504670739.70685244 0 504670739.70685244 68538822.99432373 0 0 0 0 166363677.61650085 109296232.33413267 0 109296232.33413267 -55343607.045557022 0 0 0 0 102279801.02177429 124856949.85159874 0 124856949.85159874 178728995.32678366 0 0 0 0 -248714711.71916962 127366551.32896185 0 127366551.32896185 189151152.44839668 0 0 0 0 -238921554.99196625 421956767.13692474 0 421956767.13692474 -301660281.02745056 0 0 0 0 -819764431.57581329 306087539.1715641 0 306087539.1715641 102335105.64015198 0 0 0 0 -1041156351.397789 696861837.46821308 0 696861837.46821308 -185296485.59007072 0 0 0 0 -907411629.60459137 134115328.10438824 0 134115328.10438824 -83174902.012877107 0 0 0 0 -752370745.67967224 448787969.73377562 0 448787969.73377562 292158440.39682961 0 0 0 0 -497506721.68632126 44609141.543149948 0 44609141.543149948 47982477.053342819 0 0 0 0 -738337510.24000549 507691231.93459129 0 507691231.93459129 -143332275.96931267 0 0 0 0 -701722.61084892892 183182.66225752048 0 183182.66225752048 696671.34665799793 0 0 0 0 27149214.2059021 54321254.986745834 0 54321254.986745834 -136718453.11355209 0 0 0 0 4542439.0181503296 17536344.54074192 0 17536344.54074192 31791990.238165855 0 0 0 0 48795571.70348835 141096685.74652353 0 141096685.74652353 196215719.26189804 0 0 0 0 -233855.36479914701 -4725.9119142778218 0 -4725.9119142778218 215472.2292172052 0 0 0 0 -227099829.3859787 110064543.36834049 0 110064543.36834049 -89408585.606937408 0 0 0 0 77835166.217308044 227822339.53347683 0 227822339.53347683 142221135.11853981 0 0 0 0 -12468128.154760361 95775645.333984375 0 95775645.333984375 344561257.14769554 0 0 0 0 18437290.199653625 1399009.3171739578 0 1399009.3171739578 44437612.760829926 0 0 0 0 -1482457.297457315 1275509.6327987462 0 1275509.6327987462 842819.6896205151 0 0 0 0 -304052422.12162781 346439247.79686165 0 346439247.79686165 -383123008.52899933 0 0 0 0 278324958.09786987 223722040.15606117 0 223722040.15606117 239280060.34234047 0 0 0 0 446652170.50904083 260981454.2560215 0 260981454.2560215 182182759.02527618 0 0 0 0 -535013115.08592987 480679078.17874479 0 480679078.17874479 -54001343.760103226 0 0 0 0 -557235856.22542763 433791570.90749764 0 433791570.90749764 -136735038.94969749 0 0 0 0 -391709400.79595184 493616156.58260536 0 493616156.58260536 -458521141.89986229 0 0 0 0 -130349252.50176239 238853509.55379868 0 238853509.55379868 -212610126.20060158 0 0 0 0 -213814441.74675179 93561848.107685089 0 93561848.107685089 -36464624.108575821 0 0 0 0 -2132065.4047373123 1753985.5073940516 0 1753985.5073940516 1282202.28664058 0 0 0 0 -111850476.61245728 105829069.10294914 0 105829069.10294914 -139552349.30711746 0 0 0 0 -1724068.8965799655 756371.42863083258 0 756371.42863083258 2466128.3046756396 0 0 0 0 48353080.388069868 46994747.244293407 0 46994747.244293407 43399317.636332512 0 0 0 0 -171663342.31031799 220967082.87460232 0 220967082.87460232 -227188575.14786196 0 0 0 0 -3567013.0838800371 195663.89354920574 0 195663.89354920574 1011512.3546522798 0 0 0 0 -335052610.00084686 82695081.329345703 0 82695081.329345703 -2091221.4794387817 0 0 0 0 -3097017.1910171509 150766766.24935818 0 150766766.24935818 -132368204.00734329 0 0 0 0 -379925691.84214783 -79620486.199404716 0 -79620486.199404716 18704161.940302372 0 0 0 0 95317794.273731232 -34996395.450423837 0 -34996395.450423837 -49450904.013261795 0 0 0 0 -393565678.87400436 63792855.818875313 0 63792855.818875313 85323623.579527855 0 0 0 0 -1158379.5860514841 652220.09929349087 0 652220.09929349087 1506946.0325050848 0 0 0 0 -492542590.32874882 221538403.14236253 0 221538403.14236253 -81805705.393419266 0 0 0 0 -517383222.31232452 408042110.78199625 0 408042110.78199625 -120126465.49430561 0 0 0 0 -433142479.48375702 137359818.57625866 0 137359818.57625866 12287324.607686996 0 0 0 0 -761476992.47367477 220124015.70720673 0 220124015.70720673 -42377297.154078484 0 0 0 0 -765462675.13037109 420761983.19878387 0 420761983.19878387 -64532519.784492493 0 0 0 0 -610782011.91220856 365510417.28778315 0 365510417.28778315 -60193196.32919693 0 0 0 0 655353251.61048126 -12816564.050771713 0 -12816564.050771713 122083648.70596504 0 0 0 0 385927340.7953186 8232159.5602416992 0 8232159.5602416992 144281339.8613863 0 0 0 0 -62788374.222637177 42230428.413937569 0 42230428.413937569 33575730.58873558 0 0 0 0 66190783.293815613 51607857.135504723 0 51607857.135504723 31428695.113087177 0 0 0 0 97435604.942810059 -11435865.535498619 0 -11435865.535498619 -197967632.47412908 0 0 0 0 -237643901.95100975 117153792.35954189 0 117153792.35954189 2085092.7596645355 0 0 0 0 275076.8467458114 -24429.343319385312 0 -24429.343319385312 -626284.6032024119 0 0 0 0 126584863.24450302 -130990185.23829174 0 -130990185.23829174 57559140.599617004 0 0 0 0 217369120.4541626 -42212516.980928421 0 -42212516.980928421 -226597704.42716312 0 0 0 0 229128121.03916931 23536184.942253113 0 23536184.942253113 60460399.934276581 0 0 0 0 118056704.94141006 -135177533.89642048 0 -135177533.89642048 146576643.1492691 0 0 0 0 407265215.56813049 -153107437.35069084 0 -153107437.35069084 -93908283.629165411 0 0 0 0 458828591.1289978 -42470421.671295166 0 -42470421.671295166 140807303.59028625 0 0 0 0 451425397.0298481 -310612684.6581465 0 -310612684.6581465 156021091.82714844 0 0 0 0 -370328647.3367691 -424891362.7585783 0 -424891362.7585783 -33304520.979830265 0 0 0 0 -1411892482.5479279 1020760796.0390005 0 1020760796.0390005 -677084930.41277313 0 0 0 0 -1364748.7076234184 65588.884477171116 0 65588.884477171116 326291.18176538579 0 0 0 0 -2324438448.1150208 8085967.9024477005 0 8085967.9024477005 318043093.73756599 0 0 0 0 -380353973.15112305 -73110031.210970879 0 -73110031.210970879 -77259506.148191929 0 0 0 0 -1595757908.5291061 13924020.847499847 0 13924020.847499847 46741653.272301674 0 0 0 0 728535384.65109253 -238356403.19024944 0 -238356403.19024944 76630729.040676117 0 0 0 0 -1051206458.8062286 588000161.18408084 0 588000161.18408084 -334782919.90280724 0 0 0 0 -1367044578.6103592 1099840913.7133188 0 1099840913.7133188 -924757470.68536377 0 0 0 0 -257166.46032893658 -242565.57050630264 0 -242565.57050630264 -690848.91923286486 0 0 0 0 -783916891.24793434 378872043.56382918 0 378872043.56382918 -587232449.33817291 0 0 0 0 -85335108.559753418 -553868690.09620476 0 -553868690.09620476 354556729.07013285 0 0 0 0 -925796289.57277107 -2969919.1239241362 0 -2969919.1239241362 133628334.63742447 0 0 0 0 -812273933.97710943 257647287.04088384 0 257647287.04088384 120120346.5467186 0 0 0 0 -396108406.13981628 31958276.262322903 0 31958276.262322903 123252394.45601106 0 0 0 0 -825758495.0712204 182962568.87005758 0 182962568.87005758 379211812.32836843 0 0 0 0 115592005.71531764 166935321.00146002 0 166935321.00146002 10318912.296195984 0 0 0 0 69631.497531507164 170196.68969881162 0 170196.68969881162 -696584.155342062 0 0 0 0 114854929.22498322 45519499.046121597 0 45519499.046121597 61381499.410663605 0 0 0 0 110416017.27378082 49929881.08411026 0 49929881.08411026 62226347.411755562 0 0 0 0 112063411.32492065 63270548.784461498 0 63270548.784461498 42422244.252464294 0 0 0 0 104293546.33564758 41373825.459496498 0 41373825.459496498 71833912.680492401 0 0 0 0 93095896.855392456 49799690.921159744 0 49799690.921159744 68436235.73238945 0 0 0 0 338991.70781226456 160815.49112801906 0 160815.49112801906 -1303379.7056860728 0 0 0 0 83148507.461853027 51456906.541505814 0 51456906.541505814 74677620.534174919 0 0 0 0 79483566.714179993 76281962.294894218 0 76281962.294894218 50672321.716142654 0 0 0 0 449880429.39291382 585287638.28439331 0 585287638.28439331 -784204912.33441925 0 0 0 0 63014505.852340698 93110966.113546371 0 93110966.113546371 64067196.407619238 0 0 0 0 -51831805.406471252 100581023.6279645 0 100581023.6279645 63582723.495826721 0 0 0 0 48116342.022644043 80978402.793709755 0 80978402.793709755 66183476.586688995 0 0 0 0 97332757.731582642 64201607.417854309 0 64201607.417854309 70840339.721256256 0 0 0 0 97277694.21282959 107521975.19138718 0 107521975.19138718 59886860.749791622 0 0 0 0 72314738.738929749 85901587.170061111 0 85901587.170061111 68312374.784446716 0 0 0 0 124926924.04525757 85054324.165994644 0 85054324.165994644 66157466.332062721 0 0 0 0 93963616.757111073 62125306.077647686 0 62125306.077647686 69618964.975791931 0 0 0 0 116708050.66156006 76981171.646980286 0 76981171.646980286 82197395.868296623 0 0 0 0 102378793.58003235 56132034.934146881 0 56132034.934146881 73861185.629333496 0 0 0 0 112363128.97304916 81430347.864416122 0 81430347.864416122 80260160.856372833 0 0 0 0 167652380.23652649 97729591.637926102 0 97729591.637926102 84730615.935892105 0 0 0 0 204284620.2148819 120818917.74696732 0 120818917.74696732 135966259.76017761 0 0 0 0 145185427.15650177 85478632.577695847 0 85478632.577695847 206317565.57484055 0 0 0 0 160118702.17167664 100387995.57783318 0 100387995.57783318 114446122.41591299 0 0 0 0 120260633.38777924 63200800.953121185 0 63200800.953121185 112075684.03661346 0 0 0 0 148118980.82318878 71987776.711399555 0 71987776.711399555 237174264.69331551 0 0 0 0 80571198.073547363 106792237.73079967 0 106792237.73079967 219353121.38990402 0 0 0 0 230572041.88482666 134011635.68953133 0 134011635.68953133 206121011.90692198 0 0 0 0 186815684.96907806 106944748.20164347 0 106944748.20164347 368404205.15322495 0 0 0 0 42941402.772010803 205160621.74372244 0 205160621.74372244 330468487.33564758 0 0 0 0 35234078.420631409 162882015.66118097 0 162882015.66118097 218642701.86931753 0 0 0 0 -396803348.51859856 169908941.05591595 0 169908941.05591595 467336543.12521172 0 0 0 0 -95025057.456771851 167495593.95477438 0 167495593.95477438 233006523.69512177 0 0 0 0 60082290.574026108 165427346.4426055 0 165427346.4426055 60420863.149204254 0 0 0 0 -191587330.58860779 439674929.00107956 0 439674929.00107956 -104444569.89999771 0 0 0 0 -323311357.35571289 40202027.239121437 0 40202027.239121437 9157111.7969379425 0 0 0 0 -708525178.88633347 235990210.75224304 0 235990210.75224304 447540242.41619301 0 0 0 0 -387605555.58635712 140113992.63955498 0 140113992.63955498 472932880.14949417 0 0 0 0 -354187607.39669418 100056373.30753374 0 100056373.30753374 424456038.07758522 0 0 0 0 -513280690.78987122 155376784.7890749 0 155376784.7890749 491382476.59545231 0 0 0 0 -533526448.21111679 123560894.49789739 0 123560894.49789739 442227745.32852459 0 0 0 0 -460662279.37975693 152785188.79583979 0 152785188.79583979 365139683.3575964 0 0 0 0 -492411077.14762878 119894823.71695662 0 119894823.71695662 425158372.73269349 0 0 0 0 -49275654.823825836 36989230.976145267 0 36989230.976145267 145122293.51791286 0 0 0 0 -884036.98326873779 113132455.88822842 0 113132455.88822842 187591024.0111537 0 0 0 0 470987981.06561279 351290381.19689512 0 351290381.19689512 301736897.40676832 0 0 0 0 638207983.31088257 90079041.805793762 0 90079041.805793762 358119841.58166218 0 0 0 0 -54644755.163618088 128584113.7038157 0 128584113.7038157 553330696.86650562 0 0 0 0 -115455225.00473785 224448764.06086874 0 224448764.06086874 445953164.34102154 0 0 0 0 -890894064.98403931 397441386.45010948 0 397441386.45010948 -14451051.741449356 0 0 0 0 -725604897.31822681 448697388.86951697 0 448697388.86951697 -87422916.406229019 0 0 0 0 -722865901.96870804 418259815.54821777 0 418259815.54821777 -123440629.08748055 0 0 0 0 -869180200.59333038 313804984.46897316 0 313804984.46897316 -69750232.712700367 0 0 0 0 -271430.69240041805 88057.978993954137 0 88057.978993954137 392908.85475035803 0 0 0 0 -1013260761.778141 352084200.40486956 0 352084200.40486956 -42880671.673059464 0 0 0 0 -724716.15546667308 383703.31278920174 0 383703.31278920174 971821.02170833899 0 0 0 0 147944175.51098633 19405073.399928093 0 19405073.399928093 -21319853.643122196 0 0 0 0 406655117.31362152 371509655.39289808 0 371509655.39289808 261009064.67678785 0 0 0 0 -303956031.7084589 107321994.19265437 0 107321994.19265437 164130838.23817253 0 0 0 0 -665107337.29423523 396766472.67616701 0 396766472.67616701 606213305.14455223 0 0 0 0 -675643600.69841766 263136679.02566528 0 263136679.02566528 384044658.1530962 0 0 0 0 -688041105.08477783 634565706.31483555 0 634565706.31483555 354473135.17602301 0 0 0 0 -1657277058.5209179 296553978.06507492 0 296553978.06507492 304394652.27495003 0 0 0 0 -1010196819.980423 589268805.2884016 0 589268805.2884016 436700313.06311417 0 0 0 0 -941735607.36957169 522756427.14348793 0 522756427.14348793 305212083.98505402 0 0 0 0 -939949570.62013245 546154992.24661446 0 546154992.24661446 431167893.29894066 0 0 0 0 -743435970.20136261 547388652.98615265 0 547388652.98615265 357935343.8079443 0 0 0 0 -1001369788.0478182 422273288.30382895 0 422273288.30382895 302217069.86909294 0 0 0 0 -694393746.49520111 530625651.32446003 0 530625651.32446003 75147465.122830391 0 0 0 0 -15463149.509138107 10618584.341166973 0 10618584.341166973 -15838364.78004837 0 0 0 0 -667720.69926700927 946050.2000902947 0 946050.2000902947 -724893.86858498864 0 0 0 0 -24456703.336088181 36920866.676220298 0 36920866.676220298 -20836852.360746384 0 0 0 0 -920084444.07854462 107306720.48441696 0 107306720.48441696 13802207.444499969 0 0 0 0 -836133954.09191132 382860774.97982025 0 382860774.97982025 189763313.46258259 0 0 0 0 -910789340.73157883 523217011.01453161 0 523217011.01453161 176734289.72216034 0 0 0 0 -792800849.83033371 537142413.19683456 0 537142413.19683456 -188669191.15444469 0 0 0 0 -871331933.63481903 580594728.00456142 0 580594728.00456142 174199893.52044228 0 0 0 0 -686280713.42256927 576587501.59677672 0 576587501.59677672 -174095687.59375763 0 0 0 0 -859216547.5367918 561353373.47786009 0 561353373.47786009 -13604896.729781151 0 0 0 0 -1057020094.5160294 713355386.93211985 0 713355386.93211985 -42561538.94487071 0 0 0 0 -876915622.30606842 669806756.57668924 0 669806756.57668924 189936940.62132168 0 0 0 0 -888206762.59835052 469137371.77942848 0 469137371.77942848 309890419.22257876 0 0 0 0 -876948659.58763385 391382499.59814608 0 391382499.59814608 170380016.36637688 0 0 0 0 -1293028442.0879898 600651983.33551788 0 600651983.33551788 100630899.56349039 0 0 0 0 -1013108596.8406811 567972722.86671507 0 567972722.86671507 -98711154.414445877 0 0 0 0 -2473283330.5561981 908805593.88593483 0 908805593.88593483 -177570904.93634224 0 0 0 0 -3203976.1061604917 595345.61976379133 0 595345.61976379133 802503.5965138165 0 0 0 0 -610571086.87659836 1056974649.2520735 0 1056974649.2520735 -1470996966.7443843 0 0 0 0 -747809745.01904297 716207015.57457161 0 716207015.57457161 -487200954.65481853 0 0 0 0 -3823755.8139988091 1330350.5527983587 0 1330350.5527983587 2014260.0414095863 0 0 0 0 -1957018.2131080627 904695.32362222672 0 904695.32362222672 -72425.147029876709 0 0 0 0 -3672664.3192300349 2803436.3252269952 0 2803436.3252269952 690312.07716208417 0 0 0 0 -5002279.3514556885 3317915.3129930496 0 3317915.3129930496 4649263.7092857361 0 0 0 0 -275972261.52746201 207053936.22380519 0 207053936.22380519 -395382401.25924915 0 0 0 0 -3061898.3408660889 3336252.9652452469 0 3336252.9652452469 3737329.3697166443 0 0 0 0 -3951258.7787189484 2457676.611137867 0 2457676.611137867 3002581.0468578339 0 0 0 0 -4865578.0037498474 4984558.5674915314 0 4984558.5674915314 1679020.2768287659 0 0 0 0 -5267260.9435847681 1966240.7727462538 0 1966240.7727462538 3530246.001889783 0 0 0 0 540206145.14727783 55125030.63443327 0 55125030.63443327 -149021434.78469419 0 0 0 0 411163851.13311768 52180384.152019024 0 52180384.152019024 23335690.304321766 0 0 0 0 84703623.065898895 -60859910.796714783 0 -60859910.796714783 -12869089.044031143 0 0 0 0 -31633272.437217712 79136336.903036237 0 79136336.903036237 144636885.18774605 0 0 0 0 -889100259.28031695 77643622.807169825 0 77643622.807169825 355634044.90854263 0 0 0 0 -678836778.30303192 162732119.30136681 0 162732119.30136681 201485856.18417263 0 0 0 0 -1391800575.0945358 -20131526.719348431 0 -20131526.719348431 161298451.27735949 0 0 0 0 -680550653.28585052 -36695707.466959 0 -36695707.466959 55454856.379186183 0 0 0 0 -429770753.64846802 -189710976.5428319 0 -189710976.5428319 47413887.824102402 0 0 0 0 -692376032.79962158 -92278539.459248543 0 -92278539.459248543 -141702732.94497395 0 0 0 0 -1435323771.4409714 -29037760.502361298 0 -29037760.502361298 -105541880.6197443 0 0 0 0 -1940013730.0386353 -626824316.67521262 0 -626824316.67521262 -793217771.19447517 0 0 0 0 -1054595594.8190002 401457336.15356731 0 401457336.15356731 -2183523605.0847912 0 0 0 0 -433959413.68120813 -41466195.92494899 0 -41466195.92494899 -76913906.221498489 0 0 0 0 -1044668262.4164963 241535682.1455946 0 241535682.1455946 -239818678.17166519 0 0 0 0 -434958079.65149689 -84466522.594474792 0 -84466522.594474792 -990377329.42285061 0 0 0 0 198225956.29344177 128209171.74064445 0 128209171.74064445 -488599799.92873907 0 0 0 0 305522630.92976379 -147042075.44974995 0 -147042075.44974995 213844975.47631836 0 0 0 0 162260443.75394821 -138481444.53313971 0 -138481444.53313971 -433552928.16674042 0 0 0 0 184347306.52065945 108399789.4726052 0 108399789.4726052 98310426.814082146 0 0 0 0 1597180.0819170363 5775486.8505475773 0 5775486.8505475773 -5076308.2358636446 0 0 0 0 726627056.97271729 226065654.71644688 0 226065654.71644688 -218030484.3145752 0 0 0 0 886110228.15615082 549635251.60740757 0 549635251.60740757 288029323.26982117 0 0 0 0 6526476.5976238251 7963658.0155591965 0 7963658.0155591965 -7140216.1410045624 0 0 0 0 6247821.9911160469 7624236.4521899223 0 7624236.4521899223 -6510380.0151786804 0 0 0 0 6995917.4210586548 4230164.8936100006 0 4230164.8936100006 -12593192.804107666 0 0 0 0 7777947.9134292603 6458523.4028282166 0 6458523.4028282166 -9136641.793050766 0 0 0 0 10286648.031177521 5996390.7988758087 0 5996390.7988758087 -8847885.7721405029 0 0 0 0 11019462.771831512 6268103.5826454163 0 6268103.5826454163 -9510861.0417881012 0 0 0 0 8191629.8232688904 10250216.521753311 0 10250216.521753311 -4166793.2397193909 0 0 0 0 19325267.764886856 28561592.916451454 0 28561592.916451454 -7281279.6224708557 0 0 0 0 -3365830.4329833984 8683261.8049297333 0 8683261.8049297333 -498679.56642532349 0 0 0 0 1697476.6757661696 5425715.2969460376 0 5425715.2969460376 -5798012.2574340273 0 0 0 0 -518732.72222137451 -2893227.0009479523 0 -2893227.0009479523 3590108.1215209961 0 0 0 0 -25223.829928534105 710526.74575778563 0 710526.74575778563 -594461.24645784125 0 0 0 0 39272431.221731186 -1221535.5128059387 0 -1221535.5128059387 -8412200.6313323975 0 0 0 0 24928011.44487381 34756026.971506119 0 34756026.971506119 -24757989.916539192 0 0 0 0 2063249.1804323997 5665441.469747344 0 5665441.469747344 -5901952.7235462563 0 0 0 0 -15484279.343624115 -10604074.648090363 0 -10604074.648090363 8715433.4550390244 0 0 0 0 -4928764.2888694685 9482499.9500389136 0 9482499.9500389136 3046669.1450377731 0 0 0 0 -8495525.7850456238 24954492.418795586 0 24954492.418795586 -48542806.264702141 0 0 0 0 -28769481.59312439 14006053.254329681 0 14006053.254329681 11177690.903266907 0 0 0 0 -21624883.242843628 -2774328.7717628479 0 -2774328.7717628479 12692998.938274384 0 0 0 0 -23506034.652143478 18806701.322020531 0 18806701.322020531 -2247702.3545532227 0 0 0 0 -4574552.178894043 15286541.052499771 0 15286541.052499771 1503891.820892334 0 0 0 0 -25114699.851718903 11907439.383571625 0 11907439.383571625 12037727.550445557 0 0 0 0 -28267520.545333862 4287663.4661407471 0 4287663.4661407471 2936259.1523857117 0 0 0 0 552145.40310628712 284687.53852835321 0 284687.53852835321 68473.343507021666 0 0 0 0 8790230.8905944824 13181905.384963989 0 13181905.384963989 2238703.5761489868 0 0 0 0 -4991804.9652056349 13266668.278250679 0 13266668.278250679 -4094.7403569296002 0 0 0 0 21051171.827630997 -12716877.665818214 0 -12716877.665818214 5421172.224281311 0 0 0 0 -68982819.163606644 185452735.06276703 0 185452735.06276703 141185296.9897213 0 0 0 0 -40861745.118125916 56268024.755649567 0 56268024.755649567 1978906.8686023951 0 0 0 0 131433348.77933955 156622694.32488251 0 156622694.32488251 -16876691.829467773 0 0 0 0 -3570184.2076956728 15093766.849868439 0 15093766.849868439 -5586598.3336367365 0 0 0 0 -87769398.773652077 42195013.456230164 0 42195013.456230164 177191849.33096313 0 0 0 0 128753445.53337002 73669440.639595032 0 73669440.639595032 -66253023.692703247 0 0 0 0 12675574.107686996 3987972.4096088409 0 3987972.4096088409 -10149125.581100464 0 0 0 0 18056943.178825378 -571464.33629417419 0 -571464.33629417419 -18397452.824352264 0 0 0 0 197825.47273722664 2453908.8404388726 0 2453908.8404388726 -2129706.7931509577 0 0 0 0 7639221.2405340299 4447162.1564574055 0 4447162.1564574055 -9298646.2512913607 0 0 0 0 4660290.2490558624 5203406.2910509109 0 5203406.2910509109 -7946620.0088539124 0 0 0 0 7463193.3095550537 1885022.9892520905 0 1885022.9892520905 -10997401.37944603 0 0 0 0 4475591.2027226035 5539116.3894020133 0 5539116.3894020133 -15886895.908337006 0 0 0 0 122154634.44761086 82728270.473312378 0 82728270.473312378 -200741607.22098541 0 0 0 0 -80927943.709913373 127598995.35984468 0 127598995.35984468 -70853700.867034912 0 0 0 0 -84243136.492026299 201751621.37405348 0 201751621.37405348 -128537092.38668823 0 0 0 0 175795518.57085347 -9399408.4279022217 0 -9399408.4279022217 -31805468.89118576 0 0 0 0 168289500.61722469 -97579893.776885986 0 -97579893.776885986 38268738.77734375 0 0 0 0 144056781.41154909 -46302904.241333008 0 -46302904.241333008 -66910027.67175293 0 0 0 0 293105159.6723156 -238776654.37588501 0 -238776654.37588501 -162148852.74613094 0 0 0 0 137818468.78979874 81788311.711418152 0 81788311.711418152 -250285608.5135498 0 0 0 0 339749958.53664875 -145154098.86378479 0 -145154098.86378479 -298838611.31240845 0 0 0 0 14284512.268032074 330879543.06970215 0 330879543.06970215 -506863201.38873291 0 0 0 0 10779211.531509399 280043656.68338013 0 280043656.68338013 -454289132.66094971 0 0 0 0 532027453.66575623 -126268824.14590454 0 -126268824.14590454 -797682739.4777832 0 0 0 0 254029871.64686775 -156369170.88244629 0 -156369170.88244629 -158699614.36346436 0 0 0 0 -492484277.06027603 467260887.66365814 0 467260887.66365814 -359396164.89276123 0 0 0 0 2893380.5074863434 -98760611.776817322 0 -98760611.776817322 -432435492.37395096 0 0 0 0 -520236536.68054438 89503919.522044182 0 89503919.522044182 -2169658.4838256836 0 0 0 0 -1435133.9057705794 2931370.5905183805 0 2931370.5905183805 898942.59345924854 0 0 0 0 61807729.101577759 -1275987769.5860901 0 -1275987769.5860901 -607861909.26631927 0 0 0 0 338343293.13358307 247278066.07982635 0 247278066.07982635 -1355852250.1347656 0 0 0 0 -100265259.55023575 599800276.98999023 0 599800276.98999023 -954858109.40420532 0 0 0 0 -302300523.9848938 189320630.06291962 0 189320630.06291962 -86094875.027191162 0 0 0 0 16788947.46723175 -28833682.721160889 0 -28833682.721160889 -89057923.440971375 0 0 0 0 158113147.89866257 333617503.49024963 0 333617503.49024963 -742588740.9402771 0 0 0 0 83944570.022426605 238674929.39682007 0 238674929.39682007 -43179586.405731201 0 0 0 0 -9067245.8356533051 69644888.151283264 0 69644888.151283264 -54263811.935508728 0 0 0 0 32268940.522232056 109168431.42870331 0 109168431.42870331 -30535937.895065308 0 0 0 0 44028540.717565536 132277160.75531769 0 132277160.75531769 -257935406.09277344 0 0 0 0 -4499212.7388515472 25823976.602714539 0 25823976.602714539 -7446101.5783309937 0 0 0 0 -5020740.0018973351 16005631.814953327 0 16005631.814953327 -13848844.652313232 0 0 0 0 17172858.977584839 32369717.008010864 0 32369717.008010864 -8155904.3265228271 0 0 0 0 -7528521.7736028433 30555498.339944363 0 30555498.339944363 -3983108.6474151611 0 0 0 0 -4039304.4183737598 8603516.505482072 0 8603516.505482072 2615154.7886630557 0 0 0 0 131992.07803916931 23207935.846862793 0 23207935.846862793 32212350.769207001 0 0 0 0 -853195.86177998455 201436.72653682344 0 201436.72653682344 2227268.4524262119 0 0 0 0 -94715770.467549324 76643313.689628601 0 76643313.689628601 35830108.588195801 0 0 0 0 -162782133.35571194 -29429170.801467896 0 -29429170.801467896 41609975.836364746 0 0 0 0 -293623739.31393814 80214122.07749939 0 80214122.07749939 53687396.075958252 0 0 0 0 -272761032.11984134 -54137731.349873543 0 -54137731.349873543 45751515.610229492 0 0 0 0 25464749.616172791 38251075.213928223 0 38251075.213928223 -15350157.50062561 0 0 0 0 -39531537.34867847 22862146.681120396 0 22862146.681120396 2067313.1287536621 0 0 0 0 24295648.210773945 22617896.407383919 0 22617896.407383919 -7254129.8307418823 0 0 0 0 5675831.0389180351 22750651.817272305 0 22750651.817272305 54641.537698000669 0 0 0 0 -33308718.03348124 77122178.308763981 0 77122178.308763981 -17738293.569442749 0 0 0 0 1474265.4963356648 22470448.01638959 0 22470448.01638959 11517.284542541951 0 0 0 0 35634888.496143341 38005586.963443756 0 38005586.963443756 1465194.602180481 0 0 0 0 23790372.264282227 19002742.348171234 0 19002742.348171234 -10757175.829555511 0 0 0 0 50071776.090480804 28131228.078174591 0 28131228.078174591 1281030.6610336304 0 0 0 0 20588041.280227661 34331621.824462891 0 34331621.824462891 6763969.001373291 0 0 0 0 28610989.078594208 48056760.16708374 0 48056760.16708374 15266089.31187439 0 0 0 0 -3266066.7473258972 44268879.490889907 0 44268879.490889907 2654924.3445129395 0 0 0 0 -4299407.5238456726 34940689.334976196 0 34940689.334976196 11275149.7603302 0 0 0 0 1456650.347026825 29622266.796562195 0 29622266.796562195 4997929.3794250488 0 0 0 0 -83628430.352783203 -37450864.252981186 0 -37450864.252981186 87415661.768447399 0 0 0 0 -3071734.3836566154 398221.69343353878 0 398221.69343353878 4450583.8295860412 0 0 0 0 -11704470.190566853 17232872.62947426 0 17232872.62947426 -1925071.9524065263 0 0 0 0 1301619.3556442261 26840854.183620453 0 26840854.183620453 18090086.027454376 0 0 0 0 54915175.651908875 79281174.589441299 0 79281174.589441299 53724564.556495667 0 0 0 0 8157770.903175354 39925729.214948654 0 39925729.214948654 25483422.16254425 0 0 0 0 12252292.488800094 12084348.876246803 0 12084348.876246803 -18018544.76673726 0 0 0 0 7577283.1573143005 22252285.760723114 0 22252285.760723114 -233471.23438453674 0 0 0 0 12076483.461730957 45588185.446678162 0 45588185.446678162 48049485.301287472 0 0 0 0 10998451.808616638 17511153.774641991 0 17511153.774641991 -2040391.8436403275 0 0 0 0 76170697.155275345 14278827.695236206 0 14278827.695236206 47742692.477630615 0 0 0 0 -2240712.3310117014 13259209.737401979 0 13259209.737401979 -9588753.8904508464 0 0 0 0 -4811187.8604717255 19784347.032867432 0 19784347.032867432 4810887.4884185791 0 0 0 0 -2228686.3181744083 7486144.7312105047 0 7486144.7312105047 1258813.807579631 0 0 0 0 21643079.534267426 15900984.768470764 0 15900984.768470764 19181979.34777832 0 0 0 0 -8740461.9066009521 5875468.462600708 0 5875468.462600708 22883411.797903061 0 0 0 0 -9011858.6092614755 7420299.0863873083 0 7420299.0863873083 13092749.497992527 0 0 0 0 -3950953.6172409058 6023772.8197860718 0 6023772.8197860718 5670358.91065979 0 0 0 0 -12576541.447745714 16479639.968454419 0 16479639.968454419 -2717759.6686886325 0 0 0 0 -9304726.0085514691 16475944.290809901 0 16475944.290809901 -5078445.5787181351 0 0 0 0 -4428128.9858564539 5187532.7043702621 0 5187532.7043702621 5927959.3566126022 0 0 0 0 -8962144.7509307861 22253459.902528763 0 22253459.902528763 76623748.961540222 0 0 0 0 15326032.816867828 37353961.517683983 0 37353961.517683983 73109176.194946289 0 0 0 0 243926.02856335416 279191.23494974477 0 279191.23494974477 -598943.83396224352 0 0 0 0 -1948332.0898742676 42787485.336787224 0 42787485.336787224 47024913.577244759 0 0 0 0 63572310.893100739 49951529.70986557 0 49951529.70986557 -13011444.881378174 0 0 0 0 -7543142.0695205927 5782347.3348007202 0 5782347.3348007202 8043249.5302581787 0 0 0 0 -9831742.1977668405 3966371.1147821774 0 3966371.1147821774 17279552.084720738 0 0 0 0 -8274046.1938042361 7495632.7599711427 0 7495632.7599711427 5660454.6811096743 0 0 0 0 -3594619.6699824426 7872287.7972447649 0 7872287.7972447649 944368.63564613508 0 0 0 0 -33442048.872200012 15443269.957021713 0 15443269.957021713 53839422.539352417 0 0 0 0 -28588369.608757019 -641800.52241230011 0 -641800.52241230011 24908584.338159561 0 0 0 0 -7029781.2192655802 87444.605007275939 0 87444.605007275939 -45448429.432497025 0 0 0 0 -953223.20418167114 74898723.001607418 0 74898723.001607418 11963442.136291504 0 0 0 0 64798529.433578491 55416618.073680878 0 55416618.073680878 5757931.7339048386 0 0 0 0 -25017172.721912384 -2073788.2260698676 0 -2073788.2260698676 -25754896.361355066 0 0 0 0 7708906.5086574554 -1483454.372982502 0 -1483454.372982502 -46427568.826122284 0 0 0 0 -56442129.896154404 -46432601.924957275 0 -46432601.924957275 193922445.77795506 0 0 0 0 48422597.248767853 72969058.502077103 0 72969058.502077103 -44336222.13019371 0 0 0 0 -35600687.644199371 -73150303.618544102 0 -73150303.618544102 21163210.991700172 0 0 0 0 65847578.742958069 82991258.405227482 0 82991258.405227482 -9631912.2076873779 0 0 0 0 -215576.90890433546 3885368.3364180271 0 3885368.3364180271 -1632293.9364978443 0 0 0 0 13040470.268165588 -20689047.601359367 0 -20689047.601359367 -71756349.792588472 0 0 0 0 -38763192.882316589 -72906784.704065844 0 -72906784.704065844 -33983108.467383742 0 0 0 0 11564418.004161835 -42709562.054985285 0 -42709562.054985285 18930338.870845795 0 0 0 0 57313475.461954117 6493912.4383583963 0 6493912.4383583963 -12986442.948613882 0 0 0 0 12549298.198928833 -28103568.303732932 0 -28103568.303732932 -21042779.076777101 0 0 0 0 -85815244.816851616 -826320.83033156395 0 -826320.83033156395 167580973.32288074 0 0 0 0 -13552478.908763198 15005567.003191503 0 15005567.003191503 -3406214.3415462794 0 0 0 0 40847834.388106346 158578301.04006994 0 158578301.04006994 127559619.48678732 0 0 0 0 -32278498.941493988 50284864.684343576 0 50284864.684343576 34825980.328338623 0 0 0 0 -53234799.542118073 -25139642.087662697 0 -25139642.087662697 -1943158.6590881348 0 0 0 0 -1141097.2847689157 1373522.459884021 0 1373522.459884021 1602152.9276572065 0 0 0 0 135997205.20681858 234684888.66137743 0 234684888.66137743 -250693319.79192162 0 0 0 0 -100602499.5381279 -71236503.607516289 0 -71236503.607516289 88865703.104275703 0 0 0 0 -95965103.21282959 -54246189.323773384 0 -54246189.323773384 145006729.30724478 0 0 0 0 -50630226.180151463 -352692.97345030308 0 -352692.97345030308 108779148.04266548 0 0 0 0 -131077353.41419792 67655728.824606419 0 67655728.824606419 85558724.899581909 0 0 0 0 -166109260.89400816 -33417642.91114831 0 -33417642.91114831 201490432.21759415 0 0 0 0 -207898433.13946915 9545627.36714077 0 9545627.36714077 47059773.789346695 0 0 0 0 -123052724.52157784 19434640.904797077 0 19434640.904797077 -141163704.83592319 0 0 0 0 921507.22012038063 1545452.558018459 0 1545452.558018459 -1899107.5471577321 0 0 0 0 -182017732.23815536 94641503.249554634 0 94641503.249554634 58693228.940767288 0 0 0 0 -98801145.444684982 -259200890.91485405 0 -259200890.91485405 269896330.39773941 0 0 0 0 -39863557.59199667 4794743.4786379933 0 4794743.4786379933 6498424.0649108887 0 0 0 0 628046.84517248068 312292.22435363918 0 312292.22435363918 -947812.27207034873 0 0 0 0 -460030249.2911129 -77094276.029728413 0 -77094276.029728413 -86046599.691066742 0 0 0 0 48490526.9894104 -7926719.4774661064 0 -7926719.4774661064 93868015.82029739 0 0 0 0 20650309.414299011 37118333.009711027 0 37118333.009711027 23843278.505327225 0 0 0 0 -85390588.446105957 -58217474.60347271 0 -58217474.60347271 27522878.243106842 0 0 0 0 -64629512.128555298 19035365.451645374 0 19035365.451645374 9028438.6190948486 0 0 0 0 3704356.3686008453 -27989090.115856528 0 -27989090.115856528 26820252.589954376 0 0 0 0 -1865528.6296234131 42772065.123674393 0 42772065.123674393 69870955.429152966 0 0 0 0 -7328996.4320907593 -13550982.523654938 0 -13550982.523654938 -20949430.36411047 0 0 0 0 131832076.90008545 151998009.53931808 0 151998009.53931808 28654476.200728416 0 0 0 0 131392205.601898 220943697.56311345 0 220943697.56311345 188172493.10167503 0 0 0 0 17286119.993682861 25350852.485794544 0 25350852.485794544 80846359.497047424 0 0 0 0 92737647.498176575 90498544.645344734 0 90498544.645344734 92765528.894038484 0 0 0 0 97640369.998004913 53329153.002821922 0 53329153.002821922 184764389.52906609 0 0 0 0 314664918.6689415 258344300.86967134 0 258344300.86967134 193246924.68635368 0 0 0 0 152321993.16805267 135710859.32236576 0 135710859.32236576 304397703.76362228 0 0 0 0 194169162.36754227 116490240.11017179 0 116490240.11017179 149773754.98490906 0 0 0 0 100187260.00015259 29175926.200438023 0 29175926.200438023 153234415.16749632 0 0 0 0 95683952.117523193 124805445.94052887 0 124805445.94052887 233461076.3854866 0 0 0 0 236991356.04437637 171692268.11933804 0 171692268.11933804 200673884.07902527 0 0 0 0 161046556.60664368 95594393.764650106 0 95594393.764650106 112525768.87818336 0 0 0 0 127854433.82601929 29994375.272188187 0 29994375.272188187 66146764.781340122 0 0 0 0 98632241.829502106 60886986.054922581 0 60886986.054922581 69332018.730734825 0 0 0 0 -68191315.5418396 42143704.319403648 0 42143704.319403648 295335196.13719177 0 0 0 0 51050196.628486633 7173192.1952285767 0 7173192.1952285767 51329108.959386349 0 0 0 0 66770515.132133484 62674362.224880219 0 62674362.224880219 167647372.16723204 0 0 0 0 92399379.015426636 114582458.0671649 0 114582458.0671649 188758863.36900473 0 0 0 0 109503318.18165588 266293829.61623192 0 266293829.61623192 377535374.55175495 0 0 0 0 -32583820.484237671 102469015.45545769 0 102469015.45545769 327513399.55132103 0 0 0 0 -309252152.239151 129031074.0729332 0 129031074.0729332 540339581.53575325 0 0 0 0 -10092094.550369263 141928894.57102513 0 141928894.57102513 344728978.53705788 0 0 0 0 -47706844.575332642 405916483.23105526 0 405916483.23105526 765651076.54524994 0 0 0 0 -168079646.32266235 656200373.68662643 0 656200373.68662643 544163178.49364376 0 0 0 0 144786049.66673279 619145842.96813488 0 619145842.96813488 512333752.4288826 0 0 0 0 818434985.36163712 695359581.22404718 0 695359581.22404718 292184616.36937523 0 0 0 0 458437069.01469421 338374991.00145531 0 338374991.00145531 273391447.16913509 0 0 0 0 98463593.29486084 250541631.2492218 0 250541631.2492218 355171539.89137268 0 0 0 0 275235101.30871201 324748984.18446922 0 324748984.18446922 388274515.2710228 0 0 0 0 -336293860.74753189 500851453.49909258 0 500851453.49909258 209058640.49030495 0 0 0 0 439851928.16889191 562040272.24222279 0 562040272.24222279 -119906336.18003845 0 0 0 0 115783461.49373627 200830896.48906994 0 200830896.48906994 412202901.27403641 0 0 0 0 275406107.15843201 298731079.98285103 0 298731079.98285103 462361894.16506577 0 0 0 0 918810991.89251709 -75722483.641307831 0 -75722483.641307831 58584713.204453945 0 0 0 0 -172556717.75953674 872235251.42398357 0 872235251.42398357 1207934631.8102875 0 0 0 0 200153838.97253418 168465465.60216331 0 168465465.60216331 212487207.43157005 0 0 0 0 132349878.5306778 103787888.2451849 0 103787888.2451849 135013559.46948624 0 0 0 0 40027444.011283875 205574997.39910889 0 205574997.39910889 115645874.61949921 0 0 0 0 161975143.51921082 100308720.25221443 0 100308720.25221443 145989317.80064106 0 0 0 0 204018293.03184509 228320696.10571098 0 228320696.10571098 88909137.334041595 0 0 0 0 266553282.07060242 274655792.63415146 0 274655792.63415146 432390367.89784241 0 0 0 0 228723245.20767212 235177605.97579384 0 235177605.97579384 370759992.09081268 0 0 0 0 185314506.5115509 98705341.760572433 0 98705341.760572433 183487083.90443039 0 0 0 0 237582581.65931702 152685924.32349396 0 152685924.32349396 484107141.22415924 0 0 0 0 197002335.17551041 92794786.242897511 0 92794786.242897511 336941205.26941299 0 0 0 0 195923676.91308975 199737172.52796173 0 199737172.52796173 322852051.97848511 0 0 0 0 171292367.32843018 95066127.142736435 0 95066127.142736435 237246361.73105049 0 0 0 0 424962847.08178711 464110441.6075983 0 464110441.6075983 306589694.6093874 0 0 0 0 201607682.56819153 175747148.21028328 0 175747148.21028328 352062574.33346748 0 0 0 0 438411224.8850708 395584092.36040306 0 395584092.36040306 439129124.42167568 0 0 0 0 176607145.9774704 295763480.46771622 0 295763480.46771622 787358718.06077576 0 0 0 0 560917523.23997498 635791439.236094 0 635791439.236094 523355110.74903822 0 0 0 0 -692547.48578197509 345395.53346102219 0 345395.53346102219 1266654.2426754574 0 0 0 0 621573590.96362305 887513321.2076087 0 887513321.2076087 910802172.27688432 0 0 0 0 -475283222.05886841 -148873401.96077514 0 -148873401.96077514 471810705.75663996 0 0 0 0 -343978503.75474548 168536120.5916872 0 168536120.5916872 1126754002.5467448 0 0 0 0 246172171.03115845 99561289.646463394 0 99561289.646463394 1236676476.6025009 0 0 0 0 -114226288.94942474 -80493178.537254333 0 -80493178.537254333 -31029231.12872839 0 0 0 0 -2609988.1201900942 1801665.7045890959 0 1801665.7045890959 3990085.6077600671 0 0 0 0 -44937475.769142151 113304427.41873956 0 113304427.41873956 -47220345.709985733 0 0 0 0 -168991857.53454208 51317801.812338233 0 51317801.812338233 -4600116.9813919067 0 0 0 0 33927584.569770813 151154278.95366144 0 151154278.95366144 488580169.35230374 0 0 0 0 492825764.1004734 430729681.10256338 0 430729681.10256338 283071645.88185787 0 0 0 0 -573232.18511459976 832850.35456996225 0 832850.35456996225 210060.80285535799 0 0 0 0 577205340.71118546 -25716437.395425558 0 -25716437.395425558 -14779954.870029449 0 0 0 0 317811639.8496666 -50622704.707216978 0 -50622704.707216978 23435534.995815277 0 0 0 0 -42609725.688053131 57131100.102537632 0 57131100.102537632 -20074493.81161809 0 0 0 0 -6113739.278420506 7234781.2097984627 0 7234781.2097984627 3706342.4656959856 0 0 0 0 8678801.8467140198 23267989.878082305 0 23267989.878082305 -40149335.67381978 0 0 0 0 -22549245.405912399 83728970.124792427 0 83728970.124792427 -25702220.620832801 0 0 0 0 20934268.421234131 24624616.988219261 0 24624616.988219261 -48566857.455202699 0 0 0 0 1685978.9307098389 6730278.4491362572 0 6730278.4491362572 -45545183.681889534 0 0 0 0 58664864.226593018 5003335.84441185 0 5003335.84441185 -46935212.166736215 0 0 0 0 36721946.104972839 42465708.852286756 0 42465708.852286756 -27575710.664452195 0 0 0 0 65329188.698310852 -20418819.10110414 0 -20418819.10110414 35403256.92733106 0 0 0 0 85824375.557853699 59225064.721925497 0 59225064.721925497 50084393.01851368 0 0 0 0 77868806.063278198 10407212.298869193 0 10407212.298869193 -12299278.888014197 0 0 0 0 43799280.797424316 93458410.295060992 0 93458410.295060992 36245600.124583825 0 0 0 0 -6969005.3828010559 38864349.180270359 0 38864349.180270359 -21104231.529849768 0 0 0 0 -114196026.53290558 783254956.28547525 0 783254956.28547525 53844196.270847321 0 0 0 0 11819234.951805115 654347553.55681133 0 654347553.55681133 -295490784.54000664 0 0 0 0 -1345596.1647491455 940391541.10807371 0 940391541.10807371 -481176465.52167511 0 0 0 0 -69707790.334960938 601536807.24565411 0 601536807.24565411 -146095840.80942249 0 0 0 0 135747641.7275238 848599439.2321949 0 848599439.2321949 17610013.216415405 0 0 0 0 -204474031.50829315 792024820.54511547 0 792024820.54511547 555975756.39609528 0 0 0 0 864627.62773895264 817922068.85494328 0 817922068.85494328 842300486.00501251 0 0 0 0 -245703290.54537964 600637097.62861252 0 600637097.62861252 80091570.161678791 0 0 0 0 -120256412.23694992 496066645.11584663 0 496066645.11584663 113774210.68029404 0 0 0 0 101793486.06900787 517125349.51763821 0 517125349.51763821 -96329329.275853157 0 0 0 0 -115624636.6390686 476568366.3801918 0 476568366.3801918 -77110829.121366501 0 0 0 0 114801541.18740749 403795222.84681189 0 403795222.84681189 -188082680.49317741 0 0 0 0 254437552.41156006 417413750.86100483 0 417413750.86100483 -256736476.15229082 0 0 0 0 19618072.569747925 597168332.98173046 0 597168332.98173046 -167734222.09007072 0 0 0 0 160153611.00475311 53579591.37874794 0 53579591.37874794 -732204027.22259903 0 0 0 0 148918261.10883331 615592338.56151581 0 615592338.56151581 -620492908.36858177 0 0 0 0 198756332.88024902 233588887.69176197 0 233588887.69176197 -207219619.93284988 0 0 0 0 458035570.88949203 599225701.17132092 0 599225701.17132092 -251590435.31427002 0 0 0 0 187653972.48643494 633972907.30374098 0 633972907.30374098 531563785.15722275 0 0 0 0 117704478.97348785 144449602.73179388 0 144449602.73179388 -169925958.07955551 0 0 0 0 334805615.02574921 301460282.2298317 0 301460282.2298317 -219898813.79135323 0 0 0 0 81727466.683181763 -11396843.61179924 0 -11396843.61179924 -401104673.14544576 0 0 0 0 243562704.82325363 234560539.29358244 0 234560539.29358244 -387340585.73166275 0 0 0 0 94258213.096115112 24872418.351197243 0 24872418.351197243 -471025504.62759209 0 0 0 0 89618563.290390015 14101517.822768211 0 14101517.822768211 -482176909.73870945 0 0 0 0 63032162.469619751 665746371.6366291 0 665746371.6366291 -300759872.80947638 0 0 0 0 173197463.91187859 685627638.74844289 0 685627638.74844289 -1339122876.5073833 0 0 0 0 -35206.202034803035 5272830.1000426086 0 5272830.1000426086 -5181902.5773925781 0 0 0 0 -95834278.151672363 -477615234.44164371 0 -477615234.44164371 -1751940951.0922582 0 0 0 0 -609395.31220597774 774843.94371670764 0 774843.94371670764 402423.7709203586 0 0 0 0 12157342.730270386 22528512.234327793 0 22528512.234327793 13566612.483665943 0 0 0 0 -72070309.250389099 -201223966.27517319 0 -201223966.27517319 -419577150.47998619 0 0 0 0 -1433804.9050981924 1757408.1148294471 0 1757408.1148294471 -188170.72621551738 0 0 0 0 12967043.290648222 -16768864.794109043 0 -16768864.794109043 -13996826.090485573 0 0 0 0 -12118199.222610474 3571596.0402030945 0 3571596.0402030945 6195330.9525651932 0 0 0 0 176747.55212402344 13639892.326482534 0 13639892.326482534 29830967.669990063 0 0 0 0 38281151.2239151 69413786.405307055 0 69413786.405307055 105211224.73748875 0 0 0 0 58349181.698501587 -15362537.682370663 0 -15362537.682370663 2296350.366348505 0 0 0 0 -23424224.674179077 -18154284.569769859 0 -18154284.569769859 40201220.656762123 0 0 0 0 163793528.76054668 56223896.075159624 0 56223896.075159624 -38546314.800093174 0 0 0 0 318864.8489359431 227067.96588600613 0 227067.96588600613 -380081.67528260208 0 0 0 0 12557881.486709595 -84068117.266652942 0 -84068117.266652942 -10400266.987448961 0 0 0 0 635558596.05505371 535000250.76307869 0 535000250.76307869 71165579.983661294 0 0 0 0 193753691.24508667 221572489.50921741 0 221572489.50921741 120598416.81615436 0 0 0 0 94491.640747070312 164964488.6357702 0 164964488.6357702 667063690.77030289 0 0 0 0 105125496.72969055 235354606.06292626 0 235354606.06292626 178561180.32505041 0 0 0 0 4218425.5701904297 39888830.109653473 0 39888830.109653473 -107867207.24988833 0 0 0 0 717375.8341217041 -6269829.0335856676 0 -6269829.0335856676 -20054160.283187628 0 0 0 0 -80844816.490875244 39801155.312882811 0 39801155.312882811 25461140.227469444 0 0 0 0 2859277.9560394287 -110626671.40007496 0 -110626671.40007496 -67607606.079419851 0 0 0 0 -22365643.398475647 -23286265.079782963 0 -23286265.079782963 62110630.985209823 0 0 0 0 -38740528.706546783 21035937.572208524 0 21035937.572208524 -308573.47737550735 0 0 0 0 508843.98823658749 830014.08460564911 0 830014.08460564911 -729389.76149315934 0 0 0 0 -9687015.2983016968 37265370.622227296 0 37265370.622227296 36926702.288056612 0 0 0 0 -4018039.1459579468 -1329956.3546080589 0 -1329956.3546080589 3332218.0395541191 0 0 0 0 -587307.72807125747 8959.7223164942116 0 8959.7223164942116 660833.51726886712 0 0 0 0 -1756710.4987049103 -188280.30356520414 0 -188280.30356520414 -65479814.762237549 0 0 0 0 -1281025.4978148676 1583926.4347348176 0 1583926.4347348176 1222078.1449084282 0 0 0 0 -2720386.9021453857 52741210.756937027 0 52741210.756937027 -131195699.79122162 0 0 0 0 -18606410.931091309 -13897776.373741627 0 -13897776.373741627 4663263.3026148081 0 0 0 0 -2494275.3843462467 -13420831.616248578 0 -13420831.616248578 -127366579.78068733 0 0 0 0 -2305018.9258358181 2805208.4810863333 0 2805208.4810863333 -434017.33048232412 0 0 0 0 19113892.331359863 -36748882.388341904 0 -36748882.388341904 -130190893.93309987 0 0 0 0 88468898.989715576 60497741.224311829 0 60497741.224311829 -134063356.0475769 0 0 0 0 56624355.621894836 -5532041.2597503662 0 -5532041.2597503662 -249436213.91931343 0 0 0 0 180723017.99028015 108811349.7225647 0 108811349.7225647 -264992171.35048485 0 0 0 0 122246413.0484314 153670833.05367851 0 153670833.05367851 -153962692.92520666 0 0 0 0 65765005.361312866 88031799.902246475 0 88031799.902246475 -165555812.51931143 0 0 0 0 -136108333.13288879 160679299.5163002 0 160679299.5163002 -30439469.263420105 0 0 0 0 -164365329.4609375 124362285.19655418 0 124362285.19655418 -69890572.297050476 0 0 0 0 -475267.53933770955 213499.63864923548 0 213499.63864923548 410173.1367056407 0 0 0 0 83742580.880630493 164972787.67339706 0 164972787.67339706 -97295832.315389633 0 0 0 0 1063566982.1873856 198636657.7241354 0 198636657.7241354 1140404.755859375 0 0 0 0 448568993.52978516 8456098.6128921509 0 8456098.6128921509 312558480.25806618 0 0 0 0 108016401.33987427 542437908.50213051 0 542437908.50213051 365003449.46378994 0 0 0 0 91704.322863310575 437493.84341915883 0 437493.84341915883 -58793.576212338638 0 0 0 0 -1791116.8893127441 -18633163.877162933 0 -18633163.877162933 267242654.68478966 0 0 0 0 562789931.25288391 443815775.21654892 0 443815775.21654892 431208526.28077888 0 0 0 0 554481894.91542816 200150919.09475231 0 200150919.09475231 21416627.488950729 0 0 0 0 -2071146.6783123016 4591184.4756953716 0 4591184.4756953716 2970111.2060382366 0 0 0 0 -1590276.414449349 3817786.5981328022 0 3817786.5981328022 -1961957.5123962611 0 0 0 0 -2913434.8048706055 72901898.139741898 0 72901898.139741898 -60047953.322827339 0 0 0 0 -1836610.6918293014 1298856.2593364855 0 1298856.2593364855 1393871.5231978297 0 0 0 0 -2176606.5740852356 3947263.4663822055 0 3947263.4663822055 601183.04706478119 0 0 0 0 -3629535.7548065186 1745382.5894908905 0 1745382.5894908905 1510805.1293845177 0 0 0 0 -6733874.4221801758 2935927.3620141745 0 2935927.3620141745 12213071.207959294 0 0 0 0 -3734837.5869789124 -101127.10957673192 0 -101127.10957673192 6308158.6883952618 0 0 0 0 1922928.095539093 12608524.273620218 0 12608524.273620218 -193917.0024356842 0 0 0 0 -7846521.8806610107 5577969.9832393527 0 5577969.9832393527 6159816.1236011684 0 0 0 0 -3261979.3187789917 2815779.6108390391 0 2815779.6108390391 4552766.0516417027 0 0 0 0 -879299.12041854858 6295278.5470551401 0 6295278.5470551401 110920.91116577387 0 0 0 0 -7175427.9690380096 24496257.011495434 0 24496257.011495434 2006608.2895060778 0 0 0 0 3572555.0106811523 11284831.902495682 0 11284831.902495682 -36333732.799461678 0 0 0 0 469936623.63463974 444203412.99849224 0 444203412.99849224 373288391.23307419 0 0 0 0 356849606.43862152 512943802.89463902 0 512943802.89463902 350288504.85397053 0 0 0 0 -1892078.3640454598 3906890.2057923265 0 3906890.2057923265 -1378455.3004788714 0 0 0 0 6901379.1008453369 7501459.8576640487 0 7501459.8576640487 -10084281.887121651 0 0 0 0 -1865872.2293311339 3902751.9574967744 0 3902751.9574967744 -1696669.8224434895 0 0 0 0 670926262.86421204 507300263.18391848 0 507300263.18391848 158487172.23872948 0 0 0 0 626707598.11847496 369121435.30127668 0 369121435.30127668 31960164.929971695 0 0 0 0 377450789.99826813 388475276.85613298 0 388475276.85613298 -70299859.307077408 0 0 0 0 463324849.94961548 262101838.95834541 0 262101838.95834541 115564453.93488884 0 0 0 0 629211875.65795898 330370688.25807381 0 330370688.25807381 162673156.98821083 0 0 0 0 516090632.25649261 439276763.79439521 0 439276763.79439521 77830868.22845459 0 0 0 0 360202380.75600433 228311317.28191566 0 228311317.28191566 204054605.59723663 0 0 0 0 437914325.78337097 212561208.65538216 0 212561208.65538216 47170362.576343298 0 0 0 0 298235377.61987877 27098312.945093274 0 27098312.945093274 -76928026.869298935 0 0 0 0 244392848.60735321 88560240.958604813 0 88560240.958604813 -146125683.30011129 0 0 0 0 403532745.61394882 34763271.960430622 0 34763271.960430622 -149045964.40314102 0 0 0 0 272400461.09609222 480063671.47629833 0 480063671.47629833 425098667.14998531 0 0 0 0 286328662.54191208 -212323959.86901188 0 -212323959.86901188 -605206086.96505737 0 0 0 0 395067.84941721335 61556.216513352236 0 61556.216513352236 -56581.465962536866 0 0 0 0 45569868.349491119 -9872648.1530389786 0 -9872648.1530389786 -59825136.726003647 0 0 0 0 481602159.3842926 88306637.985403061 0 88306637.985403061 -108415629.30249023 0 0 0 0 925107612.17638016 474772924.59082365 0 474772924.59082365 -50427782.083553314 0 0 0 0 242462634.30381775 297812020.02516365 0 297812020.02516365 -93423199.415102005 0 0 0 0 250931140.76573181 433125418.24534035 0 433125418.24534035 -57922275.514258385 0 0 0 0 89480349.305195808 325760786.76884961 0 325760786.76884961 75684308.712356567 0 0 0 0 286581816.42176819 455382554.84361076 0 455382554.84361076 -44042771.926523209 0 0 0 0 181193186.97212982 316169097.00929832 0 316169097.00929832 17215981.627523422 0 0 0 0 316817999.23017502 371145415.64261007 0 371145415.64261007 -206308498.49192047 0 0 0 0 714379.21966361254 181528.20913222455 0 181528.20913222455 -136144.5607216144 0 0 0 0 247111919.00305939 158363215.37255859 0 158363215.37255859 -443411070.5189867 0 0 0 0 134271095.63207245 206895804.53851128 0 206895804.53851128 -246066756.521209 0 0 0 0 121889497.16282654 139591676.75844002 0 139591676.75844002 -780233255.56365824 0 0 0 0 318261.91803187132 117826.03607829055 0 117826.03607829055 -71861.299039580394 0 0 0 0 42240954.508072853 285558422.33792746 0 285558422.33792746 -31993106.536922455 0 0 0 0 233182880.39653778 478450856.05503654 0 478450856.05503654 64729682.442567348 0 0 0 0 321122326.81443501 318847884.82498777 0 318847884.82498777 147099959.82085991 0 0 0 0 340968301.40087128 383036761.76306057 0 383036761.76306057 22276432.46824646 0 0 0 0 522185772.57556152 372261018.23195171 0 372261018.23195171 160711129.48342276 0 0 0 0 100519185.99453735 305808961.99748695 0 305808961.99748695 258950201.43102837 0 0 0 0 97941240.976127625 215909963.25986004 0 215909963.25986004 251870031.04837418 0 0 0 0 356070276.91902161 162474030.69057369 0 162474030.69057369 129342054.95032597 0 0 0 0 240608973.15564728 352789685.46448612 0 352789685.46448612 136404321.87811089 0 0 0 0 234839578.62481689 312769359.68609524 0 312769359.68609524 312158890.77860451 0 0 0 0 299981066.98193359 385553070.63853693 0 385553070.63853693 354103812.83889055 0 0 0 0 59479112.740970612 373944118.15709114 0 373944118.15709114 389752718.85803223 0 0 0 0 19257412.653224945 282786664.0286808 0 282786664.0286808 311674822.93124199 0 0 0 0 150791104.40553665 332469447.37593317 0 332469447.37593317 248158154.61586189 0 0 0 0 -76840175.463729858 399288243.61233711 0 399288243.61233711 41613054.39969635 0 0 0 0 97008770.161487579 231638595.38704586 0 231638595.38704586 147095451.51240158 0 0 0 0 -111992664.92350531 648733855.65193248 0 648733855.65193248 -135665274.04584885 0 0 0 0 -157883716.8053751 332474983.3822611 0 332474983.3822611 -3219423.1796016693 0 0 0 0 -138169719.67802429 429928128.1100378 0 429928128.1100378 -112227072.96921635 0 0 0 0 -234324652.35736084 162044111.37801743 0 162044111.37801743 -14524849.781761169 0 0 0 0 129673599.79656792 160963453.63722205 0 160963453.63722205 -38385250.090774536 0 0 0 0 101059682.21498871 197139988.40090466 0 197139988.40090466 149397108.63371325 0 0 0 0 136809263.56786728 -37219378.600723267 0 -37219378.600723267 -225816147.28866005 0 0 0 0 -48070126.608600616 234666415.02114487 0 234666415.02114487 -159136147.23271179 0 0 0 0 5398806.4509954453 292169967.82836282 0 292169967.82836282 -778895124.38624382 0 0 0 0 -466155948.87831116 34277575.793733597 0 34277575.793733597 -216007299.60277557 0 0 0 0 12532381.151992798 356853639.40283966 0 356853639.40283966 -246154853.92739603 0 0 0 0 401530040.33676147 569303689.83351994 0 569303689.83351994 -243886993.47759986 0 0 0 0 226645785.78859138 154869353.33125496 0 154869353.33125496 -113310166.17190266 0 0 0 0 -554361704.92848206 265815452.65076065 0 265815452.65076065 -422753079.25647306 0 0 0 0 -385563647.45236206 963863614.38572979 0 963863614.38572979 -767557002.39558601 0 0 0 0 -110714227.71447754 668337580.79595757 0 668337580.79595757 -452176709.6314621 0 0 0 0 -354685420.38752079 1120029118.3791237 0 1120029118.3791237 -84317776.853940964 0 0 0 0 -125001373.32896996 628275250.44441855 0 628275250.44441855 261035451.96008873 0 0 0 0 -833531.74871444702 1201791998.4206147 0 1201791998.4206147 154840538.47972012 0 0 0 0 998118.21735118702 1449208.7088202825 0 1449208.7088202825 -578542.19671296282 0 0 0 0 -150098718.1710434 -44697642.319330215 0 -44697642.319330215 86304695.029954672 0 0 0 0 -844836.69087219238 39092330.934251785 0 39092330.934251785 48905512.66960144 0 0 0 0 -170613.70701648667 69062.403124582022 0 69062.403124582022 69875.246114531765 0 0 0 0 -414123722.07104969 575289619.86745906 0 575289619.86745906 -52607959.233297348 0 0 0 0 -1464216648.5628204 738432672.21836472 0 738432672.21836472 -54383801.259380341 0 0 0 0 -1309920747.6488342 503015198.99574471 0 503015198.99574471 -418906503.85713577 0 0 0 0 -2262009704.5871844 935537254.68017042 0 935537254.68017042 -121253138.04850388 0 0 0 0 179233.70081656403 490379.45349620655 0 490379.45349620655 -1091353.1050942913 0 0 0 0 -766779715.63019562 937248284.53815842 0 937248284.53815842 -1942458442.2698593 0 0 0 0 -29943349.974416137 -144460037.40457618 0 -144460037.40457618 -667170548.20450211 0 0 0 0 -43648921.247428894 600777281.48487091 0 600777281.48487091 -1002534635.5101824 0 0 0 0 -661044551.46312714 897546763.06110692 0 897546763.06110692 -503923709.63597488 0 0 0 0 -1123217264.4971733 219175473.73734283 0 219175473.73734283 -357048818.47193527 0 0 0 0 -513193796.7511673 490651980.12709713 0 490651980.12709713 -246943290.36056805 0 0 0 0 -426005122.78959084 349914633.60870194 0 349914633.60870194 -128911015.85061073 0 0 0 0 -372781165.59604549 751851088.66509604 0 751851088.66509604 -231329793.71702385 0 0 0 0 -218573434.09075928 671721099.0586462 0 671721099.0586462 -183169274.39105988 0 0 0 0 -282344355.8523941 746642055.70834732 0 746642055.70834732 -241260823.65661335 0 0 0 0 -345438045.74443817 628887299.00770473 0 628887299.00770473 27358416.372905254 0 0 0 0 -131656681.17145348 541205939.37285757 0 541205939.37285757 -365044906.28827477 0 0 0 0 -61888637.446495056 373299535.2365222 0 373299535.2365222 -79828359.520103455 0 0 0 0 -219754300.70370483 655840501.78699112 0 655840501.78699112 -374608066.00767899 0 0 0 0 -87086350.099143982 394161753.86957073 0 394161753.86957073 -284055308.80108452 0 0 0 0 314103.59550036862 967135.96212158911 0 967135.96212158911 -152261.10171022546 0 0 0 0 -375104167.62239075 246478876.79879761 0 246478876.79879761 -91413076.328240395 0 0 0 0 -368713351.94753647 261973358.93946815 0 261973358.93946815 -58305425.651550293 0 0 0 0 -327798967.18638992 148284825.64124024 0 148284825.64124024 5392165.6400995255 0 0 0 0 -44803257.432754517 68793762.811647892 0 68793762.811647892 -20509773.106306076 0 0 0 0 -402659460.8514328 303172495.17765617 0 303172495.17765617 156618176.56058693 0 0 0 0 -391583144.80925751 322961872.4290185 0 322961872.4290185 12391324.427660465 0 0 0 0 103546994.43571854 109844197.36489987 0 109844197.36489987 8038435.4587745667 0 0 0 0 -499092888.67249298 444780761.55315781 0 444780761.55315781 141496144.2699151 0 0 0 0 486462218.11839199 431104608.52500498 0 431104608.52500498 415101009.67899513 0 0 0 0 -192076.79874674231 383588.49284479022 0 383588.49284479022 -335552.16000270657 0 0 0 0 -767877656.45713806 277306920.68505478 0 277306920.68505478 823837408.20785141 0 0 0 0 81356.372376870364 362661.2368467357 0 362661.2368467357 -4588.5682363025844 0 0 0 0 -351697581.83988953 713932630.89688969 0 713932630.89688969 -619494665.21386337 0 0 0 0 -637677753.12409973 474548813.20188522 0 474548813.20188522 1707056190.2781506 0 0 0 0 -714306540.08396149 1051134456.478189 0 1051134456.478189 -430112430.41642952 0 0 0 0 -491898229.72271729 674097470.04574394 0 674097470.04574394 1390205189.5477009 0 0 0 0 -389861611.64634705 1102239925.32728 0 1102239925.32728 -1507511817.9439831 0 0 0 0 -964510045.18786621 -152454644.21995926 0 -152454644.21995926 1437927572.1584163 0 0 0 0 409358595.89979553 -44393258.05062294 0 -44393258.05062294 706987866.0687418 0 0 0 0 -575687.85796362162 508398.04136558995 0 508398.04136558995 310101.21947028628 0 0 0 0 -507564607.64968872 509506624.81089687 0 509506624.81089687 -143133289.49554634 0 0 0 0 -661509331.94708252 832059586.42416382 0 832059586.42416382 -521196751.20525169 0 0 0 0 -308618518.79226017 391493170.31681359 0 391493170.31681359 -798139417.32489014 0 0 0 0 -619525195.90007782 572604915.23055077 0 572604915.23055077 -148500470.68075275 0 0 0 0 -585223367.8192873 551186761.3324796 0 551186761.3324796 -266494748.49897766 0 0 0 0 -335534663.04205322 760083797.99825478 0 760083797.99825478 -92299423.216351509 0 0 0 0 -122135721.7179718 619475845.09721088 0 619475845.09721088 -212091419.94400072 0 0 0 0 -178604659.16740417 751010455.02819538 0 751010455.02819538 -273528151.63147736 0 0 0 0 -215010722.8772049 622144736.21934605 0 622144736.21934605 -140178744.54870892 0 0 0 0 226717670.2574234 548473139.01297092 0 548473139.01297092 -49458808.38431263 0 0 0 0 -179115004.24897003 560546285.27295876 0 560546285.27295876 -12414979.681358337 0 0 0 0 -513009061.24990845 509116509.80446243 0 509116509.80446243 60332133.906991959 0 0 0 0 -211355915.21352005 812584322.27128339 0 812584322.27128339 365276663.56273746 0 0 0 0 1139566952.5679855 938476577.78991413 0 938476577.78991413 339899952.46186793 0 0 0 0 -449034.21067044884 398802.87537894584 0 398802.87537894584 233705.34541762155 0 0 0 0 -1168043983.8177795 580140335.06721354 0 580140335.06721354 40209598.952920079 0 0 0 0 -839620533.32366562 328461577.91265678 0 328461577.91265678 -133201958.36326408 0 0 0 0 -777858639.80596161 480709931.72835445 0 480709931.72835445 -53185661.176651001 0 0 0 0 -714142087.62394524 622189816.40488267 0 622189816.40488267 44098159.923944473 0 0 0 0 -571861722.38613129 639527273.94653749 0 639527273.94653749 -57167947.865604401 0 0 0 0 -790864393.67588425 57890783.979952335 0 57890783.979952335 -36999923.62955761 0 0 0 0 -686148407.69716644 473060176.95891476 0 473060176.95891476 -67032477.516673088 0 0 0 0 -707135672.05204296 388842293.56079364 0 388842293.56079364 -174846617.10015678 0 0 0 0 -1835396233.6191692 -261088154.80633664 0 -261088154.80633664 -67141080.54846859 0 0 0 0 210737030.70586395 477291114.36119366 0 477291114.36119366 574940652.86063957 0 0 0 0 774150640.1461525 665923593.32983589 0 665923593.32983589 440355282.09652138 0 0 0 0 -1396962.0037053432 1109752.2491594944 0 1109752.2491594944 1103990.969281137 0 0 0 0 -768596804.11955452 -314344489.39466977 0 -314344489.39466977 -218142327.59314442 0 0 0 0 -617454816.89667511 -27489182.729328156 0 -27489182.729328156 -73830861.928244039 0 0 0 0 -379011270.34380436 -125713794.62495852 0 -125713794.62495852 -309003194.64955711 0 0 0 0 -458861747.6927433 136139144.18873513 0 136139144.18873513 277516168.68676186 0 0 0 0 -283165373.92640686 268537931.88689232 0 268537931.88689232 76699177.891292572 0 0 0 0 -491936258.58298874 184744830.84844923 0 184744830.84844923 588111772.97045135 0 0 0 0 -506459224.39744568 22632812.813959122 0 22632812.813959122 902344576.29064751 0 0 0 0 -377987159.63071442 -212210928.28581333 0 -212210928.28581333 1085954909.517765 0 0 0 0 -403696543.71772575 188783487.65751743 0 188783487.65751743 303217849.23959541 0 0 0 0 -498092520.68714905 -13483747.394262314 0 -13483747.394262314 478717913.03530693 0 0 0 0 -367604541.47651672 34959021.351129532 0 34959021.351129532 495685188.87077618 0 0 0 0 -450276752.3575592 70768855.904835701 0 70768855.904835701 709008077.75782013 0 0 0 0 -302697179.32575226 171465891.98352909 0 171465891.98352909 575898640.69392204 0 0 0 0 -285893163.70119476 23531097.040812492 0 23531097.040812492 459900711.04122734 0 0 0 0 35981946.621101379 274464900.23358059 0 274464900.23358059 256484734.87881088 0 0 0 0 -503941607.99214935 232101626.14412737 0 232101626.14412737 262908472.96681595 0 0 0 0 -276675611.94009781 198429927.67046118 0 198429927.67046118 -4374748.9570045471 0 0 0 0 -347506503.88291168 551632150.12222767 0 551632150.12222767 156831891.64155388 0 0 0 0 -718915689.51950455 389742138.93336302 0 389742138.93336302 86555864.664146423 0 0 0 0 -748542907.12293482 462297045.97312105 0 462297045.97312105 468005299.03020287 0 0 0 0 -152138857.90449524 770638517.77011776 0 770638517.77011776 605862600.56304741 0 0 0 0 225560242.37167358 119896128.86754131 0 119896128.86754131 375909872.52256775 0 0 0 0 73845693.126052856 271063553.31917095 0 271063553.31917095 885837540.92031288 0 0 0 0 -1242377.0965245944 208830.17168559693 0 208830.17168559693 1005652.1997306724 0 0 0 0 448507394.70909119 368532128.78559017 0 368532128.78559017 86563371.258029938 0 0 0 0 -291876.90110959299 379086.88543423638 0 379086.88543423638 257128.79360464215 0 0 0 0 -63997103.135314941 425864142.79521179 0 425864142.79521179 1030753729.3635817 0 0 0 0 -38055545.760498047 -72833431.562448502 0 -72833431.562448502 801267639.05324364 0 0 0 0 -207362653.0589447 128391231.29814959 0 128391231.29814959 426188651.24131012 0 0 0 0 17482197.842704296 200558445.96680325 0 200558445.96680325 381167310.51317406 0 0 0 0 2624934.6013412476 67533754.578556061 0 67533754.578556061 57290677.000629425 0 0 0 0 -2811434.8795166016 4361653.3940267563 0 4361653.3940267563 875213.95546531677 0 0 0 0 -1654370.410608707 4293035.1772577818 0 4293035.1772577818 -605348.07315426506 0 0 0 0 35175188.153244019 -20733670.103782654 0 -20733670.103782654 76000139.684608996 0 0 0 0 -4937587.5308193341 1333454.6107314751 0 1333454.6107314751 2973474.0774169406 0 0 0 0 -2512013.8381347656 2873549.0359611511 0 2873549.0359611511 1135577.7656872272 0 0 0 0 -1204347.3353614807 4473870.9361438751 0 4473870.9361438751 3087356.6543769836 0 0 0 0 -5783181.9962463379 -25237974.614387989 0 -25237974.614387989 45753752.081111908 0 0 0 0 -2590604.4962103441 4405811.1125926496 0 4405811.1125926496 149617.72101578955 0 0 0 0 -1449218.7217407227 3249821.9868221283 0 3249821.9868221283 2930975.9806678295 0 0 0 0 -1326782.3867580891 3934928.9270130992 0 3934928.9270130992 4281850.3313980103 0 0 0 0 -3335745.2756767273 3190023.3763895035 0 3190023.3763895035 5682879.0036125183 0 0 0 0 -2383178.9474400869 3044970.3958580587 0 3044970.3958580587 4948052.7150704619 0 0 0 0 -827964981.25449753 14401028.607048035 0 14401028.607048035 -59844884.969657898 0 0 0 0 -739375741.01522446 -103422035.25244522 0 -103422035.25244522 -6762733.9454803467 0 0 0 0 -15103804.71673584 17916708.12523365 0 17916708.12523365 -13066516.434388638 0 0 0 0 -3997807.4247002378 4871792.507820447 0 4871792.507820447 1576677.2183267251 0 0 0 0 -1328416.4716384411 3896834.924505353 0 3896834.924505353 3659808.6470489502 0 0 0 0 27878343.423301697 18897464.848640442 0 18897464.848640442 -15255946.695567608 0 0 0 0 -1174144.3375305599 2225653.9127240218 0 2225653.9127240218 3513141.5344281029 0 0 0 0 -1354222934.3493233 266403068.3655262 0 266403068.3655262 536192994.24517059 0 0 0 0 19880870.563858032 -1772750.6040153503 0 -1772750.6040153503 71677223.743769646 0 0 0 0 -56671209.70083046 5655510.1417794228 0 5655510.1417794228 92821149.880001068 0 0 0 0 -37968991.942520142 -15910910.478185654 0 -15910910.478185654 428867185.27226639 0 0 0 0 -254334921.79478455 -37871185.288188934 0 -37871185.288188934 427216445.23237801 0 0 0 0 -185694855.754673 -199872047.43158436 0 -199872047.43158436 724757247.19399643 0 0 0 0 -218536937.20305252 91421895.423662663 0 91421895.423662663 704189190.72607803 0 0 0 0 -273825.87734255847 949338.50249871798 0 949338.50249871798 1319872.4864634722 0 0 0 0 391680161.77457428 -586246703.98054075 0 -586246703.98054075 613747945.15343475 0 0 0 0 162045340.6946106 -258152594.94334984 0 -258152594.94334984 249637758.97899723 0 0 0 0 -182920761.11448669 -180453001.73684502 0 -180453001.73684502 709543012.82068634 0 0 0 0 -188720742.18516135 -445018417.03937602 0 -445018417.03937602 1090744509.1410713 0 0 0 0 -361538557.76222229 1174751397.1831722 0 1174751397.1831722 537067048.33011627 0 0 0 0 -164159720.44207764 958846377.06397724 0 958846377.06397724 271541984.735116 0 0 0 0 -437345684.6828537 930847391.74819374 0 930847391.74819374 420322011.45013142 0 0 0 0 -3294456.3529361784 3120105.1373904003 0 3120105.1373904003 770161.91194141377 0 0 0 0 -54599423.568984985 145512917.29618621 0 145512917.29618621 224280488.00950432 0 0 0 0 -454477170.46063232 283553425.1785984 0 283553425.1785984 -461360481.095438 0 0 0 0 -455608062.99300385 407687696.45500374 0 407687696.45500374 1077493521.2826748 0 0 0 0 -663252565.18843079 186944144.12262344 0 186944144.12262344 399973637.25261688 0 0 0 0 -660921219.01752472 -24673586.226211548 0 -24673586.226211548 -61676341.080858231 0 0 0 0 554063955.43902588 -272485642.7195282 0 -272485642.7195282 270594873.57734299 0 0 0 0 1492522183.6768055 895682335.36479425 0 895682335.36479425 78254364.910598755 0 0 0 0 1283692978.9582624 2080374504.3315122 0 2080374504.3315122 61830573.485183716 0 0 0 0 -1123823075.0635834 621332388.95025253 0 621332388.95025253 277857080.15307045 0 0 0 0 -379077913.39711952 2078587899.7404099 0 2078587899.7404099 614184987.5199585 0 0 0 0 -673227192.97730255 119870697.89742279 0 119870697.89742279 -24182481.110721588 0 0 0 0 -729378490.66773224 340002604.23642921 0 340002604.23642921 -566814178.27618599 0 0 0 0 -520902192.35902405 -143839111.769454 0 -143839111.769454 -268723310.78341293 0 0 0 0 -1545830.7058543973 377860.01839653845 0 377860.01839653845 401826.75196627714 0 0 0 0 -1953186621.9016571 -719982786.84491634 0 -719982786.84491634 529576326.18476486 0 0 0 0 -1566909086.1690063 -691889083.17660046 0 -691889083.17660046 518146729.28346252 0 0 0 0 89188289.506256104 -146064723.39933205 0 -146064723.39933205 93088255.082736969 0 0 0 0 -2392599646.8223267 -543707419.45204163 0 -543707419.45204163 734219744.26593399 0 0 0 0 1916680263.6394577 -97234736.315329552 0 -97234736.315329552 -899852726.59869385 0 0 0 0 -2241481279.3676758 -458909791.73799133 0 -458909791.73799133 593409079.31031036 0 0 0 0 -552094053.23795319 6789327.6043920517 0 6789327.6043920517 -26815015.752052307 0 0 0 0 -921942383.28120422 -1226581692.7069368 0 -1226581692.7069368 -1695122353.9411964 0 0 0 0 -2993008.5943278354 3548222.377782803 0 3548222.377782803 -1625183.0580538036 0 0 0 0 -199625515.03384399 371317039.11889744 0 371317039.11889744 -709631093.26669884 0 0 0 0 -1171205670.4970398 578575051.94301414 0 578575051.94301414 69404832.591411591 0 0 0 0 -457671331.06807327 528811636.26898718 0 528811636.26898718 374053814.17770767 0 0 0 0 -465342163.90703118 251620183.07301572 0 251620183.07301572 220813064.51851273 0 0 0 0 -583253806.44569397 415134241.86575317 0 415134241.86575317 477629177.54572487 0 0 0 0 -555943728.729599 -147789333.47049141 0 -147789333.47049141 82313657.30290699 0 0 0 0 -315957140.06285095 230613671.83663177 0 230613671.83663177 347998201.03345871 0 0 0 0 -44808773.978961945 171575305.16608381 0 171575305.16608381 280983445.95543289 0 0 0 0 -326456692.89139557 393330235.39582253 0 393330235.39582253 433331769.93355179 0 0 0 0 -293554193.46219063 666605508.1927346 0 666605508.1927346 731427587.39744949 0 0 0 0 -232502297.58800507 525073403.43600655 0 525073403.43600655 558761500.99524879 0 0 0 0 -65630231.249322802 546370789.58496368 0 546370789.58496368 450756294.35575104 0 0 0 0 -79071020.969024658 538234760.18092728 0 538234760.18092728 446684234.27723408 0 0 0 0 80865917.377891541 528392709.78949547 0 528392709.78949547 444786053.56174946 0 0 0 0 81501094.42791748 562526675.72073364 0 562526675.72073364 344165526.82133865 0 0 0 0 48001472.257377625 456053599.29377747 0 456053599.29377747 432121653.02041435 0 0 0 0 7730260.0645942688 407164015.17796659 0 407164015.17796659 410415706.5877037 0 0 0 0 -32918432.551940918 381642281.63000488 0 381642281.63000488 427481363.99884796 0 0 0 0 332369365.70266724 330155793.12995625 0 330155793.12995625 268616349.48381233 0 0 0 0 48027372.817405701 181048333.88937974 0 181048333.88937974 192197143.40402222 0 0 0 0 -2385529.6188508868 1853879.1082962546 0 1853879.1082962546 1910949.473429447 0 0 0 0 295091153.47925949 -1280976884.07371 0 -1280976884.07371 50134100.431911469 0 0 0 0 377516459.56526184 444706731.55561543 0 444706731.55561543 333321862.93445206 0 0 0 0 93437036.300430298 366061653.01603508 0 366061653.01603508 393814696.02939034 0 0 0 0 94722836.804679871 444846199.76933861 0 444846199.76933861 418985392.91028214 0 0 0 0 298658037.33939362 426518301.32715321 0 426518301.32715321 388328596.42588329 0 0 0 0 151130780.98490906 452500834.82827473 0 452500834.82827473 474707410.70265961 0 0 0 0 312572459.47824097 374235363.25012684 0 374235363.25012684 388798424.30874872 0 0 0 0 149941416.07054138 341095597.25313187 0 341095597.25313187 461043242.31782341 0 0 0 0 154459088.05893421 337417584.39692342 0 337417584.39692342 308614194.48418999 0 0 0 0 177704319.7579422 474241727.02013111 0 474241727.02013111 344051115.18982124 0 0 0 0 135199736.98073578 430790433.28568935 0 430790433.28568935 382511385.59797573 0 0 0 0 140521568.47376633 421358228.1285677 0 421358228.1285677 395190387.00239563 0 0 0 0 270971197.2407608 567645339.7738657 0 567645339.7738657 60314904.270776749 0 0 0 0 223566038.20394897 547359374.18881893 0 547359374.18881893 230676009.95506811 0 0 0 0 194631592.65685272 513578613.89560604 0 513578613.89560604 191317853.28783226 0 0 0 0 256801999.4410553 417616655.31849957 0 417616655.31849957 221410539.48404026 0 0 0 0 186565798.8512001 450906519.81332302 0 450906519.81332302 96677141.532388687 0 0 0 0 115666357.6397171 445634476.56305599 0 445634476.56305599 2175478.1583652496 0 0 0 0 215267787.65066528 415236557.82124329 0 415236557.82124329 -113652063.96716213 0 0 0 0 81750911.884054184 290885141.42142701 0 290885141.42142701 -106860486.72171021 0 0 0 0 283315718.22584438 418321143.00923014 0 418321143.00923014 -111454612.70503998 0 0 0 0 253539537.7420578 568575015.70062256 0 568575015.70062256 100978164.47267151 0 0 0 0 75379702.702697754 358573360.12316132 0 358573360.12316132 -22574454.600402832 0 0 0 0 287291755.60760498 517095332.90958595 0 517095332.90958595 -35073351.728855133 0 0 0 0 222659834.40188599 550216572.93489456 0 550216572.93489456 138921844.61014175 0 0 0 0 289283868.15275955 538430330.5390234 0 538430330.5390234 125937826.86497879 0 0 0 0 346262242.71551514 632136639.50631523 0 632136639.50631523 118402197.40137267 0 0 0 0 404845589.50532532 621291723.72555447 0 621291723.72555447 21724118.659545898 0 0 0 0 325294056.38760757 594570170.00479221 0 594570170.00479221 352825057.34292221 0 0 0 0 435735989.08604431 704251459.4349308 0 704251459.4349308 216698153.36461258 0 0 0 0 275542515.35906982 706180753.94024849 0 706180753.94024849 472012385.24365234 0 0 0 0 348383147.09440613 694328720.55547905 0 694328720.55547905 294373494.30470467 0 0 0 0 183130249.97111511 754164125.03395939 0 754164125.03395939 475334601.24739838 0 0 0 0 244919976.28003693 664860640.54935217 0 664860640.54935217 300005465.11979866 0 0 0 0 241511165.94554138 638462738.57256317 0 638462738.57256317 217430844.92304587 0 0 0 0 132423876.00382614 641552201.68117905 0 641552201.68117905 380112887.44039917 0 0 0 0 151212179.54830933 690098057.84341812 0 690098057.84341812 391109176.22993851 0 0 0 0 -64799319.296200216 692880898.68479705 0 692880898.68479705 548853397.5346489 0 0 0 0 58461277.653951645 779619705.04156709 0 779619705.04156709 704517551.07934189 0 0 0 0 32930321.042541504 674911048.91358376 0 674911048.91358376 519922506.7240696 0 0 0 0 473953752.47276974 492921041.46831167 0 492921041.46831167 790148999.71123123 0 0 0 0 275837987.54871368 746150927.61608696 0 746150927.61608696 733391632.68694305 0 0 0 0 315508345.70225525 735284891.08019447 0 735284891.08019447 469968213.8592844 0 0 0 0 428326376.54290009 793678170.43518639 0 793678170.43518639 630513490.2676754 0 0 0 0 -217301139.24403381 375260029.8150444 0 375260029.8150444 464243341.79537201 0 0 0 0 -147648338.09426117 680868199.5270052 0 680868199.5270052 1146086392.6698551 0 0 0 0 -22900098.627761841 46288347.464597702 0 46288347.464597702 -123768083.39827156 0 0 0 0 778232.48143768311 123085808.44222546 0 123085808.44222546 86490781.158229828 0 0 0 0 -75407671.611968994 -107505878.48368073 0 -107505878.48368073 480226856.03412437 0 0 0 0 -46817258.199802399 -103048472.84376955 0 -103048472.84376955 56830796.16835022 0 0 0 0 -366067.94516556337 -106136.744365694 0 -106136.744365694 1206831.5286966357 0 0 0 0 -6473813.6012001038 50550404.930125713 0 50550404.930125713 31606593.400249481 0 0 0 0 -3625973.45518272 1270844.062877866 0 1270844.062877866 1184071.8055328864 0 0 0 0 48327879.885845184 3992747.522441864 0 3992747.522441864 -84258930.761241913 0 0 0 0 65187321.03364563 375591965.93146324 0 375591965.93146324 535138107.38907623 0 0 0 0 57143429.542607546 670387155.12136662 0 670387155.12136662 -149453767.71329117 0 0 0 0 271166.18532802165 1190504.1840268876 0 1190504.1840268876 1050064.49082046 0 0 0 0 230606491.4704361 -108555703.09361076 0 -108555703.09361076 59131296.567000389 0 0 0 0 70645229.696807861 267562813.16630197 0 267562813.16630197 1739602391.9987984 0 0 0 0 178912.56899523735 619495.97395217745 0 619495.97395217745 -99241.872638541274 0 0 0 0 -4922534.2948146462 1920073.1879565686 0 1920073.1879565686 2228279.8907898045 0 0 0 0 -24840446.661941528 -111908702.02253723 0 -111908702.02253723 680066411.38598251 0 0 0 0 -1596995.3188441861 -81478.784456124529 0 -81478.784456124529 3679180.7248888481 0 0 0 0 -38089315.848648071 19452660.555500031 0 19452660.555500031 3577940.6492686272 0 0 0 0 367173911.57424927 1016764700.3942204 0 1016764700.3942204 1379308666.5769653 0 0 0 0 280056652.96937561 826146418.84961891 0 826146418.84961891 971248841.3551569 0 0 0 0 510566673.88708496 1082715164.6305637 0 1082715164.6305637 1485155184.9122314 0 0 0 0 232555498.0480423 807184782.06034756 0 807184782.06034756 1247465499.8935738 0 0 0 0 438146635.95009232 681766151.21241903 0 681766151.21241903 994425217.73666 0 0 0 0 410537395.12982178 910325783.8201561 0 910325783.8201561 1181431979.7394991 0 0 0 0 340132462.32003021 707436144.44670057 0 707436144.44670057 832075645.95256424 0 0 0 0 251045554.95501709 668827048.98731232 0 668827048.98731232 1397560120.0110874 0 0 0 0 327721674.10842896 742224660.16660404 0 742224660.16660404 828124427.72662735 0 0 0 0 455373493.9160614 697435829.78644371 0 697435829.78644371 472282110.04358023 0 0 0 0 496130989.84221649 743379480.29115009 0 743379480.29115009 410331180.52438927 0 0 0 0 666057974.27679443 753578002.59730339 0 753578002.59730339 687877930.42957783 0 0 0 0 341301478.88767242 578816599.3644371 0 578816599.3644371 623294139.14191341 0 0 0 0 597139801.15494156 542238599.11627913 0 542238599.11627913 452476099.23264885 0 0 0 0 331083542.75054932 308646242.90076256 0 308646242.90076256 405837493.57782269 0 0 0 0 878021759.56460571 426425497.22817421 0 426425497.22817421 1111224051.9735999 0 0 0 0 411186531.43516922 629716915.67284679 0 629716915.67284679 1068724362.4939461 0 0 0 0 975451280.04824066 930607751.1275444 0 930607751.1275444 1106378856.6305618 0 0 0 0 143188803.22293091 982135612.28439713 0 982135612.28439713 1735789360.3569951 0 0 0 0 325937467.3612442 654621409.11540508 0 654621409.11540508 1135762867.194664 0 0 0 0 363787585.10578918 508344403.58460808 0 508344403.58460808 1673334015.8236771 0 0 0 0 201410795.48988342 796651994.05527496 0 796651994.05527496 1045612431.150404 0 0 0 0 349588916.15328979 972100175.5010519 0 972100175.5010519 1123354370.8458824 0 0 0 0 279044430.95278931 979451503.86822891 0 979451503.86822891 783667973.8212471 0 0 0 0 390008161.92332458 642870366.31585693 0 642870366.31585693 349540452.82194519 0 0 0 0 763726153.98568726 1244006678.8812332 0 1244006678.8812332 915436822.43183517 0 0 0 0 926502658.39781952 587595531.66602898 0 587595531.66602898 129329706.50924683 0 0 0 0 254015596.10333252 601258415.35233688 0 601258415.35233688 523081368.37844849 0 0 0 0 81633180.935630798 1105629309.0750751 0 1105629309.0750751 1356051469.2842331 0 0 0 0 6358360.8463821411 982294344.61625862 0 982294344.61625862 1172935673.1664963 0 0 0 0 435246709.15638733 1060753614.3222828 0 1060753614.3222828 934656002.21469116 0 0 0 0 514019298.57233787 1369716469.5008142 0 1369716469.5008142 1414287081.8231354 0 0 0 0 466268744.16674805 817624715.14175034 0 817624715.14175034 1273439684.5660782 0 0 0 0 30305.516403198242 9308176.5757675171 0 9308176.5757675171 11445017.648200989 0 0 0 0 -1145367.0458077453 2038442.6393658705 0 2038442.6393658705 2645884.5165450238 0 0 0 0 1655126348.9823608 1398841026.0372982 0 1398841026.0372982 1069411041.9981956 0 0 0 0 -39626.470794677734 9259780.8571243286 0 9259780.8571243286 11492059.472831726 0 0 0 0 574476242.99607086 747213620.52419472 0 747213620.52419472 980582217.4477272 0 0 0 0 572393272.29956055 714399237.89936161 0 714399237.89936161 641164963.3469677 0 0 0 0 -1143233.2063595429 1838565.0881978944 0 1838565.0881978944 2721305.2850618251 0 0 0 0 9393513.1382064819 1513141.9392585754 0 1513141.9392585754 -17427260.836742401 0 0 0 0 11254138.349990845 13937314.865678787 0 13937314.865678787 134977.7875213623 0 0 0 0 789264.80158182466 -9696655.0748565868 0 -9696655.0748565868 -9031038.7521130275 0 0 0 0 -14044884.420516968 -2576058.5957431793 0 -2576058.5957431793 4096133.1878929138 0 0 0 0 709775.00863647461 -3245806.8472499847 0 -3245806.8472499847 2488174.9300460815 0 0 0 0 -3073309.7714157104 -2219280.504940033 0 -2219280.504940033 80222.127495765686 0 0 0 0 970636.52487266157 2186811.3259728402 0 2186811.3259728402 332703.68500389159 0 0 0 0 -354317683.2947731 30985386.932994843 0 30985386.932994843 -2504985.3519592285 0 0 0 0 -2362418.5480957031 1397226.5294895172 0 1397226.5294895172 -1615462.016040802 0 0 0 0 1831606.7636108398 -7532.776237487793 0 -7532.776237487793 -1558121.6262626648 0 0 0 0 -132731871.09412384 102382142.16745377 0 102382142.16745377 -78423215.169116974 0 0 0 0 -142848.31180001516 1420197.109333232 0 1420197.109333232 1620355.3401956223 0 0 0 0 -40087751.962562561 -7325831.8869552612 0 -7325831.8869552612 -1690643.7837424278 0 0 0 0 220239.75425785035 -777789.90591688827 0 -777789.90591688827 -792491.82168587111 0 0 0 0 878313.87069904804 444650.87053006236 0 444650.87053006236 -556719.41549872817 0 0 0 0 -65965428.074447632 33290549.649765015 0 33290549.649765015 -9369526.8624515533 0 0 0 0 -54809082.285186768 248395505.45359039 0 248395505.45359039 -262765655.18321609 0 0 0 0 -75561819.876174927 199272829.14715385 0 199272829.14715385 -146147043.72895622 0 0 0 0 19973340.552139282 127470459.29340744 0 127470459.29340744 -241508271.7023716 0 0 0 0 1497068.3496368304 545821.8979754271 0 545821.8979754271 -876532.99011523603 0 0 0 0 -61058278.292297363 64960023.693426132 0 64960023.693426132 -125308506.48585129 0 0 0 0 1256511.6829566956 550275.38570356369 0 550275.38570356369 693479.52830886841 0 0 0 0 8814962.8333244324 1062402.3313617706 0 1062402.3313617706 -1772447.3260421753 0 0 0 0 -939577.60300151631 1537343.7157410607 0 1537343.7157410607 2407102.8510454651 0 0 0 0 428188725.02385712 366942550.98244286 0 366942550.98244286 395016807.50891876 0 0 0 0 216202163.92286682 293128342.67741203 0 293128342.67741203 453581530.4024086 0 0 0 0 304196412.29476166 395536212.57754135 0 395536212.57754135 473237152.31166458 0 0 0 0 -38457.062114376575 171576.72234854009 0 171576.72234854009 295367.76080750325 0 0 0 0 405327177.41988373 698704935.00402927 0 698704935.00402927 336281417.96124268 0 0 0 0 296091880.73295593 456352495.88848877 0 456352495.88848877 103577891.18314171 0 0 0 0 194513500.1746521 535334591.23088455 0 535334591.23088455 42269709.619091034 0 0 0 0 203984917.81384277 314554069.10786819 0 314554069.10786819 -315138445.73503685 0 0 0 0 221473735.4642334 463247798.32060432 0 463247798.32060432 38913479.391972661 0 0 0 0 95061461.346618652 -42977669.575107574 0 -42977669.575107574 -568298223.02398396 0 0 0 0 -132437.55543446168 237044.84680415317 0 237044.84680415317 89177.063325942494 0 0 0 0 -240270872.82551575 341704499.63673019 0 341704499.63673019 -476079174.79550171 0 0 0 0 214664821.54949093 431997923.93780768 0 431997923.93780768 -576547183.22756958 0 0 0 0 -245236048.3125 139303669.01002121 0 139303669.01002121 -227516082.60387421 0 0 0 0 -193307468.89266968 411309042.21429825 0 411309042.21429825 -440737972.66104126 0 0 0 0 -382053714.24275208 259808783.34079742 0 259808783.34079742 -212192535.62463379 0 0 0 0 -26858165.119720459 228916305.36397552 0 228916305.36397552 -120057421.5164541 0 0 0 0 -110709202.76817322 266857097.45967484 0 266857097.45967484 -212016778.58246815 0 0 0 0 -221248890.42421722 330739943.324296 0 330739943.324296 -114610859.03026962 0 0 0 0 -174450296.11300659 140953163.30312347 0 140953163.30312347 -228539899.3409481 0 0 0 0 -145537356.19223785 313530935.56786442 0 313530935.56786442 -15900606.851036072 0 0 0 0 69871698.44694519 315237728.64027023 0 315237728.64027023 -111108608.84939957 0 0 0 0 93227880.157075882 310598704.33642507 0 310598704.33642507 -108348646.94313431 0 0 0 0 94935723.146469116 323280034.84282303 0 323280034.84282303 -191335518.80315405 0 0 0 0 26145171.196022034 307684137.24909496 0 307684137.24909496 -107191832.11281967 0 0 0 0 -129084743.54997253 329760191.75479889 0 329760191.75479889 -16421876.464996338 0 0 0 0 -25202507.300178528 383525769.96131659 0 383525769.96131659 -22300707.627048492 0 0 0 0 -196261137.2808075 361559240.0790329 0 361559240.0790329 90825126.143835068 0 0 0 0 -237376569.73427582 325560872.49737644 0 325560872.49737644 77790964.917606354 0 0 0 0 -223316450.9331665 275520328.43063736 0 275520328.43063736 76306341.734832168 0 0 0 0 -638917366.84764099 97123602.580571175 0 97123602.580571175 237040799.95708656 0 0 0 0 -62758.808227693895 540738.23930192925 0 540738.23930192925 591741.00539545901 0 0 0 0 -456725461.93913269 322413759.9906559 0 322413759.9906559 514758122.20550036 0 0 0 0 468140105.5688858 472013780.83778572 0 472013780.83778572 384107198.28028107 0 0 0 0 -255716814.8432312 117619732.79609489 0 117619732.79609489 -64853297.142314911 0 0 0 0 490314.23804025439 -93858136.007012978 0 -93858136.007012978 -61998163.307098389 0 0 0 0 -107734675.41934204 122982112.40634155 0 122982112.40634155 -65069625.452362061 0 0 0 0 -143707939.68409729 211833854.06252289 0 211833854.06252289 -143952361.25504684 0 0 0 0 -158470932.10533142 257520006.32720947 0 257520006.32720947 -82104996.109743118 0 0 0 0 -153513485.06021881 297629488.24445724 0 297629488.24445724 -47384975.270893097 0 0 0 0 -248581116.37181091 220880067.40189362 0 220880067.40189362 -817471.74866485596 0 0 0 0 -158114343.55607033 263553041.91194284 0 263553041.91194284 -59591881.616210938 0 0 0 0 -76742731.897743225 56977693.988357544 0 56977693.988357544 -40346970.763137817 0 0 0 0 -48765341.320625305 122660857.05586624 0 122660857.05586624 -202238425.23555702 0 0 0 0 115255.33847045898 78933535.435052872 0 78933535.435052872 -180638463.0179863 0 0 0 0 -2848985.4664535522 67214447.395038605 0 67214447.395038605 -201259403.99605143 0 0 0 0 -13852160.031677246 153201565.31562424 0 153201565.31562424 -376627085.34869003 0 0 0 0 37170728.349731445 -48823652.373786926 0 -48823652.373786926 -227571705.19762802 0 0 0 0 -261048034.19753265 226005763.03384018 0 226005763.03384018 -195360228.74596405 0 0 0 0 -39126154.286437988 -48708312.084861755 0 -48708312.084861755 -20771489.408935547 0 0 0 0 289493.4446614664 453430.63835735433 0 453430.63835735433 -652719.80351643637 0 0 0 0 21948142.342971802 223636.28008079529 0 223636.28008079529 -12552931.979034424 0 0 0 0 11195008.077301025 13150648.720638275 0 13150648.720638275 -27475926.607190132 0 0 0 0 750588.47229197435 1045264.2690736279 0 1045264.2690736279 -1725876.8460084628 0 0 0 0 -4050663.0969772339 12495145.5801754 0 12495145.5801754 -4841959.4252090454 0 0 0 0 3126455.6589584351 -7201724.6545705795 0 -7201724.6545705795 -34971751.9842453 0 0 0 0 786258.87385220453 3031768.0036887713 0 3031768.0036887713 3171477.2916424535 0 0 0 0 -471012.24054718018 6719118.8570823669 0 6719118.8570823669 78642.254306793213 0 0 0 0 3157253.9975891113 10979821.539333344 0 10979821.539333344 4668376.940032959 0 0 0 0 1052744.1728820801 3261403.5842113495 0 3261403.5842113495 -1116399.8050270081 0 0 0 0 -55964982.561470032 20915982.101089478 0 20915982.101089478 -3209051.3353157043 0 0 0 0 -66207485.656974792 46802603.849693298 0 46802603.849693298 -53274382.264511108 0 0 0 0 -97851.720199584961 47872406.528215408 0 47872406.528215408 -91914624.307498932 0 0 0 0 25190.68350982666 14822454.962329865 0 14822454.962329865 -21798663.905292511 0 0 0 0 -37583934.550186157 58461909.600378036 0 58461909.600378036 -72064205.168170929 0 0 0 0 -35588866.907064438 9302888.8254647255 0 9302888.8254647255 13614274.05090332 0 0 0 0 -34604152.698548317 13836161.142991543 0 13836161.142991543 -13004155.159339905 0 0 0 0 -36794004.010650635 60686075.618400574 0 60686075.618400574 29752910.441825867 0 0 0 0 1173694.1819098806 1476263.9351497646 0 1476263.9351497646 -2618717.0137728881 0 0 0 0 -34307352.445617676 14667418.863172531 0 14667418.863172531 -15795541.891893387 0 0 0 0 51691498.05197525 140587254.9598732 0 140587254.9598732 368160242.78381348 0 0 0 0 212748026.89892578 -301885571.45296097 0 -301885571.45296097 297984312.28003693 0 0 0 0 348349331.64896393 -548343543.5406208 0 -548343543.5406208 734718130.94430542 0 0 0 0 68761.528405260295 521164.15217712708 0 521164.15217712708 562241.41070933081 0 0 0 0 -465829004.60717773 202861764.75064087 0 202861764.75064087 1826351844.3231659 0 0 0 0 -84407697.021972656 -195370241.71073341 0 -195370241.71073341 640860807.70205688 0 0 0 0 -264405.7024230957 -45897359.247415543 0 -45897359.247415543 321581851.33204651 0 0 0 0 -30634871.389587402 49365504.429607391 0 49365504.429607391 -28288706.423288345 0 0 0 0 18528.502420026809 -86454.882244067267 0 -86454.882244067267 -251371.88075957913 0 0 0 0 524424315.93518066 -523416538.87201691 0 -523416538.87201691 -113250390.50389862 0 0 0 0 41833899.261123657 804528556.98592758 0 804528556.98592758 1310598463.8622842 0 0 0 0 -76080688.160980225 286952531.5933609 0 286952531.5933609 1375906864.1450081 0 0 0 0 879357.00767332315 -189051.37411717325 0 -189051.37411717325 -55425.175508830696 0 0 0 0 -143163833.79322815 -3503480.9524002075 0 -3503480.9524002075 566355326.52037048 0 0 0 0 15812873.56281662 -214462296.71232986 0 -214462296.71232986 -130874729.36552429 0 0 0 0 126993227.96348572 167752666.97454262 0 167752666.97454262 134497750.13695526 0 0 0 0 135275335.59667969 637708679.06919098 0 637708679.06919098 755326425.40253735 0 0 0 0 -200361887.40534973 222589472.50764847 0 222589472.50764847 825581327.7468338 0 0 0 0 99988683.567611694 819639237.0304966 0 819639237.0304966 894256591.51382446 0 0 0 0 -29005738.327812195 456959111.12961388 0 456959111.12961388 572031952.2052536 0 0 0 0 280744486.49026489 835303572.45586395 0 835303572.45586395 662730489.76266479 0 0 0 0 -2149780.4028293369 896945049.08965468 0 896945049.08965468 1167559755.7222443 0 0 0 0 202914706.49345398 918279365.2548542 0 918279365.2548542 950855568.18809509 0 0 0 0 123461433.78842163 968926811.82086182 0 968926811.82086182 1173534587.05583 0 0 0 0 49681584.891487122 663484675.67168236 0 663484675.67168236 1011192029.6902084 0 0 0 0 68121905.254699707 102458092.60825729 0 102458092.60825729 -18089821.910339355 0 0 0 0 259334898.8915863 -51264279.912830353 0 -51264279.912830353 -199907963.60315704 0 0 0 0 589977975.58971405 475567620.21204948 0 475567620.21204948 153405494.4334259 0 0 0 0 87830465.688552856 103831920.89228821 0 103831920.89228821 -36015639.025184631 0 0 0 0 -110526505.17190552 540386423.8124752 0 540386423.8124752 410535740.38559723 0 0 0 0 87204589.201339722 571405729.19070053 0 571405729.19070053 522306010.50455856 0 0 0 0 216029706.73635864 693834171.01509476 0 693834171.01509476 201423517.97997284 0 0 0 0 11452502.302108765 414278664.00426865 0 414278664.00426865 -41941553.67011261 0 0 0 0 94017051.337219238 316300039.1349144 0 316300039.1349144 43241718.973783493 0 0 0 0 167394096.71224976 156852885.49011993 0 156852885.49011993 35868215.760231018 0 0 0 0 214094400.88212585 534774980.21767426 0 534774980.21767426 262364877.04502106 0 0 0 0 265892552.9261322 309333168.03996277 0 309333168.03996277 -373024145.21614838 0 0 0 0 344800977.97647095 -28835011.754776001 0 -28835011.754776001 -394553895.32790327 0 0 0 0 -400390.76120204851 933852.18294690549 0 933852.18294690549 -93629.312021639198 0 0 0 0 -792947197.97346878 -22871987.720284462 0 -22871987.720284462 12982134.563980103 0 0 0 0 -139486647.46339417 705428534.5431881 0 705428534.5431881 -584995316.00200653 0 0 0 0 -442713105.41687584 568432231.97935247 0 568432231.97935247 -356372487.07221222 0 0 0 0 342584149.68748474 92872389.927341461 0 92872389.927341461 -863397503.6855526 0 0 0 0 -764856792.7581749 -172552034.82736778 0 -172552034.82736778 407853653.37325287 0 0 0 0 89040282.513259888 -289394664.41559601 0 -289394664.41559601 289679920.08612823 0 0 0 0 283304543.90286255 1982413.0510749817 0 1982413.0510749817 -259384130.0517807 0 0 0 0 22575570.381416321 60607089.397956848 0 60607089.397956848 550376314.60351562 0 0 0 0 655449.82232745737 61071.468720501289 0 61071.468720501289 36557.632565898821 0 0 0 0 265653282.97342682 -119657755.66890907 0 -119657755.66890907 301803629.0983429 0 0 0 0 195970935.02198792 -139012660.27667236 0 -139012660.27667236 577102635.86215687 0 0 0 0 248006197.34115601 -180303655.44779205 0 -180303655.44779205 271223802.19363451 0 0 0 0 493333.45753850043 1838779.7030286491 0 1838779.7030286491 2362720.2442817288 0 0 0 0 5101935.3213768005 5340652.2185430527 0 5340652.2185430527 -4971761.0828018188 0 0 0 0 146924785.10273743 -250462177.44128799 0 -250462177.44128799 275225856.94673252 0 0 0 0 -148136495.47305298 -74725793.781070709 0 -74725793.781070709 396142295.28998566 0 0 0 0 -275362925.74106598 168309869.42584634 0 168309869.42584634 102376426.08298492 0 0 0 0 -318928956.34478283 -167086838.07069969 0 -167086838.07069969 351017102.83966827 0 0 0 0 138206705.23649597 -158956738.06515503 0 -158956738.06515503 285338868.60868835 0 0 0 0 -52736912.346599579 33855809.168120384 0 33855809.168120384 95835686.43686676 0 0 0 0 74563177.029998779 16056781.001060486 0 16056781.001060486 -35728372.263145447 0 0 0 0 7158963.7138366699 -94107940.644088745 0 -94107940.644088745 230028040.28318787 0 0 0 0 -388707949.85634613 -396064049.12648201 0 -396064049.12648201 171582667.00032425 0 0 0 0 20132104.704711914 237830138.7353096 0 237830138.7353096 -464318442.19493866 0 0 0 0 -340069456.55560112 346234353.79632044 0 346234353.79632044 -136312151.48786163 0 0 0 0 -71397093.239624023 201815323.74073029 0 201815323.74073029 -61382383.14050293 0 0 0 0 -80653393.761131287 238427811.6613884 0 238427811.6613884 -203313739.74958038 0 0 0 0 -191320804.52978516 133482613.49374008 0 133482613.49374008 -72837442.346420288 0 0 0 0 -86916624.543426514 260818690.30737305 0 260818690.30737305 -138981713.74521637 0 0 0 0 -66058904.452865601 168547402.37992477 0 168547402.37992477 28592442.364990234 0 0 0 0 5767627.9698410034 5594104.4088954926 0 5594104.4088954926 -61840726.448497772 0 0 0 0 55250577.054832458 48616141.503299713 0 48616141.503299713 -550702682.01663113 0 0 0 0 -5750464.0721130371 45330366.221290588 0 45330366.221290588 -20555534.633554459 0 0 0 0 -12284398.621520996 102590522.48394394 0 102590522.48394394 -223576511.7964673 0 0 0 0 -49334457.463510513 23776725.17743206 0 23776725.17743206 -30315873.802330017 0 0 0 0 5627530.1689472198 -14442783.051621437 0 -14442783.051621437 14151141.788871765 0 0 0 0 -36514704.12679863 -9007122.5555529594 0 -9007122.5555529594 27610154.731185913 0 0 0 0 444750.24776224978 5995734.4721961748 0 5995734.4721961748 1563005.3132810006 0 0 0 0 190725115.09438324 26959581.100917816 0 26959581.100917816 9247370.5661292076 0 0 0 0 -270849396.3407135 -28136077.160194397 0 -28136077.160194397 -1149008.5300273895 0 0 0 0 22563743.447443008 29866281.619596958 0 29866281.619596958 -5729161.0813827515 0 0 0 0 -1127622.2047782503 2875062.9768168386 0 2875062.9768168386 -218590.02961353213 0 0 0 0 -10380701.418298721 51811328.775370121 0 51811328.775370121 -20221186.132720947 0 0 0 0 -263123743.02084351 -60489664.163124084 0 -60489664.163124084 81305053.58039093 0 0 0 0 330345712.11136627 127352598.37651062 0 127352598.37651062 -107836421.5281868 0 0 0 0 276274427.47903442 392768307.37733746 0 392768307.37733746 -726995971.64225006 0 0 0 0 384376488.35379791 117154068.59269953 0 117154068.59269953 -188531901.8666687 0 0 0 0 171744679.6348114 178363390.27033615 0 178363390.27033615 -53168703.038139343 0 0 0 0 9119168.4420042038 -31076199.444578409 0 -31076199.444578409 -5882539.5422058105 0 0 0 0 738625154.40821922 137112175.40970904 0 137112175.40970904 -1061840234.8833275 0 0 0 0 -342994.9133790303 5095247.4346282743 0 5095247.4346282743 1154558.0581371794 0 0 0 0 717609140.59824371 -714968562.54107666 0 -714968562.54107666 -82635795.281848192 0 0 0 0 18219884.049453735 -23771778.652479172 0 -23771778.652479172 -187328209.72698975 0 0 0 0 -442257.43296951056 1721770.5020789229 0 1721770.5020789229 -161362.02444238402 0 0 0 0 37825878.510681152 28523502.894062042 0 28523502.894062042 -3946423.0736870766 0 0 0 0 -51184549.177513123 -29021731.345430374 0 -29021731.345430374 13076386.289039612 0 0 0 0 -328501808.22783232 70517163.912887335 0 70517163.912887335 30882964.614257812 0 0 0 0 129082659.47951508 457450646.3792572 0 457450646.3792572 -277324386.38445282 0 0 0 0 6845.9844111837447 603577.50673360704 0 603577.50673360704 -241793.45781932585 0 0 0 0 7205306.3655853271 -210403020.91461563 0 -210403020.91461563 -565035021.77156448 0 0 0 0 73596695.599945068 19955491.490869522 0 19955491.490869522 -41458269.715003967 0 0 0 0 58141595.214043617 74173217.252605438 0 74173217.252605438 -100173766.74745178 0 0 0 0 -3826902.1535720825 7259338.9913864136 0 7259338.9913864136 20576862.602306366 0 0 0 0 15112945.806625366 -4602603.087272644 0 -4602603.087272644 18258693.605190277 0 0 0 0 -8465597.8609161377 4485425.3444952965 0 4485425.3444952965 23268843.402683258 0 0 0 0 1638801.8644504547 18084475.553869724 0 18084475.553869724 -50426.975612640381 0 0 0 0 4855342.9210092761 5415340.6868770979 0 5415340.6868770979 1843765.9717708686 0 0 0 0 1480387.8318634033 10045941.532436371 0 10045941.532436371 -19885587.772972107 0 0 0 0 -381004.30472920835 2258344.2312391475 0 2258344.2312391475 984734.44155229535 0 0 0 0 1644206.2217407227 -554489.69585800171 0 -554489.69585800171 8022309.1733818054 0 0 0 0 -129820321.2824707 305868115.46614838 0 305868115.46614838 527804811.5237999 0 0 0 0 -294425.04412396252 2498466.4009033637 0 2498466.4009033637 2126131.5948333875 0 0 0 0 -182766520.22826385 75006800.182823181 0 75006800.182823181 687308506.86014175 0 0 0 0 -1134323.9360084534 6249898.8213105202 0 6249898.8213105202 9526895.4691162109 0 0 0 0 3353863.4785812981 4182979.4283130206 0 4182979.4283130206 1537838.5383537821 0 0 0 0 166334.96385981515 633082.96769845206 0 633082.96769845206 394579.02493899409 0 0 0 0 -41157902.737457275 -288383635.19694138 0 -288383635.19694138 441790679.88617849 0 0 0 0 1832971.531539917 4884303.5766448975 0 4884303.5766448975 -8287932.8660945892 0 0 0 0 172800358.5799408 -201372494.68935776 0 -201372494.68935776 103032277.05613077 0 0 0 0 17014771.700256348 5994629.7899703979 0 5994629.7899703979 -62064388.635810852 0 0 0 0 6756591.2186813354 5494361.5806503296 0 5494361.5806503296 -32419662.534378052 0 0 0 0 16890288.135803223 13677049.757461548 0 13677049.757461548 -30700077.80600071 0 0 0 0 5030746.4954071045 7509353.2876586914 0 7509353.2876586914 -14377811.643638611 0 0 0 0 -3329880.9534454346 21783002.017913818 0 21783002.017913818 -21247793.427099228 0 0 0 0 11868813.796844482 19826340.04101181 0 19826340.04101181 -35369761.097740173 0 0 0 0 -6169390.4908752441 27856055.519641876 0 27856055.519641876 -36412524.094853878 0 0 0 0 2144588.1496810913 18107055.373464584 0 18107055.373464584 -42475695.742446899 0 0 0 0 58292208.812866211 10504105.544078827 0 10504105.544078827 -61639131.742381096 0 0 0 0 31745562.938053131 40788887.725105286 0 40788887.725105286 -70973629.97454071 0 0 0 0 -11929773.287567139 69134136.912540436 0 69134136.912540436 -83687621.320274353 0 0 0 0 -28246105.238342285 25351840.042358398 0 25351840.042358398 -54524171.773651123 0 0 0 0 -18047225.792182922 16563782.541675568 0 16563782.541675568 -36275269.147735596 0 0 0 0 -6813568.0252532959 32419234.463550568 0 32419234.463550568 -52785953.358989716 0 0 0 0 3307195.9222717285 11796496.796138763 0 11796496.796138763 -50924659.754863739 0 0 0 0 5552053.3445549011 19320808.183928967 0 19320808.183928967 -36051491.693130493 0 0 0 0 1294805.1374664307 7649693.652885437 0 7649693.652885437 -28942374.163261414 0 0 0 0 -10143821.475326538 20203497.72253418 0 20203497.72253418 -22965655.915842056 0 0 0 0 8726768.5007674396 7275535.0271082316 0 7275535.0271082316 679896.60434791632 0 0 0 0 110870524.4241333 -142835600.35502625 0 -142835600.35502625 98319317.339244843 0 0 0 0 136199641.70256042 -125073473.04927444 0 -125073473.04927444 99386190.386862755 0 0 0 0 117961136.93955994 -166208759.08929825 0 -166208759.08929825 86387067.122898102 0 0 0 0 65936400.904655457 -78963780.537082672 0 -78963780.537082672 74692494.041050911 0 0 0 0 6646761.420613952 6446772.4629704915 0 6446772.4629704915 1597284.0797565412 0 0 0 0 4566497.3487930298 18105642.756401062 0 18105642.756401062 -38136300.671096802 0 0 0 0 6484231.4013748169 16151139.367273331 0 16151139.367273331 -50578346.312744141 0 0 0 0 5504533.9993896484 13991267.044593811 0 13991267.044593811 -46135490.521104813 0 0 0 0 7326193.2244796753 15019427.480472565 0 15019427.480472565 -55518443.283378601 0 0 0 0 6294069.2832374573 16797382.734226227 0 16797382.734226227 -45380985.895843506 0 0 0 0 -2210450.1898498535 5957429.6365432739 0 5957429.6365432739 -55061830.04535675 0 0 0 0 -27507705.574462891 12989637.904785156 0 12989637.904785156 -30184190.459533691 0 0 0 0 -1544055.7082824707 13446510.612571716 0 13446510.612571716 -40322362.90877533 0 0 0 0 -537524.11578369141 25434984.764953613 0 25434984.764953613 -29876307.567718506 0 0 0 0 -2441956.212059021 24333982.240488052 0 24333982.240488052 -27915770.554504395 0 0 0 0 -44239840.132720947 -108457558.68395996 0 -108457558.68395996 445929215.14715958 0 0 0 0 -8528722.9112701416 28483167.22883606 0 28483167.22883606 -23845015.597045898 0 0 0 0 5429595.5306396484 36535604.788345337 0 36535604.788345337 -20780277.714797974 0 0 0 0 8974773.4999679364 10925994.88171706 0 10925994.88171706 766118.60336173233 0 0 0 0 16485350.405670166 44981522.372558594 0 44981522.372558594 -32060694.815475464 0 0 0 0 35171877.820007324 47773675.785461426 0 47773675.785461426 -32370577.309997559 0 0 0 0 2435757.7941251844 -1746464.6255314089 0 -1746464.6255314089 -1974313.40183484 0 0 0 0 -41071065.605163574 -192993803.66694641 0 -192993803.66694641 430389345.55370331 0 0 0 0 -20989492.37878418 13639968.509841919 0 13639968.509841919 -33786996.049171448 0 0 0 0 -1870096.4330444336 23118556.7368927 0 23118556.7368927 -31439676.349731445 0 0 0 0 -9691936.1742553711 29061279.933486938 0 29061279.933486938 -26642168.332336426 0 0 0 0 -11246085.163269043 30272805.839355469 0 30272805.839355469 -27026156.179718018 0 0 0 0 2573774.2817993164 36193478.517944336 0 36193478.517944336 -25033556.140838623 0 0 0 0 1749906.6932373047 37756201.166625977 0 37756201.166625977 -27501114.184051514 0 0 0 0 321037.09429931641 39820670.79504776 0 39820670.79504776 -20767753.593261719 0 0 0 0 21535627.336364746 47637080.193847656 0 47637080.193847656 -21884927.841924667 0 0 0 0 13902441.516479492 37620263.646148682 0 37620263.646148682 -20867320.159790039 0 0 0 0 13724623.263183594 43679626.479492188 0 43679626.479492188 -22163148.800302505 0 0 0 0 31645841.000473022 39418937.011024475 0 39418937.011024475 -15289816.797973633 0 0 0 0 15912151.090515137 42037467.091720581 0 42037467.091720581 -25138249.882171631 0 0 0 0 -1645873.8302001953 41210809.87084198 0 41210809.87084198 -24985784.156829834 0 0 0 0 -67584615.688171387 -168241041.25726318 0 -168241041.25726318 409709023.36427736 0 0 0 0 -60530380.614135742 -190463353.50344849 0 -190463353.50344849 381109498.75137138 0 0 0 0 -45577378.417175293 -157085190.97228241 0 -157085190.97228241 327404300.86159515 0 0 0 0 -46213455.907348633 -150913981.26491547 0 -150913981.26491547 344862819.80406189 0 0 0 0 -50360848.835876465 -149580489.40745544 0 -149580489.40745544 389557171.73900414 0 0 0 0 -32815862.777893066 -102071484.35374451 0 -102071484.35374451 410796453.24128962 0 0 0 0 -19320970.684509277 -106850847.12809753 0 -106850847.12809753 365929386.40061951 0 0 0 0 26187260.492218018 -44457710.072418213 0 -44457710.072418213 417049257.65288544 0 0 0 0 66250586.228881836 -30510853.460388184 0 -30510853.460388184 386732443.65185547 0 0 0 0 -29841923.632522583 20558688.268585205 0 20558688.268585205 -30229628.664611816 0 0 0 0 -17795306.180847168 32290456.583770752 0 32290456.583770752 -28808791.045837402 0 0 0 0 127804305.0947876 -50906893.678985596 0 -50906893.678985596 -133667799.16410828 0 0 0 0 143792051.85438538 13194682.300859451 0 13194682.300859451 306992000.102005 0 0 0 0 -141081466.85562134 95963645.566198349 0 95963645.566198349 163388282.78656006 0 0 0 0 -169638071.66931152 -8045395.2809143066 0 -8045395.2809143066 314248956.25924683 0 0 0 0 175300882.15356445 -183972931.96406555 0 -183972931.96406555 323420851.8253479 0 0 0 0 228173504.63237 -92766206.239322662 0 -92766206.239322662 285458369.99880981 0 0 0 0 50935036.104125977 47592695.011932373 0 47592695.011932373 -33650665.445999146 0 0 0 0 76714371.48449707 44781995.136383057 0 44781995.136383057 -34717168.715171814 0 0 0 0 36569161.109619141 43959681.602668762 0 43959681.602668762 -22353609.890197754 0 0 0 0 79917688.173522949 -218694431.38258362 0 -218694431.38258362 354191644.96551514 0 0 0 0 -46772906.884672642 -165942330.24341017 0 -165942330.24341017 329929152.79983521 0 0 0 0 -46991502.552612305 -190824284.76938629 0 -190824284.76938629 367544558.5944519 0 0 0 0 24692284.185302734 -174816918.25332642 0 -174816918.25332642 308904768.27259827 0 0 0 0 -48805775.856689453 -179550622.80595398 0 -179550622.80595398 353597611.71730042 0 0 0 0 24572641.376525879 -219338841.93250275 0 -219338841.93250275 361246583.63990784 0 0 0 0 43793336.064712524 -147897396.2158432 0 -147897396.2158432 313851994.24615479 0 0 0 0 50715059.844528198 -75990800.750549316 0 -75990800.750549316 287380348.24436951 0 0 0 0 96109720.393371582 -133079526.93478394 0 -133079526.93478394 299476499.18481445 0 0 0 0 -25951677.737487793 -109779848.07470703 0 -109779848.07470703 299034213.20336044 0 0 0 0 18041169.696166992 -79727841.988327026 0 -79727841.988327026 274873964.08411407 0 0 0 0 -62525202.266937256 -35066186.396316528 0 -35066186.396316528 293400815.40602922 0 0 0 0 -26529829.806472778 28583627.847156525 0 28583627.847156525 309630707.91320801 0 0 0 0 92989128.052429199 -41551367.270515442 0 -41551367.270515442 293663263.7640543 0 0 0 0 -130323264.57389832 -92915479.169754028 0 -92915479.169754028 242047860.38142395 0 0 0 0 -90750839.782447815 -75326273.735925674 0 -75326273.735925674 193724077.52851868 0 0 0 0 -92325495.03414917 -59541567.434463501 0 -59541567.434463501 271357919.9887352 0 0 0 0 -30011131.049179077 -136895466.90706253 0 -136895466.90706253 257041512.11773682 0 0 0 0 -119997296.53245544 -99354544.310081482 0 -99354544.310081482 242329032.48176193 0 0 0 0 -62028896.641387939 -155474961.98886871 0 -155474961.98886871 176154563.99118805 0 0 0 0 -41001353.06072998 -180977600.50616455 0 -180977600.50616455 316900761.92891312 0 0 0 0 -56240650.78213501 -131018348.65582275 0 -131018348.65582275 286522655.3279953 0 0 0 0 -40095128.086334229 -145118551.75682831 0 -145118551.75682831 261158322.8114624 0 0 0 0 -48803327.829486847 -167181878.72614098 0 -167181878.72614098 319911673.24873352 0 0 0 0 -50553847.28553009 -171662815.30005646 0 -171662815.30005646 226680260.65216064 0 0 0 0 -67600196.977676392 -134809745.82833862 0 -134809745.82833862 263412945.78615761 0 0 0 0 -65519612.115509033 -199282320.3842392 0 -199282320.3842392 85622932.327606201 0 0 0 0 -116756678.09532166 -121707004.24202347 0 -121707004.24202347 168861177.99974251 0 0 0 0 -209911155.53366852 -85822879.119789124 0 -85822879.119789124 193066786.4616394 0 0 0 0 -101970631.8981781 -132631567.28687859 0 -132631567.28687859 92038301.772781372 0 0 0 0 149172872.54161072 -78862916.922410965 0 -78862916.922410965 196008101.32676697 0 0 0 0 55573557.158813477 -125115088.88571167 0 -125115088.88571167 205492475.32054138 0 0 0 0 101098336.02954102 -100860312.14665222 0 -100860312.14665222 159588420.12244034 0 0 0 0 117444237.26364136 -140183368.17299652 0 -140183368.17299652 101271303.03462219 0 0 0 0 112909956.00552368 -30252512.193954468 0 -30252512.193954468 309198734.24945068 0 0 0 0 93541795.892883301 -67457645.558662415 0 -67457645.558662415 238250392.57498169 0 0 0 0 36521647.686248779 -82993854.283088684 0 -82993854.283088684 294164897.69552612 0 0 0 0 25426644.575363159 -70381392.796821594 0 -70381392.796821594 340907436.59973145 0 0 0 0 -4895465.7565841675 -102603591.47373581 0 -102603591.47373581 327737052.80096436 0 0 0 0 3615874.9870605469 -119906048.1153183 0 -119906048.1153183 269746149.67822266 0 0 0 0 -24339467.927062988 -130628345.00585938 0 -130628345.00585938 265812546.90161133 0 0 0 0 -27762656.512664795 -144485656.6730957 0 -144485656.6730957 286874017.34578705 0 0 0 0 30902107.838531494 -122099352.66718292 0 -122099352.66718292 206901070.7809906 0 0 0 0 -7168316.7716369629 -150465008.87058258 0 -150465008.87058258 197515913.86319733 0 0 0 0 39858877.349121094 -96450490.753154755 0 -96450490.753154755 264577534.1750946 0 0 0 0 70488193.238922119 -149409180.36623001 0 -149409180.36623001 105767218.96133423 0 0 0 0 -44207446.565826416 -161583386.63161469 0 -161583386.63161469 151981038.35817337 0 0 0 0 4282233.4305725098 -139161829.09679413 0 -139161829.09679413 159130453.41195679 0 0 0 0 32393002.851318359 -175360590.05292892 0 -175360590.05292892 68245516.125717163 0 0 0 0 22684707.934318542 -182023403.1578598 0 -182023403.1578598 93937207.500717163 0 0 0 0 85399753.662750244 -167143951.1457634 0 -167143951.1457634 42315119.335449219 0 0 0 0 119536854.98988342 -158215588.86246872 0 -158215588.86246872 50117147.014945984 0 0 0 0 69130571.429656982 -141435116.80918884 0 -141435116.80918884 139602247.16490936 0 0 0 0 86116912.92868042 -178825599.34149933 0 -178825599.34149933 92293286.387041092 0 0 0 0 163571785.04295349 -175923242.98850632 0 -175923242.98850632 -31131928.681083679 0 0 0 0 93071088.025596619 -203302162.26890469 0 -203302162.26890469 -7333746.7786483765 0 0 0 0 39546827.207946777 -213613294.70462418 0 -213613294.70462418 -4369412.4756088257 0 0 0 0 -33055680.289215088 -180016148.03274536 0 -180016148.03274536 67917187.414941788 0 0 0 0 31800566.143218994 -189211818.22838211 0 -189211818.22838211 -11756848.885925293 0 0 0 0 7566865.7878646851 -222780591.26319504 0 -222780591.26319504 -54537242.236175537 0 0 0 0 -131190930.67146301 -203805423.40254211 0 -203805423.40254211 -39891894.918231964 0 0 0 0 94474027.832725525 -243655341.81495667 0 -243655341.81495667 -88285052.859809875 0 0 0 0 168074155.61763 -199115604.42866516 0 -199115604.42866516 -91877654.158987999 0 0 0 0 -189770655.39329529 -40961708.50417614 0 -40961708.50417614 33748947.17401123 0 0 0 0 -256200374.09523392 -145419347.89904213 0 -145419347.89904213 95692190.914276123 0 0 0 0 -134895637.08851624 -194374736.9759903 0 -194374736.9759903 39187189.414268494 0 0 0 0 -104310411.66931152 -156208217.27447128 0 -156208217.27447128 -17163843.87399292 0 0 0 0 -18793597.75969696 -160649799.37485695 0 -160649799.37485695 45574167.347335815 0 0 0 0 -271241069.67272949 -168744231.54543304 0 -168744231.54543304 -3267547.9652366638 0 0 0 0 -104628227.48126984 -178357948.56652451 0 -178357948.56652451 -99827359.620361328 0 0 0 0 -225588456.23106384 -119021524.73814106 0 -119021524.73814106 -150480884.09164429 0 0 0 0 -626159248.80208588 8817555.8499145508 0 8817555.8499145508 -74060321.250785828 0 0 0 0 -335487736.63591957 32103405.914240599 0 32103405.914240599 -186157531.81201935 0 0 0 0 -341242893.31638336 -60574586.054775238 0 -60574586.054775238 -113329607.03689575 0 0 0 0 -310174311.7345705 -174559857.51723456 0 -174559857.51723456 -38975368.135505676 0 0 0 0 -387769490.48519135 -83661449.770626068 0 -83661449.770626068 -117359036.65858078 0 0 0 0 201260591.02853394 -277782239.91916275 0 -277782239.91916275 -134219133.13957119 0 0 0 0 188638335.04439163 -229209090.20337677 0 -229209090.20337677 -148327637.81238556 0 0 0 0 30607688.051704407 -303777123.98387146 0 -303777123.98387146 -127120022.16378021 0 0 0 0 145496998.44592285 -342416815.44420242 0 -342416815.44420242 -38389454.966669083 0 0 0 0 -223242526.10723686 -374085918.90619564 0 -374085918.90619564 3164706.3302993774 0 0 0 0 599911290.50100708 -341442005.97393036 0 -341442005.97393036 -155145438.72940445 0 0 0 0 462245869.26499939 18395883.118041992 0 18395883.118041992 -348890820.80809593 0 0 0 0 255113846.25228882 -67280157.097763062 0 -67280157.097763062 -113035427.87527466 0 0 0 0 363471820.71522522 25963854.825788498 0 25963854.825788498 -129893376.34668732 0 0 0 0 219819606.89376068 -230364594.78655624 0 -230364594.78655624 -152110474.36493683 0 0 0 0 162597252.15443325 -81215562.270215154 0 -81215562.270215154 -53651392.050437927 0 0 0 0 301798597.09886169 -138317625.98372078 0 -138317625.98372078 -110040084.88873291 0 0 0 0 155320790.65801525 -145625056.22018957 0 -145625056.22018957 -15941843.415870667 0 0 0 0 164768254.36659241 -175526002.54607391 0 -175526002.54607391 -96490061.54746151 0 0 0 0 93528865.829978943 16699402.334335327 0 16699402.334335327 -11682364.289606094 0 0 0 0 257046294.31489563 -41180276.63779068 0 -41180276.63779068 -50700787.40275383 0 0 0 0 103730614.03073883 61827026.17282486 0 61827026.17282486 40564268.947502136 0 0 0 0 222694958.28347778 139248176.40171051 0 139248176.40171051 84136890.853437424 0 0 0 0 -72238.210624210536 1073247.6480972068 0 1073247.6480972068 227006.99733672896 0 0 0 0 102954806.89463806 203739612.19841766 0 203739612.19841766 -97292813.236974716 0 0 0 0 77460878.058346748 141563498.45729125 0 141563498.45729125 26407681.003387451 0 0 0 0 -41187557.773147583 228805703.50012589 0 228805703.50012589 221701705.74252319 0 0 0 0 -27283027.143180847 10384191.842559814 0 10384191.842559814 -77370527.959220886 0 0 0 0 704149959.66298676 -822894452.4944706 0 -822894452.4944706 495038753.61016846 0 0 0 0 1431170616.8881683 -278824034.78368759 0 -278824034.78368759 -324490867.14888811 0 0 0 0 558047720.83771515 542089245.62612915 0 542089245.62612915 153524798.22208405 0 0 0 0 264733.93824907765 996697.04960614629 0 996697.04960614629 509617.00867298711 0 0 0 0 1510276256.7059097 166750177.19304276 0 166750177.19304276 -194855228.25617981 0 0 0 0 387565748.93172455 139639636.65772629 0 139639636.65772629 986766709.43864441 0 0 0 0 814751731.4059906 -206873972.57255936 0 -206873972.57255936 -284738061.79003143 0 0 0 0 1417078404.6152086 -756761584.03324485 0 -756761584.03324485 121824016.46517181 0 0 0 0 661055505.74140167 -220679305.02898026 0 -220679305.02898026 -10200304.397893906 0 0 0 0 952646095.93057251 -46313883.099222183 0 -46313883.099222183 -430543823.78627014 0 0 0 0 393417313.41471863 167912885.8106842 0 167912885.8106842 -305180396.07594299 0 0 0 0 364407781.6212616 11064387.09954834 0 11064387.09954834 9802059.5191230774 0 0 0 0 23572258.889832735 65415932.393497705 0 65415932.393497705 -141252976.87968445 0 0 0 0 879108.60064607859 2890950.819996804 0 2890950.819996804 1136778.5507735237 0 0 0 0 669830561.05432129 176763657.11667442 0 176763657.11667442 -8178802.6934306622 0 0 0 0 -856953.69836401194 3808691.4575530724 0 3808691.4575530724 -2516503.3069643807 0 0 0 0 -2471760411.4522095 1550917249.9343491 0 1550917249.9343491 -18272897.399383545 0 0 0 0 670007985.52055359 99890132.991136551 0 99890132.991136551 -228632525.71151352 0 0 0 0 437759345.31261444 279035173.19158936 0 279035173.19158936 -362830090.84186935 0 0 0 0 -550380.76939458959 1506956.0518136402 0 1506956.0518136402 -1032750.5233740695 0 0 0 0 95977926.704498291 200035852.63497353 0 200035852.63497353 380687407.62633133 0 0 0 0 1804609676.987854 -71933315.149641037 0 -71933315.149641037 559964942.75231934 0 0 0 0 -1266514.9188528359 1617924.6528253611 0 1617924.6528253611 -1259596.4266013782 0 0 0 0 -2525299266.5206223 -312297577.35017014 0 -312297577.35017014 793272042.507164 0 0 0 0 -2532694066.3018112 737751140.54598808 0 737751140.54598808 141593967.79312897 0 0 0 0 -2006536757.6011047 427012458.35318756 0 427012458.35318756 -33566075.842334747 0 0 0 0 -1274284552.6149902 1124076768.1978989 0 1124076768.1978989 -960681873.11954117 0 0 0 0 -1216614315.8140793 191108762.00571442 0 191108762.00571442 68054559.549692154 0 0 0 0 -1234588212.7930603 752801188.31922531 0 752801188.31922531 79910766.152641296 0 0 0 0 -1238900561.8579426 267298302.81609401 0 267298302.81609401 277246389.44846344 0 0 0 0 -270788732.29409027 771207969.24409485 0 771207969.24409485 -161369544.64600372 0 0 0 0 -341758846.7902298 1006995057.7691002 0 1006995057.7691002 435018828.46341705 0 0 0 0 -360637644.91998672 943404696.56855679 0 943404696.56855679 -478622647.77502441 0 0 0 0 -916924646.74871826 689215764.45994377 0 689215764.45994377 17302976.31968689 0 0 0 0 -265212247.19122314 632994347.97483826 0 632994347.97483826 -72841717.075767517 0 0 0 0 259530595.27780151 136239736.89462662 0 136239736.89462662 -268052383.4520607 0 0 0 0 68202407.004852295 487008590.30259514 0 487008590.30259514 -701366088.79386902 0 0 0 0 -364851979.59127808 427045233.71475601 0 427045233.71475601 -503762835.40242386 0 0 0 0 -1839908142.0213013 1482976453.8898296 0 1482976453.8898296 -660036499.74552536 0 0 0 0 -466858583.88272095 836335665.02035904 0 836335665.02035904 -1980092412.5794449 0 0 0 0 -2571549787.0618935 608700376.69405365 0 608700376.69405365 400725320.15023041 0 0 0 0 -2503671136.7942429 200988770.11622047 0 200988770.11622047 -173506996.63969803 0 0 0 0 -1020332731.0485229 -456829427.86580276 0 -456829427.86580276 -1267205149.5842361 0 0 0 0 417093383.65246582 259107213.05010223 0 259107213.05010223 -863943467.2220192 0 0 0 0 -389859596.34299469 222696558.09579086 0 222696558.09579086 -546666011.66804504 0 0 0 0 336932225.32911682 295928740.59335327 0 295928740.59335327 -109582109.73490524 0 0 0 0 -172954294.92902374 -111600115.23897934 0 -111600115.23897934 -390642276.36051941 0 0 0 0 110161534.33918762 -382143125.15145874 0 -382143125.15145874 77047951.114541054 0 0 0 0 -268376883.30680466 27836643.852565765 0 27836643.852565765 95834801.624092102 0 0 0 0 -995994171.55368805 -397752509.75239182 0 -397752509.75239182 -103270836.43456459 0 0 0 0 -489762081.2621994 -363513324.14703751 0 -363513324.14703751 211470749.59162903 0 0 0 0 153793907.3447113 -310206487.81282806 0 -310206487.81282806 29307091.310016632 0 0 0 0 -959273497.00318146 215881534.66943169 0 215881534.66943169 816092.2089881897 0 0 0 0 -1141716484.8806028 421771698.45461249 0 421771698.45461249 -145698796.37190628 0 0 0 0 -719746862.78048134 217153874.85196066 0 217153874.85196066 -134304595.30556488 0 0 0 0 -1213673259.3739204 751268804.4576683 0 751268804.4576683 -314223110.44145966 0 0 0 0 -1071374440.9069824 807958270.44445419 0 807958270.44445419 -457362025.69733429 0 0 0 0 -1016545492.5544739 747155451.69952393 0 747155451.69952393 -411242776.67090988 0 0 0 0 -371850552.38943481 442992988.22567558 0 442992988.22567558 -598477255.68051147 0 0 0 0 645400409.54240322 302133316.90527821 0 302133316.90527821 80675740.733665466 0 0 0 0 -564298.40666926047 2744758.0109048542 0 2744758.0109048542 -2973452.9076154064 0 0 0 0 -1028408398.9126148 1104561925.2151136 0 1104561925.2151136 -1199517856.6927223 0 0 0 0 -1354616348.5398483 -586681524.04603195 0 -586681524.04603195 -239801251.67115402 0 0 0 0 -2386524.6206604484 1745060.3681185353 0 1745060.3681185353 360771.69214891596 0 0 0 0 -4545274.1285297163 6873878.2056865897 0 6873878.2056865897 2368406.3812704254 0 0 0 0 -1053756.4526252747 4419745.1148786545 0 4419745.1148786545 4181662.5300674438 0 0 0 0 9239193.5430603027 8826742.4493427277 0 8826742.4493427277 -5034291.6409749985 0 0 0 0 310259.15702796541 359813.17042823974 0 359813.17042823974 927981.29664665088 0 0 0 0 -1201164015.975966 -205254686.41256219 0 -205254686.41256219 -29101194.81678772 0 0 0 0 -2336635.9172296524 5065212.6506605446 0 5065212.6506605446 7431162.262386322 0 0 0 0 -4610649.687171869 7268990.1999840122 0 7268990.1999840122 2043784.0013295021 0 0 0 0 -2289072.4666442871 4067609.146818161 0 4067609.146818161 4459527.997215271 0 0 0 0 -2592996.8410949707 192640937.028759 0 192640937.028759 148692615.5193882 0 0 0 0 -1548103.0923309326 4671929.809671402 0 4671929.809671402 4916836.5202674866 0 0 0 0 -2316100.5845117774 7863253.6349238735 0 7863253.6349238735 137920.14533169661 0 0 0 0 -116062796.72105408 43187930.376167297 0 43187930.376167297 343396415.66187668 0 0 0 0 -8455116.0681343079 175118374.91767883 0 175118374.91767883 493353948.33519745 0 0 0 0 -715118210.63338852 265176911.66812134 0 265176911.66812134 483832315.64343166 0 0 0 0 -298320547.1360569 -109123305.31284618 0 -109123305.31284618 210794934.96932602 0 0 0 0 19617736.292064667 673359837.98224068 0 673359837.98224068 200145158.61778641 0 0 0 0 -1113904930.0576744 670896050.5714798 0 670896050.5714798 213404594.01884222 0 0 0 0 -1447731722.3873854 -508556266.52620268 0 -508556266.52620268 77400094.950172424 0 0 0 0 -1198160605.7154083 1476272672.4269028 0 1476272672.4269028 -1903412232.3153 0 0 0 0 -3435349779.6146717 -64764674.053899765 0 -64764674.053899765 37300092.938690186 0 0 0 0 440786.18105080351 1847903.2959664962 0 1847903.2959664962 -2288817.214457009 0 0 0 0 -3040981893.0070791 1266207879.668107 0 1266207879.668107 -370950289.0406723 0 0 0 0 -1541359406.264389 -263311760.77284241 0 -263311760.77284241 -87633912.968662262 0 0 0 0 -1373940475.4714928 801088834.99619293 0 801088834.99619293 -328492077.77231598 0 0 0 0 -2042663146.8081284 620873485.41837692 0 620873485.41837692 139378176.1809082 0 0 0 0 919554454.78077507 127303505.92125702 0 127303505.92125702 -1381978954.6493835 0 0 0 0 -81047963.108547211 65726066.240003586 0 65726066.240003586 267244066.96865845 0 0 0 0 -487386.56777056539 305820.56494571827 0 305820.56494571827 -959317.9036973156 0 0 0 0 2125487193.3406448 422895774.90688324 0 422895774.90688324 -1877503128.9457092 0 0 0 0 -43480412.187713623 636658697.51227951 0 636658697.51227951 -1525121901.0125713 0 0 0 0 -1680671607.493948 1468799899.2135382 0 1468799899.2135382 -840969746.01347733 0 0 0 0 -511389078.85884857 353253756.14375305 0 353253756.14375305 -577988311.69911957 0 0 0 0 -1100532366.0063324 655931162.01374245 0 655931162.01374245 -247437225.12253571 0 0 0 0 -309973380.96648407 94870883.850101471 0 94870883.850101471 -264204795.127491 0 0 0 0 -480412720.40139008 45698127.380630493 0 45698127.380630493 -271527616.12764359 0 0 0 0 -351689937.14888382 -105130974.38055515 0 -105130974.38055515 58430766.655815125 0 0 0 0 -401143612.46044159 -94505106.479795456 0 -94505106.479795456 24668481.924892426 0 0 0 0 110763672.52883911 -9327802.8544540405 0 -9327802.8544540405 -920631537.56144714 0 0 0 0 -617887836.04271507 450906097.22488689 0 450906097.22488689 -501257372.9736557 0 0 0 0 -231009491.29003143 26360800.189563751 0 26360800.189563751 -316377364.11411095 0 0 0 0 -404105809.30463028 2531805.830368042 0 2531805.830368042 180692996.57878113 0 0 0 0 -371930200.17542267 149885615.43292236 0 149885615.43292236 163506332.46912003 0 0 0 0 25686326.687637329 156740297.17165756 0 156740297.17165756 113663699.97743225 0 0 0 0 79192138.813400269 10933016.008974075 0 10933016.008974075 462080108.52272034 0 0 0 0 -235201070.1008606 40814013.782152653 0 40814013.782152653 259696955.15103149 0 0 0 0 -279893647.93119812 178395093.63333893 0 178395093.63333893 479225746.03645325 0 0 0 0 -39660124.070175171 238649350.77850342 0 238649350.77850342 351886261.21145248 0 0 0 0 -128850066.1685791 144537621.52903366 0 144537621.52903366 318383955.55334473 0 0 0 0 -134206393.63935852 230800145.99213028 0 230800145.99213028 383846525.12417221 0 0 0 0 -81371141.25280571 367264983.95785189 0 367264983.95785189 663716117.13999176 0 0 0 0 332954148.9133606 485961099.37696266 0 485961099.37696266 354834477.49768066 0 0 0 0 -190404282.5511322 -113644586.87360001 0 -113644586.87360001 82841791.465171814 0 0 0 0 -317218526.13196564 -4474031.9235858917 0 -4474031.9235858917 233020563.47689056 0 0 0 0 -306403285.20568848 99009040.448238373 0 99009040.448238373 214896874.37314224 0 0 0 0 -232552309.34573364 -4605761.8038215637 0 -4605761.8038215637 79677746.226239204 0 0 0 0 -247616314.48236847 41433785.783056259 0 41433785.783056259 317093529.37664032 0 0 0 0 -212625464.83938599 151589577.90628433 0 151589577.90628433 359600152.2134552 0 0 0 0 -161496968.82164001 3300815.3280944824 0 3300815.3280944824 228911744.17486572 0 0 0 0 -174840979.47537231 17733592.354174614 0 17733592.354174614 287220082.43083191 0 0 0 0 11207415.186519418 13267300.033654643 0 13267300.033654643 -1051643.8781963431 0 0 0 0 -50550047.574951172 55118793.383651733 0 55118793.383651733 323658249.23646164 0 0 0 0 -28920455.6746521 93917140.997253418 0 93917140.997253418 -24527163.069725037 0 0 0 0 -43354118.947860718 33552417.710884094 0 33552417.710884094 321174234.69666958 0 0 0 0 -89450824.423370361 57498923.593322754 0 57498923.593322754 336223893.32080078 0 0 0 0 -43237087.379272461 15436239.948635101 0 15436239.948635101 308537119.73124695 0 0 0 0 -56426910.395235062 27817371.313592434 0 27817371.313592434 302904898.79943848 0 0 0 0 -97875835.259552002 2559156.892250061 0 2559156.892250061 290056501.6645813 0 0 0 0 -156053664.08052826 54162257.272951126 0 54162257.272951126 331915112.55258179 0 0 0 0 -85745519.367614746 48253642.676445007 0 48253642.676445007 339772297.61960983 0 0 0 0 -90361921.161941528 55118177.828014374 0 55118177.828014374 331660539.06047058 0 0 0 0 -80966561.729858398 61585774.229545593 0 61585774.229545593 331483655.51308823 0 0 0 0 -102498911.30498123 91276987.858847618 0 91276987.858847618 321241972.88308716 0 0 0 0 -63102437.746154785 83052267.897705078 0 83052267.897705078 322712197.13648224 0 0 0 0 -110398413.474823 64956562.654968262 0 64956562.654968262 334332580.32932663 0 0 0 0 -124687431.63442993 86646113.603744507 0 86646113.603744507 328788921.1958065 0 0 0 0 -124847394.76612854 87649188.050102234 0 87649188.050102234 326598949.52907562 0 0 0 0 -113429104.54169846 154110103.42037106 0 154110103.42037106 323839324.00955963 0 0 0 0 -49337579.218597412 83383788.319442749 0 83383788.319442749 272814412.18548584 0 0 0 0 -44270487.189842224 109980844.44010162 0 109980844.44010162 265840863.33522034 0 0 0 0 -68570127.069198608 93881654.790699005 0 93881654.790699005 301985446.61154175 0 0 0 0 -46138135.270690918 72267638.204971313 0 72267638.204971313 295006505.7036438 0 0 0 0 -64811636.020065308 57153351.997526169 0 57153351.997526169 328391202.71066284 0 0 0 0 -93763796.288818359 69950884.827217102 0 69950884.827217102 327239492.23388672 0 0 0 0 -255104.58503723145 49231496.609275818 0 49231496.609275818 324255454.01737213 0 0 0 0 51310489.993125916 28859195.447219849 0 28859195.447219849 74267314.335788727 0 0 0 0 174530807.64761639 19111945.06414938 0 19111945.06414938 -8346148.6574401855 0 0 0 0 41950088.731554031 129399205.06892729 0 129399205.06892729 130293452.34060669 0 0 0 0 141534335.21850586 191862728.21440506 0 191862728.21440506 167600682.70736313 0 0 0 0 44797322.756408691 239262637.46097565 0 239262637.46097565 144526092.62201691 0 0 0 0 36481718.515838623 253847567.20759964 0 253847567.20759964 291432371.90130615 0 0 0 0 -40741792.25970459 143725213.49656296 0 143725213.49656296 286758974.33049011 0 0 0 0 -38088147.798309326 181475609.39630127 0 181475609.39630127 228585872.53520966 0 0 0 0 35186730.066337585 161913666.37211084 0 161913666.37211084 221286767.25265503 0 0 0 0 6640719.9013977051 112832323.77800751 0 112832323.77800751 185318059.4539566 0 0 0 0 16937180.147247314 222958.83554077148 0 222958.83554077148 244857568.84266663 0 0 0 0 23141384.557769775 99821754.062576294 0 99821754.062576294 192988302.97138214 0 0 0 0 -1707268.7642822266 95690222.54284668 0 95690222.54284668 270638923.15934753 0 0 0 0 -4974249.0301055908 110261741.30469513 0 110261741.30469513 230336344.02301025 0 0 0 0 -12680940.796234131 58418715.680809021 0 58418715.680809021 281799261.76408768 0 0 0 0 21497072.28427124 57533925.522254944 0 57533925.522254944 226192210.39071083 0 0 0 0 26532790.605285645 97027867.292034149 0 97027867.292034149 144355421.16891479 0 0 0 0 41159876.05847168 2509684.7306251526 0 2509684.7306251526 179579270.70847321 0 0 0 0 41196002.32572937 4348037.4296226501 0 4348037.4296226501 77055198.54082489 0 0 0 0 18449071.545455933 73231739.623830795 0 73231739.623830795 146756367.7421875 0 0 0 0 56162459.344093323 85745940.429944992 0 85745940.429944992 43096765.56855011 0 0 0 0 10545524.960159302 81100722.681699753 0 81100722.681699753 148078640.32556152 0 0 0 0 6321079.0801781155 5697250.3158764336 0 5697250.3158764336 -7748850.7413802966 0 0 0 0 285363796.20894623 59089266.055011749 0 59089266.055011749 -156274013.67149353 0 0 0 0 1852116.6209343327 6967404.1772870682 0 6967404.1772870682 -1758831.201541543 0 0 0 0 120623990.96507645 41482396.316230774 0 41482396.316230774 -47535561.346664429 0 0 0 0 -1287609337.5985928 467769056.98687553 0 467769056.98687553 44213629.396377563 0 0 0 0 292841078.88982224 -58514538.735867262 0 -58514538.735867262 -105896948.13847351 0 0 0 0 -1115205934.4930878 568801808.89310455 0 568801808.89310455 53715126.131713867 0 0 0 0 890676.39816047531 1283540.2305237623 0 1283540.2305237623 -559077.74312711507 0 0 0 0 -1206538964.5893288 515888429.52043152 0 515888429.52043152 23862678.998449326 0 0 0 0 -1283746391.0768032 464899433.7931633 0 464899433.7931633 171376071.15931702 0 0 0 0 -474938398.78755379 16889762.099051476 0 16889762.099051476 -192304773.22279358 0 0 0 0 -1210192169.5768661 444727985.74065399 0 444727985.74065399 49272025.703811646 0 0 0 0 1385954.0914018117 5683792.8825387713 0 5683792.8825387713 -5703726.7214291859 0 0 0 0 -484535539.42809677 16478525.317153931 0 16478525.317153931 227826130.86103821 0 0 0 0 484823273.9878006 479197445.97268867 0 479197445.97268867 440423092.0897522 0 0 0 0 365353544.06832886 656420528.62096405 0 656420528.62096405 205397944.9298687 0 0 0 0 620139291.23477936 213369639.44847107 0 213369639.44847107 -47088983.147351742 0 0 0 0 1145670.5632995628 1394080.5461122431 0 1394080.5461122431 -1024018.8379802955 0 0 0 0 925973.46553421021 7330636.8603725433 0 7330636.8603725433 -3292979.463394165 0 0 0 0 2159335.8282699585 8572013.5371208191 0 8572013.5371208191 -2332749.6083679199 0 0 0 0 2252336.8066711426 5522401.2225112915 0 5522401.2225112915 -1789888.4455566406 0 0 0 0 2742646.2967910767 6307368.2600212097 0 6307368.2600212097 -6107019.2904510498 0 0 0 0 2171350.4923858643 10932399.109329224 0 10932399.109329224 -9738748.2324295044 0 0 0 0 1991432.1206893921 8712688.874786377 0 8712688.874786377 -1249790.7811431885 0 0 0 0 2998271.2552947998 6529534.9260406494 0 6529534.9260406494 -5939011.1459960938 0 0 0 0 92836277.362808704 71801686.152032614 0 71801686.152032614 135816356.7434845 0 0 0 0 2040571.8795250505 7864483.0160952453 0 7864483.0160952453 -3233712.3197998255 0 0 0 0 156869420.05385447 87861882.756562233 0 87861882.756562233 -91645569.418899536 0 0 0 0 166122393.18357468 38373556.04605484 0 38373556.04605484 2765578.9245910645 0 0 0 0 1901369.8633277188 2648162.7269311994 0 2648162.7269311994 -1153428.6602292769 0 0 0 0 84186408.593431056 -242005374.2220211 0 -242005374.2220211 116644399.72549438 0 0 0 0 -778743.21088780928 1410472.2313677818 0 1410472.2313677818 469933.23091589566 0 0 0 0 -975452488.83769226 318120778.21857071 0 318120778.21857071 -268091083.83526611 0 0 0 0 133621248.91652679 -86839362.451778412 0 -86839362.451778412 19124907.707206726 0 0 0 0 -989700.53377914429 4245007.7899513245 0 4245007.7899513245 -181745.80551147461 0 0 0 0 1229439.7998352051 3537692.9129257202 0 3537692.9129257202 1434077.0765609741 0 0 0 0 -736200.28685931675 4990772.9994148873 0 4990772.9994148873 -390493.40146578103 0 0 0 0 2636227.8993835449 3189536.0544891357 0 3189536.0544891357 -1777469.1084442139 0 0 0 0 -4601678.0646133423 -768036.76860427856 0 -768036.76860427856 5167242.1246929169 0 0 0 0 -2500634.3745905356 8741936.245313637 0 8741936.245313637 768978.62109097838 0 0 0 0 -1570779.4998580888 13825878.614871614 0 13825878.614871614 5517953.6470468156 0 0 0 0 83343090.749435425 47007677.364234924 0 47007677.364234924 -139200389.74749756 0 0 0 0 202341.64547729492 26793276.236602783 0 26793276.236602783 -28999957.098137856 0 0 0 0 -5681404.5241241455 14524591.893844604 0 14524591.893844604 -11324852.493946075 0 0 0 0 -4642682.2638702393 33424482.975887299 0 33424482.975887299 -4116562.6287689209 0 0 0 0 -7185370.7981147766 11032981.245927811 0 11032981.245927811 3981677.9772186279 0 0 0 0 11616460.898025513 22240546.888572693 0 22240546.888572693 330658.64208221436 0 0 0 0 -299398.38401737623 536338.976099452 0 536338.976099452 438434.91240004078 0 0 0 0 3172614.0825529099 4918110.9782905579 0 4918110.9782905579 -6820151.0418243408 0 0 0 0 -9463230.067565918 27761728.207637787 0 27761728.207637787 2252399.2814788818 0 0 0 0 -24958277.927062988 -15590542.292778015 0 -15590542.292778015 3597494.4674663544 0 0 0 0 -16051525.933547974 21623921.338912964 0 21623921.338912964 -9531186.9766960144 0 0 0 0 2410982.7095031738 9229348.4314727783 0 9229348.4314727783 -12395708.370544434 0 0 0 0 -3589923.3072509766 10292973.169670105 0 10292973.169670105 735033.08343505859 0 0 0 0 -3415772.3653488159 5329895.439491272 0 5329895.439491272 11588601.535949707 0 0 0 0 3892379.6707077026 6090004.4152603149 0 6090004.4152603149 1909749.4317169189 0 0 0 0 17195789.813209534 2746351.7861537933 0 2746351.7861537933 2235256.4958229065 0 0 0 0 -13546268.576843262 16920795.841348648 0 16920795.841348648 12195800.100563049 0 0 0 0 -6369664.6788236182 9300996.7662944216 0 9300996.7662944216 2452584.8266190551 0 0 0 0 -713935.57414298132 7782942.057705503 0 7782942.057705503 -1803338.2894994668 0 0 0 0 -3488083.6410217285 13903979.230712891 0 13903979.230712891 3252389.9410305023 0 0 0 0 -3517754.4647064209 13239520.222373962 0 13239520.222373962 9869916.0419845581 0 0 0 0 -3771684.0901565552 10910954.657108307 0 10910954.657108307 7082372.3526344299 0 0 0 0 -4799585.4179992676 15274400.480232239 0 15274400.480232239 9438874.4192352295 0 0 0 0 -1172405.3488922119 9332111.5999679565 0 9332111.5999679565 3965103.6825637817 0 0 0 0 -2945796.1053960994 6779268.4046517173 0 6779268.4046517173 120737.49064898212 0 0 0 0 621065.43406677246 11600368.699203491 0 11600368.699203491 -1261841.2106628418 0 0 0 0 399618359.6655426 -211495145.95881271 0 -211495145.95881271 -143205031.07261658 0 0 0 0 2709053.5887694024 7341751.5055354126 0 7341751.5055354126 -4467507.5055454224 0 0 0 0 -2244628.7288360596 4394910.5225372314 0 4394910.5225372314 -961956.33248329163 0 0 0 0 -30403840.37141037 11575207.824188232 0 11575207.824188232 9752075.568359375 0 0 0 0 -14687961.292480469 21299753.905883789 0 21299753.905883789 14970685.720932007 0 0 0 0 -6657449.4363479614 5054662.3098602295 0 5054662.3098602295 18959247.913269043 0 0 0 0 -3138900.6222822899 6647258.6013634149 0 6647258.6013634149 2440171.5800427422 0 0 0 0 2091147.7378845215 18041528.251655579 0 18041528.251655579 7712563.8832702637 0 0 0 0 -2035016.3085021973 18531717.39239502 0 18531717.39239502 13260648.939624786 0 0 0 0 -309040.96620195312 -577833.44677139074 0 -577833.44677139074 318443.18611069024 0 0 0 0 4952469.2863540649 11637454.766973495 0 11637454.766973495 700744.49848937988 0 0 0 0 340526.27988815308 15204195.056751251 0 15204195.056751251 3313404.7048339844 0 0 0 0 -7363373.1929016113 13351499.744552612 0 13351499.744552612 3061288.6295337677 0 0 0 0 -2066975.8856811523 6624343.1248779297 0 6624343.1248779297 -2865808.1617431641 0 0 0 0 -6094825.1329212189 15590599.895013809 0 15590599.895013809 5864682.7268753052 0 0 0 0 -4818365.6107761264 16566553.717151761 0 16566553.717151761 6127572.4732666016 0 0 0 0 -4394506.6229133606 15188414.797786713 0 15188414.797786713 383712.92012023926 0 0 0 0 -6289042.8844242096 15554237.553621292 0 15554237.553621292 1885673.7999420166 0 0 0 0 -9010026.9459571838 11693042.267929077 0 11693042.267929077 180026.12359619141 0 0 0 0 -24805721.233070374 10133370.839452744 0 10133370.839452744 1197070.7026977539 0 0 0 0 -18549456.681251526 4095780.0516662598 0 4095780.0516662598 -386398.30697631836 0 0 0 0 -9813530.6525802612 12692967.520050049 0 12692967.520050049 -964833.1934967041 0 0 0 0 -17128068.916889191 8493162.6533813477 0 8493162.6533813477 -883463.97629857063 0 0 0 0 -17196161.955787182 8997126.9679303169 0 8997126.9679303169 -4208653.6164703369 0 0 0 0 -10400994.98160553 13451609.943477631 0 13451609.943477631 -1035058.4631271362 0 0 0 0 -7280647.1453666687 11005686.804504395 0 11005686.804504395 -582223.62339019775 0 0 0 0 -8381922.1819725037 13773197.45557785 0 13773197.45557785 2592.1607096272728 0 0 0 0 -16706103.310857773 7646300.5078544617 0 7646300.5078544617 -2083581.8662567139 0 0 0 0 -20981008.56815052 12528010.676784515 0 12528010.676784515 -7457.1898956298828 0 0 0 0 -430028.56948280334 14139959.085178375 0 14139959.085178375 -12099.45524597168 0 0 0 0 -3909171.0119514465 10748954.996831894 0 10748954.996831894 -579021.52740478516 0 0 0 0 -4445340.1419525146 15392764.947372437 0 15392764.947372437 1525813.2508010864 0 0 0 0 1055703.9523591995 12491691.475144386 0 12491691.475144386 6211848.820854187 0 0 0 0 692616.39994049072 14082359.368911743 0 14082359.368911743 788205.47164154053 0 0 0 0 -4267308.8628046513 16018119.441781521 0 16018119.441781521 5193956.7616882324 0 0 0 0 -4191108.677066803 14977375.959945679 0 14977375.959945679 1843288.3194351196 0 0 0 0 356768.60280990601 15476356.576755524 0 15476356.576755524 3827016.1060333252 0 0 0 0 -19559309.97990799 3954768.7089004517 0 3954768.7089004517 26288958.321662903 0 0 0 0 1687217.5191497803 17617365.931621552 0 17617365.931621552 5125058.7420120239 0 0 0 0 -3751466.155883275 3049919.3036025921 0 3049919.3036025921 3195374.6259065829 0 0 0 0 -7890604.1935653687 4305386.2635231018 0 4305386.2635231018 5744853.2374515533 0 0 0 0 -732869.54438286461 530663.22552482365 0 530663.22552482365 558266.74114174023 0 0 0 0 -56245803.743764877 -2313263.4959468842 0 -2313263.4959468842 11464191.411590576 0 0 0 0 19770919.829975128 22565362.153650284 0 22565362.153650284 -81469.901031494141 0 0 0 0 -23012407.601142883 13599606.491756439 0 13599606.491756439 10622.194061279297 0 0 0 0 -11012619.35559082 22881489.67533493 0 22881489.67533493 860066.56269454956 0 0 0 0 -14607203.590786934 15547463.026049614 0 15547463.026049614 -2967.7274398803711 0 0 0 0 -16179527.936676025 10655369.520629883 0 10655369.520629883 -4235085.7804718018 0 0 0 0 -18884148.756282806 15340135.225605011 0 15340135.225605011 6415164.9273834229 0 0 0 0 -21313812.249710083 22079415.675785065 0 22079415.675785065 -6669563.5428094864 0 0 0 0 -5366321.6351623535 15467400.110538483 0 15467400.110538483 -4592051.4750404358 0 0 0 0 -4735750.8119037151 21001482.723739266 0 21001482.723739266 9641353.1419067383 0 0 0 0 -4550055.9773025513 13446647.457439423 0 13446647.457439423 4546968.2931480408 0 0 0 0 -18743463.344181061 18491444.837623596 0 18491444.837623596 34261139.321975708 0 0 0 0 10095236.457595825 68386035.150789261 0 68386035.150789261 98318499.386543274 0 0 0 0 396656.24807833508 -97575.008090818301 0 -97575.008090818301 -299463.46992216632 0 0 0 0 42211842.366192818 57783318.987894893 0 57783318.987894893 -65620064.673152924 0 0 0 0 40741188.545684814 99949979.394390106 0 99949979.394390106 22505286.35244751 0 0 0 0 -14627589.640563965 36155882.937904358 0 36155882.937904358 79698092.083942413 0 0 0 0 36333367.348043442 31305079.101765633 0 31305079.101765633 40609613.826622009 0 0 0 0 -10664043.970114361 6868387.2731272634 0 6868387.2731272634 -282347.39022959489 0 0 0 0 -11792770.536176547 9305142.544418633 0 9305142.544418633 87083.814515921287 0 0 0 0 -5424121.5325164795 22554303.452777863 0 22554303.452777863 12721673.043416977 0 0 0 0 -14440494.650588989 25963422.06558609 0 25963422.06558609 17452457.436927795 0 0 0 0 17414742.788734436 54516242.849554062 0 54516242.849554062 -9227491.5226516724 0 0 0 0 17961741.68415451 52486429.850374222 0 52486429.850374222 -2250942.7755889893 0 0 0 0 29185515.875549316 43295241.671615601 0 43295241.671615601 -5205879.9195690155 0 0 0 0 16481909.668708801 45497649.166885376 0 45497649.166885376 -11524799.172576904 0 0 0 0 4344957.4174041748 40969182.205562592 0 40969182.205562592 24848754.735153198 0 0 0 0 4982057.7295684814 22773620.456508636 0 22773620.456508636 1445447.7050857544 0 0 0 0 36594276.025238037 18748149.82938385 0 18748149.82938385 -11333728.241195679 0 0 0 0 46861856.21975708 22848492.482086182 0 22848492.482086182 -9724517.7469024658 0 0 0 0 29190229.750812531 41808635.086766243 0 41808635.086766243 -10489049.480255127 0 0 0 0 64855104.143035889 39407780.168434143 0 39407780.168434143 -11829474.495239258 0 0 0 0 37587890.07623291 42625698.796379089 0 42625698.796379089 480902.11847686768 0 0 0 0 78008640.44921875 32311055.685974121 0 32311055.685974121 -19212123.778396606 0 0 0 0 95674052.961853027 41433211.263046265 0 41433211.263046265 -34212954.915016174 0 0 0 0 6729422.510055542 -7096376.143901825 0 -7096376.143901825 37811689.422851562 0 0 0 0 49709595.287033081 15911074.390453339 0 15911074.390453339 4421638.0101013184 0 0 0 0 173982768.34237671 -19684160.806213379 0 -19684160.806213379 -8720113.3204498291 0 0 0 0 53468344.069091797 -129750138.98345947 0 -129750138.98345947 176824956.89755249 0 0 0 0 8938280.862121582 -15917375.318786621 0 -15917375.318786621 44370775.407806396 0 0 0 0 17713168.6014328 43391745.863975525 0 43391745.863975525 -18931494.635314941 0 0 0 0 21443350.269363403 51288155.666755676 0 51288155.666755676 -11146487.332962036 0 0 0 0 15005804.628967285 44968004.036483765 0 44968004.036483765 -7015123.9257507324 0 0 0 0 35961986.892288208 48783208.355033875 0 48783208.355033875 -17004126.462982178 0 0 0 0 29560657.368560791 42552842.082527161 0 42552842.082527161 -14457117.392333984 0 0 0 0 26666555.872741699 50029277.922561646 0 50029277.922561646 -13195395.481628418 0 0 0 0 18099674.128311157 40581848.581062317 0 40581848.581062317 -13320132.095489502 0 0 0 0 7390878.5894622803 35152772.723583221 0 35152772.723583221 -19866776.587219238 0 0 0 0 5418346.9710998535 39782160.477127075 0 39782160.477127075 -14365592.184333801 0 0 0 0 13529588.985046387 44821629.580917358 0 44821629.580917358 -16509700.703826904 0 0 0 0 9957335.41065979 27022269.393730164 0 27022269.393730164 -37593219.589202881 0 0 0 0 11441522.688842773 35926649.010025024 0 35926649.010025024 -23940286.140853882 0 0 0 0 5677506.7456130981 24510617.217819214 0 24510617.217819214 -31890504.846893311 0 0 0 0 20568613.340286255 38883124.535507202 0 38883124.535507202 -27274330.016929626 0 0 0 0 12359354.116943359 47320915.842987061 0 47320915.842987061 -12206675.393356323 0 0 0 0 7846567.7361450195 24885259.095222473 0 24885259.095222473 -33746752.724090576 0 0 0 0 9036815.5142822266 27974861.567207336 0 27974861.567207336 -38563563.452529907 0 0 0 0 897295.20804023743 7612952.8864760399 0 7612952.8864760399 -50458321.244941711 0 0 0 0 8126818.3069458008 18657966.364250183 0 18657966.364250183 -47397899.087465286 0 0 0 0 18891799.196743011 19371475.085130692 0 19371475.085130692 -67996150.703445435 0 0 0 0 45629036.553146362 53700068.873016357 0 53700068.873016357 -33162750.44254303 0 0 0 0 13602803.929122925 51898845.264995575 0 51898845.264995575 -6471179.4152565002 0 0 0 0 735398.18065991253 -164280.04783791117 0 -164280.04783791117 -544862.47369024903 0 0 0 0 -22667890.658370972 89951496.578544617 0 89951496.578544617 -81265862.859859467 0 0 0 0 -24706631.632446289 28774715.616479874 0 28774715.616479874 -50233044.939667463 0 0 0 0 -12496492.529220581 42618630.840646744 0 42618630.840646744 -85910565.39276123 0 0 0 0 413254.15818337351 -103335.24041740038 0 -103335.24041740038 -322360.22626138479 0 0 0 0 42752158.265045166 87744727.175449371 0 87744727.175449371 -133286880.68000793 0 0 0 0 6232533.6303634644 78215790.844177246 0 78215790.844177246 -9894974.1338119507 0 0 0 0 -41068185.057510376 74640857.130802155 0 74640857.130802155 -8419366.8993835449 0 0 0 0 -7039704.1333007812 36915843.088722229 0 36915843.088722229 -114052286.17700195 0 0 0 0 -53781440.811901093 30776298.216451645 0 30776298.216451645 6138014.1928253174 0 0 0 0 -35989668.961341396 63298152.109021194 0 63298152.109021194 39010624.234306335 0 0 0 0 -35889356.42502594 26361279.136882782 0 26361279.136882782 73971010.984283447 0 0 0 0 -69723400.182312012 34694851.558696747 0 34694851.558696747 124362225.19348145 0 0 0 0 -49091489.253898621 13653522.615581512 0 13653522.615581512 126746308.0549469 0 0 0 0 -42331102.849731445 -2223865.0548820496 0 -2223865.0548820496 155383034.3951416 0 0 0 0 -9204893.6975402832 3637036.4761009216 0 3637036.4761009216 79623638.510723114 0 0 0 0 -23333010.168823242 44786911.434829712 0 44786911.434829712 120803258.01594162 0 0 0 0 -17597915.96472168 -1851131.9733200073 0 -1851131.9733200073 192439920.45459747 0 0 0 0 -5582601.7947692871 45426444.55676651 0 45426444.55676651 114293963.22957993 0 0 0 0 -18969263.930076599 75443780.589883804 0 75443780.589883804 92981481.656784058 0 0 0 0 16947813.461532593 38736026.381713867 0 38736026.381713867 123408404.42859459 0 0 0 0 -49512798.941497803 35152697.203056335 0 35152697.203056335 123622650.73802948 0 0 0 0 -41249879.022926331 76124254.008491516 0 76124254.008491516 98185515.848880768 0 0 0 0 -54372177.388252258 14690540.926250458 0 14690540.926250458 51208354.060218811 0 0 0 0 -33839666.396705627 68571234.541139603 0 68571234.541139603 132469236.8862114 0 0 0 0 -9050618.1820640266 5682155.4658540199 0 5682155.4658540199 -794988.89518497791 0 0 0 0 -6778947.159072876 16973123.835380554 0 16973123.835380554 22346056.174983978 0 0 0 0 -3230832.8940086365 12636836.531814575 0 12636836.531814575 5330357.6132507324 0 0 0 0 -7151159.5755817816 5149763.9697381537 0 5149763.9697381537 -1399168.4173434786 0 0 0 0 -18976339.482307434 44136368.568389893 0 44136368.568389893 172360982.61654663 0 0 0 0 -4398435.0852050781 13292341.787120819 0 13292341.787120819 5790580.390914917 0 0 0 0 -1872085.5919647217 16045599.978172302 0 16045599.978172302 5727404.7326102257 0 0 0 0 -548510.80111694336 15587304.183937073 0 15587304.183937073 301985.59990692139 0 0 0 0 -5283984.9092025757 14292547.14661026 0 14292547.14661026 1551318.6066436768 0 0 0 0 1473778.3246459961 14940783.266223907 0 14940783.266223907 500943.55059814453 0 0 0 0 -1639939.849357605 14291966.257286072 0 14291966.257286072 372856.18682861328 0 0 0 0 -1113115.688835144 17252408.852199554 0 17252408.852199554 -1379.7221908569336 0 0 0 0 19035848.050506592 5222313.5282516479 0 5222313.5282516479 -4410193.7798309326 0 0 0 0 -4685614.8491282575 2245792.0640192907 0 2245792.0640192907 -885151.76890780404 0 0 0 0 1131964.444152832 14451757.909549713 0 14451757.909549713 189512.74826049805 0 0 0 0 8703732.9042053223 16868460.93434906 0 16868460.93434906 -607.1163330078125 0 0 0 0 -131622.4002456665 4098863.1931915283 0 4098863.1931915283 -4457308.0797729492 0 0 0 0 -1429428.4071350098 7729872.8342971802 0 7729872.8342971802 -1346571.6493864059 0 0 0 0 8899606.3333969116 10987450.405326843 0 10987450.405326843 -1848430.4876708984 0 0 0 0 -6150888.8427843377 3804676.6078064665 0 3804676.6078064665 -1197589.9213944543 0 0 0 0 -2856310.0809402466 7635375.445400238 0 7635375.445400238 -831538.59181213379 0 0 0 0 -15801398.85848999 31010122.085929871 0 31010122.085929871 -10460485.038284302 0 0 0 0 -1173665.7982597351 12490766.33082962 0 12490766.33082962 4290273.5697097778 0 0 0 0 -14799025.170166016 -22852852.50958252 0 -22852852.50958252 135692247.9961853 0 0 0 0 5794500.8045110703 86536893.616838932 0 86536893.616838932 230177959.57929993 0 0 0 0 -1166453.3164495043 -525593.45446656831 0 -525593.45446656831 1180738.4754614439 0 0 0 0 -28050897.980194092 24377464.10458374 0 24377464.10458374 148201628.52823257 0 0 0 0 354073.95074669644 923169.98090277519 0 923169.98090277519 -579621.0534091671 0 0 0 0 -34850290.272613525 35512124.76789856 0 35512124.76789856 131402694.38941956 0 0 0 0 -1450992.7283124924 22049550.226297855 0 22049550.226297855 140124106.10069275 0 0 0 0 -29407992.139648438 24330141.451057434 0 24330141.451057434 154422802.4438262 0 0 0 0 -48559710.236862183 6730273.5346755981 0 6730273.5346755981 140901564.3313446 0 0 0 0 -48927814.165687561 11415923.067340851 0 11415923.067340851 116544992.31196594 0 0 0 0 -43460442.203369141 -15226843.987480164 0 -15226843.987480164 148240880.260849 0 0 0 0 -42409652.445404053 -19294348.558013916 0 -19294348.558013916 106937330.3021431 0 0 0 0 -16778726.015533447 1454790.1761322021 0 1454790.1761322021 53066320.799591064 0 0 0 0 -3339124.094329834 -25366887.617362976 0 -25366887.617362976 101398489.39248657 0 0 0 0 -23039929.582550049 -2573856.4685974121 0 -2573856.4685974121 109903876.35157776 0 0 0 0 -30213625.562728882 31538458.100021362 0 31538458.100021362 34800545.452911377 0 0 0 0 13361682.406814575 -7054619.9177246094 0 -7054619.9177246094 41521158.249336243 0 0 0 0 39731626.909179688 -64255172.675682068 0 -64255172.675682068 74629843.731285095 0 0 0 0 -2767872.0621374883 467766.86802709289 0 467766.86802709289 -1406080.3014512211 0 0 0 0 -1287090.2507858276 -6097256.8520202637 0 -6097256.8520202637 45270826.327072144 0 0 0 0 -5927795.0248336792 1805897.7014350891 0 1805897.7014350891 -4654095.9614639282 0 0 0 0 -16960525.885070801 9121626.7876396179 0 9121626.7876396179 1545392.0539169312 0 0 0 0 -930102.19696943648 1866161.3768561669 0 1866161.3768561669 -453093.84635064751 0 0 0 0 -5073388.1875759438 3009921.0170222148 0 3009921.0170222148 -1057421.9178464338 0 0 0 0 1619166.0021209717 -19417958.339103699 0 -19417958.339103699 17267919.981604099 0 0 0 0 -2619267.0913820267 2473244.1243824959 0 2473244.1243824959 -3194583.6898117065 0 0 0 0 -1629933.2418060303 -19301586.583816528 0 -19301586.583816528 28129684.730430603 0 0 0 0 -4531975.1166229248 -3571937.4477844238 0 -3571937.4477844238 17157875.800643921 0 0 0 0 -18218931.060303688 1908820.0147557259 0 1908820.0147557259 39373022.449966431 0 0 0 0 -5291403.4035949707 -9927283.9868164062 0 -9927283.9868164062 53916443.638263702 0 0 0 0 -1907917.3237457275 4453391.7089691162 0 4453391.7089691162 -2229533.1053543091 0 0 0 0 -3761096.2468795776 8575774.7760238647 0 8575774.7760238647 -1580294.8755645752 0 0 0 0 -4601027.5364316478 2621845.0556968153 0 2621845.0556968153 -1417337.6502813473 0 0 0 0 -8364609.2897758484 7401568.6716022491 0 7401568.6716022491 126417.4026184082 0 0 0 0 -631854.56806945801 671310.41283798218 0 671310.41283798218 -225071.6649017334 0 0 0 0 -1667698.8121342808 3450168.8609895371 0 3450168.8609895371 -3108615.6125496682 0 0 0 0 -4265981.8110809326 1920130.8047866821 0 1920130.8047866821 -7042781.0020141602 0 0 0 0 -2208391.2881469727 2469038.2574615479 0 2469038.2574615479 2205822.4871063232 0 0 0 0 -27374.659740451723 43031.662594158202 0 43031.662594158202 -65887.724456749856 0 0 0 0 -1764887.2265419029 1026873.2641626494 0 1026873.2641626494 -290285.25957001746 0 0 0 0 -2350459.8815307617 3676087.4001312256 0 3676087.4001312256 -1146577.5839996338 0 0 0 0 22529.902465820312 6039612.2950286865 0 6039612.2950286865 -1767197.1823806763 0 0 0 0 -1175345.3987731934 3469479.608795166 0 3469479.608795166 -1118884.3161048889 0 0 0 0 -5435233.0622940063 5946048.9307098389 0 5946048.9307098389 -816718.74340820312 0 0 0 0 3654683.8674621582 2715929.9531440735 0 2715929.9531440735 -3519128.4658966064 0 0 0 0 -3122080.1734329341 2018512.2030683868 0 2018512.2030683868 -907206.18625555187 0 0 0 0 -3450526.4336166382 7730475.7594070435 0 7730475.7594070435 -7139.9588775634766 0 0 0 0 -10969759.772888184 5222447.8190383911 0 5222447.8190383911 -551192.67011260986 0 0 0 0 -2200624.6930618286 7982951.345664978 0 7982951.345664978 -2160161.5946960449 0 0 0 0 -2275614309.6032715 1182954046.1895142 0 1182954046.1895142 271672.56355599838 0 0 0 0 192504.9603767395 396516399.21858406 0 396516399.21858406 -237768259.52129364 0 0 0 0 -1793636240.8934097 2274170491.1017761 0 2274170491.1017761 -834739536.77735138 0 0 0 0 -482027557.8611908 -269821134.26748276 0 -269821134.26748276 -55775206.740280151 0 0 0 0 -504437.77514561266 535534.42550996691 0 535534.42550996691 -237454.82396370918 0 0 0 0 -32565947.119403839 55396511.283512115 0 55396511.283512115 -86552166.746322632 0 0 0 0 30400934.323959351 -25911608.715545654 0 -25911608.715545654 -205439920.34552002 0 0 0 0 -1386868.6261209324 1589233.4270396959 0 1589233.4270396959 -704658.31125823781 0 0 0 0 -1829681.7389562996 2658617.8612386528 0 2658617.8612386528 -897916.9399615936 0 0 0 0 -187236083.09580231 52725801.136558533 0 52725801.136558533 618351.29063415527 0 0 0 0 -46856549.503295898 -27512880.013469696 0 -27512880.013469696 -18506746.209793091 0 0 0 0 -148510843.57739258 -16773785.991477966 0 -16773785.991477966 5095889.1691131592 0 0 0 0 -82350854.243286133 30348277.435874939 0 30348277.435874939 -11360490.187299728 0 0 0 0 -193658893.3931179 212286786.70841408 0 212286786.70841408 -129338324.51541138 0 0 0 0 -184566587.8154521 64280116.581472874 0 64280116.581472874 3769965.8237304688 0 0 0 0 -1286689.5582963899 1806549.3978798967 0 1806549.3978798967 -2960565.2249609418 0 0 0 0 -327412.69585465826 500001.67878198996 0 500001.67878198996 -284857.6101689674 0 0 0 0 -16784264.604362488 12724931.434389114 0 12724931.434389114 -34185532.965423584 0 0 0 0 11540102.906272888 8993933.3642959595 0 8993933.3642959595 1095206.4424934387 0 0 0 0 -4738779.1853713989 26825667.204124451 0 26825667.204124451 58601712.908885956 0 0 0 0 -772348.00978517532 1529656.2118887231 0 1529656.2118887231 -3161395.4965252746 0 0 0 0 -29041737.172698975 145508803.81962204 0 145508803.81962204 412601853.61945534 0 0 0 0 8956.4641473380816 -5458271.5045180097 0 -5458271.5045180097 92803705.672164917 0 0 0 0 111618262.83076477 -97258531.414291382 0 -97258531.414291382 310388344.93128777 0 0 0 0 103620534.99552917 137195382.582901 0 137195382.582901 199953172.24711609 0 0 0 0 -41527568.856590271 128667958.04967499 0 128667958.04967499 389968963.66992188 0 0 0 0 108351188.87052917 -191799202.95848083 0 -191799202.95848083 276623073.4056015 0 0 0 0 -60444351.951950073 34630387.024452209 0 34630387.024452209 23729903.524932861 0 0 0 0 -24715.358413182199 691806.31325419433 0 691806.31325419433 -347717.52520976216 0 0 0 0 -60694290.3931427 -56390251.682929993 0 -56390251.682929993 438867602.61418152 0 0 0 0 -19088836.058280945 -66527871.84929657 0 -66527871.84929657 181925591.03346252 0 0 0 0 -64886664.740280151 -7118496.4278640747 0 -7118496.4278640747 205640861.50631142 0 0 0 0 -23455467.635372162 -30884087.240392685 0 -30884087.240392685 209849010.13574219 0 0 0 0 -61271030.683502197 -1907402.3580245972 0 -1907402.3580245972 155965629.10241699 0 0 0 0 -56970430.762390137 -5417278.6846885681 0 -5417278.6846885681 158546231.34693146 0 0 0 0 -58353726.672843933 33183109.296066284 0 33183109.296066284 94843018.537841797 0 0 0 0 -71734695.894546509 37566179.367362976 0 37566179.367362976 175462720.69210815 0 0 0 0 -66388637.130874634 71175649.455726624 0 71175649.455726624 109329969.83609772 0 0 0 0 -67049718.877166748 68712753.251735687 0 68712753.251735687 96929599.945936203 0 0 0 0 -22971481.719360352 32015325.48550415 0 32015325.48550415 193273168.22399902 0 0 0 0 -89841297.152069092 59497334.244449615 0 59497334.244449615 247402944.64927864 0 0 0 0 -80347005.748275757 131518581.89211273 0 131518581.89211273 150780413.17608833 0 0 0 0 -35528674.19833374 84983584.612155914 0 84983584.612155914 7424835.8491592407 0 0 0 0 -99652153.450790405 137215749.82472229 0 137215749.82472229 44827141.528701782 0 0 0 0 -8745641.4798049927 124051721.43973351 0 124051721.43973351 -110654622.70817566 0 0 0 0 -54791791.950805664 55543670.487796783 0 55543670.487796783 92780635.928890228 0 0 0 0 -25769975.162315369 220794795.15629196 0 220794795.15629196 -232305390.31052947 0 0 0 0 57062757.208705902 119812622.97521973 0 119812622.97521973 -111794979.61058044 0 0 0 0 -214931055.73083878 147741798.99868965 0 147741798.99868965 -14528940.721405029 0 0 0 0 -68366740.566795349 -22854036.442768097 0 -22854036.442768097 -224185942.68812561 0 0 0 0 34008202.149528503 -33160142.006473541 0 -33160142.006473541 -74221520.477851868 0 0 0 0 -17461.858362304032 54587462.740683727 0 54587462.740683727 112130370.58250427 0 0 0 0 29458344.401397705 24418987.521404266 0 24418987.521404266 57787959.853668213 0 0 0 0 -18449497.038948059 93337115.548130989 0 93337115.548130989 7941678.4870376587 0 0 0 0 71377523.77146101 216772844.85599899 0 216772844.85599899 383895822.83872986 0 0 0 0 -8373812.7142558303 15122962.754073747 0 15122962.754073747 -14077878.080711979 0 0 0 0 431118631.10175705 332787050.24718475 0 332787050.24718475 213835126.23404694 0 0 0 0 283832255.73893929 -49666946.452911377 0 -49666946.452911377 204585982.10269928 0 0 0 0 408538546.72337723 163539565.85426331 0 163539565.85426331 354529743.02807617 0 0 0 0 1243846467.0907478 276157254.12155914 0 276157254.12155914 19222527.92514801 0 0 0 0 508314606.27449512 390705674.83310318 0 390705674.83310318 439007959.02096558 0 0 0 0 369982848.12715149 341376362.23877716 0 341376362.23877716 134012373.40818119 0 0 0 0 273179870.23339844 21031216.899383545 0 21031216.899383545 -37203682.578471184 0 0 0 0 -1654131.2739436578 2470425.5022539287 0 2470425.5022539287 1258635.8702474162 0 0 0 0 453411832.00083923 218014157.31441689 0 218014157.31441689 -183882358.33170319 0 0 0 0 138864728.69599915 6978627.8959369659 0 6978627.8959369659 -15856898.686676025 0 0 0 0 147194187.94506836 5103784.450920105 0 5103784.450920105 -294258376.37979889 0 0 0 0 -149567754.36364174 -19051927.900398731 0 -19051927.900398731 -407390342.6218605 0 0 0 0 -141591943.58958435 34492296.001636505 0 34492296.001636505 -101868792.24482727 0 0 0 0 -188432494.02401733 283820670.79571152 0 283820670.79571152 316649640.40995407 0 0 0 0 -87110600.38850975 846490.58310079575 0 846490.58310079575 192518585.19689941 0 0 0 0 -76554760.233903885 34447813.208794594 0 34447813.208794594 -248638495.97966003 0 0 0 0 -170137122.30037689 341169564.77056122 0 341169564.77056122 -81893865.35899353 0 0 0 0 354138543.49326324 5935318.2519416809 0 5935318.2519416809 -209186994.03327179 0 0 0 0 346508106.20104313 414266511.4345727 0 414266511.4345727 342221686.80622101 0 0 0 0 -9217114.3830347992 11676554.292569479 0 11676554.292569479 -8519483.1735122968 0 0 0 0 327034214.23590231 293194859.3665657 0 293194859.3665657 210012840.63400269 0 0 0 0 417202623.75286102 626736885.24768448 0 626736885.24768448 20515208.761745453 0 0 0 0 430592118.45186424 575129763.04644775 0 575129763.04644775 576138058.43585968 0 0 0 0 199998840.66207886 299871540.79042053 0 299871540.79042053 418295758.49248123 0 0 0 0 166507000.74368525 151256877.64086723 0 151256877.64086723 240674653.21582031 0 0 0 0 17256358.854103088 368957195.92953491 0 368957195.92953491 393126912.74245834 0 0 0 0 245128557.50523567 134656556.89920044 0 134656556.89920044 166390742.11222839 0 0 0 0 -15433708.365882874 352316221.5093689 0 352316221.5093689 394080211.99766541 0 0 0 0 1323667.9173743478 907180.06217831001 0 907180.06217831001 -729861.35913072713 0 0 0 0 287602531.33276367 246925830.067276 0 246925830.067276 276222613.66450119 0 0 0 0 207954357.41334343 172926737.70743561 0 172926737.70743561 171664618.55291748 0 0 0 0 498270753.98715687 147122632.83335304 0 147122632.83335304 143694941.49807739 0 0 0 0 314619947.1027565 160455351.76818848 0 160455351.76818848 143936582.42712402 0 0 0 0 213480130.68906784 124325193.30773926 0 124325193.30773926 160539671.0748291 0 0 0 0 -21218545.12600708 -14666023.020324707 0 -14666023.020324707 277899919.17027283 0 0 0 0 278476470.16652536 247130851.39237595 0 247130851.39237595 655737603.50615692 0 0 0 0 129437242.28508091 169514683.88245392 0 169514683.88245392 193185722.81921387 0 0 0 0 -66705006.729272842 285412671.02898407 0 285412671.02898407 1056483946.3395691 0 0 0 0 97373798.529426575 414152907.24476624 0 414152907.24476624 155309923.79768372 0 0 0 0 257404974.60520554 647430620.18893433 0 647430620.18893433 348248610.55685425 0 0 0 0 62898025.75151062 466838412.45069885 0 466838412.45069885 301352068.76059723 0 0 0 0 283898550.20308018 407114296.82466221 0 407114296.82466221 99010827.792724609 0 0 0 0 168820202.27296829 247114771.28912354 0 247114771.28912354 16345642.983123779 0 0 0 0 -63632472.779672146 143420604.43709946 0 143420604.43709946 -43976630.826042175 0 0 0 0 -5509424.0044784546 107213008.46057892 0 107213008.46057892 947355198.33071899 0 0 0 0 46621.467917383183 1112404.4305059519 0 1112404.4305059519 553380.93983258493 0 0 0 0 -925596.76924848557 75655013.702442169 0 75655013.702442169 285132839.79672241 0 0 0 0 16847362.431396008 37926972.82724762 0 37926972.82724762 365050602.74438477 0 0 0 0 -77208078.382728934 233491922.55534363 0 233491922.55534363 491945392.05230141 0 0 0 0 737785.45086199651 496168.37027351931 0 496168.37027351931 -399415.71736020781 0 0 0 0 -16357258.076705456 -39604196.357217789 0 -39604196.357217789 377878247.83324432 0 0 0 0 -5382526.1331939697 41029382.301811218 0 41029382.301811218 237305842.39038467 0 0 0 0 -6305168.9115800858 59736637.808071136 0 59736637.808071136 59987178.445739746 0 0 0 0 6240782.4914035797 122677499.67346191 0 122677499.67346191 137867906.83607483 0 0 0 0 -27929807.311744452 50605637.160747528 0 50605637.160747528 314996528.04999161 0 0 0 0 528455.43936100043 2604008.9324614499 0 2604008.9324614499 1177439.3264941582 0 0 0 0 -88853028.3721807 286099820.3011322 0 286099820.3011322 256748311.74682999 0 0 0 0 -36615913.147267938 122864429.72241211 0 122864429.72241211 376896964.31912994 0 0 0 0 -58853264.89281106 194493805.80552101 0 194493805.80552101 157780862.08508301 0 0 0 0 17722512.876446247 219479677.9212513 0 219479677.9212513 73883221.185287476 0 0 0 0 4576738.0878582001 235341762.91479874 0 235341762.91479874 182164262.25535583 0 0 0 0 57491685.716442585 260633277.68770981 0 260633277.68770981 40711217.243017197 0 0 0 0 -24466875.083598733 315454618.20404053 0 315454618.20404053 65184684.399719238 0 0 0 0 37432938.066837788 198406232.3757515 0 198406232.3757515 -191899821.1664505 0 0 0 0 166535026.95414543 -383910532.74282265 0 -383910532.74282265 -331431212.20179749 0 0 0 0 -468653854.5290184 -230484031.25995636 0 -230484031.25995636 301264879.45307541 0 0 0 0 -265913703.39170504 535144779.07534409 0 535144779.07534409 83140832.356628418 0 0 0 0 541972126.80433774 532979823.80880928 0 532979823.80880928 -661316543.39463806 0 0 0 0 493148858.80343056 879083611.79668427 0 879083611.79668427 -202099093.36771393 0 0 0 0 -712243902.06349611 -382305955.04943085 0 -382305955.04943085 132748590.00543213 0 0 0 0 527020.29237177083 1428752.9182763323 0 1428752.9182763323 -574600.86123481393 0 0 0 0 -480207845.21983051 -91304321.271429062 0 -91304321.271429062 124806910.34854889 0 0 0 0 -119385067.44317722 291899139.02751923 0 291899139.02751923 229804816.14801121 0 0 0 0 345513450.6839447 222215160.62303925 0 222215160.62303925 30866512.133544922 0 0 0 0 28798351.96028018 220394670.06380939 0 220394670.06380939 177021421.18586731 0 0 0 0 1245281.8371583326 4798444.1930979975 0 4798444.1930979975 -1305690.5537431464 0 0 0 0 -151517328.17532933 -37795502.208786011 0 -37795502.208786011 134251136.21353912 0 0 0 0 -26096537.917724609 33013943.735630035 0 33013943.735630035 7656484.6050872803 0 0 0 0 1642713.778299832 9261265.1739229746 0 9261265.1739229746 -1152723.4018453807 0 0 0 0 -18074416.030087471 -278308851.74053955 0 -278308851.74053955 24413574.282043457 0 0 0 0 -115158783.65875304 70486616.221801519 0 70486616.221801519 41809338.541183472 0 0 0 0 -37451272.129304886 102563573.46447754 0 102563573.46447754 21443276.314861298 0 0 0 0 -118521029.84961569 20503087.289256811 0 20503087.289256811 12673495.150787354 0 0 0 0 -97497732.936857224 -120679406.37558746 0 -120679406.37558746 -180839794.42037964 0 0 0 0 1554716.747945833 579913.0257942304 0 579913.0257942304 -2016137.0812350735 0 0 0 0 362817875.75440121 61091726.296390533 0 61091726.296390533 -48369621.775161743 0 0 0 0 153830779.6759119 251124360.97479248 0 251124360.97479248 31243000.347818494 0 0 0 0 -76841930.884605408 71728230.137794495 0 71728230.137794495 25892580.591522217 0 0 0 0 -106747789.47372055 112137678.67670822 0 112137678.67670822 90132728.331237793 0 0 0 0 -56533262.971576691 162661852.54996872 0 162661852.54996872 111933964.35195923 0 0 0 0 -51666348.127605438 132015758.19468307 0 132015758.19468307 -34594982.036727905 0 0 0 0 -66679719.797245026 254269279.85874939 0 254269279.85874939 -39649371.801038742 0 0 0 0 77487190.560428619 130091564.80490875 0 130091564.80490875 59238989.249023438 0 0 0 0 116913838.19557285 31941275.669502258 0 31941275.669502258 76166783.525878906 0 0 0 0 180648570.67048597 45025860.243415833 0 45025860.243415833 -40284300.835571289 0 0 0 0 282260120.36871719 -147992243.21289062 0 -147992243.21289062 130900326.90286255 0 0 0 0 -126263477.06969905 66339158.024522781 0 66339158.024522781 648095980.91577148 0 0 0 0 -322890063.4716301 983190538.60923767 0 983190538.60923767 125809730.38882446 0 0 0 0 -274884462.17580414 -601749582.85212708 0 -601749582.85212708 1476943512.9809265 0 0 0 0 383169.63615082111 1003864.7228223048 0 1003864.7228223048 -988396.27880732343 0 0 0 0 224109909.46005177 84547964.305461884 0 84547964.305461884 -58552660.536529541 0 0 0 0 8770434.7043523863 -193667.63450445049 0 -193667.63450445049 -10122496.709284669 0 0 0 0 180054597.85903692 -308564915.35508347 0 -308564915.35508347 280606217.17810059 0 0 0 0 212702.61708831787 5018239.0477256775 0 5018239.0477256775 -2105038.5106797218 0 0 0 0 18780453.576328278 6422613.3834342957 0 6422613.3834342957 -13058448.276311874 0 0 0 0 2523850.1730381437 11220990.920396039 0 11220990.920396039 -14846697.092285536 0 0 0 0 26319030.821530342 17658714.74822998 0 17658714.74822998 42805740.471862793 0 0 0 0 2117754.9953017579 8631042.4496363904 0 8631042.4496363904 -12829763.407614585 0 0 0 0 55557376.659355164 -13791479.103159904 0 -13791479.103159904 -19921356.779561043 0 0 0 0 14129438.944277888 1543853.6495564147 0 1543853.6495564147 -14263145.468286516 0 0 0 0 72212833.720779419 -61578187.688655853 0 -61578187.688655853 20341413.134941101 0 0 0 0 69207641.809371948 -49113915.746949196 0 -49113915.746949196 -16667321.404720306 0 0 0 0 99897188.004699707 -352678.59250640869 0 -352678.59250640869 -14246527.215261936 0 0 0 0 130677120.46992493 -41898742.421548843 0 -41898742.421548843 -15846496.584409714 0 0 0 0 37030209.55382967 98530410.406181335 0 98530410.406181335 36303036.811233521 0 0 0 0 143527336.83663177 -13108493.199623108 0 -13108493.199623108 -32337822.772939682 0 0 0 0 706169.30713990715 3293840.9096214781 0 3293840.9096214781 -3136801.1996732429 0 0 0 0 -3050967.0318725016 18453954.526846562 0 18453954.526846562 -21833815.604129404 0 0 0 0 368293716.77144033 71869150.109343529 0 71869150.109343529 -70259300.512069702 0 0 0 0 127888967.39012146 -34437398.624763489 0 -34437398.624763489 -33742133.170219421 0 0 0 0 99014629.213195801 -96953665.706329346 0 -96953665.706329346 -58557145.57232666 0 0 0 0 195533733.15561867 -27199018.916308403 0 -27199018.916308403 -94295479.227333069 0 0 0 0 173309023.97000122 35139802.385190964 0 35139802.385190964 18122611.308492661 0 0 0 0 335533451.6411972 68500890.711889267 0 68500890.711889267 -102323881.0647583 0 0 0 0 -6094325.6840386819 18836491.482131265 0 18836491.482131265 -19174002.105846424 0 0 0 0 80755467.224677563 -23694119.626560211 0 -23694119.626560211 -95632323.602249146 0 0 0 0 5524232.0486901635 -1227847.3890341558 0 -1227847.3890341558 -4882207.9773490131 0 0 0 0 470924939.49546814 923497199.21997833 0 923497199.21997833 116037463.9847374 0 0 0 0 -169086419.84514618 -45952996.196221352 0 -45952996.196221352 -133594126.95713043 0 0 0 0 -170569020.3734169 -86811226.937704086 0 -86811226.937704086 -380962253.26364899 0 0 0 0 -43338163.11505127 -156332792.31244278 0 -156332792.31244278 -172796452.13786316 0 0 0 0 130684205.80004883 -70302785.639770508 0 -70302785.639770508 -95880413.885492325 0 0 0 0 134956325.0358429 -71303700.116224289 0 -71303700.116224289 -181924506.64037323 0 0 0 0 283230524.23298264 18360707.194461823 0 18360707.194461823 -168923115.08403015 0 0 0 0 -18063689.362014771 -98035904.824672699 0 -98035904.824672699 -69306860.952514648 0 0 0 0 43431734.982055664 -134661096.87058067 0 -134661096.87058067 -86090902.674133301 0 0 0 0 -17161815.401216507 -107817385.50610065 0 -107817385.50610065 -190345960.75896454 0 0 0 0 -169424226.18867493 -149044227.68201447 0 -149044227.68201447 -56151550.978824615 0 0 0 0 -50456307.734268188 -92812771.133836746 0 -92812771.133836746 24606361.999542236 0 0 0 0 -47656814.033760071 -63013675.510360718 0 -63013675.510360718 4614797.7168235779 0 0 0 0 81439443.179763794 -24435463.694299698 0 -24435463.694299698 59967538.299966812 0 0 0 0 42779234.374694824 -93042990.948060989 0 -93042990.948060989 -11802739.638773113 0 0 0 0 74158744.223495483 -86642662.106871605 0 -86642662.106871605 -11919680.295150757 0 0 0 0 28659466.679710388 -116254598.53816605 0 -116254598.53816605 59991604.299625397 0 0 0 0 9491768.8726078887 829158.78668783233 0 829158.78668783233 -10625335.074578069 0 0 0 0 79846614.438392639 10788394.111412048 0 10788394.111412048 -37054768.449882507 0 0 0 0 9781423.6969299316 -19383790.526367188 0 -19383790.526367188 10101383.619789124 0 0 0 0 9800733.6429621503 -37070608.893500589 0 -37070608.893500589 103362339.40291023 0 0 0 0 3945666.0642759763 325832.27357534878 0 325832.27357534878 -3871819.8205480725 0 0 0 0 7477684.0456638504 -420301.76924197143 0 -420301.76924197143 -9367113.0652727596 0 0 0 0 -4088333.7121047974 -19078927.93851614 0 -19078927.93851614 582965.81890583038 0 0 0 0 -67957210.000869751 -13805716.603032589 0 -13805716.603032589 133192629.29696655 0 0 0 0 -6626497.6080627441 -61876815.349164009 0 -61876815.349164009 111367515.72941017 0 0 0 0 -44499696.32276535 13283867.77350378 0 13283867.77350378 110395498.22327614 0 0 0 0 20348801.255607605 32687385.468710899 0 32687385.468710899 80426152.791294098 0 0 0 0 2011334.7590807406 -2090351.9824739229 0 -2090351.9824739229 -623105.34305676166 0 0 0 0 423556849.22191238 189612248.4009552 0 189612248.4009552 -72092143.445922852 0 0 0 0 1289819830.2345581 -68618738.474617004 0 -68618738.474617004 -83811163.051130772 0 0 0 0 229711.96093211323 289388.55189611856 0 289388.55189611856 -311673.68411915586 0 0 0 0 461463.00077295024 -370266.31542628724 0 -370266.31542628724 -58522.951778046787 0 0 0 0 83493630.814590454 323833252.03880787 0 323833252.03880787 112442325.40227509 0 0 0 0 -97400761.954925537 16070126.869721651 0 16070126.869721651 112511919.52013206 0 0 0 0 -109575002.96138 -27727804.559028625 0 -27727804.559028625 45550977.224788666 0 0 0 0 -264122285.50402069 388113881.57904053 0 388113881.57904053 94831528.168196678 0 0 0 0 -269149213.5107193 514215697.71079445 0 514215697.71079445 -21956118.104269028 0 0 0 0 625406186.85824585 400937061.355793 0 400937061.355793 -82318518.92905426 0 0 0 0 506463199.49313354 752135704.13700676 0 752135704.13700676 281925587.49300933 0 0 0 0 -248019175.23958588 736594460.47648811 0 736594460.47648811 -139571769.82030106 0 0 0 0 -107329029.25219154 355566928.80573559 0 355566928.80573559 64853867.62682724 0 0 0 0 -838112654.32189941 929508031.16699505 0 929508031.16699505 -905581113.86283779 0 0 0 0 -669279059.45761108 513311707.78649998 0 513311707.78649998 40989588.449289322 0 0 0 0 -2140037341.9602966 1394302200.7761259 0 1394302200.7761259 -800610439.6319561 0 0 0 0 -1511544495.8313332 635874842.10797358 0 635874842.10797358 79071291.788509369 0 0 0 0 -983753740.67076874 651356710.69853401 0 651356710.69853401 95183465.387130737 0 0 0 0 -1313736697.9787827 804671599.16919899 0 804671599.16919899 80054870.600673676 0 0 0 0 -357392440.38524246 767073941.39674199 0 767073941.39674199 -202531546.29792404 0 0 0 0 -1032634658.1254807 860257099.3528223 0 860257099.3528223 110158172.27435875 0 0 0 0 -814652610.62924194 802070474.27269554 0 802070474.27269554 103957125.04563904 0 0 0 0 -964335720.14734268 787005788.30424356 0 787005788.30424356 131872025.11125946 0 0 0 0 -989295415.62205505 730273792.1971283 0 730273792.1971283 155306665.22214508 0 0 0 0 -601711197.29090118 494098735.40663147 0 494098735.40663147 157241486.39938831 0 0 0 0 -1367242187.7250061 575242101.02560616 0 575242101.02560616 157196814.63119125 0 0 0 0 -964890497.90145683 792268446.00738335 0 792268446.00738335 195147906.79598999 0 0 0 0 -954827815.32505417 292360231.56645203 0 292360231.56645203 160360401.39889908 0 0 0 0 -407740265.99715042 365068067.38544846 0 365068067.38544846 123575859.53632736 0 0 0 0 -32965488.407238007 1046788068.7387667 0 1046788068.7387667 318300082.79883194 0 0 0 0 -365829600.39973068 325424202.89563656 0 325424202.89563656 140093644.55847168 0 0 0 0 -1563546578.5932503 905336774.70042992 0 905336774.70042992 260598657.07555199 0 0 0 0 -950351026.76686859 751559893.77898598 0 751559893.77898598 37469280.891944885 0 0 0 0 -988062743.98878479 751588575.46390533 0 751588575.46390533 234741194.49893951 0 0 0 0 -1081912843.967392 425621098.67947435 0 425621098.67947435 -98821433.916088104 0 0 0 0 -950540360.44217682 703362299.21511841 0 703362299.21511841 -605073769.33708572 0 0 0 0 -2218095615.1537628 969466085.22441864 0 969466085.22441864 -265954356.8291111 0 0 0 0 -733583999.98735809 267199778.14499283 0 267199778.14499283 -520253278.00863266 0 0 0 0 -707649183.80857849 -61727308.664037704 0 -61727308.664037704 -205125078.58716393 0 0 0 0 -1084756450.7930069 42023202.340326309 0 42023202.340326309 -167585144.75163269 0 0 0 0 -488005460.50643158 -127807317.57227898 0 -127807317.57227898 -53080880.430938721 0 0 0 0 -494179132.5953753 187567498.2447834 0 187567498.2447834 -208779986.79283905 0 0 0 0 -185821546.56228065 28013752.128122807 0 28013752.128122807 6623699.7021865845 0 0 0 0 -543799651.42408752 71793530.079353333 0 71793530.079353333 14679434.264059067 0 0 0 0 -701516453.32834816 512402760.0335412 0 512402760.0335412 238526143.04754639 0 0 0 0 -643215945.6467514 687980050.78165627 0 687980050.78165627 37289722.629325867 0 0 0 0 99581492.559761047 -313410213.43153667 0 -313410213.43153667 459682767.18746185 0 0 0 0 -46123465.545246124 16857389.894809723 0 16857389.894809723 18766116.649087906 0 0 0 0 -2183022.2711191084 6664052.9015524387 0 6664052.9015524387 6142890.3307878776 0 0 0 0 -4189164.1876106262 4148326.8348059654 0 4148326.8348059654 5354952.1030483246 0 0 0 0 -22137397.95929718 3521791.046125412 0 3521791.046125412 1837575.7488098145 0 0 0 0 -8214326.7075157501 -31139.501921429066 0 -31139.501921429066 7803445.7889592964 0 0 0 0 -5101095.4554304741 -1197086.9559450024 0 -1197086.9559450024 4540359.8066435112 0 0 0 0 -2554363.6334807519 246043.37445682753 0 246043.37445682753 -135072.98786754627 0 0 0 0 7104381.6584873199 -21056756.502170563 0 -21056756.502170563 12027156.866491318 0 0 0 0 -44601302.427158356 -14783480.831018448 0 -14783480.831018448 38927832.14499855 0 0 0 0 -230815701.0827198 -194966861.69451952 0 -194966861.69451952 -160090410.17617989 0 0 0 0 -925568822.81978989 38448547.316324234 0 38448547.316324234 139205079.9071064 0 0 0 0 -1275616794.0729904 -798603479.64352608 0 -798603479.64352608 -497602918.14176464 0 0 0 0 -8872707.6732559204 1433955.7982273102 0 1433955.7982273102 -11164342.530454636 0 0 0 0 -975174.51497011632 2675.7598210573196 0 2675.7598210573196 887010.03959938604 0 0 0 0 -2785108829.9264774 144412008.10468817 0 144412008.10468817 294120704.84562492 0 0 0 0 -1183628779.7767181 -91512443.704622269 0 -91512443.704622269 296868768.07742751 0 0 0 0 -957276277.43419647 206660661.60942459 0 206660661.60942459 277046608.12447357 0 0 0 0 -1834602564.7382622 247050763.81931162 0 247050763.81931162 277062936.01317978 0 0 0 0 -1107186523.6682281 80593111.392543793 0 80593111.392543793 181785697.34543228 0 0 0 0 -815155261.8250885 140809551.17240143 0 140809551.17240143 157413612.08817959 0 0 0 0 -790795012.59270859 149176288.01513863 0 149176288.01513863 232549199.25221252 0 0 0 0 -744803798.52670479 128145819.45523357 0 128145819.45523357 4613175.378490448 0 0 0 0 -1059927265.7094879 -40369592.47593689 0 -40369592.47593689 119963772.31674576 0 0 0 0 -458161.76145323738 536751.39718784485 0 536751.39718784485 -502202.90746279154 0 0 0 0 -15758972.150178909 -127651947.62112331 0 -127651947.62112331 60039432.758686066 0 0 0 0 -1072936894.8560486 34511259.04381752 0 34511259.04381752 141908570.50891542 0 0 0 0 -1166409634.3857117 47400053.74473381 0 47400053.74473381 196404820.0586586 0 0 0 0 -826602.57899328228 4135765.5130010871 0 4135765.5130010871 3106108.7454801146 0 0 0 0 -76871491.169220924 57376104.839862585 0 57376104.839862585 1807309.9440841675 0 0 0 0 641802671.81980515 -953703200.04446793 0 -953703200.04446793 167569529.12538719 0 0 0 0 -25797775.910057068 -146877068.81045151 0 -146877068.81045151 411695895.53448868 0 0 0 0 -341060008.19096947 -78664378.105218887 0 -78664378.105218887 548093921.83866119 0 0 0 0 -1373994582.1465569 775885491.13211823 0 775885491.13211823 -85806986.989046097 0 0 0 0 -546188851.01994133 938058263.966259 0 938058263.966259 -689746218.97898102 0 0 0 0 -766026908.64710999 397752190.83692169 0 397752190.83692169 -504311909.18310165 0 0 0 0 -319349033.8560791 -144973140.88473511 0 -144973140.88473511 -1828884281.133667 0 0 0 0 -284040179.33231473 -655586339.2767266 0 -655586339.2767266 -432950228.69979095 0 0 0 0 -40014449.665294647 577263570.13623047 0 577263570.13623047 -962872416.86440277 0 0 0 0 103851051.68834591 -26832450.950330257 0 -26832450.950330257 -66720864.769012451 0 0 0 0 953724552.42731476 67597817.70841217 0 67597817.70841217 -487725980.57921982 0 0 0 0 283881812.11751556 419417623.14850998 0 419417623.14850998 -521880174.90945435 0 0 0 0 -378864158.57463169 426284799.01977348 0 426284799.01977348 -50802082.710929871 0 0 0 0 253993547.30032086 -87359839.354350328 0 -87359839.354350328 402924671.36514282 0 0 0 0 254758806.95520401 308888348.32150269 0 308888348.32150269 -61175767.979171753 0 0 0 0 584431727.57702446 -509861414.19968414 0 -509861414.19968414 678618925.9778595 0 0 0 0 1231880742.1204529 -733800621.79523325 0 -733800621.79523325 -77777797.124107361 0 0 0 0 -853201730.78988266 182638697.29462624 0 182638697.29462624 152209343.30055237 0 0 0 0 -851496528.55187988 224663987.65856743 0 224663987.65856743 -54442263.048840523 0 0 0 0 275470.88421769068 2486905.2479579244 0 2486905.2479579244 803071.31310180575 0 0 0 0 -531002134.81274414 410760116.76428223 0 410760116.76428223 -287480653.28536987 0 0 0 0 -775584423.57329559 133644491.32012558 0 133644491.32012558 86515879.513191223 0 0 0 0 -529636523.02323914 309209942.07434082 0 309209942.07434082 157132503.72970772 0 0 0 0 -942994877.82283401 826215925.55168915 0 826215925.55168915 -37553019.873018265 0 0 0 0 495872.07960094512 1005837.0827072877 0 1005837.0827072877 -124491.94233861193 0 0 0 0 -727286005.37403297 346180721.2547636 0 346180721.2547636 519496790.08973694 0 0 0 0 -424637422.96308899 431015201.80282593 0 431015201.80282593 686707486.24824524 0 0 0 0 -263493389.08121109 648435535.56920004 0 648435535.56920004 238586787.77967834 0 0 0 0 -61662004.595757484 -365729335.03439474 0 -365729335.03439474 -205828287.28644562 0 0 0 0 -1511592261.57201 -322619231.98009491 0 -322619231.98009491 140309817.77867508 0 0 0 0 -948496765.10104752 489787217.90987396 0 489787217.90987396 -118462215.24912453 0 0 0 0 -108770586.00223541 367962676.61902618 0 367962676.61902618 -139202620.86384201 0 0 0 0 -424601732.26908875 612040591.41419983 0 612040591.41419983 12356383.518432617 0 0 0 0 -259793287.38243484 558916515.33424759 0 558916515.33424759 -225061253.52399445 0 0 0 0 54872732.650901794 342240770.11933136 0 342240770.11933136 88506209.166154861 0 0 0 0 -372923547.39862442 753452544.96372986 0 753452544.96372986 -217427234.76172829 0 0 0 0 -312818086.98045349 698486189.86219025 0 698486189.86219025 6563410.3743438721 0 0 0 0 -113811161.34049988 239998089.30182838 0 239998089.30182838 237888879.78990173 0 0 0 0 -507014473.52435684 635523305.98980331 0 635523305.98980331 -1290919.5771217346 0 0 0 0 -500513184.04912519 662417847.17240238 0 662417847.17240238 -167054702.7257843 0 0 0 0 -733696786.18268585 584778480.04201508 0 584778480.04201508 -171742363.48300934 0 0 0 0 -722565751.29335785 558612900.61364746 0 558612900.61364746 -153129671.08705139 0 0 0 0 -1105640543.6608276 521382911.40642548 0 521382911.40642548 -24815042.63684845 0 0 0 0 -912319219.62660217 586053738.40091324 0 586053738.40091324 -3213752.6783943176 0 0 0 0 -1100432316.0122776 657743774.25099182 0 657743774.25099182 112786862.60040283 0 0 0 0 -812460828.44342422 740928633.19794464 0 740928633.19794464 50082595.518035889 0 0 0 0 -719819960.2749176 565856335.29315948 0 565856335.29315948 5494891.5427398682 0 0 0 0 -918669577.0018692 832610646.12788391 0 832610646.12788391 -105784968.24032497 0 0 0 0 -1389600170.9499512 614799308.7278347 0 614799308.7278347 106453295.59575653 0 0 0 0 -2005079207.8196774 -451550357.51352787 0 -451550357.51352787 -263763639.45124817 0 0 0 0 -1778454034.956131 125590678.42496109 0 125590678.42496109 -252360848.72250301 0 0 0 0 -1650187612.9826813 -121479576.063591 0 -121479576.063591 72459602.238937378 0 0 0 0 -1080436211.1285629 261905621.63239288 0 261905621.63239288 -179975246.77912188 0 0 0 0 -717926485.02523041 -184162120.15889168 0 -184162120.15889168 -3620955.0257263184 0 0 0 0 -922280477.27919769 -184712126.47896576 0 -184712126.47896576 -220719598.4471581 0 0 0 0 -821895101.31184387 167493329.24683762 0 167493329.24683762 -173938801.70576477 0 0 0 0 -1519233275.7683105 -42610982.154287338 0 -42610982.154287338 -214718660.40940094 0 0 0 0 -3268424433.5589161 102522184.26039505 0 102522184.26039505 265123572.04713821 0 0 0 0 -1659772059.3520279 326715185.79992676 0 326715185.79992676 -243400950.88166809 0 0 0 0 -960209.40571617102 2624147.7020368353 0 2624147.7020368353 106510.50184778124 0 0 0 0 90382064.119903564 -23845558.344985962 0 -23845558.344985962 -214923919.80698013 0 0 0 0 -986528.66888929717 1650801.9996170569 0 1650801.9996170569 821961.72837525979 0 0 0 0 929198847.04955292 864980666.90662003 0 864980666.90662003 -173258160.21697235 0 0 0 0 697533531.31022263 129186160.82168961 0 129186160.82168961 -108196044.34884644 0 0 0 0 -112699004.05272675 -12445796.594919205 0 -12445796.594919205 376595595.13385773 0 0 0 0 62388068.260116577 545888864.04167938 0 545888864.04167938 174554883.1377244 0 0 0 0 -324444548.68574905 63314352.89774704 0 63314352.89774704 236334385.57453918 0 0 0 0 -534843967.48906422 423636570.05642653 0 423636570.05642653 245454721.3279953 0 0 0 0 -364336343.11919022 230494474.28345966 0 230494474.28345966 84578804.411247253 0 0 0 0 -634260177.67694473 404909894.95427704 0 404909894.95427704 164142722.65076637 0 0 0 0 -1850938.5958536319 2992285.3269393165 0 2992285.3269393165 1649953.211617846 0 0 0 0 -364835674.30501556 219961547.43897247 0 219961547.43897247 9476537.0429897308 0 0 0 0 -403757999.46063614 197375396.55517197 0 197375396.55517197 102516269.90918732 0 0 0 0 -404232492.46585846 209717191.93550301 0 209717191.93550301 162214073.94238663 0 0 0 0 -2091291.5771378912 5800028.0737333335 0 5800028.0737333335 -507065.36215401441 0 0 0 0 398786783.92220879 387345751.77062798 0 387345751.77062798 -229932573.00876617 0 0 0 0 -991862.091553526 1554836.397932128 0 1554836.397932128 953628.12522931024 0 0 0 0 -31281254.642896652 -172740009.18688583 0 -172740009.18688583 -119320382.86095428 0 0 0 0 -1420976219.5920334 235353178.53962708 0 235353178.53962708 75499125.55355072 0 0 0 0 -1659123853.7261314 -286936636.30507469 0 -286936636.30507469 -36593277.440750122 0 0 0 0 -1104020255.87117 177167175.19817352 0 177167175.19817352 -36879921.479234695 0 0 0 0 -2248933482.6468754 -54426765.578580379 0 -54426765.578580379 248725554.63196564 0 0 0 0 -1110929450.7496567 206127103.01283646 0 206127103.01283646 255620907.68125153 0 0 0 0 -294682743.2651825 -283242544.95063591 0 -283242544.95063591 349270357.63027191 0 0 0 0 -955338036.12377167 339597112.31516647 0 339597112.31516647 222832767.77359962 0 0 0 0 -7398484.4005053118 7503711.7344466494 0 7503711.7344466494 -4202101.9313645847 0 0 0 0 480018998.7531662 430125777.30037689 0 430125777.30037689 609491902.23554993 0 0 0 0 221961002.64700699 394094610.68648529 0 394094610.68648529 654462127.70728302 0 0 0 0 431209486.77061462 148425542.29850006 0 148425542.29850006 140814309.65319824 0 0 0 0 341534545.44863129 427669505.40878296 0 427669505.40878296 -274526831.51445007 0 0 0 0 -3000829.0082725957 2589691.2922441615 0 2589691.2922441615 -1123669.3742215596 0 0 0 0 448180250.55131525 794093739.96147668 0 794093739.96147668 -596427768.23906708 0 0 0 0 -3520960845.4449654 -1635621027.904213 0 -1635621027.904213 1166961366.5396233 0 0 0 0 -973217099.07935691 58240899.258701086 0 58240899.258701086 40223466.123413086 0 0 0 0 -1480493670.4378357 4369427.8800239563 0 4369427.8800239563 151622805.60848236 0 0 0 0 -2277544.1055835262 6438329.8623912921 0 6438329.8623912921 -2888715.9597008154 0 0 0 0 -1717427265.9114151 93977704.124675751 0 93977704.124675751 263418684.54396057 0 0 0 0 -993342527.47151566 -6372849.6420021057 0 -6372849.6420021057 249502787.0949173 0 0 0 0 -421468974.37605667 478346220.99050713 0 478346220.99050713 143658790.98419189 0 0 0 0 -1141248408.7944908 68793042.620458603 0 68793042.620458603 -37586575.217300415 0 0 0 0 544754322.16949654 790287517.1264286 0 790287517.1264286 -3671382198.938446 0 0 0 0 -1477014119.5293961 201200697.47833252 0 201200697.47833252 -10172967.015960693 0 0 0 0 -2862233607.1221123 1374673638.4312134 0 1374673638.4312134 883084459.40364075 0 0 0 0 -1673138.2005470451 4682749.7666262146 0 4682749.7666262146 -4536431.4187072366 0 0 0 0 -1628855299.8266754 68464148.898685455 0 68464148.898685455 -112610832.54359436 0 0 0 0 -1635571583.9010544 777988850.44799757 0 777988850.44799757 -246222743.69813538 0 0 0 0 -3702754787.068388 403128306.66578293 0 403128306.66578293 79342382.524894714 0 0 0 0 -1175274214.1138039 641915167.54993057 0 641915167.54993057 -573474524.41888428 0 0 0 0 -664711.75305584352 1593011.0340489838 0 1593011.0340489838 -2224050.2748203874 0 0 0 0 -207944256.3451767 -288011055.51594925 0 -288011055.51594925 693439877.28572083 0 0 0 0 242996993.12137604 -179939594.32126999 0 -179939594.32126999 -212210025.64749146 0 0 0 0 -859001930.057827 477686883.38561249 0 477686883.38561249 -36382689.355804443 0 0 0 0 -437456492.94453049 710662132.03095245 0 710662132.03095245 102709510.04073334 0 0 0 0 -853229692.73579788 498080022.61880493 0 498080022.61880493 27949901.573505402 0 0 0 0 -424681488.35983658 654185008.03656006 0 654185008.03656006 -141906897.116745 0 0 0 0 61308203.478878021 509883891.18000031 0 509883891.18000031 -147373962.30023551 0 0 0 0 -104851674.53140163 624025525.63088226 0 624025525.63088226 -190149525.47009277 0 0 0 0 63949817.477145195 979035495.29795074 0 979035495.29795074 -261256785.3951416 0 0 0 0 -1396144983.5760269 447502992.91139984 0 447502992.91139984 1316306312.3578568 0 0 0 0 -592626255.49417877 1578448938.9340897 0 1578448938.9340897 -787768525.39723778 0 0 0 0 -1190111394.4034958 1153329540.4709473 0 1153329540.4709473 -102999223.1471405 0 0 0 0 -641001823.76317787 441807150.48764801 0 441807150.48764801 -195894721.59597778 0 0 0 0 -664328642.54274368 497692083.95661926 0 497692083.95661926 -207845724.29756165 0 0 0 0 -691872757.53868103 445396213.41294861 0 445396213.41294861 -273889947.67652893 0 0 0 0 -805793368.89950943 523616938.47434616 0 523616938.47434616 -167842814.70698547 0 0 0 0 -619187886.8212204 625297932.60160828 0 625297932.60160828 -194188129.49796295 0 0 0 0 -653090989.40258789 510307895.07817841 0 510307895.07817841 -297334568.33903503 0 0 0 0 -630783118.12081909 562901612.00984955 0 562901612.00984955 -247563994.73376465 0 0 0 0 -616824082.09141731 558060112.60406113 0 558060112.60406113 -283321294.44789124 0 0 0 0 -448333872.97511292 588459026.98292542 0 588459026.98292542 -284218420.60179901 0 0 0 0 -453439975.57533598 611423143.20653248 0 611423143.20653248 -295596938.02854156 0 0 0 0 -440610391.10291672 614426364.62545395 0 614426364.62545395 -298637464.26673126 0 0 0 0 -414567026.38519287 609730293.31007385 0 609730293.31007385 -329093441.4727478 0 0 0 0 -392770074.37795639 514391315.5846405 0 514391315.5846405 -275556721.82089424 0 0 0 0 -424062960.4438591 591623491.124897 0 591623491.124897 -304071936.63243866 0 0 0 0 -530654827.04514694 684022883.48631287 0 684022883.48631287 -320797925.03140259 0 0 0 0 -415825112.22098541 604506462.3270874 0 604506462.3270874 -340482441.89089012 0 0 0 0 -473631008.19992828 660082111.66194916 0 660082111.66194916 -347182536.78775406 0 0 0 0 -512315670.14315033 623237119.70044327 0 623237119.70044327 -240965851.66884804 0 0 0 0 -478098087.103549 559394499.8939352 0 559394499.8939352 -265357688.20468903 0 0 0 0 -609327688.92971992 558067311.13272095 0 558067311.13272095 -265267475.65702057 0 0 0 0 -856792371.50400543 607898319.28261566 0 607898319.28261566 -231330456.16758728 0 0 0 0 -787841315.15910912 496655242.04878807 0 496655242.04878807 -181662746.43321228 0 0 0 0 -898175085.56317902 923721893.12219906 0 923721893.12219906 -442373014.78118134 0 0 0 0 -1105078639.5236015 433160945.72185898 0 433160945.72185898 -187368889.89097643 0 0 0 0 -1154630213.4250221 747427975.81058884 0 747427975.81058884 -331335414.17101288 0 0 0 0 -357588192.43814707 805176540.83462977 0 805176540.83462977 -743154402.87578583 0 0 0 0 -325368519.27388382 418210728.1299324 0 418210728.1299324 -241949417.91019821 0 0 0 0 -258993752.40852547 747916590.40898895 0 747916590.40898895 -531149866.72645569 0 0 0 0 -563348359.74638367 602830276.22890472 0 602830276.22890472 -276035421.41413116 0 0 0 0 -111561247.10124969 398387504.2288475 0 398387504.2288475 -230374028.61833191 0 0 0 0 -223978861.3094101 571459925.84338379 0 571459925.84338379 -378959124.30480957 0 0 0 0 161981353.02127838 -40122215.282875061 0 -40122215.282875061 130258382.05926514 0 0 0 0 -32751190.931713104 457722357.40555191 0 457722357.40555191 -214020961.81552124 0 0 0 0 4028143.1086425781 154277340.28102875 0 154277340.28102875 162073594.25707245 0 0 0 0 2022089.6083140718 2603949.3554172693 0 2603949.3554172693 -1366983.3715887032 0 0 0 0 140138150.89465332 219043932.40906143 0 219043932.40906143 -259146001.50365448 0 0 0 0 86628730.052049637 -182597835.87241554 0 -182597835.87241554 95803360.891677856 0 0 0 0 -242805227.35087061 245137218.05195594 0 245137218.05195594 -108119697.61985779 0 0 0 0 -21672608.710178375 18753832.704078674 0 18753832.704078674 4368939.8029727936 0 0 0 0 -677927.78695802903 -1265059.3640641998 0 -1265059.3640641998 688500.57346795872 0 0 0 0 -2795932.3944250476 2362250.0374652781 0 2362250.0374652781 760663.74319244176 0 0 0 0 -26103422.849651337 -6432469.1645278931 0 -6432469.1645278931 -5064518.4435424805 0 0 0 0 217514356.42409515 -305691692.39362717 0 -305691692.39362717 -265129481.77055359 0 0 0 0 -2911019.4814855359 4356705.4650147911 0 4356705.4650147911 1705346.816209659 0 0 0 0 1497848.7913448848 1708170.7976958249 0 1708170.7976958249 -1145856.6921449006 0 0 0 0 939911132.001194 -180943297.20914078 0 -180943297.20914078 -340361050.95469284 0 0 0 0 10353784.653637886 180220988.14453506 0 180220988.14453506 356500185.735672 0 0 0 0 554500414.86841393 335099446.60217094 0 335099446.60217094 -137676171.07879639 0 0 0 0 352063459.42223358 -333404268.49468613 0 -333404268.49468613 -569200161.91789246 0 0 0 0 339347534.57620239 -320047597.77192688 0 -320047597.77192688 364393155.55941772 0 0 0 0 290692608.45898056 302680491.77453613 0 302680491.77453613 -232205680.25543213 0 0 0 0 120410515.79164505 50555296.43138504 0 50555296.43138504 -231493317.78575897 0 0 0 0 182828314.57431149 492857037.48895109 0 492857037.48895109 -517138084.11802673 0 0 0 0 -6361345.047000885 513191232.40268135 0 513191232.40268135 -688023157.92579651 0 0 0 0 -691300200.13568115 361456520.32468414 0 361456520.32468414 -535476168.10441208 0 0 0 0 -491767963.69429016 -19748775.515151978 0 -19748775.515151978 -158680595.01700211 0 0 0 0 -625610224.29969215 470343752.8197751 0 470343752.8197751 -1103013909.6534576 0 0 0 0 -385733870.65055466 446849985.17518759 0 446849985.17518759 -116703373.87696838 0 0 0 0 -222230978.93614578 -85217079.104996681 0 -85217079.104996681 106453708.14572144 0 0 0 0 -362903228.41637993 58104063.272445679 0 58104063.272445679 53348944.156593323 0 0 0 0 -157702524.37597466 362885617.81723785 0 362885617.81723785 173719057.68332672 0 0 0 0 799083968.15791321 352697955.8498764 0 352697955.8498764 563072.72490692139 0 0 0 0 884884787.1688385 409926724.64631653 0 409926724.64631653 -54885425.679019928 0 0 0 0 1517049283.9007435 -468578702.21909523 0 -468578702.21909523 -259588429.33729553 0 0 0 0 540814.41314967116 528197.47066607326 0 528197.47066607326 -422517.71852427348 0 0 0 0 -52562771.303749084 157994161.26506805 0 157994161.26506805 601794908.91340637 0 0 0 0 -19195552.678268433 25281049.21059227 0 25281049.21059227 -1530.4527130126953 0 0 0 0 1282172995.245903 104484332.82337189 0 104484332.82337189 -834113541.70245361 0 0 0 0 -2837143.0721817338 1226562.9117120467 0 1226562.9117120467 45873.486637152731 0 0 0 0 -817273.82787381206 -1526723.4241346288 0 -1526723.4241346288 808767.68782704324 0 0 0 0 -34314884.24621582 8000623.9972457886 0 8000623.9972457886 1247809.8050460815 0 0 0 0 -1040255.1650314331 2332833.3908824921 0 2332833.3908824921 -6848935.1338653564 0 0 0 0 -16140283.418611526 8995614.1493282318 0 8995614.1493282318 -5768162.8523712158 0 0 0 0 -1243495543.4935036 1136165568.711216 0 1136165568.711216 -591079500.65387344 0 0 0 0 -527289983.71556091 572562814.62727737 0 572562814.62727737 -466535607.55441284 0 0 0 0 -541656903.95388937 396936255.54840565 0 396936255.54840565 -284070828.12522888 0 0 0 0 -463644858.65771103 543682319.18836975 0 543682319.18836975 -181112011.62242889 0 0 0 0 -478191881.97455525 791351360.32828832 0 791351360.32828832 -935569851.92081451 0 0 0 0 148026444.4199295 42577118.659713745 0 42577118.659713745 -593134320.04794312 0 0 0 0 -2710064976.4355717 1401261703.192173 0 1401261703.192173 -486839728.35631561 0 0 0 0 -1307463201.8981676 1269695370.2466888 0 1269695370.2466888 -1168957854.4844131 0 0 0 0 -1455324667.0077972 72904908.734905243 0 72904908.734905243 -215515778.51569748 0 0 0 0 -1887106131.6917319 791263779.3476696 0 791263779.3476696 31678287.702224731 0 0 0 0 -1106103081.4416752 561332608.91633797 0 561332608.91633797 303569.57221984863 0 0 0 0 -1132766345.3631945 549554367.26118279 0 549554367.26118279 55183646.615196228 0 0 0 0 -1165437721.084445 592940646.8585453 0 592940646.8585453 94613.323631286621 0 0 0 0 -707885789.11176395 632348833.24895668 0 632348833.24895668 -215405853.94917297 0 0 0 0 -738637616.54915428 451777830.07648468 0 451777830.07648468 -285962.85451507568 0 0 0 0 -969330264.5442667 695211783.52555656 0 695211783.52555656 -221501098.49741364 0 0 0 0 -651832357.02768421 516462913.5035553 0 516462913.5035553 -159138012.38053131 0 0 0 0 -487740206.50683498 351375159.70197868 0 351375159.70197868 -52100.261047363281 0 0 0 0 -462105147.62809372 476374953.27754593 0 476374953.27754593 -233184503.10691071 0 0 0 0 -561457562.46761513 333893500.75008774 0 333893500.75008774 -241126794.52539062 0 0 0 0 -229724341.21541405 234662107.33779907 0 234662107.33779907 -145426.51942443848 0 0 0 0 -377975832.06664133 387875629.23511696 0 387875629.23511696 -156010251.88743591 0 0 0 0 -156515819.47338867 287180086.78878784 0 287180086.78878784 -168221627.58880997 0 0 0 0 -174751152.2122097 257077241.51555634 0 257077241.51555634 -215832847.56650543 0 0 0 0 -606475.55652833916 -29032.344055965543 0 -29032.344055965543 630795.6907186918 0 0 0 0 85029602.965604782 66504983.429584503 0 66504983.429584503 -164012420.9396553 0 0 0 0 -39054444.259169579 337549608.67869186 0 337549608.67869186 -343999926.86664581 0 0 0 0 131956376.59104538 62618539.85786438 0 62618539.85786438 -85120605.18699646 0 0 0 0 -65921453.976701736 62922667.875862122 0 62922667.875862122 104434461.62937164 0 0 0 0 -29814243.475279808 31687226.918552399 0 31687226.918552399 113962840.42495728 0 0 0 0 -130567564.93632793 143725599.40437698 0 143725599.40437698 99868258.262626648 0 0 0 0 -508062710.3535881 417492209.57827377 0 417492209.57827377 -413125432.22145844 0 0 0 0 461093.25514007825 106184.01310994755 0 106184.01310994755 -869995.01889428496 0 0 0 0 -531402224.99349117 365384716.38046265 0 365384716.38046265 -83939469.649368286 0 0 0 0 -417740471.33683538 86218760.028875351 0 86218760.028875351 63414520.215087891 0 0 0 0 -513450595.85590696 424027632.24464417 0 424027632.24464417 -90282389.959823608 0 0 0 0 -457380352.65360069 508007407.72434616 0 508007407.72434616 -324675983.29525757 0 0 0 0 -298531060.37708664 435041411.66740417 0 435041411.66740417 -111678729.28147507 0 0 0 0 -214684242.47896576 347601527.63217926 0 347601527.63217926 -46195918.305374146 0 0 0 0 -42123934.506507874 347509101.86507416 0 347509101.86507416 -120524205.44270325 0 0 0 0 -52163216.865913391 288976808.72550964 0 288976808.72550964 -40676746.80745697 0 0 0 0 197160682.96061325 154250069.5002594 0 154250069.5002594 -48967161.781532288 0 0 0 0 190762433.11812401 -38799928.564025879 0 -38799928.564025879 -15577564.636230469 0 0 0 0 -25623057.405367374 117768912.76275849 0 117768912.76275849 -21969803.213745117 0 0 0 0 -3213362.7277593613 4847760.3875989914 0 4847760.3875989914 -25876349.930282593 0 0 0 0 -22234165.663475037 145762004.16755676 0 145762004.16755676 -56930101.130630493 0 0 0 0 -305726247.63487422 142180883.61259127 0 142180883.61259127 82297189.18913269 0 0 0 0 164037597.60949951 40332687.436498642 0 40332687.436498642 -36263843.161621094 0 0 0 0 818726.57325906586 388459.65162195358 0 388459.65162195358 -1659614.0082835741 0 0 0 0 157107041.19585419 -51438026.525306702 0 -51438026.525306702 -74535124.274532318 0 0 0 0 7389330.389652729 3306291.6731426716 0 3306291.6731426716 105031478.23461914 0 0 0 0 5539402.1603345871 58110767.632011414 0 58110767.632011414 103372115.43224144 0 0 0 0 130392384.2506218 -3456287.1436309814 0 -3456287.1436309814 20389249.259223938 0 0 0 0 93026945.867099762 -9408254.1909408569 0 -9408254.1909408569 19862392.059288979 0 0 0 0 129698369.42523956 6141320.6969680786 0 6141320.6969680786 -47887479.600845337 0 0 0 0 126834375.72420502 -47424557.897914886 0 -47424557.897914886 19139841.842346191 0 0 0 0 466111104.43269348 -73967383.962486267 0 -73967383.962486267 20494558.563720703 0 0 0 0 -278606.47693079617 162350.44029670209 0 162350.44029670209 512234.20125640929 0 0 0 0 -1610826.1821814775 -13111139.978269577 0 -13111139.978269577 -262324933.41818237 0 0 0 0 213303.99993542675 117822.62070902344 0 117822.62070902344 -483532.51812785119 0 0 0 0 -526804.55140747363 434934.66887141019 0 434934.66887141019 1123769.3870035484 0 0 0 0 -3012510.2083358765 -20936074.706970215 0 -20936074.706970215 -126499967.11857605 0 0 0 0 138249.58273506165 156420236.35877991 0 156420236.35877991 -213160359.68629837 0 0 0 0 -271534797.15556717 291215571.19146729 0 291215571.19146729 -274342475.69041443 0 0 0 0 -87486588.311537743 78970004.579189301 0 78970004.579189301 -38685123.112945557 0 0 0 0 -40733269.012868881 283772294.73035431 0 283772294.73035431 175663202.99372864 0 0 0 0 -184107783.7000351 259169175.51976776 0 259169175.51976776 46563908.143936157 0 0 0 0 86588303.883400917 248631876.07171631 0 248631876.07171631 -115332424.63145447 0 0 0 0 47200.244168281555 297217547.16584396 0 297217547.16584396 205661821.41781616 0 0 0 0 -63081345.126829147 144341477.23177719 0 144341477.23177719 68587211.7265625 0 0 0 0 257911854.55296135 316897206.29270935 0 316897206.29270935 152038281.61372375 0 0 0 0 73712501.036014557 354601190.73963928 0 354601190.73963928 131017320.46235657 0 0 0 0 104597181.2550087 274551894.82527924 0 274551894.82527924 300461130.48373413 0 0 0 0 690498.54401033185 528346.22632023692 0 528346.22632023692 -416177.70773221925 0 0 0 0 201962263.66510987 16227920.596295357 0 16227920.596295357 296503762.24438477 0 0 0 0 223421754.41662979 59000505.566196442 0 59000505.566196442 106069138.337677 0 0 0 0 384391476.81939316 188536549.56326294 0 188536549.56326294 207816636.24917984 0 0 0 0 142515039.48946381 231488675.66492462 0 231488675.66492462 203562847.36655426 0 0 0 0 220937136.06420231 120109097.44128418 0 120109097.44128418 90919358.235748291 0 0 0 0 178059833.68712234 269974697.52746582 0 269974697.52746582 -87716557.665283203 0 0 0 0 85842383.736363411 126284108.76084137 0 126284108.76084137 77420131.336105347 0 0 0 0 315311261.65504074 246884719.26673889 0 246884719.26673889 249192768.95513344 0 0 0 0 249063563.48727322 137315539.25762939 0 137315539.25762939 76656638.513778687 0 0 0 0 7768342.7483366132 14267653.865154266 0 14267653.865154266 -37291315.589797974 0 0 0 0 16870969.373416185 44963194.886522293 0 44963194.886522293 -115773332.37628174 0 0 0 0 -9769968.4518966675 62223378.741966248 0 62223378.741966248 -84284519.242980957 0 0 0 0 -716116.72934246063 38049308.548461914 0 38049308.548461914 -68065219.804290771 0 0 0 0 -898679.33894109726 20938730.193138123 0 20938730.193138123 -25531111.54347229 0 0 0 0 -7592421.6686577797 17784498.260778904 0 17784498.260778904 -12601189.342437744 0 0 0 0 -6257677.5311310589 29727645.793414116 0 29727645.793414116 -35175360.733139038 0 0 0 0 4448798.5349946171 4399999.3483390808 0 4399999.3483390808 -13492160.821166992 0 0 0 0 3244702.5849494934 14958127.30355835 0 14958127.30355835 -33347058.278808594 0 0 0 0 1726779.8864471198 3024784.1384010296 0 3024784.1384010296 1159681.6827278463 0 0 0 0 413539.78185462952 -3450881.73853302 0 -3450881.73853302 1968507.0592346191 0 0 0 0 11533314.132514983 -3353210.5524530411 0 -3353210.5524530411 -17022276.408432007 0 0 0 0 -478585.81947898865 -19232901.321453094 0 -19232901.321453094 32195728.497970581 0 0 0 0 201721.69034546055 2311823.8196085189 0 2311823.8196085189 19692.429412846453 0 0 0 0 2319111.607383728 14521632.438446045 0 14521632.438446045 -2011881.8975372314 0 0 0 0 9402925.5567321777 12680211.735054016 0 12680211.735054016 -38563024.982822418 0 0 0 0 -32153040.650770187 -30325438.710191727 0 -30325438.710191727 -24379907.516036987 0 0 0 0 78549854.914831161 -41194952.847572327 0 -41194952.847572327 -89248527.959396362 0 0 0 0 89153168.23314476 50039711.839736938 0 50039711.839736938 -150909385.74307251 0 0 0 0 -291002669.54481888 6579032.9616699219 0 6579032.9616699219 -54066490.598693848 0 0 0 0 -209386158.50701523 19301345.782157898 0 19301345.782157898 -23653007.171829224 0 0 0 0 -138816519.47489262 83200966.504077911 0 83200966.504077911 -20703628.912117004 0 0 0 0 36224.838548337575 867421.57041759975 0 867421.57041759975 -18368.8580216025 0 0 0 0 -356459919.85800958 -50129173.915403366 0 -50129173.915403366 -103186209.79025269 0 0 0 0 -387261826.8496418 128774498.10512161 0 128774498.10512161 -38169397.837860107 0 0 0 0 -159173686.29732895 -12496335.063140869 0 -12496335.063140869 -285846146.23518372 0 0 0 0 -154930808.24594307 223774666.25230408 0 223774666.25230408 -288487609.39857006 0 0 0 0 38854260.691290855 56017176.883472443 0 56017176.883472443 -172823818.04685974 0 0 0 0 2531916.8940448761 35523689.790817261 0 35523689.790817261 -83143847.901341438 0 0 0 0 -41177436.482545853 59655936.960281372 0 59655936.960281372 -128911657.09191132 0 0 0 0 -30098625.490829468 102479131.38562775 0 102479131.38562775 -185331946.39045715 0 0 0 0 -87671032.188200951 114325741.40510559 0 114325741.40510559 -112419721.11083984 0 0 0 0 -43372840.125934601 124748382.56030273 0 124748382.56030273 -154864191.08562088 0 0 0 0 -60854601.93235445 97160175.247066498 0 97160175.247066498 -70229381.08013916 0 0 0 0 -78373544.991001129 146306674.8646965 0 146306674.8646965 -79195375.064819336 0 0 0 0 -99968251.182768345 150279023.48239136 0 150279023.48239136 -126026467.46618652 0 0 0 0 -167624664.81767845 52765390.559112549 0 52765390.559112549 -20944627.409841537 0 0 0 0 -208061469.11864471 148174765.82938004 0 148174765.82938004 -62217906.98828125 0 0 0 0 -953704.2623812547 589237.7874770239 0 589237.7874770239 1092060.0092669502 0 0 0 0 -68232710.891345978 9358699.7613983154 0 9358699.7613983154 110237743.81090927 0 0 0 0 -130014185.44921112 119198828.0845871 0 119198828.0845871 -62670576.251907349 0 0 0 0 -131756247.58811283 221553302.98348999 0 221553302.98348999 -61164431.410643578 0 0 0 0 -463796.49408163643 200470.14464174397 0 200470.14464174397 521825.74330873042 0 0 0 0 -130570562.92436457 181914837.47789001 0 181914837.47789001 121731924.49154663 0 0 0 0 -55903980.948746681 104649210.61548233 0 104649210.61548233 -7318326.8174743652 0 0 0 0 -105901259.51255989 96125417.637702942 0 96125417.637702942 79221204.506111145 0 0 0 0 -88037916.743526459 133620830.78883362 0 133620830.78883362 -10395321.677787781 0 0 0 0 -56737937.170124054 92331448.450332642 0 92331448.450332642 -35116023.559608459 0 0 0 0 -20701187.226427078 60695801.999458313 0 60695801.999458313 -40175472.847106934 0 0 0 0 -21144742.276738659 64303287.459661484 0 64303287.459661484 -45738599.63772583 0 0 0 0 -19645651.321045876 93146156.396614075 0 93146156.396614075 -101627639.06763458 0 0 0 0 -27795389.890366554 47854235.966903687 0 47854235.966903687 -19290890.968482971 0 0 0 0 -43827219.600273132 64205564.542137146 0 64205564.542137146 12375383.618629456 0 0 0 0 -24734688.323619127 45304555.021873474 0 45304555.021873474 -17200699.800827026 0 0 0 0 -58700653.505648851 56965257.129524231 0 56965257.129524231 18354249.476543427 0 0 0 0 -98017516.930941001 55327132.136928082 0 55327132.136928082 36794719.083572388 0 0 0 0 -118289928.370646 36892867.134162903 0 36892867.134162903 54975002.984451294 0 0 0 0 -141814776.28054905 20379412.84992981 0 20379412.84992981 44657722.954086304 0 0 0 0 -144728392.91281962 71158787.937103271 0 71158787.937103271 77024235.982116699 0 0 0 0 -143665681.988873 47418374.492525101 0 47418374.492525101 245912754.05181885 0 0 0 0 -150098300.23232365 35075093.448287964 0 35075093.448287964 114611258.22345734 0 0 0 0 -93091516.318491936 397897.58518218994 0 397897.58518218994 36701013.607437134 0 0 0 0 -147215419.00428915 51634899.180908203 0 51634899.180908203 -11547923.235900879 0 0 0 0 -166002251.84357071 -5886234.1591110229 0 -5886234.1591110229 29119907.419425964 0 0 0 0 -180870318.64404356 -39191674.382113457 0 -39191674.382113457 17154437.191711426 0 0 0 0 -175909186.78261697 12441161.266584396 0 12441161.266584396 1688519.5378112793 0 0 0 0 -125520512.60263005 -29621872.933429718 0 -29621872.933429718 -122605.45227050781 0 0 0 0 -163152129.72934771 21287353.641952515 0 21287353.641952515 49016132.65750885 0 0 0 0 10767813.489415646 -144458504.0417099 0 -144458504.0417099 281259971.33052063 0 0 0 0 -70289717.931494713 134066636.95524597 0 134066636.95524597 233528827.1956234 0 0 0 0 6678486.914847374 -10847055.003616333 0 -10847055.003616333 50154704.807357788 0 0 0 0 -85182250.741985321 65959179.380262375 0 65959179.380262375 -10324907.941772461 0 0 0 0 -97504626.177344322 50420371.758674622 0 50420371.758674622 -18153899.718418121 0 0 0 0 -81627557.837569833 395126.42319297791 0 395126.42319297791 -25927255.860107422 0 0 0 0 -114647140.32166147 170610330.1761837 0 170610330.1761837 -131964491.29691315 0 0 0 0 -106588955.93420696 164495788.54447174 0 164495788.54447174 -70571001.704172134 0 0 0 0 -1319696.5831346232 -58024.771644728258 0 -58024.771644728258 1331319.6856205463 0 0 0 0 -66129629.121385813 61819478.859804153 0 61819478.859804153 -90237476.420059204 0 0 0 0 -1628174.2428831304 -117814.90285703354 0 -117814.90285703354 1519360.170048859 0 0 0 0 -189052460.73249769 142596227.74198914 0 142596227.74198914 -218954.20040130615 0 0 0 0 -85496735.165037155 98858026.975265503 0 98858026.975265503 -119345997.97105026 0 0 0 0 -208053643.63898754 200353519.87727356 0 200353519.87727356 -134555145.42740822 0 0 0 0 -151217807.79120401 -40113130.593969345 0 -40113130.593969345 -14778244.472831726 0 0 0 0 -236145440.75806189 12102061.873687744 0 12102061.873687744 -59791122.504084587 0 0 0 0 -376377735.02073526 -19322995.424499512 0 -19322995.424499512 -37531951.228313446 0 0 0 0 -324915993.88188124 -35875458.865409851 0 -35875458.865409851 -61689019.217297554 0 0 0 0 -278490887.02644348 -159427498.95339203 0 -159427498.95339203 -24865711.672214508 0 0 0 0 -44908.61282488727 58452.398435499519 0 58452.398435499519 27257.636524582282 0 0 0 0 -246640636.0701046 -4075148.5153503418 0 -4075148.5153503418 -1161170.816696167 0 0 0 0 -149242476.04774666 41291016.4765625 0 41291016.4765625 -21790146.581344604 0 0 0 0 -120136441.72022009 90733833.260040283 0 90733833.260040283 -86338086.665618896 0 0 0 0 -199415229.32270026 87074339.497198105 0 87074339.497198105 -46236412.466949463 0 0 0 0 -327382902.31351852 70136232.426551819 0 70136232.426551819 -45157017.795204639 0 0 0 0 -349434857.44018888 152031497.24713898 0 152031497.24713898 -237742.40017666278 0 0 0 0 -89256764.012499571 87838423.786337852 0 87838423.786337852 -93057151.107681274 0 0 0 0 -144718935.09937 144985141.96365738 0 144985141.96365738 -67776314.077850342 0 0 0 0 -520867246.2820251 -23424062.312198639 0 -23424062.312198639 25979665.919845581 0 0 0 0 2744590.4583395459 -667055.29533982743 0 -667055.29533982743 -1071479.9781543538 0 0 0 0 2117583.3018799424 2293678.2766685486 0 2293678.2766685486 1938.0905380249023 0 0 0 0 368072.40227222443 1310179.5582733154 0 1310179.5582733154 -191151.27376556396 0 0 0 0 -187701.71475977777 1650885.0372964926 0 1650885.0372964926 440281.49678006954 0 0 0 0 4387524.6020772457 913988.42339706421 0 913988.42339706421 -3306470.6915664673 0 0 0 0 8692006.2693324089 -6857885.0539207458 0 -6857885.0539207458 3446485.6157989502 0 0 0 0 11350945.844204903 274577.22252082825 0 274577.22252082825 -11729742.357589722 0 0 0 0 -902883.33398914337 2126534.4615726471 0 2126534.4615726471 -9364.829948425293 0 0 0 0 3201808.3946399689 -22365392.641296387 0 -22365392.641296387 19560888.16759491 0 0 0 0 -318531.82529912889 1380383.5027582571 0 1380383.5027582571 450001.79470990691 0 0 0 0 -2023853.5087013245 529496.25580596924 0 529496.25580596924 -1848614.5002670288 0 0 0 0 -3520677.2808113098 -437829.91310119629 0 -437829.91310119629 27563.289016723633 0 0 0 0 14857197.872506142 17117002.122932434 0 17117002.122932434 -15909966.112869263 0 0 0 0 21494658.766839027 -3832037.9978179932 0 -3832037.9978179932 -37034819.779457092 0 0 0 0 33756.102695613168 211443.09014200792 0 211443.09014200792 -67727.107099862304 0 0 0 0 -13400506.892133713 4631502.135925293 0 4631502.135925293 -20789442.665611267 0 0 0 0 -26430173.977529526 8826463.0794754028 0 8826463.0794754028 4839069.0408821106 0 0 0 0 -6218163.4537672997 10171115.39138031 0 10171115.39138031 -6981146.9258346558 0 0 0 0 -6819260.7543449402 -1026794.7969474792 0 -1026794.7969474792 1319165.9440259933 0 0 0 0 -3032700.6424976247 244816.05464053899 0 244816.05464053899 1297522.0921437182 0 0 0 0 -3378644.1175633073 1930043.1851949692 0 1930043.1851949692 -1997570.915145874 0 0 0 0 -4995613.1655640602 500732.66574478149 0 500732.66574478149 449503.93744277954 0 0 0 0 3896112.2908911705 1814955.8172225952 0 1814955.8172225952 -1011820.1987228394 0 0 0 0 -2395558.7162728184 198575.13162199967 0 198575.13162199967 823562.39523567632 0 0 0 0 648765.46093225479 2891897.3483047485 0 2891897.3483047485 -1295122.1904735565 0 0 0 0 1160734.0146323093 -159057.46634953562 0 -159057.46634953562 -967880.79811913148 0 0 0 0 -71024576.60538131 -2334535.0568084717 0 -2334535.0568084717 12324084.786437988 0 0 0 0 -60908259.131322354 10605252.070741653 0 10605252.070741653 9803594.5704803467 0 0 0 0 1137908.7495371141 -505901.66536389198 0 -505901.66536389198 -1085522.2666634135 0 0 0 0 19531941.509181976 -12861723.616928101 0 -12861723.616928101 -15746551.89364481 0 0 0 0 62226981.840408325 20026948.143356323 0 20026948.143356323 -6698069.9384307861 0 0 0 0 23631309.883108139 8271864.6223869324 0 8271864.6223869324 -9531378.5758514404 0 0 0 0 20605953.49916172 9157160.9395961761 0 9157160.9395961761 -18025.08381652832 0 0 0 0 18983462.00567627 7291923.1417255402 0 7291923.1417255402 -1591153.8179626465 0 0 0 0 20236326.10302496 10429813.85953331 0 10429813.85953331 -2773353.0507583618 0 0 0 0 29626533.048629761 15127145.42427063 0 15127145.42427063 -2248888.0250139236 0 0 0 0 17654638.258743286 11095488.077281952 0 11095488.077281952 9472.6953277587891 0 0 0 0 3666265.7655296326 5341031.8087825775 0 5341031.8087825775 3805127.2445907593 0 0 0 0 20035164.986791611 17752021.271141052 0 17752021.271141052 3765231.38230896 0 0 0 0 13636707.520456314 22401324.40473938 0 22401324.40473938 23365442.293609619 0 0 0 0 6930167.4540290833 5161314.6125106812 0 5161314.6125106812 851996.88670730591 0 0 0 0 2030329.4661746025 155428.23026657104 0 155428.23026657104 2319257.1147003174 0 0 0 0 -1661280.0244426727 3300479.723236084 0 3300479.723236084 -9525.9635314941406 0 0 0 0 -128515.05414158246 -48969.3218289488 0 -48969.3218289488 80539.340881980956 0 0 0 0 35595399.672363281 24700517.723114014 0 24700517.723114014 -43691.667915344238 0 0 0 0 27845955.605891228 1696281.9548454285 0 1696281.9548454285 2242877.8948974609 0 0 0 0 -2154353.1343618156 117160.38530755974 0 117160.38530755974 1996845.0580805168 0 0 0 0 33789225.237689972 88333318.771888733 0 88333318.771888733 19022897.143476486 0 0 0 0 -197265.7658439111 644661.38499020971 0 644661.38499020971 232402.64808811992 0 0 0 0 -27330392.869796753 -35723875.278587341 0 -35723875.278587341 -22401262.678359985 0 0 0 0 -25946607.661761284 1945220.6436386108 0 1945220.6436386108 40758299.427742004 0 0 0 0 4173546.1135978699 6641431.2336578369 0 6641431.2336578369 5329061.2164382935 0 0 0 0 -2178940.4506141702 87130.682642235421 0 87130.682642235421 1940246.150638707 0 0 0 0 2647040.629117012 -90018.25944519043 0 -90018.25944519043 -815888.73127746582 0 0 0 0 -7905346.9161393642 27405367.798892021 0 27405367.798892021 -10160300.888717651 0 0 0 0 -890802.04823776288 1694459.164728485 0 1694459.164728485 -845109.87174581178 0 0 0 0 -2068197.5567712784 894951.02564620972 0 894951.02564620972 -919356.61784362793 0 0 0 0 -3420747.4434601068 1999243.1627407074 0 1999243.1627407074 293696.32721710205 0 0 0 0 -9491099.8396520615 13654283.882022858 0 13654283.882022858 15532130.030654907 0 0 0 0 -140477.72117614746 -5771355.1412658691 0 -5771355.1412658691 1806848.4691734314 0 0 0 0 130717.23938088748 -280531.96708249813 0 -280531.96708249813 844629.28754769638 0 0 0 0 5029972.6228675842 4856928.9603424072 0 4856928.9603424072 -24868988.055841446 0 0 0 0 641885.84968022443 1117637.0403043702 0 1117637.0403043702 -301981.47210568609 0 0 0 0 16406409.130626678 28409483.716545105 0 28409483.716545105 21835553.180107117 0 0 0 0 3543742.9688472748 -19606299.523609161 0 -19606299.523609161 53482163.085090637 0 0 0 0 3725542.5749130249 -8983753.3445587158 0 -8983753.3445587158 24617464.394836426 0 0 0 0 4890727.652463913 34554587.008811951 0 34554587.008811951 40604218.468399048 0 0 0 0 -5269014.2038040161 3669306.5648803711 0 3669306.5648803711 42095074.154556274 0 0 0 0 144170292.87219238 46129698.703781128 0 46129698.703781128 -2956000.7347106934 0 0 0 0 246966.22757151537 452038.20073003881 0 452038.20073003881 -122383.18349771295 0 0 0 0 64636525.149235725 -34401729.006587982 0 -34401729.006587982 -25725633.199691772 0 0 0 0 -529273.65863171918 -91485.813174832612 0 -91485.813174832612 620293.80510628223 0 0 0 0 70305781.845932007 63042140.407592773 0 63042140.407592773 51812029.657501221 0 0 0 0 72789392.450260162 -170762471.07882309 0 -170762471.07882309 -27554524.915771484 0 0 0 0 152383814.33397293 14780461.680534363 0 14780461.680534363 -17259744.124249458 0 0 0 0 71867494.829027176 3284956.9401435852 0 3284956.9401435852 -12127097.469116211 0 0 0 0 2448625.3068873882 -2778818.4518046379 0 -2778818.4518046379 -12492970.381118774 0 0 0 0 3250379.2899474101 3026973.6789890788 0 3026973.6789890788 909807.31462598871 0 0 0 0 15008860.075889587 11866848.843147278 0 11866848.843147278 -45968963.4217453 0 0 0 0 6406403.6674232483 -13969583.133358002 0 -13969583.133358002 -5955306.901424408 0 0 0 0 3608901.4815597534 -161644.51044082642 0 -161644.51044082642 -27859016.335334778 0 0 0 0 -4425165.4875545502 -6721928.7757339478 0 -6721928.7757339478 4222255.3211288452 0 0 0 0 466188.68535926403 -255144.57928650826 0 -255144.57928650826 676753.86066061258 0 0 0 0 -3084475.5033631325 698242.76763534546 0 698242.76763534546 -112311.01496982574 0 0 0 0 -3892522.9505038261 -6989734.077796936 0 -6989734.077796936 -795623.8515625 0 0 0 0 -584878.54700279236 909614.27188491821 0 909614.27188491821 -223731.39996337891 0 0 0 0 -96818799.616447449 184659907.92360306 0 184659907.92360306 -189533936.9533844 0 0 0 0 -114430414.52055931 135485481.01984024 0 135485481.01984024 -38674885.065185547 0 0 0 0 -95348863.050237656 279921275.1006012 0 279921275.1006012 -441606114.88833618 0 0 0 0 2605101.4550653463 3599181.3298350964 0 3599181.3298350964 1120300.7076057885 0 0 0 0 223390161.61201096 46590185.496490479 0 46590185.496490479 -601921074.41172791 0 0 0 0 -189740545.14705658 125269550.5030098 0 125269550.5030098 -45532746.03074646 0 0 0 0 -24741789.561775208 257887296.23357391 0 257887296.23357391 56800634.585250854 0 0 0 0 -55670734.181191444 170046881.26899147 0 170046881.26899147 488685446.58354187 0 0 0 0 856636853.39850616 139687295.82991028 0 139687295.82991028 -36033586.750259399 0 0 0 0 -87951762.090488434 238369173.87239075 0 238369173.87239075 -39219254.888725281 0 0 0 0 -88958435.768530369 -183589766.44895935 0 -183589766.44895935 -477483393.918396 0 0 0 0 106554026.72039032 540507560.06955719 0 540507560.06955719 -920485154.83953094 0 0 0 0 11533980.515216112 11680403.232406616 0 11680403.232406616 3906407.7449645996 0 0 0 0 5652613.7275997996 11211808.571640015 0 11211808.571640015 25725831.943603516 0 0 0 0 9604717.6440168619 29468417.609954834 0 29468417.609954834 30531839.84103775 0 0 0 0 -3438108.0714464188 9054328.9005966187 0 9054328.9005966187 20888280.011642456 0 0 0 0 2844801.9045219421 7614327.1167907715 0 7614327.1167907715 -2722437.2340545654 0 0 0 0 6445121.3961544037 12751104.672012329 0 12751104.672012329 4046189.4130859375 0 0 0 0 8641904.947691679 7961761.1980667114 0 7961761.1980667114 -6291809.4915924072 0 0 0 0 849251.8282520771 9480320.4414367676 0 9480320.4414367676 -926467.83010864258 0 0 0 0 738771.5066177249 9916755.1544494629 0 9916755.1544494629 3996270.5197753906 0 0 0 0 -4541699.7054431438 16987626.512985229 0 16987626.512985229 -12983064.288070679 0 0 0 0 -4858666.9600424767 13454337.44732666 0 13454337.44732666 -3662931.8814239502 0 0 0 0 -29091116.989701867 34553837.161907196 0 34553837.161907196 -458263.38577270508 0 0 0 0 -18807392.868201256 21547594.787208557 0 21547594.787208557 15991240.151123047 0 0 0 0 10395850.373113275 12152073.232452393 0 12152073.232452393 2358891.2051773071 0 0 0 0 -17182760.159422874 21785547.708969116 0 21785547.708969116 5510637.2315444946 0 0 0 0 -6736681.0288414359 8784603.648727417 0 8784603.648727417 19481211.200195312 0 0 0 0 25135208.982450008 28532725.400421143 0 28532725.400421143 4294575.9740753174 0 0 0 0 -32069040.519103408 10131596.681861877 0 10131596.681861877 1637244.8124694824 0 0 0 0 15913436.137910426 12198218.753250122 0 12198218.753250122 16060592.016448975 0 0 0 0 -68368421.478910536 32428793.108839035 0 32428793.108839035 23482791.64151001 0 0 0 0 -29130679.899817944 7478549.1934661865 0 7478549.1934661865 30901368.154495239 0 0 0 0 -33632433.934926271 34445038.475845337 0 34445038.475845337 12896549.800109863 0 0 0 0 -4239780.0181856155 3385314.1275863647 0 3385314.1275863647 -771053.681640625 0 0 0 0 -9928082.6892572641 -4811608.2129821777 0 -4811608.2129821777 1622204.549407959 0 0 0 0 15052743.473510742 24028348.513046265 0 24028348.513046265 35576309.194580078 0 0 0 0 -54232.08186426133 -97368.308516239747 0 -97368.308516239747 -58567.238236665726 0 0 0 0 -148472.71730461495 16633.223697494715 0 16633.223697494715 135412.11199964583 0 0 0 0 -5595261.28774333 2631999.5996894836 0 2631999.5996894836 3420125.3115081787 0 0 0 0 -4640402.9692400098 3005925.587433815 0 3005925.587433815 3165487.4486236572 0 0 0 0 -3828768.1142907143 1752200.8211593628 0 1752200.8211593628 1767248.2623291016 0 0 0 0 -2232643.8219509125 4861153.322807312 0 4861153.322807312 1127445.2135848999 0 0 0 0 -2963982.886598587 3873720.7325668335 0 3873720.7325668335 307473.88536834717 0 0 0 0 -3166522.4604058266 6721544.483833313 0 6721544.483833313 7736286.3947143555 0 0 0 0 -3818273.3445310593 4740691.1254806519 0 4740691.1254806519 1723092.4673614502 0 0 0 0 2610936.1551129818 9983514.3996963501 0 9983514.3996963501 1137623.2772598267 0 0 0 0 -2391728.0135006905 5973652.3864746094 0 5973652.3864746094 2319312.1676712036 0 0 0 0 644375.87652039528 6408239.1684265137 0 6408239.1684265137 -3744366.6685028076 0 0 0 0 2891521.7333781845 3415815.4039180651 0 3415815.4039180651 1124269.4355197549 0 0 0 0 2672750.2719016075 7593444.1824035645 0 7593444.1824035645 -4776727.957447052 0 0 0 0 -54413263.601776123 154873006.96099091 0 154873006.96099091 -272860749.49342728 0 0 0 0 1333764.004498818 12165.731675287709 0 12165.731675287709 114233.66936971247 0 0 0 0 1606408.5219470048 4074795.8362741396 0 4074795.8362741396 1328279.4760782272 0 0 0 0 3777395.3595466614 -535112.91620826721 0 -535112.91620826721 -7832245.3097686768 0 0 0 0 234214.76270782575 81278.001613690984 0 81278.001613690984 -145313.24207100645 0 0 0 0 -106725572.10861588 159354971.61752319 0 159354971.61752319 -107137620.81533813 0 0 0 0 -71908500.773260117 153562115.02345276 0 153562115.02345276 -175000417.49812317 0 0 0 0 -79470593.752326965 90944078.943969727 0 90944078.943969727 -148988207.92474365 0 0 0 0 5057819.2528381348 6044811.3874473572 0 6044811.3874473572 -46999492.750961304 0 0 0 0 -99688430.722042084 68241851.978912354 0 68241851.978912354 -45024597.925720215 0 0 0 0 -24208974.899467468 73307812.039794922 0 73307812.039794922 -67597152.128036499 0 0 0 0 -129123591.95921707 163720573.27070618 0 163720573.27070618 -121515713.25895691 0 0 0 0 2301170.4770430913 3226494.8562151063 0 3226494.8562151063 1161761.8472068198 0 0 0 0 -65983969.090610504 45585595.278991699 0 45585595.278991699 31046122.920944214 0 0 0 0 20665028.87766552 365538.33661651611 0 365538.33661651611 -6760285.2228012085 0 0 0 0 19697944.725618362 89999.179702758789 0 89999.179702758789 -6484487.1416015625 0 0 0 0 5274020.1849215031 4284428.3511352539 0 4284428.3511352539 -8207822.4740753174 0 0 0 0 2286103.2838021684 4557249.9590358734 0 4557249.9590358734 -7547763.1397399902 0 0 0 0 7045561.5721031725 9144503.6890487671 0 9144503.6890487671 -5455772.4345626831 0 0 0 0 4484015.9388840497 7231651.3062210083 0 7231651.3062210083 -5114719.7452774048 0 0 0 0 3006000.5406448841 10703920.017883301 0 10703920.017883301 -20763976.942268372 0 0 0 0 4718920.0712145865 7062775.3929977417 0 7062775.3929977417 -11489505.469520569 0 0 0 0 2328212.7308735847 7276927.5636825562 0 7276927.5636825562 -10089033.900527954 0 0 0 0 5239601.9110949039 3526622.0961914062 0 3526622.0961914062 -11062812.701166153 0 0 0 0 3439483.5845338106 6384743.5901641846 0 6384743.5901641846 -10529628.838569641 0 0 0 0 -3287.3764898506925 2843742.1434711274 0 2843742.1434711274 38242.736136937048 0 0 0 0 -5607425.0737838745 9211008.2009124756 0 9211008.2009124756 8600900.4423789978 0 0 0 0 2925413.5700101852 72128501.449508667 0 72128501.449508667 36556823.813575745 0 0 0 0 12675596.212324142 71002152.455528259 0 71002152.455528259 29107926.171922684 0 0 0 0 10992697.964775085 114890840.38660336 0 114890840.38660336 -24869436.959716797 0 0 0 0 48158.587856373284 1221741.900188081 0 1221741.900188081 -53232.676633317955 0 0 0 0 2456493.9029798508 40504021.588989258 0 40504021.588989258 -127236313.19743347 0 0 0 0 10250975.241897583 98935328.594333649 0 98935328.594333649 -244962916.93613434 0 0 0 0 30705357.618767738 135330703.00520325 0 135330703.00520325 -41853157.934242249 0 0 0 0 -23922863.40642035 149174704.6366477 0 149174704.6366477 -27779161.48008728 0 0 0 0 -18747879.919239283 86888077.713857412 0 86888077.713857412 -83005634.518875122 0 0 0 0 24293411.71252203 219445286.07485199 0 219445286.07485199 31609307.257629395 0 0 0 0 50869012.23780632 203129376.33222198 0 203129376.33222198 24618052.980548859 0 0 0 0 77627294.308830261 265321716.63400269 0 265321716.63400269 61649101.224151611 0 0 0 0 57501557.655151248 236944134.08697432 0 236944134.08697432 96553451.855545044 0 0 0 0 144372843.37031555 202342774.23351288 0 202342774.23351288 -16320309.358848572 0 0 0 0 47093844.145138264 60758861.338562012 0 60758861.338562012 -15917062.324462891 0 0 0 0 -657429627.68641663 206969464.01822662 0 206969464.01822662 343378905.09796906 0 0 0 0 -380873.21811671555 2503940.9382220823 0 2503940.9382220823 4092899.1749279425 0 0 0 0 -46910124.748329818 95310511.822848678 0 95310511.822848678 -39716636.173660278 0 0 0 0 -47218723.50189209 78833083.844848633 0 78833083.844848633 14160773.637649536 0 0 0 0 -86159962.452980042 47838963.481185913 0 47838963.481185913 -4332393.6719589233 0 0 0 0 -65737286.914188385 45747576.139312744 0 45747576.139312744 -11450931.068626404 0 0 0 0 -100086836.93133831 55625962.475139618 0 55625962.475139618 -14648081.997894287 0 0 0 0 -67432866.539302826 55164781.133987427 0 55164781.133987427 -18746345.560295105 0 0 0 0 -77282227.997777939 81498453.208747864 0 81498453.208747864 -66653262.717643738 0 0 0 0 -58817635.390615463 94061269.079956055 0 94061269.079956055 -3571907.5228805542 0 0 0 0 -112790372.39655304 73084626.699409485 0 73084626.699409485 -8170023.4223670959 0 0 0 0 -131747714.08065987 149869356.86466217 0 149869356.86466217 -111115974.14353561 0 0 0 0 -151984705.60530233 52241611.360890388 0 52241611.360890388 -78043661.534408569 0 0 0 0 -76474626.307843208 96174834.89125061 0 96174834.89125061 -67901424.069244385 0 0 0 0 -77061911.714660645 110785379.17243195 0 110785379.17243195 -185992644.9347229 0 0 0 0 -82455735.716518402 90471593.16771698 0 90471593.16771698 -72030144.587287903 0 0 0 0 -91511156.138633728 58640403.111595154 0 58640403.111595154 6751980.0947036743 0 0 0 0 -49258456.164978027 93793750.919044495 0 93793750.919044495 -64449348.121925354 0 0 0 0 -118013292.4518528 54440583.182706833 0 54440583.182706833 77482756.772857666 0 0 0 0 715184.14682722837 1924531.5765783526 0 1924531.5765783526 2507221.2529264539 0 0 0 0 -16050856.174877644 -55955385.092988491 0 -55955385.092988491 91430377.311935425 0 0 0 0 -82909254.330223083 43348049.593605042 0 43348049.593605042 22462167.329690933 0 0 0 0 -31521736.257721424 50891071.11481142 0 50891071.11481142 -8883238.4197540283 0 0 0 0 798570471.81438828 -892075118.02214909 0 -892075118.02214909 -63441269.258285522 0 0 0 0 11095666.160987854 -140131799.16921234 0 -140131799.16921234 461160260.69149971 0 0 0 0 152166.64918248914 574734.52347209956 0 574734.52347209956 853631.16553199291 0 0 0 0 48441697.602710724 -57527417.086021423 0 -57527417.086021423 108529908.62078857 0 0 0 0 466708081.26462173 -108944269.00009537 0 -108944269.00009537 -656345167.8992691 0 0 0 0 452343921.84943771 -137744861.75050735 0 -137744861.75050735 -102397395.18244934 0 0 0 0 172584.21066599269 785273.41728367051 0 785273.41728367051 1490209.3271469213 0 0 0 0 -6960236.2898902893 -125504186.02645111 0 -125504186.02645111 65612264.614334106 0 0 0 0 186528127.01081085 -30995375.63508606 0 -30995375.63508606 43150884.087241173 0 0 0 0 217492022.195961 -228875441.37334061 0 -228875441.37334061 -90550117.141975403 0 0 0 0 57547291.081062317 -237764038.55030441 0 -237764038.55030441 -83662422.343503952 0 0 0 0 52802394.16015029 -192836811.88459682 0 -192836811.88459682 1266219463.6463165 0 0 0 0 -384163039.73746109 -83196798.468883514 0 -83196798.468883514 430901906.05800629 0 0 0 0 162887.99527577194 965365.15109089203 0 965365.15109089203 1492191.3959408589 0 0 0 0 1015582195.1969337 1896493525.6984787 0 1896493525.6984787 -402416465.17332458 0 0 0 0 634959.87387468293 2930546.0826217141 0 2930546.0826217141 4010710.1878734604 0 0 0 0 -55678808.875038147 14333504.743095398 0 14333504.743095398 16735625.46068573 0 0 0 0 328667485.45937347 -977268518.34361267 0 -977268518.34361267 -45283926.800685883 0 0 0 0 827279382.88175201 713103216.83092499 0 713103216.83092499 741018854.11183929 0 0 0 0 66423.822845336981 855880.19333049655 0 855880.19333049655 2587280.1949245259 0 0 0 0 1407401738.9408989 346592306.04493904 0 346592306.04493904 114804152.47671509 0 0 0 0 -946680347.07686234 -698245633.02216339 0 -698245633.02216339 1070458350.937336 0 0 0 0 473995219.3283062 -639615665.10758209 0 -639615665.10758209 418229619.17431641 0 0 0 0 -389585764.10759735 -168175256.64087677 0 -168175256.64087677 160973338.73764801 0 0 0 0 696116834.54393101 469161427.60122776 0 469161427.60122776 142376825.49604797 0 0 0 0 774081114.28361893 13153434.489208221 0 13153434.489208221 -32655612.75340271 0 0 0 0 295106139.23990631 -20563338.769145966 0 -20563338.769145966 99481971.141853333 0 0 0 0 331401827.5390625 1768122.2602767944 0 1768122.2602767944 112893335.12488556 0 0 0 0 -329859667.83592224 -41247277.195692062 0 -41247277.195692062 301578955.71092224 0 0 0 0 413593.41232478898 3342109.9439963177 0 3342109.9439963177 7098460.3939344324 0 0 0 0 304299627.32364655 74230701.864200592 0 74230701.864200592 23756194.099334717 0 0 0 0 424450128.90379333 -186060758.37960052 0 -186060758.37960052 90976338.252944946 0 0 0 0 -521584.56134380028 68150.83829956688 0 68150.83829956688 594572.78258832544 0 0 0 0 -273249115.84356308 83581036.660171509 0 83581036.660171509 -123142412.38010311 0 0 0 0 273782047.02218628 179863528.89095306 0 179863528.89095306 -62876719.638626099 0 0 0 0 268081636.61495972 473022154.75117493 0 473022154.75117493 129360576.57948303 0 0 0 0 280892056.87468719 336347322.06661224 0 336347322.06661224 482961364.59521484 0 0 0 0 22723923.105949402 227710898.50545502 0 227710898.50545502 682112036.05397415 0 0 0 0 295768421.62423325 194795516.00710678 0 194795516.00710678 290823610.08887482 0 0 0 0 319878116.16653061 342356872.79683685 0 342356872.79683685 169555585.57953644 0 0 0 0 85730.837354340823 542477.02292702906 0 542477.02292702906 694441.58918003738 0 0 0 0 213329796.46598816 527924596.17844009 0 527924596.17844009 360862078.12049866 0 0 0 0 -270264230.04297781 234390657.97277069 0 234390657.97277069 559081577.52705383 0 0 0 0 -471891097.88286591 539220998.07541275 0 539220998.07541275 802085183.79743958 0 0 0 0 124411700.86693382 -200193591.87449837 0 -200193591.87449837 -64363808.951705933 0 0 0 0 -155434734.85752106 413154150.63369751 0 413154150.63369751 -388505177.07988739 0 0 0 0 50311999.795608044 13416372.573684692 0 13416372.573684692 157924088.86105347 0 0 0 0 312290265.97544098 108265051.54392242 0 108265051.54392242 74730585.805404663 0 0 0 0 -471740952.61957169 234595210.38601303 0 234595210.38601303 -95305552.492092133 0 0 0 0 92646778.671684265 -26140526.446224213 0 -26140526.446224213 2729093.069442749 0 0 0 0 -125987744.11941528 138075954.45724487 0 138075954.45724487 -10964786.233627319 0 0 0 0 261585739.47621155 60281541.980041504 0 60281541.980041504 -200095171.77474213 0 0 0 0 169171189.08713531 41437022.217803955 0 41437022.217803955 -228996816.35632324 0 0 0 0 6260518.49634552 -12490989.499839783 0 -12490989.499839783 -69073403.351470947 0 0 0 0 862315.40295898216 1066407.4898627209 0 1066407.4898627209 -1650218.8497774974 0 0 0 0 -646690536.33034897 489189270.69381332 0 489189270.69381332 -92250387.254268646 0 0 0 0 8330571.4026947021 10228004.521537781 0 10228004.521537781 -8746166.5909729004 0 0 0 0 3694539.2828612691 4026975.8277463522 0 4026975.8277463522 -959785.39264012128 0 0 0 0 270276522.66430664 -93047791.364818573 0 -93047791.364818573 -9838107.1466751099 0 0 0 0 206636086.01274109 -60235252.889923096 0 -60235252.889923096 59649823.315582275 0 0 0 0 291229822.56008148 107129656.15411186 0 107129656.15411186 -70245972.94581604 0 0 0 0 6009510.2248153687 100243766.2620697 0 100243766.2620697 48896699.836357117 0 0 0 0 423390046.46514249 7300738.7299442589 0 7300738.7299442589 -56657685.688293457 0 0 0 0 435342847.80209923 -186885893.09612179 0 -186885893.09612179 -65860418.145019531 0 0 0 0 805800.13609142788 673452.80650428822 0 673452.80650428822 -804307.91720508412 0 0 0 0 154446692.87618065 -171025160.35513687 0 -171025160.35513687 110586482.18255615 0 0 0 0 19521999.445144653 48800566.674301147 0 48800566.674301147 148053705.13940811 0 0 0 0 45814447.984026909 -151691214.04169989 0 -151691214.04169989 90931978.018371582 0 0 0 0 2123682.1524505615 538916.65918731689 0 538916.65918731689 186910.62893295288 0 0 0 0 4164383.5680799484 28662203.125812531 0 28662203.125812531 -17596657.31879425 0 0 0 0 -300422261.25362015 425402420.11074829 0 425402420.11074829 -95979552.676437378 0 0 0 0 1133345.724786384 7008674.7220552228 0 7008674.7220552228 8184391.0287064835 0 0 0 0 -372398785.72501659 212456431.81842041 0 212456431.81842041 32389396.279754639 0 0 0 0 -81680963.05015564 204522748.23167419 0 204522748.23167419 -33222297.975143433 0 0 0 0 84355291.66403389 154343376.24856567 0 154343376.24856567 -371160082.00952148 0 0 0 0 426047940.2510643 199892947.28555298 0 199892947.28555298 -104539737.453228 0 0 0 0 17730464.074232101 203936534.11345673 0 203936534.11345673 -101705087.33755493 0 0 0 0 -102315411.80326748 303481640.22983932 0 303481640.22983932 429356927.46842957 0 0 0 0 -33570407.657770157 145862088.42907715 0 145862088.42907715 -266878817.78762817 0 0 0 0 4884072.7929932047 10608956.488285432 0 10608956.488285432 7953860.9988881126 0 0 0 0 -12783827.599554062 361495540.86477661 0 361495540.86477661 -366632729.71540809 0 0 0 0 85369428.235975266 69984064.451309204 0 69984064.451309204 -225787725.88565063 0 0 0 0 77663318.131244659 -6738081.1239776611 0 -6738081.1239776611 -357497916.67578125 0 0 0 0 276024809.14624786 159089140.70451355 0 159089140.70451355 -280475587.72595215 0 0 0 0 87177230.910110474 213107397.23249054 0 213107397.23249054 -306077965.28503036 0 0 0 0 164958159.1083374 -243031453.77459717 0 -243031453.77459717 -440040774.37671661 0 0 0 0 169423332.50973701 -309297900.68174744 0 -309297900.68174744 4527254.3439064026 0 0 0 0 -52176714.75043869 65163490.739059448 0 65163490.739059448 -290116702.56733704 0 0 0 0 234652480.88615799 7878920.0065460205 0 7878920.0065460205 -295480079.2598877 0 0 0 0 -62465257.52796945 -255820260.30558848 0 -255820260.30558848 -322636057.44021606 0 0 0 0 -5618950.0331945419 -98832500.256080627 0 -98832500.256080627 -175520426.13082123 0 0 0 0 -28538348.999194622 -132404912.10391617 0 -132404912.10391617 -9035266.3856506348 0 0 0 0 311939812.92234612 -264647769.60726929 0 -264647769.60726929 40545741.599456787 0 0 0 0 196133276.73001099 61843607.271789551 0 61843607.271789551 205370960.85554504 0 0 0 0 127684991.83404922 27342113.560134888 0 27342113.560134888 -104241039.68252563 0 0 0 0 381244164.04782104 118593935.8468399 0 118593935.8468399 -97766176.123894691 0 0 0 0 1008018376.6920328 246480562.47915649 0 246480562.47915649 210103390.29563904 0 0 0 0 114258844.37639236 -229492552.80825043 0 -229492552.80825043 767284900.99780273 0 0 0 0 -36010367.902742386 -3036840.2019882202 0 -3036840.2019882202 469073134.53948975 0 0 0 0 225098767.09585571 499893674.77763748 0 499893674.77763748 434544547.26480103 0 0 0 0 358063306.54978466 127712971.69769669 0 127712971.69769669 -122402768.69778061 0 0 0 0 12553441.792316437 -489630906.63951111 0 -489630906.63951111 1207341255.7821503 0 0 0 0 -593690.47427230701 946405.5653387513 0 946405.5653387513 1895042.429847233 0 0 0 0 -71672228.530390739 -114828891.47213554 0 -114828891.47213554 441939873.8381958 0 0 0 0 -390196205.52995682 -149948274.69677734 0 -149948274.69677734 633084068.32096863 0 0 0 0 -174892155.73935318 194493372.69580078 0 194493372.69580078 399182452.26042175 0 0 0 0 -298923335.21125793 145488339.64943695 0 145488339.64943695 387499765.44348145 0 0 0 0 -40111707.284949303 7265317.9072113037 0 7265317.9072113037 417537854.68852234 0 0 0 0 24382248.066268921 401094287.52823639 0 401094287.52823639 1176627872.3361101 0 0 0 0 -37229966.497491837 -9076372.3521881104 0 -9076372.3521881104 65791294.455207825 0 0 0 0 -12076313.553623199 37714777.045906067 0 37714777.045906067 -22469397.601287842 0 0 0 0 14979586.422866344 -83195701.086600304 0 -83195701.086600304 -77183301.674438477 0 0 0 0 -28305433.501926422 18150123.765748978 0 18150123.765748978 -12958911.719345093 0 0 0 0 -1084875.3121807277 -484905.29838065431 0 -484905.29838065431 447587.07023121044 0 0 0 0 -10539372.256649017 18143570.606193542 0 18143570.606193542 -27711621.685726166 0 0 0 0 -12184302.86149025 27050755.336057663 0 27050755.336057663 -31713980.37461853 0 0 0 0 10044345.078445435 -52364461.936180115 0 -52364461.936180115 40476213.672142029 0 0 0 0 -37974582.343716621 13007647.620227814 0 13007647.620227814 43024448.80059433 0 0 0 0 -4209040.985940163 1266454.5544723868 0 1266454.5544723868 2573029.0118206535 0 0 0 0 -529840.71865487657 5129008.8432318103 0 5129008.8432318103 3804719.4199322574 0 0 0 0 -72003082.718990326 -21814385.968605042 0 -21814385.968605042 58045631.083515167 0 0 0 0 18593842.005714417 -5186878.7860422134 0 -5186878.7860422134 7746248.0641860962 0 0 0 0 -13999884.692371368 48564793.880809784 0 48564793.880809784 -27000690.408428192 0 0 0 0 40666357.521048546 -76875084.478524208 0 -76875084.478524208 109604117.0337677 0 0 0 0 1027307.8080190718 3888448.4380317931 0 3888448.4380317931 2047074.0821892563 0 0 0 0 -38400675.828393936 4019841.9555597305 0 4019841.9555597305 114904929.12263489 0 0 0 0 -4341542.4242782593 -8005927.2471504211 0 -8005927.2471504211 114740019.9085083 0 0 0 0 -102511733.5923996 67077591.293327332 0 67077591.293327332 73951017.746650696 0 0 0 0 -31446034.42054081 16396910.379370689 0 16396910.379370689 109137595.420784 0 0 0 0 -121831887.70884323 71995288.351848602 0 71995288.351848602 112048058.34365845 0 0 0 0 -138765044.32478333 76423269.620811462 0 76423269.620811462 138450031.46334457 0 0 0 0 -72981156.111696243 5619641.5516834259 0 5619641.5516834259 177073945.63665009 0 0 0 0 68722113.474334717 -189694140.03780365 0 -189694140.03780365 254531852.83056641 0 0 0 0 -125864476.06585312 -45864878.328678131 0 -45864878.328678131 230194198.17311239 0 0 0 0 1623878.4647654798 2762539.889457217 0 2762539.889457217 889130.69592558965 0 0 0 0 -164238947.03196335 29202791.331771851 0 29202791.331771851 -22944083.723117352 0 0 0 0 -145677208.65508652 -27708435.726539612 0 -27708435.726539612 137026831.50868225 0 0 0 0 -146418467.65491867 218838136.44317245 0 218838136.44317245 -33147020.20126915 0 0 0 0 -129499565.09121323 141158813.95844841 0 141158813.95844841 154481152.23498154 0 0 0 0 275139101.34494781 347505658.99451828 0 347505658.99451828 255146812.00925446 0 0 0 0 292901629.70470667 475091692.80397511 0 475091692.80397511 136047493.90632629 0 0 0 0 -802510909.51965332 -488225591.82437134 0 -488225591.82437134 132702758.11935425 0 0 0 0 -479204721.1178894 1038278517.5865936 0 1038278517.5865936 1445003009.0144272 0 0 0 0 -291028117.98051834 7308170.4203414917 0 7308170.4203414917 513324845.22582626 0 0 0 0 -295603834.14810944 -194256350.75624084 0 -194256350.75624084 -24294300.325576782 0 0 0 0 90672607.624740601 64699011.277778625 0 64699011.277778625 12060606.905853271 0 0 0 0 3735676.2353662616 2820258.2229133067 0 2820258.2229133067 -107994.42206860334 0 0 0 0 1229331071.5609779 306600868.41047668 0 306600868.41047668 -139567025.21770477 0 0 0 0 582349632.11598206 -239517167.17624664 0 -239517167.17624664 13021073.432045937 0 0 0 0 1885794045.3907623 1032998498.6063194 0 1032998498.6063194 269268916.00086975 0 0 0 0 778839.68738525733 -123303.08483385481 0 -123303.08483385481 -71031.499021749012 0 0 0 0 -79144920.391487122 9913103.4025878906 0 9913103.4025878906 393069192.55805969 0 0 0 0 2477423269.3997192 793816812.97451782 0 793816812.97451782 628711759.28684998 0 0 0 0 1829638263.068058 -279763818.09601593 0 -279763818.09601593 -9741807.5836439133 0 0 0 0 1491398.6066161674 955072.88882441027 0 955072.88882441027 -155057.4641575478 0 0 0 0 -102972515.4835434 945210556.75183868 0 945210556.75183868 616427156.72132874 0 0 0 0 28347911.4168396 137663077.212677 0 137663077.212677 -232116241.48452759 0 0 0 0 816866474.59669495 385406854.74528122 0 385406854.74528122 144584287.30163574 0 0 0 0 137460010.1343689 76901584.877426147 0 76901584.877426147 86329221.129009247 0 0 0 0 392299484.0881958 -38104409.261749268 0 -38104409.261749268 -66712073.89617157 0 0 0 0 367261723.78087807 -26150876.334386826 0 -26150876.334386826 -32888229.699966431 0 0 0 0 135671203.35602951 -26729368.856666565 0 -26729368.856666565 -67104894.300842285 0 0 0 0 88954461.030574799 -5959215.9910888672 0 -5959215.9910888672 -50948496.24571228 0 0 0 0 198725556.54195404 -993309.39310455322 0 -993309.39310455322 -83481381.147674561 0 0 0 0 88847885.09088707 695550.6198348999 0 695550.6198348999 -32476682.513534546 0 0 0 0 166069111.43611526 79118632.674217224 0 79118632.674217224 -137908709.57406235 0 0 0 0 -81707963.437034607 -207456197.08912277 0 -207456197.08912277 -236786662.60475159 0 0 0 0 823124.18761357106 -551928.96210470051 0 -551928.96210470051 -161683.70266167633 0 0 0 0 -30718564.309143066 72743337.164161682 0 72743337.164161682 -73248265.920700073 0 0 0 0 52747273.939666748 -111440885.52511597 0 -111440885.52511597 2947988.2751407623 0 0 0 0 -114083099.66169739 20193523.259979248 0 20193523.259979248 27175670.311767578 0 0 0 0 88844335.851341248 -5821878.4644927979 0 -5821878.4644927979 -45214981.338142395 0 0 0 0 -40948795.606338501 -32311965.029525757 0 -32311965.029525757 27582378.142120361 0 0 0 0 256931.76038933545 -90085.012918666936 0 -90085.012918666936 -240880.22070855647 0 0 0 0 20819940.03105545 25840175.871871948 0 25840175.871871948 -64911741.755401611 0 0 0 0 -2739190.7173957825 23291967.87569046 0 23291967.87569046 21926194.75226593 0 0 0 0 517353.93370373454 -171098.57696743868 0 -171098.57696743868 -476574.02223611809 0 0 0 0 75488772.859235764 15234416.287805557 0 15234416.287805557 -36176857.399047852 0 0 0 0 55681296.491733551 -16814914.93655014 0 -16814914.93655014 -40225628.01276207 0 0 0 0 33744971.423690796 34013560.162437439 0 34013560.162437439 64992457.187129974 0 0 0 0 25999313.906115532 13435689.147602081 0 13435689.147602081 10378393.423660278 0 0 0 0 48299445.539397717 89048434.110032082 0 89048434.110032082 -58113698.64440918 0 0 0 0 140832910.79813766 12676763.041862488 0 12676763.041862488 -75118734.31653595 0 0 0 0 131078362.25244141 -4230498.3998031616 0 -4230498.3998031616 -53408369.012973785 0 0 0 0 119765172.12143707 56785309.005283356 0 56785309.005283356 -3976122.5096664429 0 0 0 0 125998918.84119415 39331577.554714203 0 39331577.554714203 -65200805.518438339 0 0 0 0 97784661.157690048 36232486.848545074 0 36232486.848545074 -6260466.2512969971 0 0 0 0 176145454.01048613 37633949.390220642 0 37633949.390220642 35601129.218200684 0 0 0 0 224409579.32497025 58997497.156425476 0 58997497.156425476 -3241123.9407730103 0 0 0 0 44343215.351360321 62871678.728401184 0 62871678.728401184 153093728.59663391 0 0 0 0 162970469.95619202 163251743.70467567 0 163251743.70467567 231419924.86963654 0 0 0 0 88434.739952746779 -66216.125310964882 0 -66216.125310964882 135425.52518040338 0 0 0 0 226275683.40611267 -40010100.128829956 0 -40010100.128829956 -399727753.66381931 0 0 0 0 426420271.83245468 249513247.79507828 0 249513247.79507828 -32601210.715988159 0 0 0 0 355981113.48070526 -23994608.73764801 0 -23994608.73764801 23461497.861679077 0 0 0 0 453105921.39353943 -5989566.4308166504 0 -5989566.4308166504 -18497353.591308594 0 0 0 0 5568127.0674724579 -1744319.7139396667 0 -1744319.7139396667 49627344.632972717 0 0 0 0 -16330607.066116333 3959419.6299133301 0 3959419.6299133301 52444745.89173317 0 0 0 0 23340054.780666351 14377450.54782486 0 14377450.54782486 53131260.087314606 0 0 0 0 -92324.43493918702 158126.13188561052 0 158126.13188561052 523245.97768917587 0 0 0 0 4803202.9074440002 7717222.89453125 0 7717222.89453125 85280411.560661316 0 0 0 0 144406543.70692444 -91155545.646766663 0 -91155545.646766663 -543077617.78036594 0 0 0 0 54601294.056465149 59263530.482704163 0 59263530.482704163 -512195306.82818985 0 0 0 0 -883009.93213389628 789606.91573210619 0 789606.91573210619 1154564.3402552973 0 0 0 0 -14633666.28837204 3403539.2887039185 0 3403539.2887039185 63990163.632326126 0 0 0 0 -2556486.0238513947 1817562.614487648 0 1817562.614487648 44876045.449295044 0 0 0 0 -18607068.922550201 1032666.2626914978 0 1032666.2626914978 44863513.33235532 0 0 0 0 -3629183.7159347534 5085283.412776947 0 5085283.412776947 14920257.28591156 0 0 0 0 -18453594.021102905 35613469.937644958 0 35613469.937644958 6582359.8918933868 0 0 0 0 508911.77941858582 -160129.76511139236 0 -160129.76511139236 -459481.47551882453 0 0 0 0 -15234013.589737415 18225754.048069 0 18225754.048069 -18120049.133087158 0 0 0 0 -19076468.695877075 19617033.207313538 0 19617033.207313538 -18491534.195991516 0 0 0 0 4409690.8395252228 19878553.443561554 0 19878553.443561554 -39678920.968521118 0 0 0 0 -9090161.6069335938 7944419.9012908936 0 7944419.9012908936 -12868561.175381899 0 0 0 0 -1724732.1297721863 15709756.378738403 0 15709756.378738403 -17597054.081893921 0 0 0 0 -5013389.514714241 13172856.188735962 0 13172856.188735962 -14288025.347587585 0 0 0 0 -5256114.4373493195 11553625.182310104 0 11553625.182310104 -20202094.775871277 0 0 0 0 -15576893.919309139 16624542.993806362 0 16624542.993806362 -16289393.710197449 0 0 0 0 -1604215.6049556732 21816939.07119751 0 21816939.07119751 -28704323.253425598 0 0 0 0 241732.53937596921 -76174.424770090729 0 -76174.424770090729 -217602.97338769026 0 0 0 0 -283462.10606002808 29234262.988430023 0 29234262.988430023 -1644657.3458595276 0 0 0 0 -10066144.35883522 20451067.676769257 0 20451067.676769257 26023384.37651825 0 0 0 0 -4365615.9094390869 6770805.3642921448 0 6770805.3642921448 21452351.276489258 0 0 0 0 6239161.6697845459 15784062.295219421 0 15784062.295219421 25483510.638763428 0 0 0 0 623778.45673370361 20233315.934127808 0 20233315.934127808 44722907.050598145 0 0 0 0 -16602409.917174101 13624470.565787315 0 13624470.565787315 53666119.495384216 0 0 0 0 -5633181.0338716507 9647626.4082565308 0 9647626.4082565308 34700301.769210815 0 0 0 0 195570216.97393799 148622817.22851562 0 148622817.22851562 -54741089.854408264 0 0 0 0 -2221068.1651502512 1963274.7736888304 0 1963274.7736888304 2151912.1718431758 0 0 0 0 -1075239.8345413208 9251607.0113067627 0 9251607.0113067627 33466179.828895569 0 0 0 0 -7100368.3401637077 -104398.32037162781 0 -104398.32037162781 15891290.841537476 0 0 0 0 -8210089.7104377747 3791166.7341537476 0 3791166.7341537476 29662396.251657486 0 0 0 0 -41484943.160165787 20788888.731630325 0 20788888.731630325 23483178.878814697 0 0 0 0 -228449670.43538666 226516158.65073395 0 226516158.65073395 -71667008.72819519 0 0 0 0 -1428407.0370904151 159458.49794152565 0 159458.49794152565 1350163.7314454056 0 0 0 0 -19506780.27040863 1584912.5559234619 0 1584912.5559234619 34913741.887588501 0 0 0 0 -4169792.9945907593 -12242606.438354492 0 -12242606.438354492 28506667.107849121 0 0 0 0 -96279830.566157341 186371109.44769573 0 186371109.44769573 -30813819.804748535 0 0 0 0 -94405621.53105402 195463288.94236183 0 195463288.94236183 -71290848.660568237 0 0 0 0 -200033976.89429474 109452247.32923889 0 109452247.32923889 -129071578.82129669 0 0 0 0 10571227.190673828 -72191108.350254059 0 -72191108.350254059 -35420051.242675781 0 0 0 0 -9971138.0058692694 248659025.45322192 0 248659025.45322192 -138251955.38885498 0 0 0 0 -516258.83289217949 46418.974865793251 0 46418.974865793251 507277.25450746715 0 0 0 0 -11478586.556274414 188979532.52659225 0 188979532.52659225 -142696818.07006168 0 0 0 0 -147779329.07543945 233945755.06281281 0 233945755.06281281 23760389.005020142 0 0 0 0 -217198136.10689545 47880478.662940979 0 47880478.662940979 -197083680.69628906 0 0 0 0 -92108663.114162445 170245403.02804565 0 170245403.02804565 -111774703.18783569 0 0 0 0 -32326235.188903809 187432547.14825439 0 187432547.14825439 -158958765.72088242 0 0 0 0 -60828804.099555969 223175824.07615662 0 223175824.07615662 -106529175.20022583 0 0 0 0 91138060.851013184 179915941.86434937 0 179915941.86434937 -390166648.17539978 0 0 0 0 171728700.15380478 23134053.251068115 0 23134053.251068115 -101077414.27775574 0 0 0 0 70878406.75958252 178611944.19139862 0 178611944.19139862 -95719164.911193848 0 0 0 0 46845588.452926636 156387606.41581726 0 156387606.41581726 -2050498.544418335 0 0 0 0 32186112.186462402 152998746.24359131 0 152998746.24359131 -112573286.17291594 0 0 0 0 -56400573.878662109 163947528.58454895 0 163947528.58454895 -41355210.598937988 0 0 0 0 -44249447.674636841 193138169.04988861 0 193138169.04988861 -125902583.71426392 0 0 0 0 -9007006.5637741089 197921459.38347626 0 197921459.38347626 -17231109.404022217 0 0 0 0 -44400374.575897217 183957677.2859726 0 183957677.2859726 16417952.71762085 0 0 0 0 21506814.283760071 120023744.54830933 0 120023744.54830933 -18114586.354433894 0 0 0 0 -38180880.770217896 97919852.470626831 0 97919852.470626831 28051772.598480225 0 0 0 0 202312717.43860245 141336462.05458069 0 141336462.05458069 73790529.559204102 0 0 0 0 62119751.494922638 179396048.66956329 0 179396048.66956329 67625374.489395142 0 0 0 0 127406963.1505661 64790932.877693176 0 64790932.877693176 6640596.6807327271 0 0 0 0 142069519.3388443 106524735.94735718 0 106524735.94735718 33582509.658592224 0 0 0 0 145583582.69255066 75091333.678565979 0 75091333.678565979 123992635.7257843 0 0 0 0 340817432.0955658 98446468.052177429 0 98446468.052177429 58270637.261291504 0 0 0 0 248457014.42017365 53773685.824943542 0 53773685.824943542 70338008.643875122 0 0 0 0 184684961.87202835 100299139.69792938 0 100299139.69792938 80498965.771087646 0 0 0 0 227571953.19778442 120666158.54859924 0 120666158.54859924 109026958.08343506 0 0 0 0 345199764.33504868 14675338.820007324 0 14675338.820007324 78938886.557706833 0 0 0 0 134122114.55116272 40508203.448951721 0 40508203.448951721 60626784.480934143 0 0 0 0 27204644.552528381 113755062.54159546 0 113755062.54159546 16046508.372039795 0 0 0 0 -46772332.423469543 144748029.16452026 0 144748029.16452026 50189190.676834106 0 0 0 0 25379589.090957642 118708859.80686951 0 118708859.80686951 98888164.468559265 0 0 0 0 -32826646.060348511 76201614.630386353 0 76201614.630386353 52131583.115456104 0 0 0 0 -111305958.21638489 123529041.59711456 0 123529041.59711456 62245821.043792725 0 0 0 0 -204319702.9013443 120667519.39030457 0 120667519.39030457 52422045.860645294 0 0 0 0 -109722494.52173233 130144499.89425659 0 130144499.89425659 -10823056.253959656 0 0 0 0 -143322318.88066864 89186908.214256287 0 89186908.214256287 26144502.082115173 0 0 0 0 -237639745.17133331 96401000.778816223 0 96401000.778816223 39115854.86390686 0 0 0 0 -207257430.09963608 107273804.45252228 0 107273804.45252228 -7510687.4064178467 0 0 0 0 -229497013.78264999 104816750.08842468 0 104816750.08842468 -5685172.0126228333 0 0 0 0 -179434298.88149643 148287880.23538208 0 148287880.23538208 -110458825.92526245 0 0 0 0 -76952264.687278748 151959096.15984344 0 151959096.15984344 -87556029.809341431 0 0 0 0 -76425860.915039062 140297692.4153595 0 140297692.4153595 -43032307.713943481 0 0 0 0 -184693177.39971447 136722760.48906231 0 136722760.48906231 9050173.7294464111 0 0 0 0 916742834.80272675 -3639867.0931015015 0 -3639867.0931015015 -452864305.56803513 0 0 0 0 169166647.38821793 -552123127.07727051 0 -552123127.07727051 419878277.48327637 0 0 0 0 323246323.67635918 280154554.40186119 0 280154554.40186119 553802435.59461975 0 0 0 0 568038632.65004349 -17762479.145744324 0 -17762479.145744324 1335308046.299408 0 0 0 0 486406681.69163895 124295651.74727058 0 124295651.74727058 -73681198.717346191 0 0 0 0 90451.37956378283 281702.76198265469 0 281702.76198265469 707784.74477421492 0 0 0 0 100815793.74446869 -99750255.776679993 0 -99750255.776679993 -74435050.607391357 0 0 0 0 -115266436.3282814 -163208182.11689758 0 -163208182.11689758 -66474144.772979736 0 0 0 0 54094515.86346817 -26245365.571378708 0 -26245365.571378708 39628394.266845703 0 0 0 0 -87933579.80783844 -138407843.64050293 0 -138407843.64050293 -250615661.83345032 0 0 0 0 109267424.85960197 -357999782.02321625 0 -357999782.02321625 -146577224.04626465 0 0 0 0 -135361662.53713226 -219700120.40996552 0 -219700120.40996552 205991266.36562347 0 0 0 0 -342691434.1055603 -230713168.54748535 0 -230713168.54748535 -59091603.890632629 0 0 0 0 236365.95112326089 -92384.051799820736 0 -92384.051799820736 86036.829652626067 0 0 0 0 -121401215.3448143 -222537656.77741146 0 -222537656.77741146 -98878382.843032837 0 0 0 0 802585753.12372589 10624428.96459198 0 10624428.96459198 -87026635.085205078 0 0 0 0 -143134396.02284241 -118498847.37996101 0 -118498847.37996101 -20562640.549804688 0 0 0 0 104165440.55188179 53089095.280017853 0 53089095.280017853 -331502277.95838928 0 0 0 0 15120944.080970764 -134243971.75643158 0 -134243971.75643158 -31535479.552757263 0 0 0 0 251629567.24092865 146543589.67689514 0 146543589.67689514 -193488090.1053772 0 0 0 0 -82907634.05121994 87092014.026302338 0 87092014.026302338 -183583248.42169189 0 0 0 0 524698135.05020905 -166864582.84096527 0 -166864582.84096527 -83245851.823242188 0 0 0 0 221072251.69353867 99547526.210876465 0 99547526.210876465 15490052.837463379 0 0 0 0 342912877.40745544 -15859920.122138977 0 -15859920.122138977 12664706.8274858 0 0 0 0 466219897.82637787 59064902.056699753 0 59064902.056699753 4680005.3184051514 0 0 0 0 557046445.08038902 -101779128.58572578 0 -101779128.58572578 -26099420.899856567 0 0 0 0 830560254.23569775 -242320120.39699173 0 -242320120.39699173 37408699.969818115 0 0 0 0 708792567.04397583 168866044.38941193 0 168866044.38941193 55909360.19468689 0 0 0 0 554924152.5382843 47458009.394302368 0 47458009.394302368 5177579.7713317871 0 0 0 0 342457059.64553833 60683859.275810242 0 60683859.275810242 195114849.28103638 0 0 0 0 673061502.24320412 20292683.415077209 0 20292683.415077209 6562565.1622467041 0 0 0 0 476919701.19612885 29204518.19833374 0 29204518.19833374 65827662.625778198 0 0 0 0 345782952.28363037 36025709.196578979 0 36025709.196578979 174658792.54211426 0 0 0 0 474671904.70554161 49599606.717803001 0 49599606.717803001 344242988.80148315 0 0 0 0 497257756.51700592 210264299.70192337 0 210264299.70192337 89013134.132434845 0 0 0 0 -16538923.037069321 8317448.3490524292 0 8317448.3490524292 -498412.60237121582 0 0 0 0 735887.49045622221 -927630.89207932632 0 -927630.89207932632 411651.06688628346 0 0 0 0 72121.107892211527 183489.83839518949 0 183489.83839518949 76319.032786016352 0 0 0 0 -31288338.80249238 -85904774.218471766 0 -85904774.218471766 -208674760.31974792 0 0 0 0 521876324.05971527 -96382586.896217346 0 -96382586.896217346 11350609.776573181 0 0 0 0 702950.36564444331 -266071.09835331794 0 -266071.09835331794 319630.16501551494 0 0 0 0 2287723.5519964378 1421134.8222495653 0 1421134.8222495653 709604.82254728489 0 0 0 0 -59168593.556003571 -203675237.12811279 0 -203675237.12811279 -106320543.62208176 0 0 0 0 -10615034.553153992 16923748.872226715 0 16923748.872226715 1048706.3942718506 0 0 0 0 -12335007.436153412 12786286.073486328 0 12786286.073486328 -8442700.8028030396 0 0 0 0 -7057257.7470169067 13043837.450401306 0 13043837.450401306 -6265101.7293167114 0 0 0 0 1686238.5993471146 23368652.432929993 0 23368652.432929993 2484716.5623168945 0 0 0 0 7792407.4359012842 35932673.463643312 0 35932673.463643312 -34754057.716911316 0 0 0 0 385378609.59114838 47736776.669506073 0 47736776.669506073 -932448945.3637619 0 0 0 0 3121881.5788585925 2244968.170213677 0 2244968.170213677 745275.3498238232 0 0 0 0 -81809.917747497559 300648.37870788574 0 300648.37870788574 -3083565.6774291992 0 0 0 0 -7193000.5477294922 756504.38053894043 0 756504.38053894043 4222422.8396759033 0 0 0 0 -6249715.2182712555 2915947.9132833481 0 2915947.9132833481 -6284116.8709564209 0 0 0 0 3607504.1870498657 -4175904.4507293701 0 -4175904.4507293701 1463862.7252807617 0 0 0 0 -4126855.5983772278 -4063462.0113296509 0 -4063462.0113296509 11796854.324523926 0 0 0 0 -5256726.000262633 6442527.9620186687 0 6442527.9620186687 12606555.319900513 0 0 0 0 -12540951.414386749 8376623.7247772217 0 8376623.7247772217 23843129.163375854 0 0 0 0 -12851734.602171898 11076391.902663231 0 11076391.902663231 4190019.2692108154 0 0 0 0 -16938487.074459076 8989094.7121086121 0 8989094.7121086121 1595976.5823974609 0 0 0 0 -21041476.617054999 2560085.9810915589 0 2560085.9810915589 206453.05467224121 0 0 0 0 -17950135.193569183 9745696.1230010986 0 9745696.1230010986 5580642.4825592041 0 0 0 0 -20886820.499526978 8437038.4656829834 0 8437038.4656829834 8761015.5188598633 0 0 0 0 -45517124.3019104 8237067.764755249 0 8237067.764755249 4390576.6053009033 0 0 0 0 683414040.87347794 133113076.56714249 0 133113076.56714249 -27622464.710449219 0 0 0 0 792384.147145472 -1209076.0884158267 0 -1209076.0884158267 59222.959195222706 0 0 0 0 591638089.84043884 69739499.523841858 0 69739499.523841858 -4396018.6713562012 0 0 0 0 422688195.11859512 93842972.191604614 0 93842972.191604614 9879191.3101921082 0 0 0 0 544768331.64970398 41789363.095504761 0 41789363.095504761 -21318721.195541382 0 0 0 0 513606450.38614893 59124603.896281004 0 59124603.896281004 51582191.383712769 0 0 0 0 508853945.08289289 113191150.70575428 0 113191150.70575428 -35296371.503379822 0 0 0 0 559766615.32987785 159838711.3755722 0 159838711.3755722 66257.165794372559 0 0 0 0 -95748932.081249714 87175089.817369461 0 87175089.817369461 480758.66683959961 0 0 0 0 829584344.23958778 69404941.765415192 0 69404941.765415192 -62537902.368911743 0 0 0 0 833691.53579912079 -1401115.2448373288 0 -1401115.2448373288 -147517.60534590483 0 0 0 0 -12251374.827798843 10704444.556999207 0 10704444.556999207 -13296071.380447388 0 0 0 0 -4503783.9497680664 -2176820.3654060364 0 -2176820.3654060364 -4021292.4687786102 0 0 0 0 -1566349.5652031731 -355968.58743031882 0 -355968.58743031882 1602660.4761967659 0 0 0 0 -6689129.8061752319 5950695.3957481384 0 5950695.3957481384 10010.115285179872 0 0 0 0 -34658567.745854378 -7949298.1967887878 0 -7949298.1967887878 -87141.432441711426 0 0 0 0 2781303.1518630981 -6784284.62109375 0 -6784284.62109375 -4708980.2726211548 0 0 0 0 -1237883.3497430282 -242657.83405671641 0 -242657.83405671641 1367820.7951250151 0 0 0 0 -4353330.5011825562 -1764690.1477584839 0 -1764690.1477584839 -3494056.737443924 0 0 0 0 17340110.619563818 2821489.0380136967 0 2821489.0380136967 -4282698.7131576538 0 0 0 0 -51210080.851460457 4184842.2906856537 0 4184842.2906856537 19123149.033950806 0 0 0 0 -44996198.48015213 134004398.03675461 0 134004398.03675461 53109508.46396637 0 0 0 0 -188674466.0577507 56410815.499076843 0 56410815.499076843 60793903.289084435 0 0 0 0 -356267012.16765022 102954784.06293488 0 102954784.06293488 60856627.23910141 0 0 0 0 -189253796.09315491 51632390.232311249 0 51632390.232311249 11320684.023284912 0 0 0 0 -267874747.18807793 63427475.82818985 0 63427475.82818985 26122314.772979736 0 0 0 0 -237466165.67990685 118530969.59636879 0 118530969.59636879 57777618.356201172 0 0 0 0 -180935771.08057404 99416635.528286934 0 99416635.528286934 84979599.076751709 0 0 0 0 -31942662.517440796 92818686.559265137 0 92818686.559265137 32009871.779304504 0 0 0 0 -119394147.22246361 131294652.42479324 0 131294652.42479324 67507028.52822876 0 0 0 0 83354260.351242065 64021136.464958191 0 64021136.464958191 32195155.899131775 0 0 0 0 36497228.864006042 138123355.2395668 0 138123355.2395668 59390642.163864136 0 0 0 0 -33892226.423898697 92093128.17634964 0 92093128.17634964 90069934.393478394 0 0 0 0 385385965.36549759 27049868.664680481 0 27049868.664680481 23483494.617321014 0 0 0 0 311664687.67115211 137789330.2456665 0 137789330.2456665 43917760.564720154 0 0 0 0 121760325.75847626 124475917.43953323 0 124475917.43953323 46552732.358375549 0 0 0 0 268292139.76114655 54840139.266010284 0 54840139.266010284 -12255136.498653412 0 0 0 0 50921485.574716568 184713250.20843124 0 184713250.20843124 24972333.383804321 0 0 0 0 334724375.59872818 26404701.285583496 0 26404701.285583496 33177410.309095383 0 0 0 0 233344759.05562305 178627812.90012074 0 178627812.90012074 19393.446685791016 0 0 0 0 -82420850.080234528 27010665.678863525 0 27010665.678863525 12393846.887939453 0 0 0 0 -176574697.78695679 186022516.59043884 0 186022516.59043884 -199043.99355316162 0 0 0 0 -200009279.64598465 86628838.129293442 0 86628838.129293442 -9399088.7327270508 0 0 0 0 -692912951.35881424 -17312407.224357605 0 -17312407.224357605 47938442.409305573 0 0 0 0 75732020.447067261 20410269.34551239 0 20410269.34551239 12421.260070800781 0 0 0 0 41794566.313919067 39900034.832134247 0 39900034.832134247 2681791.3128662109 0 0 0 0 1348137.9994489397 -1028890.3506045192 0 -1028890.3506045192 -696654.78158115223 0 0 0 0 103357731.96203613 39007330.646484375 0 39007330.646484375 -13237073.044616699 0 0 0 0 60020558.444282532 28512707.622760773 0 28512707.622760773 13418020.625465393 0 0 0 0 59445733.192837477 16348900.531487942 0 16348900.531487942 -7139191.7160339355 0 0 0 0 7734608.0053329468 5780152.7319717407 0 5780152.7319717407 -4631734.3329162598 0 0 0 0 79936585.331504822 38026370.946525574 0 38026370.946525574 -10382523.328216553 0 0 0 0 66961235.738601685 29747303.171390533 0 29747303.171390533 -1739369.5416564941 0 0 0 0 64855312.976852417 43474091.3176651 0 43474091.3176651 -13312461.190536499 0 0 0 0 74772643.903850555 19509608.47520256 0 19509608.47520256 -39034214.050186157 0 0 0 0 144593.10159595381 -272322.65276271384 0 -272322.65276271384 -43653.852630749345 0 0 0 0 35254920.052022934 -9401787.2204685211 0 -9401787.2204685211 18720937.173034668 0 0 0 0 115795781.81348801 30085046.031925201 0 30085046.031925201 -20173380.589874268 0 0 0 0 103152904.46165085 18304005.503356934 0 18304005.503356934 -11538175.388381958 0 0 0 0 72447247.144073486 22973621.35773468 0 22973621.35773468 4571921.49974823 0 0 0 0 17884675.52973175 26017216.553283691 0 26017216.553283691 23890254.984947205 0 0 0 0 -472888344.67159462 -35229910.433803558 0 -35229910.433803558 39050876.559417725 0 0 0 0 1449099.7432961627 -621159.9098312892 0 -621159.9098312892 -975310.65996878222 0 0 0 0 311355.66932605347 -243334.17894662265 0 -243334.17894662265 -9611.3001079186797 0 0 0 0 22800215.508728027 9964312.5627288818 0 9964312.5627288818 -9939096.1611480713 0 0 0 0 94074981.786205292 48555780.364871979 0 48555780.364871979 -20625003.28352356 0 0 0 0 76845628.97069931 60738562.961654663 0 60738562.961654663 10836883.885421753 0 0 0 0 38611309.236364365 51474013.157188416 0 51474013.157188416 41509362.741630554 0 0 0 0 161862.2257211851 243325.42207918782 0 243325.42207918782 -203547.15869811922 0 0 0 0 84637956.818626404 -2548442.0924263 0 -2548442.0924263 -3647888.1709442139 0 0 0 0 1471268.8391914368 294960.59383392334 0 294960.59383392334 14893803.734500885 0 0 0 0 678769.21471904032 284039.93387609906 0 284039.93387609906 375959.02771799266 0 0 0 0 -264144609.71775055 59571628.6849823 0 59571628.6849823 29421688.427477837 0 0 0 0 -266510660.09644222 50848014.009719849 0 50848014.009719849 12373526.558685303 0 0 0 0 1303454.424596074 -221567.30105971731 0 -221567.30105971731 -1379501.459949404 0 0 0 0 -25230696.639709473 3562085.6964416504 0 3562085.6964416504 15038709.856700897 0 0 0 0 -35735879.462398529 32167034.953121185 0 32167034.953121185 33477424.661834717 0 0 0 0 83999390.714767456 42488755.840621948 0 42488755.840621948 5881992.5060272217 0 0 0 0 26546708.57975769 67608161.523647308 0 67608161.523647308 43293190.615730286 0 0 0 0 74675056.749465942 -3613118.0950622559 0 -3613118.0950622559 -69339500.569335938 0 0 0 0 -82943263.011192322 33893237.741558075 0 33893237.741558075 70223636.16614151 0 0 0 0 248636.49277399108 487524.45175734535 0 487524.45175734535 -226600.26679943316 0 0 0 0 -51389496.096362114 -44489795.494001389 0 -44489795.494001389 -23739280.081886292 0 0 0 0 -31703386.982585907 41908179.683782578 0 41908179.683782578 -17813343.178878784 0 0 0 0 -89016347.675815582 -14743385.820468903 0 -14743385.820468903 5771580.4454956055 0 0 0 0 5819016.0958251953 13483790.530593872 0 13483790.530593872 12562016.862632751 0 0 0 0 -13631056.825855255 15865582.812870026 0 15865582.812870026 12607910.56338501 0 0 0 0 19666512.848571777 28186790.949493408 0 28186790.949493408 -31753.669368561692 0 0 0 0 -42614985.633945465 38925605.561733246 0 38925605.561733246 131157.07317352295 0 0 0 0 -45300177.839225769 44354646.432182312 0 44354646.432182312 26709608.051010132 0 0 0 0 1186839.2582345344 1230580.3435142804 0 1230580.3435142804 -1171801.3136225976 0 0 0 0 -24766097.531921387 19944042.675758362 0 19944042.675758362 54244921.556411743 0 0 0 0 2880068.1878051758 3076489.9464645386 0 3076489.9464645386 -2647.6749598972269 0 0 0 0 5031094.3690032959 846623.27780151367 0 846623.27780151367 36729484.283416748 0 0 0 0 -12176832.154830933 9210984.7531890869 0 9210984.7531890869 33097487.980895996 0 0 0 0 10210437.043300629 2200235.8780403137 0 2200235.8780403137 22530402.420776367 0 0 0 0 -12673200.733642578 16066065.330177307 0 16066065.330177307 17356076.123039246 0 0 0 0 -8820381.4612121582 9600335.1814651489 0 9600335.1814651489 22035152.709541321 0 0 0 0 36592767.213813782 34235531.234735489 0 34235531.234735489 45164175.61668396 0 0 0 0 12801367.351657867 16127615.472364426 0 16127615.472364426 15297906.987281799 0 0 0 0 18124864.5159235 30414180.942116737 0 30414180.942116737 46400827.774398804 0 0 0 0 28894168.604438782 14605488.772792816 0 14605488.772792816 43984.23282623291 0 0 0 0 969169.36196422204 1030219.1770302355 0 1030219.1770302355 -975749.77499112487 0 0 0 0 -1834151.3327560425 15542846.634205818 0 15542846.634205818 44055769.605392456 0 0 0 0 4107620.3824310303 4034756.204875946 0 4034756.204875946 26381270.805053711 0 0 0 0 438345.99487219006 467849.81963999197 0 467849.81963999197 -441617.35006867163 0 0 0 0 13667764.558631897 34817578.577003479 0 34817578.577003479 26888219.932739258 0 0 0 0 67351950.004936218 102831030.91228485 0 102831030.91228485 69228523.311630249 0 0 0 0 8250740.1536254883 25896163.254081726 0 25896163.254081726 54603039.883628845 0 0 0 0 -281993.4342956543 10825615.948532104 0 10825615.948532104 1095781.2285804749 0 0 0 0 -4464819.3268156052 -19879567.270079613 0 -19879567.270079613 23267560.065979004 0 0 0 0 74226.555854797363 12347700.122680664 0 12347700.122680664 20452465.614559174 0 0 0 0 -1386053.9173278809 2108119.2641448975 0 2108119.2641448975 1695250.1918258667 0 0 0 0 454938.99977204949 1511272.7810001019 0 1511272.7810001019 -236212.84008199722 0 0 0 0 5742069.2554559708 -3906047.0058603287 0 -3906047.0058603287 -829533.54531097412 0 0 0 0 -34908844.587242126 28625926.258556366 0 28625926.258556366 12557798.448455811 0 0 0 0 104078555.37875366 -18493726.142211914 0 -18493726.142211914 -32627637.106536865 0 0 0 0 413605.94513627142 268701.67497375794 0 268701.67497375794 -226599.7512216121 0 0 0 0 154700613.35101318 58855771.244277954 0 58855771.244277954 -1552768.3395385742 0 0 0 0 -282866.39156734943 551275.07754848991 0 551275.07754848991 735451.50608018041 0 0 0 0 1679244.0504379272 -738554.36757659912 0 -738554.36757659912 2083466.3081016541 0 0 0 0 484968.71205916256 1151100.5781389289 0 1151100.5781389289 -392999.25978091173 0 0 0 0 -6278432.1294784546 12085358.039699554 0 12085358.039699554 16711240.24079895 0 0 0 0 -2142950.6057395935 2817709.4932098389 0 2817709.4932098389 1585845.5617523193 0 0 0 0 -4931315.904876709 -968027.6632232666 0 -968027.6632232666 2112460.5653991699 0 0 0 0 -13587411.791679382 -7921497.8919906616 0 -7921497.8919906616 -2322503.4186553955 0 0 0 0 -19712369.258663177 -2786271.6755638123 0 -2786271.6755638123 8359565.6037139893 0 0 0 0 -13487768.519866943 3948075.9661636353 0 3948075.9661636353 10849767.886676788 0 0 0 0 -19638294.494499207 -1170792.2246551514 0 -1170792.2246551514 18115897.221839905 0 0 0 0 -18334977.341743469 7944145.6438140869 0 7944145.6438140869 15181311.48034668 0 0 0 0 -11122275.803565979 11209256.983428955 0 11209256.983428955 7279561.1262969971 0 0 0 0 -8873883.2806549072 15350223.561244965 0 15350223.561244965 14743567.703109741 0 0 0 0 -10878731.116256714 9680225.6027984619 0 9680225.6027984619 4302564.497467041 0 0 0 0 -14402068.66860199 1812336.5570316315 0 1812336.5570316315 6137134.1817169189 0 0 0 0 -6909789.3259086609 6276455.4866828918 0 6276455.4866828918 793201.462890625 0 0 0 0 -564568.03317260742 2709594.1817245483 0 2709594.1817245483 1350150.8940429688 0 0 0 0 -8033635.0388641357 6220085.4285812378 0 6220085.4285812378 8502345.1844787598 0 0 0 0 -32371155.184196472 30782821.776908875 0 30782821.776908875 7805458.1705322266 0 0 0 0 -4257843.2646398544 8399635.7846345901 0 8399635.7846345901 1793275.4761962891 0 0 0 0 2757098.4600111041 2313369.0360890292 0 2313369.0360890292 -638794.76449927315 0 0 0 0 -3796988.9958028793 15447852.82467556 0 15447852.82467556 -7550342.0784301758 0 0 0 0 97137.051772676408 151501.76939143799 0 151501.76939143799 110984.74588991329 0 0 0 0 -18656787.460968018 16780204.437469482 0 16780204.437469482 283369.45188903809 0 0 0 0 -9005379.6063079834 10551579.316421509 0 10551579.316421509 329733.29905700684 0 0 0 0 -4085374.8078613281 13494877.519943237 0 13494877.519943237 -5057137.8627319336 0 0 0 0 -4108427.160736084 13668363.955970764 0 13668363.955970764 518053.77319335938 0 0 0 0 -4418639.4071540833 14170580.191829681 0 14170580.191829681 975366.0419921875 0 0 0 0 -6567388.1254425049 14184838.131149292 0 14184838.131149292 5739152.501373291 0 0 0 0 -9506418.0673980713 10816697.867866516 0 10816697.867866516 5008480.7040405273 0 0 0 0 15975339.080329895 -6840462.9077072144 0 -6840462.9077072144 -32828075.67741394 0 0 0 0 -86966472.516086578 9696290.3149528503 0 9696290.3149528503 5810164.7735748291 0 0 0 0 -38421984.548042297 -39616045.472801208 0 -39616045.472801208 -48847920.285583496 0 0 0 0 1499931.7055330332 1436126.5931931632 0 1436126.5931931632 24344.448848724365 0 0 0 0 -810857.26165771484 1871761.1452789307 0 1871761.1452789307 1502862.9559059143 0 0 0 0 17848547.877183914 -182599.21961307526 0 -182599.21961307526 -44051904.608291626 0 0 0 0 62540205.664741516 33203434.113296509 0 33203434.113296509 -34744577.315271378 0 0 0 0 -28713802.605570793 52788817.371693611 0 52788817.371693611 75783305.7578125 0 0 0 0 -39382677.080215454 -23509478.681503296 0 -23509478.681503296 74069597.382255077 0 0 0 0 44712236.103790283 -13145436.627746582 0 -13145436.627746582 -64141012.257415771 0 0 0 0 -1701932.2191085815 -23017297.705951691 0 -23017297.705951691 82027721.648506165 0 0 0 0 -140571.2329952307 81106.397030779161 0 81106.397030779161 291110.86935839057 0 0 0 0 6276122.5083770752 1391499.1571807861 0 1391499.1571807861 -7407773.4170417786 0 0 0 0 5965149.6363525391 58139627.688079834 0 58139627.688079834 42135414.381290436 0 0 0 0 10904136.274716377 24177202.359442711 0 24177202.359442711 -58001525.761795044 0 0 0 0 75561.524446759373 -208251.77974393964 0 -208251.77974393964 -292588.37181322835 0 0 0 0 1950140.7101593018 2882434.5836105347 0 2882434.5836105347 -5864448.6354637146 0 0 0 0 5207448.9184966683 4119010.7382681286 0 4119010.7382681286 -1089293.4692140142 0 0 0 0 1643050.0481095612 3621814.221143689 0 3621814.221143689 705351.25787755847 0 0 0 0 81340848.451160431 -44252221.65483284 0 -44252221.65483284 -77889514.978515625 0 0 0 0 16212025.661430359 30416168.04083252 0 30416168.04083252 -55884139.995892525 0 0 0 0 6191420.5789194182 3837698.8602409028 0 3837698.8602409028 -2114804.6772433119 0 0 0 0 26300686.902366638 21739128.980792999 0 21739128.980792999 -118465947.04920387 0 0 0 0 8585508.0388336182 25662989.216266632 0 25662989.216266632 -50926765.737884521 0 0 0 0 -6831735.3653259277 14547893.982803345 0 14547893.982803345 -9808.5338363647461 0 0 0 0 553709.2221031189 2929678.002828598 0 2929678.002828598 -4519488.4247741699 0 0 0 0 1018072.584216807 4363879.757241752 0 4363879.757241752 1112965.5622981936 0 0 0 0 -1660441.25756073 14828125.383666992 0 14828125.383666992 -899099.8883972168 0 0 0 0 -972022.23385620117 16693641.061668396 0 16693641.061668396 -1971496.9754943848 0 0 0 0 -392434.95536804199 3400333.5523300171 0 3400333.5523300171 -1553793.3240776062 0 0 0 0 1347330.0431614406 3722090.8555193953 0 3722090.8555193953 504137.54461667687 0 0 0 0 -34802549.686859131 -36169812.030715942 0 -36169812.030715942 -30399588.001449585 0 0 0 0 684333.65607070923 26924023.648033142 0 26924023.648033142 -22530464.432746887 0 0 0 0 90776.512062072754 27759459.455322266 0 27759459.455322266 -15543046.015415192 0 0 0 0 4184225.4855329581 6470351.2124884585 0 6470351.2124884585 1127592.3823288502 0 0 0 0 -4533659.9968185425 5774720.1179046631 0 5774720.1179046631 -2250851.3234596252 0 0 0 0 158194.8945537135 6518891.8617286142 0 6518891.8617286142 2781510.4742746856 0 0 0 0 2737633.9081012011 6714860.8676086534 0 6714860.8676086534 1440283.9234637339 0 0 0 0 4197641.2725219727 13599895.508399963 0 13599895.508399963 -6635767.3627319336 0 0 0 0 4717004.1094818115 15150454.483444214 0 15150454.483444214 -3518061.802772522 0 0 0 0 -1896236.1785078049 12990975.736274242 0 12990975.736274242 -3973432.9066925049 0 0 0 0 -869471.99271392822 15535262.789604187 0 15535262.789604187 -1172296.5715484619 0 0 0 0 12120643.68170929 7703823.629699707 0 7703823.629699707 -7121445.9553070068 0 0 0 0 7524544.639213562 17017418.474475861 0 17017418.474475861 -3002734.0444793701 0 0 0 0 708402.39955395646 5735108.6459764224 0 5735108.6459764224 1576672.6242960626 0 0 0 0 4605790.439555645 7052254.6211330891 0 7052254.6211330891 -6782183.7155609131 0 0 0 0 2075085.0280609131 5386920.8557891846 0 5386920.8557891846 1451089.5048828125 0 0 0 0 -2802091.9700164795 3267952.6825675964 0 3267952.6825675964 216115.30856323242 0 0 0 0 -1758014.5911712646 4890700.1720504761 0 4890700.1720504761 1836634.8012084961 0 0 0 0 -2996018.3059082031 487558.03039550781 0 487558.03039550781 3457543.8460540771 0 0 0 0 1125996.8957214355 3193387.4628448486 0 3193387.4628448486 1655123.9126243591 0 0 0 0 3214515.4130859375 2560691.7070007324 0 2560691.7070007324 -2734160.9228992462 0 0 0 0 -4681847.2366409302 9625897.7075958252 0 9625897.7075958252 5553991.7432861328 0 0 0 0 2379907.2225194415 2740549.4121395573 0 2740549.4121395573 3250600.7297796011 0 0 0 0 -21414.17670514062 150138.33345343173 0 150138.33345343173 14528.431947265752 0 0 0 0 4788698.8199502798 5040238.7829182856 0 5040238.7829182856 1605513.4758168682 0 0 0 0 4666248.7735500336 6191231.743106842 0 6191231.743106842 8132419.3733825684 0 0 0 0 -297617.07643959066 6253036.4550647121 0 6253036.4550647121 5473105.172976993 0 0 0 0 7652070.2696228027 1916206.230682373 0 1916206.230682373 7795577.9118270874 0 0 0 0 4648884.3539428711 7687701.0482177734 0 7687701.0482177734 9241117.1135864258 0 0 0 0 2820590.8451309111 5113082.3034935873 0 5113082.3034935873 -1871846.3586150883 0 0 0 0 -5906.8542084190995 54771.356069765985 0 54771.356069765985 98228.833766814321 0 0 0 0 -1269364.816696167 8725456.5104675293 0 8725456.5104675293 4436155.2687988281 0 0 0 0 -2655936.1893920898 17281085.014892578 0 17281085.014892578 -10524270.810592651 0 0 0 0 -4066828.2960110763 4460060.8809632771 0 4460060.8809632771 3737440.772843956 0 0 0 0 -13427738.080062866 24795931.791213989 0 24795931.791213989 -4108406.7075958252 0 0 0 0 -1333143.4930725098 13174563.505767822 0 13174563.505767822 -3942255.4578857422 0 0 0 0 2956588.0979614258 -1492380.9719848633 0 -1492380.9719848633 5148002.0377807617 0 0 0 0 -2599378.037612915 16677269.970970154 0 16677269.970970154 -1616280.4343566895 0 0 0 0 1454808.3616943359 12426915.527008057 0 12426915.527008057 2779492.6989593506 0 0 0 0 -288714.04219055176 10647273.256378174 0 10647273.256378174 5388231.7529296875 0 0 0 0 -2208305.1429748535 13027736.35043335 0 13027736.35043335 3492905.5693206787 0 0 0 0 -4162549.9419326782 10625320.804779053 0 10625320.804779053 7969797.9671325684 0 0 0 0 -6822156.2456970215 12833711.499252319 0 12833711.499252319 7737432.861415863 0 0 0 0 -6567767.4044761658 15027989.43321228 0 15027989.43321228 7332645.8832550049 0 0 0 0 -7001589.1142654419 4442836.1513595581 0 4442836.1513595581 11632787.612289429 0 0 0 0 -237860.54409572715 -292656.74959684256 0 -292656.74959684256 -46418.447275362909 0 0 0 0 -20413440.489701271 15575979.624602318 0 15575979.624602318 14946031.753173828 0 0 0 0 -11402801.726654053 7118013.4421844482 0 7118013.4421844482 22383119.477701187 0 0 0 0 -10049662.663547516 9260961.0457344055 0 9260961.0457344055 10580586.238739014 0 0 0 0 -2754049.6862182617 8581189.526763916 0 8581189.526763916 9394234.306137085 0 0 0 0 -1685152.4391784668 1709469.987411499 0 1709469.987411499 17384266.830993652 0 0 0 0 -9309024.5591468811 4161220.5185585022 0 4161220.5185585022 17430346.65411377 0 0 0 0 -7587902.8807067871 2714710.4192199707 0 2714710.4192199707 13738801.446926117 0 0 0 0 -9600162.2112503052 3140478.2088775635 0 3140478.2088775635 13862740.51361084 0 0 0 0 -10877374.091064453 2103000.1696166992 0 2103000.1696166992 21666289.223501205 0 0 0 0 -7273753.7520065308 -134684.2411403656 0 -134684.2411403656 12091245.456939697 0 0 0 0 10879439.512763977 2022123.4169716835 0 2022123.4169716835 -832275.67074584961 0 0 0 0 11179493.839889526 5590575.9213256836 0 5590575.9213256836 2155603.473449707 0 0 0 0 -22183785.905975342 -12282018.708694458 0 -12282018.708694458 7760531.5680904388 0 0 0 0 2357989.0047565093 2587412.825969087 0 2587412.825969087 -2688017.2576371059 0 0 0 0 2122428.4803606719 2605506.6530341152 0 2605506.6530341152 1980356.8261655979 0 0 0 0 7734807.5384483337 8431021.5187149048 0 8431021.5187149048 -6971142.4006271362 0 0 0 0 -2066202.8309898376 12955969.812469482 0 12955969.812469482 4460038.1722106934 0 0 0 0 9620241.788772583 11637176.275543213 0 11637176.275543213 -1992076.2611083984 0 0 0 0 7800195.2464294434 3417418.1035346985 0 3417418.1035346985 1463677.1247253418 0 0 0 0 2706040.7614352359 819155.33464937098 0 819155.33464937098 -1830463.4148509391 0 0 0 0 24367023.038822174 9859294.2876815796 0 9859294.2876815796 -7063035.0161132812 0 0 0 0 10054241.443220139 -656487.04774856567 0 -656487.04774856567 -973949.32950592041 0 0 0 0 -5610370.9478149414 1778006.9056854248 0 1778006.9056854248 -690034.98709106445 0 0 0 0 -2361638.5461793924 247109.64843358053 0 247109.64843358053 2076264.757601656 0 0 0 0 -6234554.2897262573 3659956.8572692871 0 3659956.8572692871 2486989.6540985107 0 0 0 0 -8705650.3374938965 3072539.6764068604 0 3072539.6764068604 2618899.9905185699 0 0 0 0 -6806477.9871902466 3944559.4047470093 0 3944559.4047470093 3787020.5031738281 0 0 0 0 -5193798.8706054688 5864184.2187042236 0 5864184.2187042236 1085887.6517944336 0 0 0 0 -12231890.233306885 -3161485.2296447754 0 -3161485.2296447754 -3156441.9175872803 0 0 0 0 1604221.2243868266 2275086.0118304947 0 2275086.0118304947 501649.11656914279 0 0 0 0 120934.24104641238 28884.568401880562 0 28884.568401880562 5689.4284274242818 0 0 0 0 -230247288.94438267 110317812.29011154 0 110317812.29011154 -19456805.545532227 0 0 0 0 573737.94166183472 -346898.26748275757 0 -346898.26748275757 -130249.5849609375 0 0 0 0 7773562.7358093262 1606974.3630714417 0 1606974.3630714417 391666.92333984375 0 0 0 0 -1186169.8791024648 987670.83863329096 0 987670.83863329096 190687.19260524586 0 0 0 0 -247136298.5129776 70471748.055747986 0 70471748.055747986 -29999174.032686234 0 0 0 0 35721059.977630615 -7136394.5083236694 0 -7136394.5083236694 -2406917.9530563354 0 0 0 0 44933085.858598709 22034142.443476677 0 22034142.443476677 -3621990.5640869141 0 0 0 0 17154805.230781555 31160730.231674194 0 31160730.231674194 4705263.6550941467 0 0 0 0 17160475.110752195 32482527.102054149 0 32482527.102054149 12790925.667648315 0 0 0 0 -5694416.5280914307 16067903.886608124 0 16067903.886608124 6035833.7681427002 0 0 0 0 -2253725.8775177002 23833545.315132141 0 23833545.315132141 8944532.9245986938 0 0 0 0 -2987202.8287658691 16667401.195129395 0 16667401.195129395 6167354.6094360352 0 0 0 0 4617000.8012676239 17268508.638386726 0 17268508.638386726 -634313.22630310059 0 0 0 0 4515016.0267448425 16604906.770396233 0 16604906.770396233 -1882170.3489990234 0 0 0 0 14228319.367591858 14485966.003837585 0 14485966.003837585 -5474628.9274368286 0 0 0 0 17398036.732536316 20866224.209541321 0 20866224.209541321 -543136.54396820068 0 0 0 0 384997267.31658173 1681124244.4466572 0 1681124244.4466572 372661536.12554359 0 0 0 0 1854383.5253714276 1005680362.4183652 0 1005680362.4183652 940478958.98945618 0 0 0 0 729420812.26247978 935274401.39058971 0 935274401.39058971 570512297.77509308 0 0 0 0 -465733.80302149802 741207.35429951921 0 741207.35429951921 429717.48124656081 0 0 0 0 1373142318.6261787 1918266956.4319878 0 1918266956.4319878 -379359.21467208862 0 0 0 0 1813556665.1757202 1586225932.3816643 0 1586225932.3816643 -355085823.1979084 0 0 0 0 3105193340.5152893 1248521358.9350052 0 1248521358.9350052 -278110959.47449493 0 0 0 0 1015029.9735240322 1465895.7009463906 0 1465895.7009463906 164145.91908476502 0 0 0 0 3647438276.8919239 -543660141.99707317 0 -543660141.99707317 -80157088.372215271 0 0 0 0 1495681101.599328 -328912839.33882523 0 -328912839.33882523 -60209856.679359436 0 0 0 0 887128623.47773933 352408735.309865 0 352408735.309865 -315911959.03560638 0 0 0 0 -266056.98564667255 372687.48911436275 0 372687.48911436275 138174.60076622665 0 0 0 0 837017384.72556305 979081081.86488342 0 979081081.86488342 -720216238.59012985 0 0 0 0 710088997.36503601 357118190.76799011 0 357118190.76799011 395892313.43398666 0 0 0 0 1102621511.3146286 1242763335.8494492 0 1242763335.8494492 687585875.28718567 0 0 0 0 586450666.17016602 383376743.33547974 0 383376743.33547974 -86997033.909586906 0 0 0 0 208043197.69681549 -214930137.09390259 0 -214930137.09390259 -144358752.36447144 0 0 0 0 86689840.302124023 38137875.431304932 0 38137875.431304932 -175627756.04839325 0 0 0 0 754576.20083077252 4604348.4309482789 0 4604348.4309482789 5218820.0839664117 0 0 0 0 -145649446.0259819 265621246.94274521 0 265621246.94274521 75146910.512176514 0 0 0 0 -41984508.529117584 29562093.138572693 0 29562093.138572693 26172484.053665161 0 0 0 0 33950089.892063141 -16568984.792419434 0 -16568984.792419434 -27148668.796676636 0 0 0 0 769515527.33283997 196256244.9942131 0 196256244.9942131 -415614058.45297623 0 0 0 0 790745065.962883 52477760.59557724 0 52477760.59557724 -175346709.30858386 0 0 0 0 1420321.1816308498 3202088.3173029972 0 3202088.3173029972 2596148.7606648989 0 0 0 0 -24127293.720336914 16768960.831050873 0 16768960.831050873 -10816.95240020752 0 0 0 0 13634454.533287048 18594255.633955002 0 18594255.633955002 8781.0149612426758 0 0 0 0 -8499669.6428031921 -518821.45405197144 0 -518821.45405197144 -3580654.4693145752 0 0 0 0 8962361.922164917 17410634.78049469 0 17410634.78049469 -15246310.717208862 0 0 0 0 8490354.9485144615 11936171.447612286 0 11936171.447612286 3592611.9779968262 0 0 0 0 33013908.260452271 31713217.224159241 0 31713217.224159241 -124687716.02711487 0 0 0 0 -229306570.53632784 -80131971.705127239 0 -80131971.705127239 42290952.212509155 0 0 0 0 44299663.834785461 7315763.3897285461 0 7315763.3897285461 -11806494.162128448 0 0 0 0 841591.38980876433 -1040482.0137360524 0 -1040482.0137360524 -119046.25226355717 0 0 0 0 -50089417.338439941 15783578.154022217 0 15783578.154022217 -125989.78115785946 0 0 0 0 57408279.183101654 -2489207.1969432831 0 -2489207.1969432831 -28683196.243087769 0 0 0 0 181231993.2144928 66925721.347412109 0 66925721.347412109 -60519691.177207947 0 0 0 0 36421913.10774231 37607368.067016602 0 37607368.067016602 -9167089.7293395996 0 0 0 0 -48671971.049057007 -130957928.33789062 0 -130957928.33789062 -42262772.335693359 0 0 0 0 30699841.817176819 -11133912.630493164 0 -11133912.630493164 167361591.0493927 0 0 0 0 415527517.0700531 -248152663.24187469 0 -248152663.24187469 310109412.27481079 0 0 0 0 70257350.985351562 177653189.1703186 0 177653189.1703186 200315182.35733795 0 0 0 0 -3183184.5007839203 -5134498.0603551865 0 -5134498.0603551865 130544483.28074646 0 0 0 0 -171357.42117828503 167108.16472818516 0 167108.16472818516 324730.40541333333 0 0 0 0 18414631.054718018 18125678.681518555 0 18125678.681518555 -900989.19898223877 0 0 0 0 212488089.5749588 -119345084.98989105 0 -119345084.98989105 8347004.7236328125 0 0 0 0 82570699.235305786 232421578.01761627 0 232421578.01761627 136946196.99856567 0 0 0 0 12055389.86693573 9933080.2309761047 0 9933080.2309761047 4197038.7686843872 0 0 0 0 913026.10066164494 -469708.38461622223 0 -469708.38461622223 -281404.50178903341 0 0 0 0 -292851448.13344574 67870521.366268158 0 67870521.366268158 215596520.99980164 0 0 0 0 161144.19326557964 73059.845363045111 0 73059.845363045111 -263372.95995796844 0 0 0 0 -36815458.876472473 -20938773.757036209 0 -20938773.757036209 -44249128.042907715 0 0 0 0 -3683426.9239807129 16895397.352642059 0 16895397.352642059 -10246056.349933624 0 0 0 0 2398599.1967447684 2371937.7172873672 0 2371937.7172873672 -811939.78358495235 0 0 0 0 -6287980.1571502686 -1986169.0177497864 0 -1986169.0177497864 1300909.0804214478 0 0 0 0 -1179143.2544631939 200034.14450992178 0 200034.14450992178 1537722.1155005507 0 0 0 0 -107775004.72061157 -67262945.786247253 0 -67262945.786247253 5929735.0284729004 0 0 0 0 -85412129.374252319 152624997.10733795 0 152624997.10733795 -112716881.59777069 0 0 0 0 56112932.671539307 -151440211.82507324 0 -151440211.82507324 -192749267.68666077 0 0 0 0 -12389120.149642944 11796576.885238647 0 11796576.885238647 10001176.137298584 0 0 0 0 -1062107.5654449463 -7749440.7092208862 0 -7749440.7092208862 17249990.336410522 0 0 0 0 165561097.89527893 227737016.76773071 0 227737016.76773071 -94068162.117980957 0 0 0 0 -512755.71904881671 210199.56401075423 0 210199.56401075423 894884.41839365661 0 0 0 0 -892631.55265289545 2965792.0560849309 0 2965792.0560849309 -1384752.0505371094 0 0 0 0 -1007348.9077982474 -353575.70656160405 0 -353575.70656160405 1000643.7286286876 0 0 0 0 -66720.20808690018 4255097.227482114 0 4255097.227482114 5985425.3053470105 0 0 0 0 -9222832.7902007103 -5459741.3319573402 0 -5459741.3319573402 14062776.592376709 0 0 0 0 -13776497.302909851 2982187.8590698242 0 2982187.8590698242 22132728.360788345 0 0 0 0 -2693753.3965365887 -782445.10441863537 0 -782445.10441863537 18792762.711395264 0 0 0 0 8687792.3892259598 34985663.639266014 0 34985663.639266014 -1196920.742767334 0 0 0 0 -7056328.215423584 8708791.5466842651 0 8708791.5466842651 5799759.9820785522 0 0 0 0 -7807177.562538147 13702902.429176331 0 13702902.429176331 30407821.829338074 0 0 0 0 2910119.1271820068 6647958.8990020752 0 6647958.8990020752 -14327646.209453583 0 0 0 0 1762891.7737045288 4762816.5603914261 0 4762816.5603914261 1258270.0377731323 0 0 0 0 5615087.0887990259 2406854.439961046 0 2406854.439961046 -2298672.2648519902 0 0 0 0 29114073.446380615 38504272.953514099 0 38504272.953514099 -326661278.03637695 0 0 0 0 140934.70835918188 436190.93586516939 0 436190.93586516939 49524.543295731768 0 0 0 0 -96729244.592098236 353479326.98524284 0 353479326.98524284 -1091619279.6490479 0 0 0 0 156880.16482709534 333426.16472360864 0 333426.16472360864 9245.8390429541469 0 0 0 0 -4785119.2630691528 7177774.5542526245 0 7177774.5542526245 3952695.3364524841 0 0 0 0 -1482453.9121811711 2982287.24930517 0 2982287.24930517 7026915.9019597173 0 0 0 0 -228684618.02963257 -52000834.594173431 0 -52000834.594173431 -1831563.8835983276 0 0 0 0 -445390905.10378265 85409267.306954861 0 85409267.306954861 5193605.5166625977 0 0 0 0 -88138836.493637085 136505890.06027222 0 136505890.06027222 -164106548.84701538 0 0 0 0 -98287795.586639404 58956323.408180237 0 58956323.408180237 -513071545.84608459 0 0 0 0 -897584602.96124268 62962205.358932495 0 62962205.358932495 98636406.898620605 0 0 0 0 111657554.40862274 -29135371.523300171 0 -29135371.523300171 -125343100.06318283 0 0 0 0 29190462.273292542 212237701.59871674 0 212237701.59871674 -64232860.510177612 0 0 0 0 39278526.394367218 91914008.90994072 0 91914008.90994072 229641614.90632629 0 0 0 0 -373932043.38709879 29596902.351490259 0 29596902.351490259 157035978.24076843 0 0 0 0 43096788.429489136 149169520.75416565 0 149169520.75416565 -18251979.46859479 0 0 0 0 180975030.73213196 64697314.957248688 0 64697314.957248688 -120772412.77480698 0 0 0 0 -191486.09446817636 -42248.792442498729 0 -42248.792442498729 325377.72615674883 0 0 0 0 288313335.8197403 501189296.35544634 0 501189296.35544634 329364994.60500336 0 0 0 0 465785998.13113785 571815684.66998339 0 571815684.66998339 207402764.41530609 0 0 0 0 625407782.16316223 273608107.05916214 0 273608107.05916214 75764679.326927185 0 0 0 0 -244542.2217566967 19913.379062375054 0 19913.379062375054 424001.68631868623 0 0 0 0 259690326.18147278 326955620.32483292 0 326955620.32483292 247913556.80010986 0 0 0 0 306725507.00920105 207574323.50938034 0 207574323.50938034 37337669.535835266 0 0 0 0 138352660.54949951 85009342.615447998 0 85009342.615447998 65622917.88210392 0 0 0 0 236324445.87498856 170601959.50989723 0 170601959.50989723 18324357.921348572 0 0 0 0 141059836.62967682 54771802.21846199 0 54771802.21846199 90502328.052612305 0 0 0 0 175726203.56306458 60170528.096256256 0 60170528.096256256 18356912.028975777 0 0 0 0 153693810.56649017 121594400.21253014 0 121594400.21253014 249750803.07112885 0 0 0 0 201172037.9267807 144964186.78991318 0 144964186.78991318 125470757.66128349 0 0 0 0 -143792.06649100035 46340.378779996186 0 46340.378779996186 205226.87113558128 0 0 0 0 207048945.74807835 157655228.49286413 0 157655228.49286413 87212465.504646301 0 0 0 0 99425105.731178284 208168557.8217411 0 208168557.8217411 111724385.95826054 0 0 0 0 -4150693.5196075439 316874349.49684143 0 316874349.49684143 1283658080.4131775 0 0 0 0 -62600.874954016297 669766401.51050496 0 669766401.51050496 457873529.83861542 0 0 0 0 1029342.977897644 670739691.38156509 0 670739691.38156509 458289666.88420868 0 0 0 0 587509729.87387085 378922750.54603195 0 378922750.54603195 43643778.326852798 0 0 0 0 440772019.90615082 991258686.20936394 0 991258686.20936394 311496315.06879807 0 0 0 0 583853309.69350624 485935043.59199619 0 485935043.59199619 310186919.65457153 0 0 0 0 850619682.12545967 710077128.59690189 0 710077128.59690189 352447985.52281952 0 0 0 0 -248275.14759901538 587141.64975659736 0 587141.64975659736 848969.33821905032 0 0 0 0 -1981262.279838562 12640827.531759262 0 12640827.531759262 -71033394.276752472 0 0 0 0 -9158052.062335968 25267185.125597 0 25267185.125597 -57115620.626590729 0 0 0 0 8153.6137008666992 32396357.823770523 0 32396357.823770523 -95387934.904190063 0 0 0 0 -17317.025271674585 30271159.39592002 0 30271159.39592002 -114076861.99625778 0 0 0 0 1079824.4730640166 -520059.37479442311 0 -520059.37479442311 -466494.30800631084 0 0 0 0 -3932546.8899917603 23052924.768760681 0 23052924.768760681 -102923712.67445946 0 0 0 0 -3723610.6675564647 43537624.124869153 0 43537624.124869153 -138573669.85780334 0 0 0 0 1793234.2378074825 15565.67170183314 0 15565.67170183314 -289075.21117235348 0 0 0 0 121223233.08752441 -87156314.010562897 0 -87156314.010562897 382056186.95573807 0 0 0 0 127051054.93453217 -70214908.148439407 0 -70214908.148439407 39510910.265892029 0 0 0 0 -11010022.103602052 58105319.844354808 0 58105319.844354808 -196941310.12862778 0 0 0 0 -9713294.7328491211 24785895.325828552 0 24785895.325828552 -108739470.12164307 0 0 0 0 1089299.4300231934 13932583.496551514 0 13932583.496551514 -110724355.07700491 0 0 0 0 -30048722.200279236 18442031.700777054 0 18442031.700777054 -65527007.195194244 0 0 0 0 -5718486.1166687012 9006436.6420707703 0 9006436.6420707703 -64081193.593930721 0 0 0 0 -9999339.1681213379 -3527920.424829483 0 -3527920.424829483 -68759782.464683533 0 0 0 0 49873634.47946167 16900870.013837814 0 16900870.013837814 -371379438.3250351 0 0 0 0 2980355.6335068867 1780053.1384026632 0 1780053.1384026632 378714.26825694088 0 0 0 0 -8510029.6301040649 -11304954.147384644 0 -11304954.147384644 -142339553.66481781 0 0 0 0 -41006572.224075317 6361387.992521286 0 6361387.992521286 -67023736.778536797 0 0 0 0 48540963.88469696 -264656667.08575058 0 -264656667.08575058 339537623.02377892 0 0 0 0 2358225.7503505461 738346.20404965663 0 738346.20404965663 -23414.707248631865 0 0 0 0 -237874140.92021179 -180491312.10083008 0 -180491312.10083008 28497007.067783356 0 0 0 0 -114630255.3618927 -183205034.34156799 0 -183205034.34156799 -280430141.85479736 0 0 0 0 -628711834.65207481 -169084166.1458292 0 -169084166.1458292 -233062922.22821045 0 0 0 0 -730063220.83551025 566874266.93849182 0 566874266.93849182 -896178833.5300827 0 0 0 0 -378150582.41105652 248758248.77170563 0 248758248.77170563 -189293077.5826416 0 0 0 0 -283853703.45553589 47602683.718578339 0 47602683.718578339 362172791.53768921 0 0 0 0 152453092.21279907 -111485499.80220699 0 -111485499.80220699 24019292.977432251 0 0 0 0 -54281389.950698853 -225205568.90395737 0 -225205568.90395737 496679970.50759125 0 0 0 0 45259182.247413635 29744680.001712799 0 29744680.001712799 139064922.49691486 0 0 0 0 -116009708.99142838 120726706.83681107 0 120726706.83681107 120163370.90786743 0 0 0 0 -406264378.32794189 223572308.55023193 0 223572308.55023193 -98623025.871337891 0 0 0 0 -31076062.817054749 -11064651.919525146 0 -11064651.919525146 30455450.277481079 0 0 0 0 -382868439.44799805 100389868.46157074 0 100389868.46157074 -115119609.27973938 0 0 0 0 135830933.79492188 -89079076.312139511 0 -89079076.312139511 -795237129.1580658 0 0 0 0 -378460491.97921753 95100413.112716675 0 95100413.112716675 -281539093.19607544 0 0 0 0 -1714442.4309921265 -8860404.1798973083 0 -8860404.1798973083 -138543293.3455658 0 0 0 0 -7080623.3441772461 157045419.39498901 0 157045419.39498901 -149521985.48197174 0 0 0 0 -49379779.446617126 114847460.61324501 0 114847460.61324501 158904277.10176086 0 0 0 0 8738980.0278778076 46099010.259647369 0 46099010.259647369 60588775.271255493 0 0 0 0 3648230.2469935529 3104808.1864699121 0 3104808.1864699121 848030.4975579083 0 0 0 0 -7419316.3549575806 -43262888.048114777 0 -43262888.048114777 268759296.39302254 0 0 0 0 33410983.773075104 -107626795.02161026 0 -107626795.02161026 -6292467.3773765564 0 0 0 0 220510943.35441017 192445391.67458916 0 192445391.67458916 -424155739.62651443 0 0 0 0 -167520031.38819122 119275354.97074127 0 119275354.97074127 247684142.06941986 0 0 0 0 25452806.946899414 -167724252.06710434 0 -167724252.06710434 244597004.40843964 0 0 0 0 -66137235.24282074 2469296.6575717926 0 2469296.6575717926 194722140.8427887 0 0 0 0 98564403.282619476 162075523.9355669 0 162075523.9355669 121602368.1993866 0 0 0 0 101418814.29053879 112761759.97443581 0 112761759.97443581 42339936.773231506 0 0 0 0 64626360.683410645 1413126.5729789734 0 1413126.5729789734 -13274613.538639069 0 0 0 0 233963216.7481575 36286874.702451706 0 36286874.702451706 -9256854.4907531738 0 0 0 0 675177.10888388008 800883.53903562482 0 800883.53903562482 -779065.70907911286 0 0 0 0 20264181.024200439 7446705.1339850426 0 7446705.1339850426 4875573.8404159546 0 0 0 0 51304566.281616211 7099429.0012321472 0 7099429.0012321472 -4032455.1251792908 0 0 0 0 23393262.647186279 10330749.738525391 0 10330749.738525391 149838.58506011963 0 0 0 0 36204814.91394043 9283484.0224380493 0 9283484.0224380493 -6093913.7073478699 0 0 0 0 15778914.324691772 12897676.454711914 0 12897676.454711914 -579997.69998550415 0 0 0 0 20600652.534912109 45118592.43602252 0 45118592.43602252 18440561.336853027 0 0 0 0 22503146.026947021 15495797.209632874 0 15495797.209632874 3315247.9448547363 0 0 0 0 23595262.39855957 19135930.771068573 0 19135930.771068573 -828396.95425033569 0 0 0 0 32504807.502456665 24728727.428275585 0 24728727.428275585 2653808.9304122925 0 0 0 0 48667668.492208481 64086942.958895683 0 64086942.958895683 18941563.891914368 0 0 0 0 57968283.01675415 25888090.101963043 0 25888090.101963043 -4495254.4929428101 0 0 0 0 120861519.99581909 30851635.088886261 0 30851635.088886261 -16579698.77381134 0 0 0 0 50332772.276843548 26059964.735230446 0 26059964.735230446 -2197239.1155319214 0 0 0 0 24363986.770446777 69103216.873577118 0 69103216.873577118 18397126.205360413 0 0 0 0 7584580.6373176575 67067957.795303345 0 67067957.795303345 31994716.756065369 0 0 0 0 24397917.957626343 76722687.294681549 0 76722687.294681549 35479730.940950394 0 0 0 0 19160962.178710938 50328394.613464355 0 50328394.613464355 13484586.974880219 0 0 0 0 -6155228.035949707 36237670.182163239 0 36237670.182163239 15501266.020236969 0 0 0 0 933735.61930847168 50387443.379470825 0 50387443.379470825 35491788.45787096 0 0 0 0 -203265.35925292969 61341925.693996429 0 61341925.693996429 34303673.527066231 0 0 0 0 2105179.5455741882 56534217.718146324 0 56534217.718146324 43715137.211837769 0 0 0 0 -11390155.399734497 48559076.007309914 0 48559076.007309914 29776022.770503998 0 0 0 0 -19566364.575500488 49374988.335865021 0 49374988.335865021 31522014.087082863 0 0 0 0 2239451.2522888184 93241838.076738358 0 93241838.076738358 78376168.068452835 0 0 0 0 -23631110.659294128 64175310.902687073 0 64175310.902687073 65941771.184715271 0 0 0 0 -42977357.945449829 5058616.862663269 0 5058616.862663269 15338328.616420746 0 0 0 0 -14170670.616504669 31914956.491064072 0 31914956.491064072 -12417956.26757431 0 0 0 0 -29835032.212867737 22416248.862163544 0 22416248.862163544 13823355.997909546 0 0 0 0 -15960219.292053223 58189533.265766144 0 58189533.265766144 44381222.018333435 0 0 0 0 -4193413.157333374 42535032.686828613 0 42535032.686828613 19051287.508018494 0 0 0 0 -398268.42096710205 57182639.781728745 0 57182639.781728745 46501236.900215149 0 0 0 0 4753838.7169189453 36929742.030792236 0 36929742.030792236 48785099.048751831 0 0 0 0 -7097107.0306777954 49555498.347831726 0 49555498.347831726 39759087.643306732 0 0 0 0 -5064366.1421370506 23310522.29367435 0 23310522.29367435 29420730.244773865 0 0 0 0 1114689.7999267578 37928853.839942932 0 37928853.839942932 52081497.259223938 0 0 0 0 19617349.211868286 29760123.738153458 0 29760123.738153458 55527117.612060547 0 0 0 0 12632.323097229004 31549176.421453476 0 31549176.421453476 59398825.937007904 0 0 0 0 8237734.3678436279 21784756.436434269 0 21784756.436434269 31269780.862026215 0 0 0 0 -21885.814872741699 36561169.612325668 0 36561169.612325668 25471229.964730263 0 0 0 0 9981077.4896812439 30108549.601016045 0 30108549.601016045 -4144516.6562767029 0 0 0 0 -16397937.472061157 16610932.745258331 0 16610932.745258331 -8279112.6247377396 0 0 0 0 -6726692.0358142853 10455078.346431255 0 10455078.346431255 -44359968.314666748 0 0 0 0 9747.2742009314625 33628508.010915235 0 33628508.010915235 -45028006.294624329 0 0 0 0 19373166.468132019 19636779.51140213 0 19636779.51140213 23055111.197385669 0 0 0 0 22069488.672401428 35375114.546823502 0 35375114.546823502 33353105.828437805 0 0 0 0 557980.08536632266 7225629.774461234 0 7225629.774461234 3912708.9682410806 0 0 0 0 -883214.30888273194 1131909.6761150891 0 1131909.6761150891 788250.3785890406 0 0 0 0 22421699.597160339 34194183.690734863 0 34194183.690734863 26012035.98878479 0 0 0 0 69765501.327178955 1598181.3391952515 0 1598181.3391952515 -4534836.8976631165 0 0 0 0 -17822660.397912979 14134503.143161774 0 14134503.143161774 8915711.2146224976 0 0 0 0 18089972.4637146 45616063.956214905 0 45616063.956214905 39819384.994659424 0 0 0 0 85074108.340026855 30564821.883911133 0 30564821.883911133 23372217.22847271 0 0 0 0 46875446.967559814 41281686.543075562 0 41281686.543075562 -13751696.163406372 0 0 0 0 52711945.994868279 21310255.864909172 0 21310255.864909172 -64546460.548103333 0 0 0 0 22709390.692951679 4469709.3221611977 0 4469709.3221611977 -31592444.534843445 0 0 0 0 69850302.943835318 43575934.375335008 0 43575934.375335008 -13638969.893417358 0 0 0 0 30647812.616439819 45255340.048866272 0 45255340.048866272 -31876.617301940918 0 0 0 0 42734001.247596741 37428634.676319122 0 37428634.676319122 -6655465.479927063 0 0 0 0 -13133213.309183121 13093287.871269226 0 13093287.871269226 8452695.1893386841 0 0 0 0 13632409.9478302 14354665.152835846 0 14354665.152835846 -192762.35628509521 0 0 0 0 5871018.301533496 11135058.280628517 0 11135058.280628517 1061100.8316567987 0 0 0 0 -9250272.1417295896 4998892.8851580592 0 4998892.8851580592 6438919.6595001929 0 0 0 0 -14297587.147436142 14082751.989803314 0 14082751.989803314 15933330.845794678 0 0 0 0 -17292166.547264099 18649007.65594101 0 18649007.65594101 11695736.841377258 0 0 0 0 -13581368.845233917 9749355.8702735901 0 9749355.8702735901 28803208.919677734 0 0 0 0 -7593493.1685466319 4135480.7278172784 0 4135480.7278172784 6440968.4625141639 0 0 0 0 -26460220.714683533 3100780.1003341675 0 3100780.1003341675 52173083.166561127 0 0 0 0 -9357057.5267333984 9213121.9759368896 0 9213121.9759368896 2642142.4822158813 0 0 0 0 -1142613.6106947586 5486160.3015816361 0 5486160.3015816361 2415298.1381382234 0 0 0 0 -8545032.9559555054 16631271.516700745 0 16631271.516700745 -1591696.5878639221 0 0 0 0 -4213965.914648056 21445727.786520004 0 21445727.786520004 -2223084.1212692261 0 0 0 0 -6341029.7740478516 2334376.3253707886 0 2334376.3253707886 3301014.9249191284 0 0 0 0 -2724563.9947706219 6325989.7257990846 0 6325989.7257990846 4910069.2238503583 0 0 0 0 -5974934.0914726257 7591970.1805763245 0 7591970.1805763245 727493.73668861389 0 0 0 0 -11860297.69332695 16527168.172408104 0 16527168.172408104 6029228.1906585693 0 0 0 0 -6997873.8688163757 10023697.986557007 0 10023697.986557007 5660386.4987487793 0 0 0 0 -451954.88714742521 5257755.4010822419 0 5257755.4010822419 4086046.5309574194 0 0 0 0 -12461613.525406361 14929143.616599083 0 14929143.616599083 11957743.723556519 0 0 0 0 -11062050.14648056 8972383.2198791504 0 8972383.2198791504 12167004.050121069 0 0 0 0 -8821967.8836593628 3660333.2794876099 0 3660333.2794876099 11629655.460708618 0 0 0 0 -12249606.541873932 8356445.3007888794 0 8356445.3007888794 23614664.477851868 0 0 0 0 -12216171.665391684 8901488.150357008 0 8901488.150357008 13228185.85484314 0 0 0 0 -11342247.876739502 4303095.3626327515 0 4303095.3626327515 14212951.356185913 0 0 0 0 -434744.91413879395 1679196.6912078857 0 1679196.6912078857 892782.69877624512 0 0 0 0 5389990.9399414062 3369047.1949920654 0 3369047.1949920654 1432812.1626281738 0 0 0 0 4552495.7471739277 3460351.6640972793 0 3460351.6640972793 2330271.9737696871 0 0 0 0 -10913464.92779541 8889833.4905700684 0 8889833.4905700684 9133012.5528106689 0 0 0 0 -11248132.678966522 4071176.8298568726 0 4071176.8298568726 8950993.7354431152 0 0 0 0 1917851.4360408732 2322366.8545794897 0 2322366.8545794897 1291937.1874882989 0 0 0 0 1833830.4852600098 3099413.4911499023 0 3099413.4911499023 1583234.6250915527 0 0 0 0 -838079.61388649419 5325804.3771380596 0 5325804.3771380596 4702129.0664446652 0 0 0 0 2531406.9043346364 2886905.0044474769 0 2886905.0044474769 339275.55810897797 0 0 0 0 3181348.333946228 3826906.1213150024 0 3826906.1213150024 -693683.07437133789 0 0 0 0 -326600.11503601074 5850878.750328064 0 5850878.750328064 7042474.251008749 0 0 0 0 2812754.8688659668 4722901.1326370239 0 4722901.1326370239 -1321336.6821594238 0 0 0 0 1699995.7315063477 6491044.3424530029 0 6491044.3424530029 -104343.59646606445 0 0 0 0 -162590.21713256836 4571192.2601165771 0 4571192.2601165771 -1880542.9115600586 0 0 0 0 -1466150.7722914219 6785426.3137934208 0 6785426.3137934208 -1262008.3115997314 0 0 0 0 192990.91951987147 6535209.2624717858 0 6535209.2624717858 3578226.1589298695 0 0 0 0 -1619208.4707260132 3079888.7915878296 0 3079888.7915878296 326673.1125793457 0 0 0 0 4240659.669115033 4684570.1904842965 0 4684570.1904842965 1809204.3207449615 0 0 0 0 2180868.6441339208 2248417.5090825446 0 2248417.5090825446 1181052.102058243 0 0 0 0 971650.54395884648 967331.133880537 0 967331.133880537 522636.19860054553 0 0 0 0 47326103.56817627 14079323.291526794 0 14079323.291526794 -1669395.5465087891 0 0 0 0 -436821.55096435547 1685213.7152404785 0 1685213.7152404785 915662.45916748047 0 0 0 0 4495481.2348080352 2772171.4651645496 0 2772171.4651645496 -97935.130037065595 0 0 0 0 -68745.406661987305 1194158.4658813477 0 1194158.4658813477 848178.60150146484 0 0 0 0 22670784.673248291 10603294.365837097 0 10603294.365837097 9104537.1892700195 0 0 0 0 -1921180.4355296455 7199468.70653388 0 7199468.70653388 2841466.3978076242 0 0 0 0 -2044291.1903658323 6863488.8458459852 0 6863488.8458459852 2733855.5064075161 0 0 0 0 -22604331.763000488 18013400.670246124 0 18013400.670246124 9479640.6427612305 0 0 0 0 -15116821.500610352 11412992.061294556 0 11412992.061294556 6817443.7365112305 0 0 0 0 -16896381.626846313 10943954.486000061 0 10943954.486000061 7742489.1856536865 0 0 0 0 -14133842.079256058 14856079.340843201 0 14856079.340843201 8431958.9047012329 0 0 0 0 -2702485.0687179565 15559601.885677338 0 15559601.885677338 4833338.925567627 0 0 0 0 -9018142.5178108215 18972298.49770546 0 18972298.49770546 3014685.2274703979 0 0 0 0 -4734230.1058692932 24579474.808083534 0 24579474.808083534 -4691418.064666748 0 0 0 0 -15107954.285919189 33857114.90738678 0 33857114.90738678 4709442.9855499268 0 0 0 0 -12731529.136260986 42308541.515018463 0 42308541.515018463 12591217.585037231 0 0 0 0 2047522.5186386108 48609856.389925003 0 48609856.389925003 -14082638.077590942 0 0 0 0 -11364369.016368866 61132972.805259705 0 61132972.805259705 39827884.567222595 0 0 0 0 -24176337.868515015 42213674.858577728 0 42213674.858577728 12614721.9565835 0 0 0 0 -22700561.839126587 38156753.374534607 0 38156753.374534607 23381479.042076111 0 0 0 0 -26152779.9581604 31775825.363921165 0 31775825.363921165 13628615.676193237 0 0 0 0 26440066.96522522 53872741.563720703 0 53872741.563720703 -62923148.169023514 0 0 0 0 4408390.5966835022 55829552.746015549 0 55829552.746015549 6112656.6301345825 0 0 0 0 5334237.5617675781 54988719.202709198 0 54988719.202709198 5988333.212366581 0 0 0 0 -8434166.2275848389 50128170.534896851 0 50128170.534896851 83603282.769145966 0 0 0 0 9916331.326461792 89948123.462104797 0 89948123.462104797 1682380.2547721863 0 0 0 0 31345.999404907227 29760978.586093903 0 29760978.586093903 70545339.492959976 0 0 0 0 31288526.729400635 232625968.25447845 0 232625968.25447845 -445959560.13001251 0 0 0 0 3857424.2327559069 4578481.5591967255 0 4578481.5591967255 1343218.376917541 0 0 0 0 11764689.946920395 -13411130.071209431 0 -13411130.071209431 118241817.71202087 0 0 0 0 -167982506.77912563 258879490.81459063 0 258879490.81459063 -54526203.940979004 0 0 0 0 -65650956.990364075 27060429.097431183 0 27060429.097431183 33748447.077392578 0 0 0 0 -36959430.699134827 29853.321754455566 0 29853.321754455566 -929974.68467712402 0 0 0 0 -25514233.66897583 31478175.988273621 0 31478175.988273621 48051782.810850143 0 0 0 0 -29415738.686775208 42900372.397106171 0 42900372.397106171 31586040.371452332 0 0 0 0 -48094523.347442627 60070167.802146912 0 60070167.802146912 60778116.815818787 0 0 0 0 36815544.769880295 35834514.123277664 0 35834514.123277664 23847209.639595032 0 0 0 0 -115604274.46938324 19651419.330924988 0 19651419.330924988 58508939.230800629 0 0 0 0 1552222.9918637238 843204.34090971574 0 843204.34090971574 -195576.48309694417 0 0 0 0 105481797.96875 77494784.542449951 0 77494784.542449951 -94058623.379173279 0 0 0 0 -109195421.69670868 -38271402.194644928 0 -38271402.194644928 17701172.143280029 0 0 0 0 121160193.25161743 162106791.74638748 0 162106791.74638748 -55913716.738388062 0 0 0 0 47368575.746124268 127827817.75178528 0 127827817.75178528 53438628.802322388 0 0 0 0 -82365827.963653564 237243266.61717224 0 237243266.61717224 5103722.2481956482 0 0 0 0 -23832918.492602348 -113566485.50135529 0 -113566485.50135529 63551411.511692047 0 0 0 0 -103952787.69296265 -164520184.45510864 0 -164520184.45510864 16673927.00494194 0 0 0 0 -985341.24718727544 2242128.2967165457 0 2242128.2967165457 950087.25235388475 0 0 0 0 3200864.0582516231 6422543.4988605399 0 6422543.4988605399 2014910.546950506 0 0 0 0 -7155896.1394348145 112542456.52410507 0 112542456.52410507 -115340100.31237411 0 0 0 0 -68813823.990509033 202239481.91927338 0 202239481.91927338 40434393.31993103 0 0 0 0 -52263841.316986084 29477784.810424805 0 29477784.810424805 -12251382.902515411 0 0 0 0 -52605437.046333313 26194663.23123455 0 26194663.23123455 62118372.411621094 0 0 0 0 -39784911.351776123 17250885.612346649 0 17250885.612346649 -1590547.7609100342 0 0 0 0 -45878573.270889282 33480636.566875458 0 33480636.566875458 -14278318.079921722 0 0 0 0 -7220772.9042358398 13220742.000740051 0 13220742.000740051 -13240060.608436584 0 0 0 0 -10662397.959671021 -3958041.0469017029 0 -3958041.0469017029 -26259747.190917969 0 0 0 0 -20938574.991027832 21231491.788818359 0 21231491.788818359 -47250132.981307983 0 0 0 0 -12444138.785827637 5224600.1127624512 0 5224600.1127624512 -53310354.123313904 0 0 0 0 -20143304.558410645 16003899.313064575 0 16003899.313064575 -13692503.157325745 0 0 0 0 -99933390.82623291 -29842090.80582428 0 -29842090.80582428 106602799.18828583 0 0 0 0 -52790578.575378418 -9529510.4230880737 0 -9529510.4230880737 115323407.36078644 0 0 0 0 -55851069.591567993 96586669.957374573 0 96586669.957374573 35741804.175888062 0 0 0 0 -90349640.447631836 101655545.65341187 0 101655545.65341187 256343620.06866455 0 0 0 0 -143142610.80471802 52649986.126312256 0 52649986.126312256 137140848.94470024 0 0 0 0 -34491046.985443115 52339222.345855713 0 52339222.345855713 136651800.59690666 0 0 0 0 -58317643.985214233 -66848786.834651947 0 -66848786.834651947 -120297077.69453049 0 0 0 0 -59004087.340576172 -58365850.00025177 0 -58365850.00025177 133938455.58784485 0 0 0 0 -72397197.411956787 300156959.68870544 0 300156959.68870544 380805734.23300171 0 0 0 0 62797282.173156738 156424756.08917618 0 156424756.08917618 173787200.25853729 0 0 0 0 -59195185.426967621 8364354.3469285965 0 8364354.3469285965 13918247.443748474 0 0 0 0 -48120526.774765015 13842663.343589783 0 13842663.343589783 5693574.8197784424 0 0 0 0 -1076699.9241236802 737098.37826891802 0 737098.37826891802 1624068.9838707298 0 0 0 0 67284231.642196655 40360426.176689148 0 40360426.176689148 118499659.90837097 0 0 0 0 252160.0549755767 226198.42842712067 0 226198.42842712067 -477653.81674008444 0 0 0 0 -52055643.33203125 -8976009.3580341339 0 -8976009.3580341339 113494129.92298889 0 0 0 0 -1219463.2580566406 8747350.9143714905 0 8747350.9143714905 81099991.69058609 0 0 0 0 -11363802.083723068 37639824.439835072 0 37639824.439835072 132735169.42997742 0 0 0 0 -55219561.372200012 -8544919.5423564911 0 -8544919.5423564911 115350641.95172119 0 0 0 0 -63839983.524017334 36000360.771469116 0 36000360.771469116 161921982.71740723 0 0 0 0 -5869778.4582824707 81472599.717903137 0 81472599.717903137 164123548.20970917 0 0 0 0 -31613445.723358154 4120477.8500366211 0 4120477.8500366211 80602886.608019829 0 0 0 0 1989017.0172894076 2437568.9752655011 0 2437568.9752655011 -2442347.2697581518 0 0 0 0 18260041.205558777 15584029.957179546 0 15584029.957179546 -3765967.1716003418 0 0 0 0 2491233.4957962036 3683082.7021217346 0 3683082.7021217346 -7063264.6798248291 0 0 0 0 24337527.871376038 3734727.1125628948 0 3734727.1125628948 -10956501.664955139 0 0 0 0 1777790.9183679633 4926686.5330176931 0 4926686.5330176931 -3041805.2891960926 0 0 0 0 -3011312.8025625274 5776141.4219806679 0 5776141.4219806679 4967875.1708896533 0 0 0 0 -1728933.516242981 14002775.963276386 0 14002775.963276386 -9353848.7594776154 0 0 0 0 -30173907.877975464 7624233.3245506287 0 7624233.3245506287 4546887.1897559166 0 0 0 0 4441537.1391931996 2296744.6795426011 0 2296744.6795426011 -4757034.2394694891 0 0 0 0 32717220.28125 7033733.0441541672 0 7033733.0441541672 -21888331.396408081 0 0 0 0 5477205.3063430786 456341.24481534958 0 456341.24481534958 -3559653.896894455 0 0 0 0 9814168.3081207275 -2851822.7386741638 0 -2851822.7386741638 -3421010.2577075958 0 0 0 0 4772183.5451807976 -6711167.0840438604 0 -6711167.0840438604 61140586.550849915 0 0 0 0 -1247347.2216447741 3899572.5209057517 0 3899572.5209057517 -3888627.5079964474 0 0 0 0 -28694705.461494446 17917740.988031387 0 17917740.988031387 -1200940.4697341919 0 0 0 0 -26557768.047367096 24383542.552052498 0 24383542.552052498 2114251.9989852905 0 0 0 0 -36156221.273536682 18684286.584459305 0 18684286.584459305 5759403.6187477112 0 0 0 0 -4639451.437527433 7518651.3491511047 0 7518651.3491511047 7791526.7538351398 0 0 0 0 -33631640.934761047 26242684.469049454 0 26242684.469049454 1811518.315369606 0 0 0 0 -39774959.185661316 48513769.82730341 0 48513769.82730341 -9881022.4642801285 0 0 0 0 -26968977.310638428 10523501.573354721 0 10523501.573354721 1075948.0716247559 0 0 0 0 -2743310.4104813961 13052019.118902706 0 13052019.118902706 4398417.0477677248 0 0 0 0 18339468.278423309 36258728.295721054 0 36258728.295721054 9377119.1907653809 0 0 0 0 -9617343.6704864502 23303142.811864853 0 23303142.811864853 2026291.4286298752 0 0 0 0 5026667.2987251282 29974939.216100693 0 29974939.216100693 17174998.068687439 0 0 0 0 -8921578.0511569977 44924784.975006104 0 44924784.975006104 13836700.669914246 0 0 0 0 -13757029.785492897 20870179.856302261 0 20870179.856302261 14268382.10307312 0 0 0 0 -15826477.237083435 17123496.263492584 0 17123496.263492584 20053216.542022705 0 0 0 0 -10870451.673089027 30053193.748635292 0 30053193.748635292 32273769.83770752 0 0 0 0 -9707960.0485076904 10323007.904972076 0 10323007.904972076 5162538.7429466248 0 0 0 0 16730383.948677063 20496521.66557312 0 20496521.66557312 -6392924.3336830139 0 0 0 0 -3047748.2758985516 11703325.643099535 0 11703325.643099535 4523007.0651460625 0 0 0 0 -3418948.5685904399 8104654.589511374 0 8104654.589511374 3434456.4572678264 0 0 0 0 -2605066.9088401794 21630272.151104927 0 21630272.151104927 2043645.2485084534 0 0 0 0 -9095921.2266693115 6806125.0699176788 0 6806125.0699176788 5656079.8651390076 0 0 0 0 -19114375.211486816 4483663.5703582764 0 4483663.5703582764 6725598.2234115601 0 0 0 0 -18074248.362071037 12286322.002369881 0 12286322.002369881 10386703.255828857 0 0 0 0 -21766385.83433342 17954213.448143005 0 17954213.448143005 36537021.954391479 0 0 0 0 4767028.7634146363 8026391.8102879254 0 8026391.8102879254 2496724.0386228506 0 0 0 0 4250710.3036308289 17551101.969272614 0 17551101.969272614 1247445.8322792053 0 0 0 0 -3640603.9997558594 5943236.6040039062 0 5943236.6040039062 1879177.9186859131 0 0 0 0 -12927253.361436334 3704246.1353300158 0 3704246.1353300158 3931514.7621133695 0 0 0 0 2691981.058985536 10901929.479682803 0 10901929.479682803 4216190.0083179567 0 0 0 0 6603904.6172532644 11691220.63573404 0 11691220.63573404 357747.57996192202 0 0 0 0 4403766.3267669678 19624118.335617065 0 19624118.335617065 -1714537.7548675537 0 0 0 0 -6105785.1133499146 8080098.9951276779 0 8080098.9951276779 22187608.515304565 0 0 0 0 -5822285.4060974121 16575774.207675934 0 16575774.207675934 4829428.9721679688 0 0 0 0 -63391.29426574707 39055763.037582397 0 39055763.037582397 90297525.113044739 0 0 0 0 -55930577.682353497 115601322.84428191 0 115601322.84428191 29890990.706443787 0 0 0 0 1306768.6325390078 9518131.66196738 0 9518131.66196738 3393835.9679333605 0 0 0 0 30919369.101425171 46856487.632926941 0 46856487.632926941 4329711.7092895508 0 0 0 0 -28602162.963378906 9135904.3222351074 0 9135904.3222351074 30913599.697605133 0 0 0 0 -15961594.896651268 17132874.970349312 0 17132874.970349312 34467923.250549316 0 0 0 0 -40708320.068458557 35750717.637355804 0 35750717.637355804 17415563.738967896 0 0 0 0 -9027304.805765152 22944212.253507614 0 22944212.253507614 8149770.9616546631 0 0 0 0 4186963.5849664211 23698992.989077926 0 23698992.989077926 -10878741.541320801 0 0 0 0 -9087422.7890472412 27901652.509216309 0 27901652.509216309 4230426.2201004028 0 0 0 0 -12853213.610931396 37188346.725334167 0 37188346.725334167 -13650092.890899658 0 0 0 0 -4681596.6693725586 25366849.056343079 0 25366849.056343079 -12408911.870466232 0 0 0 0 -3289538.7078195028 7175034.7847147286 0 7175034.7847147286 2873797.8982266998 0 0 0 0 -4118162.9126052856 28303697.089691162 0 28303697.089691162 -11669802.898025513 0 0 0 0 -1289825.201506922 2793625.1262357309 0 2793625.1262357309 1115063.4328141315 0 0 0 0 -24035952.689792633 69099494.068187714 0 69099494.068187714 -78827307.701980591 0 0 0 0 -87061927.902767181 59836397.34564209 0 59836397.34564209 8813989.1499652863 0 0 0 0 -66227328.553256989 -6622858.8708686829 0 -6622858.8708686829 71742850.69329834 0 0 0 0 -115509209.58665466 31214911.925281525 0 31214911.925281525 80918735.480476379 0 0 0 0 -72903852.858318329 41100480.25982666 0 41100480.25982666 78810283.259712219 0 0 0 0 -24463635.05701828 37952172.478832245 0 37952172.478832245 30199690.104812622 0 0 0 0 -18691322.216892242 14069633.826652527 0 14069633.826652527 44262645.637176514 0 0 0 0 -18523346.732723236 21488561.368247986 0 21488561.368247986 26364444.629989624 0 0 0 0 -49756249.949455261 26476429.004707336 0 26476429.004707336 46938348.431405067 0 0 0 0 -9563855.966594696 48321434.047290802 0 48321434.047290802 32663212.219332695 0 0 0 0 -45170509.29438591 75455421.195344925 0 75455421.195344925 20992389.26713562 0 0 0 0 -83298154.072015762 89719303.849567413 0 89719303.849567413 74957273.292709351 0 0 0 0 -62515156.024402618 66375500.874401093 0 66375500.874401093 67265714.785987854 0 0 0 0 -75527631.451446533 119397953.39984894 0 119397953.39984894 62613571.364753723 0 0 0 0 -28927586.10100174 97444218.301200867 0 97444218.301200867 -53153517.515930176 0 0 0 0 -25645253.109901428 79543715.556747437 0 79543715.556747437 42591122.113613129 0 0 0 0 16051366.282138824 81158440.731864929 0 81158440.731864929 20169797.713661194 0 0 0 0 8512722.1538305283 52659743.098946571 0 52659743.098946571 -10070702.547454834 0 0 0 0 46577250.15045166 38506552.525470734 0 38506552.525470734 -66723257.421310425 0 0 0 0 38313510.85351944 55515549.579707146 0 55515549.579707146 -33343186.970603943 0 0 0 0 -22905443.309669495 38098897.461204529 0 38098897.461204529 -24982697.974460602 0 0 0 0 11848409.391269684 71841958.042442322 0 71841958.042442322 -37887416.181694031 0 0 0 0 -12996105.568378448 7433779.0162696838 0 7433779.0162696838 -82069915.696750641 0 0 0 0 20900158.357990265 -54197343.880641937 0 -54197343.880641937 162613994.42369843 0 0 0 0 940081.42712932639 1640677.5814026706 0 1640677.5814026706 1240825.8762397545 0 0 0 0 56196363.716079712 18808914.027233124 0 18808914.027233124 -125182181.22898102 0 0 0 0 -16228753.983688354 996761.31196594238 0 996761.31196594238 262097965.97618866 0 0 0 0 -439828353.49685669 268258725.46710205 0 268258725.46710205 333324892.98722076 0 0 0 0 58989503.843791962 -29810535.88319397 0 -29810535.88319397 48577597.835998535 0 0 0 0 4180924.3074273486 8517179.1583680771 0 8517179.1583680771 599015.22398892976 0 0 0 0 2837658.5973306596 5126966.9895090722 0 5126966.9895090722 3865453.9156769216 0 0 0 0 1889590.061088562 27977727.07081604 0 27977727.07081604 98386341.737270355 0 0 0 0 16106802.895584106 50119624.172515869 0 50119624.172515869 76497049.040962219 0 0 0 0 39511448.101413727 57414445.921207428 0 57414445.921207428 30197424.868286133 0 0 0 0 4235421.1398511529 11124108.365097564 0 11124108.365097564 450451.21133004874 0 0 0 0 -1038076.5672607422 13045268.479766846 0 13045268.479766846 -4489701.0149345398 0 0 0 0 22067677.865341187 14874576.467376709 0 14874576.467376709 13803220.851524353 0 0 0 0 -4749207.667427063 9357822.3626842499 0 9357822.3626842499 5780524.0714416504 0 0 0 0 462773.52849960327 9107738.4760684967 0 9107738.4760684967 -1301814.2205810547 0 0 0 0 -3115233.9046058655 7045327.8474349976 0 7045327.8474349976 3591048.5961723328 0 0 0 0 -4838334.4056854248 9989249.4410743713 0 9989249.4410743713 351071.31294631958 0 0 0 0 -10703017.500976562 13522079.653015137 0 13522079.653015137 3258673.2850189209 0 0 0 0 -6213114.0124969482 8585028.6553726196 0 8585028.6553726196 2854291.8015823364 0 0 0 0 -9313274.1884613037 13333773.2890625 0 13333773.2890625 3106491.1081886292 0 0 0 0 -9314117.5300755501 13321967.523962915 0 13321967.523962915 3852693.0065307617 0 0 0 0 -4803408.66563797 19224828.456864357 0 19224828.456864357 -7218100.890838623 0 0 0 0 -8036155.8977622986 12154673.920949936 0 12154673.920949936 1338342.3848419189 0 0 0 0 -13779551.50378418 19368205.677839279 0 19368205.677839279 -7177117.3673858643 0 0 0 0 -14637662.744750977 12240109.693206787 0 12240109.693206787 3844477.991027832 0 0 0 0 -13674387.715423584 13064720.963420868 0 13064720.963420868 -3845848.6946792603 0 0 0 0 -18143669.295303345 10421774.325323105 0 10421774.325323105 2972363.2911834717 0 0 0 0 -878679.60212332197 11193223.095514571 0 11193223.095514571 8839763.2722085156 0 0 0 0 -9114927.4192733765 4075707.3523774147 0 4075707.3523774147 8036092.0534858704 0 0 0 0 -12306413.45256424 5551583.5155701637 0 5551583.5155701637 11895042.181194305 0 0 0 0 -15979052.060058594 12760043.798652649 0 12760043.798652649 18011724.405036926 0 0 0 0 2191268.6549227247 914871.08477765089 0 914871.08477765089 -2587349.5578981191 0 0 0 0 -1904993.306481123 33701468.050776243 0 33701468.050776243 66200132.403198242 0 0 0 0 -32582422.785736084 5250196.524017334 0 5250196.524017334 -28151908.278076172 0 0 0 0 10866051.050533522 9400076.8964146897 0 9400076.8964146897 -2347824.0815430991 0 0 0 0 -2169028.6883544922 26115955.313499451 0 26115955.313499451 52260233.600585938 0 0 0 0 31930625.777648926 64004742.861747742 0 64004742.861747742 46077253.926071167 0 0 0 0 10344917.226969719 51040925.167928696 0 51040925.167928696 68925305.700683594 0 0 0 0 8429420.262588501 38768928.071350098 0 38768928.071350098 35661436.063796997 0 0 0 0 10855077.688613892 67665768.234535217 0 67665768.234535217 38420039.710342407 0 0 0 0 52059427.960983276 30281305.322128296 0 30281305.322128296 -36968188.037338257 0 0 0 0 -18061849.67288208 -9344019.2857971191 0 -9344019.2857971191 9793807.3976745605 0 0 0 0 13461671.005989075 1672224.7593002319 0 1672224.7593002319 9683159.8715515137 0 0 0 0 -33007842.794075012 -1055481.5510253906 0 -1055481.5510253906 21824212.551925659 0 0 0 0 6004849.7606506348 11154334.532539368 0 11154334.532539368 48479212.011692047 0 0 0 0 21319008.600982666 48294011.64302063 0 48294011.64302063 25939817.952972412 0 0 0 0 20070051.337471008 45956649.955177307 0 45956649.955177307 36701607.7134552 0 0 0 0 -7151775.1374359131 8008745.2328338623 0 8008745.2328338623 20035057.39225769 0 0 0 0 4583575.7418372966 10219020.040554598 0 10219020.040554598 7051903.4373775059 0 0 0 0 -21363288.276062012 8989895.6881866455 0 8989895.6881866455 21292895.331481934 0 0 0 0 -32708352.800344706 9174140.1385707855 0 9174140.1385707855 23930993.890884399 0 0 0 0 -4110716.2517558243 8714066.9762576688 0 8714066.9762576688 8537552.8021940663 0 0 0 0 -6872757.6668624878 13355872.85990715 0 13355872.85990715 2511711.6046791077 0 0 0 0 -9929470.8418579102 13712973.761615753 0 13712973.761615753 3682357.3377227783 0 0 0 0 -11678706.965316772 6129029.8204250336 0 6129029.8204250336 -1190185.9561462402 0 0 0 0 -4583692.9239828922 11905588.969467564 0 11905588.969467564 12636830.008641455 0 0 0 0 -6541907.6403808594 5929398.1035919189 0 5929398.1035919189 2895177.2246856689 0 0 0 0 -2827603.932109206 16348520.059955187 0 16348520.059955187 5176081.9746189676 0 0 0 0 -2850013.9695663452 27964382.840324402 0 27964382.840324402 46775989.163368225 0 0 0 0 6358814.8642295636 7055787.9372761454 0 7055787.9372761454 827667.65921561141 0 0 0 0 36371870.1664505 23857895.071891785 0 23857895.071891785 12312962.813800812 0 0 0 0 3387324.6522048078 4586871.5797095653 0 4586871.5797095653 1698020.7333919257 0 0 0 0 -4542898.3684553374 12372558.953903299 0 12372558.953903299 8823310.2057115659 0 0 0 0 1874413.8741515689 2126492.6023492292 0 2126492.6023492292 437752.50434498303 0 0 0 0 -23927400.773426056 -4433984.4679069519 0 -4433984.4679069519 44114634.985725403 0 0 0 0 19316082.495392799 111309086.50253916 0 111309086.50253916 90128664.338928223 0 0 0 0 38787413.14944458 46376256.890968323 0 46376256.890968323 4916950.603782177 0 0 0 0 24006724.296775818 28948109.28364563 0 28948109.28364563 -27983231.655883789 0 0 0 0 9134420.2422237396 36482470.308075428 0 36482470.308075428 11702789.785369873 0 0 0 0 29698546.013074875 15730650.302125931 0 15730650.302125931 2427152.8293151855 0 0 0 0 10541054.920619965 40881588.601387024 0 40881588.601387024 11619418.074947357 0 0 0 0 -28711893.651689529 22220624.992927074 0 22220624.992927074 -3209945.682800293 0 0 0 0 1653247.8199954182 807961.73446014337 0 807961.73446014337 -1742055.0640112557 0 0 0 0 145700811.52999878 14464473.782169342 0 14464473.782169342 -80790128.818208694 0 0 0 0 -132278524.29492188 17326667.399485111 0 17326667.399485111 193226459.07794571 0 0 0 0 69992979.772857666 86249165.101003647 0 86249165.101003647 66113226.67575264 0 0 0 0 102314452.09298706 82789637.15601635 0 82789637.15601635 27359017.095693588 0 0 0 0 72568309.506347656 59855945.658924103 0 59855945.658924103 19085677.688990116 0 0 0 0 -70686951.352600098 28107309.718941689 0 28107309.718941689 22084439.062506676 0 0 0 0 113916201.77448654 -19809992.699568808 0 -19809992.699568808 31479096.322067261 0 0 0 0 -121254067.6015625 67214448.79194355 0 67214448.79194355 45163724.666671753 0 0 0 0 -9612655.3772721626 8992452.8211693168 0 8992452.8211693168 12580879.834299527 0 0 0 0 -70902196.821044922 -32731121.610348701 0 -32731121.610348701 -30754459.403879166 0 0 0 0 -34590314.524475098 -12047693.753959656 0 -12047693.753959656 -20617884.212530136 0 0 0 0 -7085488.4357114919 7339584.6646375731 0 7339584.6646375731 11318617.76482778 0 0 0 0 34176449.66557312 -72082806.219806671 0 -72082806.219806671 14301409.837848663 0 0 0 0 37258804.079483032 -30076147.011612892 0 -30076147.011612892 -70122434.680893898 0 0 0 0 11705356.821395874 6238648.9342279434 0 6238648.9342279434 58519699.422698975 0 0 0 0 41338310.421295166 -10280111.072199821 0 -10280111.072199821 25730360.167053223 0 0 0 0 19328754.245803833 -25065683.601301193 0 -25065683.601301193 15799075.71572876 0 0 0 0 42355069.642547607 48014964.591069221 0 48014964.591069221 85699418.376688957 0 0 0 0 69142424.694030762 63999933.857901573 0 63999933.857901573 35724849.90466094 0 0 0 0 48705468.176025391 60949541.871857166 0 60949541.871857166 36942934.682035446 0 0 0 0 44238669.715087891 83472414.215797424 0 83472414.215797424 28397767.229700565 0 0 0 0 42027456.224380493 42837036.498155117 0 42837036.498155117 8453727.473865509 0 0 0 0 54352450.263496399 58896589.863619804 0 58896589.863619804 28647318.324523926 0 0 0 0 24516247.964782715 8522653.8010315895 0 8522653.8010315895 7286264.34740448 0 0 0 0 51077327.518234253 46512045.580886364 0 46512045.580886364 -44518247.464344025 0 0 0 0 8910430.9275054932 82057742.472139835 0 82057742.472139835 -2029067.8250355721 0 0 0 0 12689049.539896965 41981155.641290784 0 41981155.641290784 -8148292.8575210571 0 0 0 0 44459676.656439781 29702809.432931662 0 29702809.432931662 -120829976.00340652 0 0 0 0 43811306.531768799 21041550.492079735 0 21041550.492079735 -24319490.657989502 0 0 0 0 12891833.317047119 70346866.407367468 0 70346866.407367468 100432098.92591572 0 0 0 0 26097604.700439453 56857624.696079254 0 56857624.696079254 27997750.036998749 0 0 0 0 34438302.466629028 90888803.03982687 0 90888803.03982687 75651851.590041161 0 0 0 0 53973845.212921143 83170421.88068676 0 83170421.88068676 30637709.271900296 0 0 0 0 -1247496.7349812575 4578935.5371812256 0 4578935.5371812256 4713860.957665232 0 0 0 0 49301233.530532837 74643839.911623836 0 74643839.911623836 69544717.416543007 0 0 0 0 52163580.007461548 66972038.18511045 0 66972038.18511045 89473560.494681239 0 0 0 0 49533985.051422119 70726631.550192833 0 70726631.550192833 41222437.470455647 0 0 0 0 76923174.651550293 71283462.757015705 0 71283462.757015705 66930387.070964336 0 0 0 0 48893574.621295929 75521331.026861489 0 75521331.026861489 68710385.931680679 0 0 0 0 -8130846.555557251 53958493.102935791 0 53958493.102935791 -33287347.597259998 0 0 0 0 20296613.413330078 40812414.597298861 0 40812414.597298861 -126616491.77413368 0 0 0 0 25733055.666290283 9370373.9412493706 0 9370373.9412493706 -51272900.364741325 0 0 0 0 85784323.609283447 112204652.80615473 0 112204652.80615473 90966279.880496487 0 0 0 0 28566366.371276855 -16394331.629450798 0 -16394331.629450798 -182576273.64024973 0 0 0 0 -1297677.5582226515 2268884.3113762173 0 2268884.3113762173 3041970.3176987683 0 0 0 0 30035112.004470825 122477508.41390985 0 122477508.41390985 200445631.1684202 0 0 0 0 -5462126.5154046118 7442695.056911625 0 7442695.056911625 14447854.426741788 0 0 0 0 1809244.1134490967 7884573.2501449585 0 7884573.2501449585 2517283.6272106171 0 0 0 0 -45305022.593444824 -999984.17852306366 0 -999984.17852306366 12443741.956655741 0 0 0 0 6608176.174257745 10343792.475219755 0 10343792.475219755 2342539.4230662733 0 0 0 0 1739545.1329803467 7455154.6174068451 0 7455154.6174068451 5906750.6063919067 0 0 0 0 884276.07639683783 8038921.4374498986 0 8038921.4374498986 5948155.6736935563 0 0 0 0 2392364.2251434326 6702490.7867031097 0 6702490.7867031097 3346617.0974121094 0 0 0 0 -227078.52194023877 2319690.9264493948 0 2319690.9264493948 956483.37126212544 0 0 0 0 29040796.442764282 -19795522.223693132 0 -19795522.223693132 -3311920.6136089563 0 0 0 0 -1279668.9527130127 50391845.272910595 0 50391845.272910595 62230489.966605663 0 0 0 0 -1818628.0658221915 87732.750046515837 0 87732.750046515837 1710056.6243700359 0 0 0 0 -1643705.6956710815 57925341.966135025 0 57925341.966135025 -62499723.940811157 0 0 0 0 1874828.9229755551 9425024.3318697736 0 9425024.3318697736 3043425.2122704461 0 0 0 0 -8216833.0697727203 2688906.3760512322 0 2688906.3760512322 -7480432.8344497681 0 0 0 0 977638.58367919922 7393204.6747817993 0 7393204.6747817993 2345780.8728046417 0 0 0 0 7347098.1274080947 10324244.713583533 0 10324244.713583533 735075.11417436693 0 0 0 0 3999246.0823974609 13139477.571452141 0 13139477.571452141 -3503853.6482715607 0 0 0 0 -187833753.79351807 165929560.52038002 0 165929560.52038002 -92005217.608267307 0 0 0 0 26880119.174972534 -5812059.6547496319 0 -5812059.6547496319 -302686804.68370724 0 0 0 0 393177.41780257784 2478849.1504128035 0 2478849.1504128035 732729.19512552675 0 0 0 0 -129641944.51174927 85129593.306059837 0 85129593.306059837 -1973682.6069278717 0 0 0 0 -48904343.613235474 214895953.46722555 0 214895953.46722555 -289021462.4497385 0 0 0 0 52116980.911407471 71781306.120009899 0 71781306.120009899 -129973909.2008146 0 0 0 0 35423694.229904175 115787779.82426202 0 115787779.82426202 -196960158.0622139 0 0 0 0 102126869.97554779 57779826.022239327 0 57779826.022239327 -228483869.06179905 0 0 0 0 77048821.596694946 -29316675.676449299 0 -29316675.676449299 -405496666.04837418 0 0 0 0 -188125838.32424164 248783422.21144629 0 248783422.21144629 -218274438.71785355 0 0 0 0 17315984.843292236 168722890.23686743 0 168722890.23686743 -433329783.15051508 0 0 0 0 50035293.166435242 36642747.235766411 0 36642747.235766411 -168752698.29845142 0 0 0 0 9761645.851852417 18727204.176900625 0 18727204.176900625 -170956059.30819917 0 0 0 0 -25401882.809875488 -35573548.854475975 0 -35573548.854475975 -171072092.30226994 0 0 0 0 52054167.922492981 45394038.5736022 0 45394038.5736022 -207459392.41019917 0 0 0 0 94566330.369354248 16193561.816864967 0 16193561.816864967 -226464953.05438995 0 0 0 0 134283373.12199402 -47975569.901854038 0 -47975569.901854038 -159232397.26771116 0 0 0 0 78899687.000453949 -17219328.260841012 0 -17219328.260841012 -152515173.03202915 0 0 0 0 39856216.59336853 -4077270.111992836 0 -4077270.111992836 -124886878.13670778 0 0 0 0 37705200.685339928 -35023712.967401087 0 -35023712.967401087 -68040052.801904678 0 0 0 0 8906892.5171051025 -55148487.193339348 0 -55148487.193339348 27810018.42040062 0 0 0 0 83394484.500335693 -71646982.134236813 0 -71646982.134236813 -74204799.684209347 0 0 0 0 5166903.5551605225 -46515975.970238209 0 -46515975.970238209 8181948.0245008469 0 0 0 0 19192574.834426165 -67240777.265836015 0 -67240777.265836015 -7559613.2800426483 0 0 0 0 19021342.955059528 -72009693.362997338 0 -72009693.362997338 19410599.105126381 0 0 0 0 132318237.43579102 -122155870.40674877 0 -122155870.40674877 -16764246.343450546 0 0 0 0 79737778.400810242 -41099687.025439739 0 -41099687.025439739 -122865757.29588175 0 0 0 0 -3175963.5444335938 -20707406.613013268 0 -20707406.613013268 71901370.102824211 0 0 0 0 157423125.72763062 -115148285.14435577 0 -115148285.14435577 -16598005.725090981 0 0 0 0 12392797.85005188 -96670262.739022255 0 -96670262.739022255 133656660.48511505 0 0 0 0 49780932.77961731 -129486394.7347784 0 -129486394.7347784 271118818.65113926 0 0 0 0 -9493801.0144805908 -47901794.368112087 0 -47901794.368112087 25007696.514901161 0 0 0 0 222710.92205810547 -39884681.087851048 0 -39884681.087851048 31549573.118596077 0 0 0 0 20702090.321685791 140917872.72608042 0 140917872.72608042 -174155811.07842827 0 0 0 0 47195215.438659668 137686217.9994278 0 137686217.9994278 -80247229.07051754 0 0 0 0 147305537.73249817 195028400.85153341 0 195028400.85153341 -152503853.54574633 0 0 0 0 269556772.01878357 -33515926.822005749 0 -33515926.822005749 -216532875.87366438 0 0 0 0 28129737.970851898 66516065.931653976 0 66516065.931653976 -47574507.816401482 0 0 0 0 267764713.44911194 -26096518.786880016 0 -26096518.786880016 -25901426.077582121 0 0 0 0 401890690.4728384 141555501.13520324 0 141555501.13520324 156745779.41929626 0 0 0 0 346867319.93797302 -274769282.14796162 0 -274769282.14796162 117799676.70603371 0 0 0 0 570241635.06124878 -275709013.96391392 0 -275709013.96391392 270439784.37072134 0 0 0 0 206283705.55020714 210482909.33339024 0 210482909.33339024 -49152617.569814682 0 0 0 0 284520179.12780762 8878329.3630771637 0 8878329.3630771637 1138240.8037528992 0 0 0 0 70964186.862762451 94710011.200461864 0 94710011.200461864 122389425.06583786 0 0 0 0 -20206957.767700195 97328815.196171761 0 97328815.196171761 -4741624.9374642372 0 0 0 0 -27118194.95741272 181680615.17122746 0 181680615.17122746 -202369069.68763447 0 0 0 0 82548784.136333466 165426970.13165164 0 165426970.13165164 -112198233.85308075 0 0 0 0 -52259125.61756897 214361803.48317051 0 214361803.48317051 -47467907.423553944 0 0 0 0 64564807.383220673 212429016.98021221 0 212429016.98021221 -150969367.0369072 0 0 0 0 -112155463.73817444 266244380.38254404 0 266244380.38254404 -117259939.52204895 0 0 0 0 -50863222.003486633 197224672.96140242 0 197224672.96140242 -180517568.1803112 0 0 0 0 -29878962.991203308 251264964.99742985 0 251264964.99742985 -198092718.92580891 0 0 0 0 -34371967.657150269 265443604.81091261 0 265443604.81091261 -135387632.31791878 0 0 0 0 -149343602.84428406 201481244.97486591 0 201481244.97486591 -201074250.21302867 0 0 0 0 -317376860.40475464 202387113.21612215 0 202387113.21612215 -126188238.72067547 0 0 0 0 -132504008.03483582 256459742.80334711 0 256459742.80334711 -153438564.3207798 0 0 0 0 -155983506.212677 162345928.40206814 0 162345928.40206814 -111727234.45387578 0 0 0 0 -255663889.43319702 293022087.91745019 0 293022087.91745019 -222528552.18877602 0 0 0 0 -355502156.97878265 279935198.59920645 0 279935198.59920645 -135993385.22863483 0 0 0 0 56859361.207015991 17309384.126058578 0 17309384.126058578 -49618071.204460144 0 0 0 0 -320786540.94824219 201286948.16854095 0 201286948.16854095 -200940713.91978979 0 0 0 0 -56374298.080116272 47210609.544102907 0 47210609.544102907 7900414.4388914108 0 0 0 0 -49668690.5284729 -200114716.18442154 0 -200114716.18442154 31797040.896778107 0 0 0 0 2792894.8313832581 2263435.9486372937 0 2263435.9486372937 417272.94163361005 0 0 0 0 3450544.3308868408 -20335287.879982471 0 -20335287.879982471 158375057.81658566 0 0 0 0 29465592.153884888 -64987652.874755919 0 -64987652.874755919 -161655807.86050725 0 0 0 0 8789144.5335864276 8827507.0847823638 0 8827507.0847823638 2319240.5382147189 0 0 0 0 -46855306.360488892 155595018.35556889 0 155595018.35556889 -78502966.936074257 0 0 0 0 -14036954.857460022 21536544.85461998 0 21536544.85461998 -7562752.6731872559 0 0 0 0 80136822.128463745 127473941.65779781 0 127473941.65779781 -170218378.90129486 0 0 0 0 42583158.973007202 96792425.625535488 0 96792425.625535488 -94156892.160489082 0 0 0 0 97390250.662590027 -34537477.631525278 0 -34537477.631525278 -30786767.572227955 0 0 0 0 -75370633.122497559 26303711.789327621 0 26303711.789327621 -27569385.0705145 0 0 0 0 2962627.9195678644 1334504.850289125 0 1334504.850289125 -3829053.4536520476 0 0 0 0 4965169.6108737476 4042363.4024216048 0 4042363.4024216048 710737.48899281537 0 0 0 0 22321157.802467346 36854582.913811684 0 36854582.913811684 -57118866.641132355 0 0 0 0 36563941.58366394 25650590.982887745 0 25650590.982887745 -54624210.558778763 0 0 0 0 -121598757.4173584 -53234643.541404724 0 -53234643.541404724 -71966882.395158768 0 0 0 0 -152752503.79032898 -2426537.9135293961 0 -2426537.9135293961 -9895725.5748996735 0 0 0 0 129626131.56488037 -29251739.169153214 0 -29251739.169153214 -163688012.91836357 0 0 0 0 75185161.079986572 112721378.3194809 0 112721378.3194809 1835745.4754142761 0 0 0 0 7822015.6721191406 72607565.700315475 0 72607565.700315475 37025311.65332222 0 0 0 0 -5099656.9688873291 17111554.201534271 0 17111554.201534271 -11846076.264770508 0 0 0 0 -3316962.4998321533 12862430.863269806 0 12862430.863269806 -8131309.4516067505 0 0 0 0 -10311271.274375916 16126615.95746994 0 16126615.95746994 -5578411.8155822754 0 0 0 0 -4879491.1246795654 10676497.677829742 0 10676497.677829742 -2407554.3611912727 0 0 0 0 -8380469.5220413208 11959354.903982162 0 11959354.903982162 -2275130.8899765015 0 0 0 0 -4946118.8032073975 12309096.849811554 0 12309096.849811554 -5674476.6822806597 0 0 0 0 -5855929.4425086975 14063679.24739933 0 14063679.24739933 -4508963.4677047729 0 0 0 0 -3023143.4462890625 12335889.98796463 0 12335889.98796463 -4348803.1046905518 0 0 0 0 -4225722.6548707485 12643864.194681108 0 12643864.194681108 -2940527.7394256592 0 0 0 0 -4397131.1755356789 9325798.7430958748 0 9325798.7430958748 -243600.0217666626 0 0 0 0 -3250567.8879776001 14499734.279579163 0 14499734.279579163 -3749431.6793899536 0 0 0 0 8985890.6053296234 8182385.5175154321 0 8182385.5175154321 -1576780.6160525708 0 0 0 0 -3437630.8242874146 13775881.558404922 0 13775881.558404922 -4654877.7635803223 0 0 0 0 -8704519.6307373047 42848913.764455795 0 42848913.764455795 9351537.9036254883 0 0 0 0 55130091.230438232 85300472.382522583 0 85300472.382522583 -1502537.6006240845 0 0 0 0 3585329.9582127575 983186.73588100169 0 983186.73588100169 -3276917.2328611678 0 0 0 0 4139235.2764282227 64959066.278575897 0 64959066.278575897 33718212.712794304 0 0 0 0 -21978184.868183136 16359299.900747299 0 16359299.900747299 -28078929.243572235 0 0 0 0 -28335345.277099609 8745780.7734336853 0 8745780.7734336853 -20739648.103744507 0 0 0 0 -11678726.929130554 -3082053.3652143478 0 -3082053.3652143478 -80923511.386024475 0 0 0 0 -405794.66366577148 41846789.310638428 0 41846789.310638428 12118632.629869461 0 0 0 0 -18041462.852416992 35723633.497150421 0 35723633.497150421 3878109.8036499023 0 0 0 0 2461608.379699707 43973267.934185028 0 43973267.934185028 5729070.4032869339 0 0 0 0 -7711748.8377685547 46372503.455594063 0 46372503.455594063 16184759.006965637 0 0 0 0 -14462693.620223999 32222575.612224579 0 32222575.612224579 5594004.0249214172 0 0 0 0 -13800726.692474365 35510343.257450104 0 35510343.257450104 7465619.7928390503 0 0 0 0 -17559028.239517212 23859061.570987582 0 23859061.570987582 -11356029.644699097 0 0 0 0 5999563.4326782227 58802153.42061615 0 58802153.42061615 2185860.9789333344 0 0 0 0 -17890956.933410645 22949126.748622894 0 22949126.748622894 17697766.148813486 0 0 0 0 34584765.150115967 -5056806.3087768555 0 -5056806.3087768555 -128318035.9357605 0 0 0 0 54315720.206954956 22913969.560192108 0 22913969.560192108 -130791604.53768539 0 0 0 0 83595800.479492188 78050055.602745056 0 78050055.602745056 -97706316.296031952 0 0 0 0 364900.33534419537 556988.83501514234 0 556988.83501514234 381000.80191510636 0 0 0 0 13882343.518493652 32340091.994865417 0 32340091.994865417 -39881383.08823967 0 0 0 0 -1505632.8388671875 39981282.582626343 0 39981282.582626343 -37889511.237800598 0 0 0 0 -13596520.814239502 12704392.586375237 0 12704392.586375237 -10073534.715729713 0 0 0 0 -20647015.126983643 29749830.968372345 0 29749830.968372345 974777.91807556152 0 0 0 0 -11511377.747680664 11894627.925174713 0 11894627.925174713 -12328854.295975685 0 0 0 0 10394935.204315186 -18001573.818356276 0 -18001573.818356276 -207703216.85645294 0 0 0 0 -8346154.6741485596 24714971.084518433 0 24714971.084518433 -52323388.466144562 0 0 0 0 9406887.9949695636 7366807.5084834136 0 7366807.5084834136 -2615955.4578304943 0 0 0 0 -61573819.897628784 -16941115.957294464 0 -16941115.957294464 61586806.608100891 0 0 0 0 -26448488.885101318 -30001602.553070068 0 -30001602.553070068 -44269084.790725708 0 0 0 0 -9082628.2080993652 17781010.530076981 0 17781010.530076981 -6586490.3370518684 0 0 0 0 -14797115.739654541 15684570.393774033 0 15684570.393774033 14483686.939876556 0 0 0 0 -21071313.55355835 46086779.066697121 0 46086779.066697121 53288774.841572046 0 0 0 0 10494430.434494019 156120543.6319952 0 156120543.6319952 -165047540.15832794 0 0 0 0 -98832837.001344681 226176716.08978897 0 226176716.08978897 -206824707.4864645 0 0 0 0 55341615.168914795 -347123.47770452499 0 -347123.47770452499 -16214939.661968231 0 0 0 0 6898950.3584902827 5519354.3944460806 0 5519354.3944460806 -1991525.2010305086 0 0 0 0 -95021532.72303772 246531024.80554104 0 246531024.80554104 -188578075.87000871 0 0 0 0 2359272.7280262709 1040546.5998424236 0 1040546.5998424236 -1417355.1758253863 0 0 0 0 23474985.774414062 45845044.188694 0 45845044.188694 -5782974.7103538513 0 0 0 0 14609253.553314209 63437073.611368179 0 63437073.611368179 26721823.71962738 0 0 0 0 27293.37663269043 12753056.42209053 0 12753056.42209053 -4426879.7511100769 0 0 0 0 5433422.0142272115 11403073.276015595 0 11403073.276015595 -8384343.8996200562 0 0 0 0 6356968.6551208496 15531783.965803146 0 15531783.965803146 -23597982.212467194 0 0 0 0 5439796.4081420898 12167386.159467697 0 12167386.159467697 -16795536.989234924 0 0 0 0 4005097.4091491699 38047758.541725159 0 38047758.541725159 -41611086.871631622 0 0 0 0 5482854.2812600136 23547209.555976391 0 23547209.555976391 -14790031.081485748 0 0 0 0 3784575.2586364746 39417834.961093903 0 39417834.961093903 27312556.647256851 0 0 0 0 -8682.5794677734375 26651224.542959213 0 26651224.542959213 73891973.69336319 0 0 0 0 19945411.402923584 17959406.230051041 0 17959406.230051041 45544821.395439148 0 0 0 0 8799205.6723594666 21891327.630598068 0 21891327.630598068 68875436.430183411 0 0 0 0 4822251.0988693237 33269183.293667316 0 33269183.293667316 88688321.579727173 0 0 0 0 3542214.5596122742 50243087.967698097 0 50243087.967698097 163701418.2834816 0 0 0 0 75392420.877868652 7625459.0088272095 0 7625459.0088272095 -79688783.108270645 0 0 0 0 33018233.178787231 49968524.847232819 0 49968524.847232819 78769577.49516964 0 0 0 0 -100411.99196086824 -515292.40412026271 0 -515292.40412026271 -84192.6614464093 0 0 0 0 -48351856.05418396 -206397.57849311829 0 -206397.57849311829 -10012726.411121368 0 0 0 0 6428578.2433166504 41695485.544120789 0 41695485.544120789 85562001.274284363 0 0 0 0 15910624.315792084 26614966.928200245 0 26614966.928200245 76711503.612854004 0 0 0 0 10857001.829029083 47999469.373892784 0 47999469.373892784 63373814.4947052 0 0 0 0 13308015.207763672 19062614.056346893 0 19062614.056346893 91195600.449203491 0 0 0 0 10205005.401641846 22209943.259277344 0 22209943.259277344 54155208.731704712 0 0 0 0 2036405.4033203125 43508827.142673492 0 43508827.142673492 61476945.977298737 0 0 0 0 -198253.02322438732 -1026682.5944608357 0 -1026682.5944608357 -403623.92438305099 0 0 0 0 -3540703.5680541992 -2066561.5057373047 0 -2066561.5057373047 -17434446.462495804 0 0 0 0 10798113.474258423 -1729050.4999732971 0 -1729050.4999732971 -28411188.927211761 0 0 0 0 2473873.0542259216 35509904.500801086 0 35509904.500801086 96313161.205463409 0 0 0 0 2879276.5096302032 13369984.321956158 0 13369984.321956158 -6341244.531879425 0 0 0 0 589631.54143293202 -243638.21260221954 0 -243638.21260221954 -1108586.3250382682 0 0 0 0 -4600334.6344909668 -10879424.451007843 0 -10879424.451007843 -9196724.8148002625 0 0 0 0 4915110.6840929985 17625176.839756966 0 17625176.839756966 -26485156.997947693 0 0 0 0 -1539289.0802764893 9493054.4753570557 0 9493054.4753570557 -25990850.499397993 0 0 0 0 -8368322.6229705811 10861334.039375305 0 10861334.039375305 -11987764.791069031 0 0 0 0 -8573371.9901199341 10062204.322185516 0 10062204.322185516 -15044223.632408142 0 0 0 0 -5071845.1480712891 6087954.038684845 0 6087954.038684845 -20772421.798458099 0 0 0 0 -2824967.2646789551 3108128.5253143311 0 3108128.5253143311 4973714.6128959656 0 0 0 0 1280694.3770914823 -331962.04468169413 0 -331962.04468169413 -2950220.6525032045 0 0 0 0 -9157088.3089599609 9430229.0499801636 0 9430229.0499801636 -14379631.197019577 0 0 0 0 758100.81452560425 4279970.0171089172 0 4279970.0171089172 259110.03718566895 0 0 0 0 -1477389.2669000961 3668122.3531903159 0 3668122.3531903159 -6215313.7345480816 0 0 0 0 -789280.179602772 4128321.001303114 0 4128321.001303114 1353103.6358853504 0 0 0 0 -1350646.7675704956 3852926.3988437653 0 3852926.3988437653 3895620.6120147705 0 0 0 0 35617.020637512207 11346709.059324741 0 11346709.059324741 9674430.3550415039 0 0 0 0 1846115.7849409655 2255909.6437890003 0 2255909.6437890003 -8419643.7796613704 0 0 0 0 -3309967.221206665 -2488721.1412601471 0 -2488721.1412601471 6122968.2736740112 0 0 0 0 -1260753.0687713623 7463310.4353256226 0 7463310.4353256226 -2465333.0479278564 0 0 0 0 -588171.96466064453 3643760.9133262634 0 3643760.9133262634 -3240701.2128582001 0 0 0 0 -4312333.5955810547 5973930.4037399292 0 5973930.4037399292 4869855.5057826042 0 0 0 0 351688.54824829102 5637041.5212020874 0 5637041.5212020874 -7812545.6256370544 0 0 0 0 2284333.7694854736 26129027.682125092 0 26129027.682125092 41008415.637645721 0 0 0 0 -176323.25208137929 -952268.27376538329 0 -952268.27376538329 -952437.95383998193 0 0 0 0 2146089.3997802734 3654103.04271698 0 3654103.04271698 -11306895.964420319 0 0 0 0 8087563.3332176208 29032645.637804985 0 29032645.637804985 34520084.231025696 0 0 0 0 5711521.5314483643 33628474.829048157 0 33628474.829048157 41469897.906322479 0 0 0 0 1715749.3883757591 49017280.394731522 0 49017280.394731522 32443542.776191711 0 0 0 0 6192606.6392364502 51670353.994922638 0 51670353.994922638 20822951.519256592 0 0 0 0 -15617721.527145386 39156580.63022995 0 39156580.63022995 22900452.200084686 0 0 0 0 12635661.387237549 4273053.2500610352 0 4273053.2500610352 17701090.525976181 0 0 0 0 2776436.3754348755 42634016.598031044 0 42634016.598031044 14871258.232688904 0 0 0 0 -10757124.886657715 26757481.599039078 0 26757481.599039078 5549734.354347229 0 0 0 0 -240309.54994561151 2650607.0029558279 0 2650607.0029558279 986228.39115876891 0 0 0 0 -19757926.724239349 28074194.485527992 0 28074194.485527992 -38199884.389595032 0 0 0 0 -15641062.417053223 -8698671.1833572388 0 -8698671.1833572388 -2088312.8552398682 0 0 0 0 -61154.228745657951 -157764.52472582646 0 -157764.52472582646 174272.61968195159 0 0 0 0 -9234611.0076560974 -568039.89314174652 0 -568039.89314174652 8195220.5928955078 0 0 0 0 875836.08985137939 2394488.5492477417 0 2394488.5492477417 -7617737.9787063599 0 0 0 0 -88613.962208131328 214627.38300971501 0 214627.38300971501 65829.22015593946 0 0 0 0 21907233.722259521 35901903.908643723 0 35901903.908643723 -265921.51996994019 0 0 0 0 -30010490.495174408 43454478.682519913 0 43454478.682519913 4237533.952709198 0 0 0 0 -1885641.434967842 3967975.7598615456 0 3967975.7598615456 -5286873.6946988078 0 0 0 0 -26606515.890655518 8884683.2504081726 0 8884683.2504081726 3999956.2003173828 0 0 0 0 -34579066.376953125 46207456.654647827 0 46207456.654647827 -9379699.6688346863 0 0 0 0 20782483.796859741 -8042943.8075942993 0 -8042943.8075942993 -11290567.179340363 0 0 0 0 -11023085.053009033 36568374.045425415 0 36568374.045425415 16265510.746704102 0 0 0 0 7970575.615447998 7844360.4453277588 0 7844360.4453277588 3929218.4943466187 0 0 0 0 -1788911.3011039644 4023348.1738536973 0 4023348.1738536973 -4551216.1346699009 0 0 0 0 35501785.349273682 17440251.963912964 0 17440251.963912964 -8684102.4140300751 0 0 0 0 -116191070.51026917 208889555.18264294 0 208889555.18264294 -270017697.2420845 0 0 0 0 24345424.217098236 12897052.015275955 0 12897052.015275955 -3103941.7462387085 0 0 0 0 57949069.455284119 -66559296.455841541 0 -66559296.455841541 -132666959.44094276 0 0 0 0 -98602126.666625977 108217564.76330757 0 108217564.76330757 -66550056.405953407 0 0 0 0 -113875680.20007324 -7618090.4436913729 0 -7618090.4436913729 16317643.438632965 0 0 0 0 44900618.869735718 -141682639.69989634 0 -141682639.69989634 153994606.98098564 0 0 0 0 5418311.4900512695 82289890.844617844 0 82289890.844617844 -191483357.7556181 0 0 0 0 -234548.68296748772 -127984.75373852439 0 -127984.75373852439 -426072.70985485427 0 0 0 0 -77181695.433441162 75355086.028424263 0 75355086.028424263 -18097443.676651955 0 0 0 0 -41389147.939315796 61480338.926881313 0 61480338.926881313 32874488.798667908 0 0 0 0 44547637.933197021 47251342.560043335 0 47251342.560043335 23096891.3305583 0 0 0 0 -1383768.459854126 61211545.719526291 0 61211545.719526291 92971481.064151287 0 0 0 0 62955526.346710205 29466442.377750874 0 29466442.377750874 -25513152.012228191 0 0 0 0 -21701467.584470749 -38876122.634108007 0 -38876122.634108007 -6168903.8552083969 0 0 0 0 -62336586.592605591 97307738.324028969 0 97307738.324028969 -34195661.256471634 0 0 0 0 939370.76450946555 -1686316.0110917017 0 -1686316.0110917017 -3154887.4015060239 0 0 0 0 -18864793.043800354 39102517.629033566 0 39102517.629033566 72134592.924454689 0 0 0 0 -12588531.269683838 -17763169.948356032 0 -17763169.948356032 -5819996.1242792606 0 0 0 0 42054612.092803955 18850463.783764124 0 18850463.783764124 70472420.728801072 0 0 0 0 18147272.764343262 7637141.2096138 0 7637141.2096138 -28242037.925897598 0 0 0 0 49580171.722305298 -48146987.690128326 0 -48146987.690128326 -10181658.210428238 0 0 0 0 100765340.53155518 210427337.62948513 0 210427337.62948513 53405020.97318697 0 0 0 0 193943610.83816528 151245093.81273508 0 151245093.81273508 -23881329.612213135 0 0 0 0 158247174.31814575 206119176.91404343 0 206119176.91404343 38558666.917863846 0 0 0 0 39398847.025421143 222338541.996737 0 222338541.996737 300604985.76896548 0 0 0 0 81151120.275560856 41057053.535847917 0 41057053.535847917 97152879.651801109 0 0 0 0 17901274.686599731 81181814.353648663 0 81181814.353648663 251710514.61814779 0 0 0 0 1816809.9313964844 -72794458.489758015 0 -72794458.489758015 -280537951.18075562 0 0 0 0 -590996.36065386981 621671.26375235338 0 621671.26375235338 1112686.1876982648 0 0 0 0 99384971.437225342 27099910.652932644 0 27099910.652932644 -632695480.02234077 0 0 0 0 41343112.541168213 -135773846.75874758 0 -135773846.75874758 39068335.976100802 0 0 0 0 -9650573.8877258301 29643421.857800484 0 29643421.857800484 -137559255.10664988 0 0 0 0 -279251070.33679199 587186016.44699764 0 587186016.44699764 192104648.32970619 0 0 0 0 110339701.92678833 52673673.017193079 0 52673673.017193079 7303166.0113670826 0 0 0 0 150694713.36553383 274015461.74044549 0 274015461.74044549 -219238281.78219509 0 0 0 0 628597624.98779297 -784380558.9532032 0 -784380558.9532032 -87936489.177913666 0 0 0 0 447383.32482043654 28658.698546485044 0 28658.698546485044 -649891.49608863401 0 0 0 0 328791.52993011195 -1239483.3537996635 0 -1239483.3537996635 -375004.11568435631 0 0 0 0 3745225.4867248535 55876.76389837265 0 55876.76389837265 19135614.758155823 0 0 0 0 -86470.677543275058 -1014783.6401306018 0 -1014783.6401306018 -8099153.9816145916 0 0 0 0 173355207.31824493 -1091819.2459583282 0 -1091819.2459583282 -61940210.544659615 0 0 0 0 310034.45436199754 3258959.5047567543 0 3258959.5047567543 -8808724.814219296 0 0 0 0 42562767.53477478 -28961155.233561039 0 -28961155.233561039 -15648672.230472088 0 0 0 0 -20951928.234603882 -19408244.377914429 0 -19408244.377914429 -27481911.177630424 0 0 0 0 5752279.866104126 21245914.297048092 0 21245914.297048092 -140023600.25105906 0 0 0 0 10526589.373535156 -29272890.20104599 0 -29272890.20104599 -48086514.414811611 0 0 0 0 25789514.080032349 -59299356.658190727 0 -59299356.658190727 -38904396.678667068 0 0 0 0 46091096.599624634 -34453510.321904898 0 -34453510.321904898 -16100150.419836998 0 0 0 0 12861536.897392273 -44266062.16952157 0 -44266062.16952157 -10987270.901443481 0 0 0 0 9129689.9454193115 -42121815.017865181 0 -42121815.017865181 10909057.747249603 0 0 0 0 2406425.441192627 -31211194.302800179 0 -31211194.302800179 15465734.23778224 0 0 0 0 3638935.9437103271 -24091698.140268445 0 -24091698.140268445 -1152805.614238739 0 0 0 0 15450664.818880081 -1416675.9983763695 0 -1416675.9983763695 -20994386.858512878 0 0 0 0 -6332048.9545440674 -2186592.7452144623 0 -2186592.7452144623 -11876690.585178375 0 0 0 0 20222404.654083252 -19224800.475687981 0 -19224800.475687981 -4121608.0735456347 0 0 0 0 33815893.573867798 -28649547.710756779 0 -28649547.710756779 -477517.90835762024 0 0 0 0 31555778.663579941 -18482074.532817245 0 -18482074.532817245 617135.65420150757 0 0 0 0 75551.079692624509 179682.77806941781 0 179682.77806941781 -857472.9578459789 0 0 0 0 54941518.094345093 -21915724.675241709 0 -21915724.675241709 -14977042.119426727 0 0 0 0 449289.46168980747 1862208.4902815074 0 1862208.4902815074 -8900972.5599442367 0 0 0 0 56602982.303497314 13771490.407501221 0 13771490.407501221 -11372611.526414871 0 0 0 0 65055247.479949951 24528427.260820389 0 24528427.260820389 -57790092.555805206 0 0 0 0 53522253.193054199 -29323285.121406555 0 -29323285.121406555 -73140140.299198151 0 0 0 0 -53850823.47857666 69242047.662250519 0 69242047.662250519 117420085.63316345 0 0 0 0 -29097197.225006104 -64823605.644515991 0 -64823605.644515991 -9230761.1583480835 0 0 0 0 -5243365.8524627686 -80589244.173749924 0 -80589244.173749924 -117167410.32114792 0 0 0 0 53273123.725227356 52801662.616122246 0 52801662.616122246 87735238.88727951 0 0 0 0 111149350.92987823 48395269.264988899 0 48395269.264988899 -148788980.6966362 0 0 0 0 -663154.45104224235 -148261.77927618939 0 -148261.77927618939 -2983098.6209403239 0 0 0 0 6192984.8335418701 -17572505.973508835 0 -17572505.973508835 32058770.124801636 0 0 0 0 1000280.1846180484 -1203686.7266082717 0 -1203686.7266082717 -4085834.1442346228 0 0 0 0 1010653.1468200684 -714633.71784210205 0 -714633.71784210205 -1569756.6036992073 0 0 0 0 1096196.6899212701 1717146.5146780033 0 1717146.5146780033 -6051075.130856364 0 0 0 0 -126841367.29221344 -130564004.29226017 0 -130564004.29226017 -28418923.915172577 0 0 0 0 -1773690.7189201973 -1390134.7399679329 0 -1390134.7399679329 -2784593.4434855226 0 0 0 0 -44064393.420593262 29144582.326367378 0 29144582.326367378 -40356579.053152561 0 0 0 0 541337.3874556534 58764.787981540896 0 58764.787981540896 -1116488.2061121762 0 0 0 0 -6289226.3399429321 1105037.492436409 0 1105037.492436409 -6235889.5738601685 0 0 0 0 -151449154.61447144 -61219559.364547729 0 -61219559.364547729 22765882.695354462 0 0 0 0 12077.493436389603 -47824.909604422748 0 -47824.909604422748 -176883.75240323693 0 0 0 0 -76519072.748550415 76404715.528812408 0 76404715.528812408 39453551.998630524 0 0 0 0 -154148193.78849792 16309719.490301132 0 16309719.490301132 31479918.166824341 0 0 0 0 -17910693.388023376 17029299.290224075 0 17029299.290224075 -17364110.112102509 0 0 0 0 -49897138.280109406 1643172.1196191311 0 1643172.1196191311 -5647778.9471282959 0 0 0 0 -21340142.661842346 23290127.859735489 0 23290127.859735489 -19204121.517112732 0 0 0 0 147030.48800844327 -444348.49250050634 0 -444348.49250050634 -709138.17796752043 0 0 0 0 -17485744.547328949 23207509.625356674 0 23207509.625356674 -14967582.238452911 0 0 0 0 -23888469.607906342 18702116.001313686 0 18702116.001313686 -14378219.813064575 0 0 0 0 -25085933.690536499 11070159.255508423 0 11070159.255508423 -9516029.0982627869 0 0 0 0 -49000923.648406982 20338998.244628906 0 20338998.244628906 -9053036.5191040039 0 0 0 0 -27009319.629394531 26174688.454677582 0 26174688.454677582 -18291315.716667175 0 0 0 0 -16254372.560974121 -37053258.510116577 0 -37053258.510116577 18017584.947086334 0 0 0 0 24460905.549064636 -5042090.8919849396 0 -5042090.8919849396 -15972439.723526001 0 0 0 0 84053027.292762756 -9266090.487827301 0 -9266090.487827301 -84510782.490148544 0 0 0 0 316593.06453186274 -367854.55420147628 0 -367854.55420147628 -351015.51986209862 0 0 0 0 -23657094.015396118 -8820474.3631248474 0 -8820474.3631248474 9706832.0784912109 0 0 0 0 5971546.9881286621 -39050874.360675812 0 -39050874.360675812 7060479.3925743103 0 0 0 0 -3887723.1261291504 -16998379.847793579 0 -16998379.847793579 25173821.041873932 0 0 0 0 -16503211.936828613 -24904555.616142273 0 -24904555.616142273 20575963.756782532 0 0 0 0 12582137.184631348 -12314448.822071075 0 -12314448.822071075 -9621802.9977073669 0 0 0 0 1190271.8307089247 -1298385.4727008399 0 -1298385.4727008399 -1298644.533824469 0 0 0 0 1605448.2145385742 -2769524.0423374176 0 -2769524.0423374176 3854249.3587169647 0 0 0 0 14415244.370605469 -678976.0486240387 0 -678976.0486240387 -8785238.0933761597 0 0 0 0 731532.64534793422 -563365.94421704765 0 -563365.94421704765 -11472813.05860249 0 0 0 0 -207245.84506225586 -130465.14058303833 0 -130465.14058303833 -4039940.3169631958 0 0 0 0 -100404.15955749527 -2115613.8646712676 0 -2115613.8646712676 -494514.80060024373 0 0 0 0 1554196.3198817354 733208.04794074968 0 733208.04794074968 -2692484.0183736477 0 0 0 0 -1222217.0009155273 -12913992.295444489 0 -12913992.295444489 -5884884.3122558594 0 0 0 0 2428152.8650360107 -93523.849306106567 0 -93523.849306106567 -1308181.2852611542 0 0 0 0 -5364103.5157279968 5157622.4505295753 0 5157622.4505295753 -10768952.991386414 0 0 0 0 -14599822.824314117 11971168.691929817 0 11971168.691929817 -11711152.187538147 0 0 0 0 -13963813.842605591 9988191.9105987549 0 9988191.9105987549 -5534647.3944854736 0 0 0 0 -21207903.677246094 14533920.003044128 0 14533920.003044128 -7326281.2395706177 0 0 0 0 -18641246.513885498 4116058.5114212036 0 4116058.5114212036 343227.15888977051 0 0 0 0 -31414867.479629517 8876123.9972648621 0 8876123.9972648621 1221250.2216186523 0 0 0 0 128996.56613876298 -99101.62629933469 0 -99101.62629933469 -170593.89269579481 0 0 0 0 -5239211.7957000732 13538777.263744354 0 13538777.263744354 -12403559.519957542 0 0 0 0 -8898478.1825714111 15549660.257534027 0 15549660.257534027 -12746680.073265076 0 0 0 0 -4286982.4532623291 14943653.501535416 0 14943653.501535416 -13274086.947806358 0 0 0 0 -5072162.9220275879 12366782.760112762 0 12366782.760112762 -13859006.730865479 0 0 0 0 -3085223.9265327454 14704978.109496117 0 14704978.109496117 -13199317.231994629 0 0 0 0 4725191.9062271118 10548645.793884277 0 10548645.793884277 -18819086.096792221 0 0 0 0 4659063.5322675705 11331643.206713915 0 11331643.206713915 -2344986.5610122681 0 0 0 0 7270453.9528770447 -2283711.6680374146 0 -2283711.6680374146 -9659019.1284370422 0 0 0 0 21457678.117141724 8866965.0125904083 0 8866965.0125904083 -21356002.635255814 0 0 0 0 -5609281.5488967896 23773030.94049263 0 23773030.94049263 -23538558.08669281 0 0 0 0 91440276.697509766 18124072.27879715 0 18124072.27879715 -24847952.449810505 0 0 0 0 10396817.921813965 -9225172.355547905 0 -9225172.355547905 -3847419.1541919708 0 0 0 0 -3093907.6646385193 -4456929.3889222145 0 -4456929.3889222145 -5498176.1177711487 0 0 0 0 -1387138.2799556628 -1508254.5097385058 0 -1508254.5097385058 -2075383.2129489153 0 0 0 0 3138607.9319229126 -761012.50312137604 0 -761012.50312137604 -7070979.9840278625 0 0 0 0 3511913.8549461365 -832105.89025735855 0 -832105.89025735855 -7314175.7492399216 0 0 0 0 5344027.1099853516 -1049286.0294685364 0 -1049286.0294685364 -9879803.6518969536 0 0 0 0 2389144.7238235474 2591271.938331604 0 2591271.938331604 -10655163.312357187 0 0 0 0 1095132.0801010132 2423877.402182579 0 2423877.402182579 -4645742.8827552795 0 0 0 0 -1211.530951009079 6078173.1027718596 0 6078173.1027718596 194797.55985450745 0 0 0 0 -4294.456184387207 6748466.7445449829 0 6748466.7445449829 -9883219.5296764374 0 0 0 0 -1238017.2015552074 -113958.64059812948 0 -113958.64059812948 1232105.781810103 0 0 0 0 5571578.7584686279 41543.335428237915 0 41543.335428237915 -21188103.10219574 0 0 0 0 5859701.4205245972 -974901.03757810593 0 -974901.03757810593 -6402488.5109901428 0 0 0 0 5829092.7453765869 -1763080.9083328247 0 -1763080.9083328247 -9018775.035806179 0 0 0 0 -605578.64240371436 -53922.06464487128 0 -53922.06464487128 599418.58937118296 0 0 0 0 4621283.3739318848 978652.77063369751 0 978652.77063369751 -19978531.288106918 0 0 0 0 -291.00984954833984 8502926.7624559402 0 8502926.7624559402 4425463.9925231934 0 0 0 0 4468441.8023490906 2350033.4216637611 0 2350033.4216637611 -3855151.0818901062 0 0 0 0 -3332588.6867980957 27482581.876551628 0 27482581.876551628 -30713217.442606449 0 0 0 0 -3674807.6126708984 30581228.783306122 0 30581228.783306122 -3241037.9827022552 0 0 0 0 6236551.5700378418 24861929.167545319 0 24861929.167545319 -48694941.923995972 0 0 0 0 6019113.5791778564 21826291.527668953 0 21826291.527668953 -28750844.197249413 0 0 0 0 -19284954.090881348 84373472.797118187 0 84373472.797118187 34542209.545379639 0 0 0 0 -18501529.339355469 -52937679.327625275 0 -52937679.327625275 -176507446.14757156 0 0 0 0 6488735.3739318848 25892179.07187748 0 25892179.07187748 -46155509.975852966 0 0 0 0 -27992292.147613525 14588340.124505997 0 14588340.124505997 -59949175.150040627 0 0 0 0 5002859.2201538086 35570653.426465988 0 35570653.426465988 -75086757.355724335 0 0 0 0 -37651417.50479126 -9657589.9278812408 0 -9657589.9278812408 -81627392.531262398 0 0 0 0 -8644822.2525634766 10887339.872755051 0 10887339.872755051 -96262491.681137085 0 0 0 0 15688478.235229492 59291653.64255476 0 59291653.64255476 -58749448.567905426 0 0 0 0 -2328180.7634887695 36032307.27718544 0 36032307.27718544 -43521503.852957726 0 0 0 0 -1356099.3591461182 47550528.490222931 0 47550528.490222931 -38727271.774838448 0 0 0 0 2063576.8652759306 128056.15178247262 0 128056.15178247262 -2395508.5949156638 0 0 0 0 -139068288.41004944 280149273.58727837 0 280149273.58727837 -395077745.57429457 0 0 0 0 -11423259.574317932 19635473.325697899 0 19635473.325697899 -9084335.9384508133 0 0 0 0 -15929546.146505356 5836706.6192557812 0 5836706.6192557812 51390499.925233841 0 0 0 0 -7671156.6735458374 18555260.464282036 0 18555260.464282036 -16071139.153794289 0 0 0 0 -2596.1224630411343 20250625.866023693 0 20250625.866023693 -17780343.652957916 0 0 0 0 -188946778.88298035 356727456.38484478 0 356727456.38484478 -699624537.92350888 0 0 0 0 -26265.106791813047 16155953.268236922 0 16155953.268236922 -15318339.549283981 0 0 0 0 1855287.033958666 1900.9458927931264 0 1900.9458927931264 -2474926.6104046693 0 0 0 0 -2168306.4222317566 542479618.59027779 0 542479618.59027779 -702310433.13314438 0 0 0 0 -35215855.372047424 244707617.82642937 0 244707617.82642937 -991317322.11157513 0 0 0 0 -795834.17354165763 -1607083.134230664 0 -1607083.134230664 -1787378.8206468197 0 0 0 0 35481013.581054688 26365004.255055428 0 26365004.255055428 -592936761.05613136 0 0 0 0 -88201702.798431396 216439572.90149117 0 216439572.90149117 -407107573.08198857 0 0 0 0 -220002124.56223869 306747738.44857025 0 306747738.44857025 -468736435.29475403 0 0 0 0 -78247749.126308441 144188378.32686824 0 144188378.32686824 -322664580.81122398 0 0 0 0 -56012638.197097778 68688394.192637444 0 68688394.192637444 -237076569.1442945 0 0 0 0 1335064.2423591614 6452594.2504799366 0 6452594.2504799366 -132668535.73081589 0 0 0 0 24375335.104492188 53362497.406871319 0 53362497.406871319 -320662001.2084198 0 0 0 0 -51854745.526702881 166114586.14143562 0 166114586.14143562 -305942542.28795266 0 0 0 0 -14095432.922821045 115717823.8721323 0 115717823.8721323 -278358811.16125488 0 0 0 0 -364009.18450164795 132496497.90654182 0 132496497.90654182 -327465880.70948601 0 0 0 0 -61615296.488677979 167189194.7780838 0 167189194.7780838 -305564543.68326426 0 0 0 0 -78119682.114341736 152397081.336622 0 152397081.336622 -283332976.42177963 0 0 0 0 -27115453.265563965 134674938.62354708 0 134674938.62354708 -281902738.20690536 0 0 0 0 -162965352.68492126 218612567.31953144 0 218612567.31953144 -317600823.0518837 0 0 0 0 -150532749.89028931 95476521.896371841 0 95476521.896371841 20215282.143492222 0 0 0 0 -614803.67757491022 -248398.05961552076 0 -248398.05961552076 435531.98320763931 0 0 0 0 40381736.692962646 -25684364.723442078 0 -25684364.723442078 -198628943.93760586 0 0 0 0 -114040621.45233154 -175184837.51720929 0 -175184837.51720929 -36415716.073028564 0 0 0 0 77465350.258361816 112262669.34714174 0 112262669.34714174 -122061280.99622345 0 0 0 0 57055825.439167023 26816415.128355026 0 26816415.128355026 -196028546.61197281 0 0 0 0 2229092.2817805111 335079.62574728765 0 335079.62574728765 -2210880.9924530187 0 0 0 0 -74238508.588470459 169736622.38127565 0 169736622.38127565 -285570136.67437166 0 0 0 0 -79223088.948131561 158373772.05500579 0 158373772.05500579 -257812702.66260529 0 0 0 0 -30254910.019638062 122180204.77729464 0 122180204.77729464 -273264096.63430786 0 0 0 0 -62151732.619216919 116140664.30062389 0 116140664.30062389 -173539927.80503324 0 0 0 0 -11119593.041763306 119329817.47945213 0 119329817.47945213 -308673290.08622026 0 0 0 0 -29068942.13458252 93244488.309081554 0 93244488.309081554 -210845252.25940609 0 0 0 0 -74462143.613746643 162607821.77301836 0 162607821.77301836 -281107601.57247925 0 0 0 0 -38271677.616645813 132205471.17925692 0 132205471.17925692 -267291303.32386589 0 0 0 0 -115343152.53974915 85710870.033772469 0 85710870.033772469 -277325064.12917709 0 0 0 0 -90227150.152496338 100414272.5377388 0 100414272.5377388 -276074648.66693687 0 0 0 0 -14090733.993209839 112244525.07095742 0 112244525.07095742 -326904247.48208618 0 0 0 0 -41806604.434959412 126949156.94093561 0 126949156.94093561 -269227365.96822929 0 0 0 0 -27674246.839569092 130347954.12616348 0 130347954.12616348 -301185812.25120974 0 0 0 0 -2856010.0771789551 123023538.36981201 0 123023538.36981201 -305995592.25809288 0 0 0 0 -2462146.9038085938 118691441.49100876 0 118691441.49100876 -289735879.96544361 0 0 0 0 -16207569.376815796 119680164.53661156 0 119680164.53661156 -289417542.88645554 0 0 0 0 -24996763.501937866 111826232.97401428 0 111826232.97401428 -231767514.99930191 0 0 0 0 -30328076.902572632 117795291.78841114 0 117795291.78841114 -229591509.27046204 0 0 0 0 -11576450.716766357 129540914.3223114 0 129540914.3223114 -257858752.10378647 0 0 0 0 -28839526.301116943 65680576.168638229 0 65680576.168638229 -120984483.18514633 0 0 0 0 -3378998.8978118896 25866931.720611572 0 25866931.720611572 -83394249.148075104 0 0 0 0 3939113.4042358398 65391359.549957275 0 65391359.549957275 -265275894.73497319 0 0 0 0 -49884849.417907715 78857663.747991562 0 78857663.747991562 -103568729.87944603 0 0 0 0 -25863674.697402954 43822770.674255371 0 43822770.674255371 -86595162.573699951 0 0 0 0 49150575.929367065 244586.56132316589 0 244586.56132316589 -59992626.544075012 0 0 0 0 616874.82925717905 272846.00201500207 0 272846.00201500207 -1785821.8786641806 0 0 0 0 12335417.490989685 -19974515.278767586 0 -19974515.278767586 -47546086.993968964 0 0 0 0 18304135.138580322 -20949225.151391983 0 -20949225.151391983 -28325318.860118866 0 0 0 0 -48971592.386016846 41387507.191013336 0 41387507.191013336 -35580738.090307713 0 0 0 0 -69717385.024108887 123969016.35770226 0 123969016.35770226 -106374071.62844515 0 0 0 0 -144254591.11212158 55844823.137523651 0 55844823.137523651 51074880.313472748 0 0 0 0 -197695633.84744263 173775578.78585243 0 173775578.78585243 -82078585.938915253 0 0 0 0 -67764.685857207514 -204318.95994005539 0 -204318.95994005539 -169566.94401268754 0 0 0 0 55692708.893871307 -87728686.461652756 0 -87728686.461652756 -171298580.57587051 0 0 0 0 -59999097.502166748 102388971.36343575 0 102388971.36343575 -123992067.73600006 0 0 0 0 -118725809.73114014 224547515.34745216 0 224547515.34745216 -221866844.85320282 0 0 0 0 -47375266.893241882 99817625.657055378 0 99817625.657055378 -410947444.32829666 0 0 0 0 -35392247.250747681 138812584.69222736 0 138812584.69222736 -289010933.0267067 0 0 0 0 -99515483.532657623 149723943.0967555 0 149723943.0967555 -244544807.72724342 0 0 0 0 -26544995.704906464 61134611.14345932 0 61134611.14345932 -79988156.915214539 0 0 0 0 27237451.901306152 65737038.729082108 0 65737038.729082108 -303990265.06155586 0 0 0 0 -68104321.800430298 180569.77019882202 0 180569.77019882202 -5713983.0962200165 0 0 0 0 868773.34313483536 -2127970.1965584178 0 -2127970.1965584178 -4421365.4111937303 0 0 0 0 -629249.11825434864 -1016173.0308164358 0 -1016173.0308164358 -826716.39099877398 0 0 0 0 355607.17372322083 -28036.973698675632 0 -28036.973698675632 -767533.17562484741 0 0 0 0 8630461.601272583 164039.29009342194 0 164039.29009342194 -12639103.496885896 0 0 0 0 2730495.7297286987 -12079352.394794464 0 -12079352.394794464 -1352596.6522436142 0 0 0 0 364963.31501155347 -3675979.1038199258 0 -3675979.1038199258 -2788894.2163798902 0 0 0 0 -1148872.1764221191 -5752299.3390331268 0 -5752299.3390331268 -3370615.0297559202 0 0 0 0 -82304.831142880023 -51332.733850675635 0 -51332.733850675635 425449.29018682893 0 0 0 0 -21159015.068065643 2208366.7571411133 0 2208366.7571411133 -60564004.215246201 0 0 0 0 10642650.915298462 62334966.041138172 0 62334966.041138172 -170980914.31303024 0 0 0 0 -67119154.40234375 147240407.05295944 0 147240407.05295944 -208596484.33531857 0 0 0 0 -43198920.083175659 81281990.187934518 0 81281990.187934518 -153901970.69810677 0 0 0 0 -50648701.11517334 83118786.42019558 0 83118786.42019558 -145831335.1718483 0 0 0 0 -85430513.242660522 159411829.40001011 0 159411829.40001011 -233175018.53770542 0 0 0 0 -34202977.844818115 129353468.04141521 0 129353468.04141521 -251454774.56642914 0 0 0 0 -130527282.09130859 268957847.28022099 0 268957847.28022099 -306427026.19354653 0 0 0 0 -48526865.412002563 132119454.15230465 0 132119454.15230465 -258282820.22348595 0 0 0 0 -93590109.555648804 159799368.85229683 0 159799368.85229683 -178280821.39905834 0 0 0 0 -60839478.805374146 176171568.16191006 0 176171568.16191006 -190369846.3296423 0 0 0 0 -99167935.005783081 255777561.57513714 0 255777561.57513714 -14053746.954679489 0 0 0 0 -52343806.173538208 265773332.74176025 0 265773332.74176025 -194725614.11924624 0 0 0 0 -64922773.231437683 198488567.07651782 0 198488567.07651782 482717093.13315201 0 0 0 0 9011033.4190673828 114946552.42823505 0 114946552.42823505 -646171984.79277134 0 0 0 0 -209154.8229136765 -169172.65490115341 0 -169172.65490115341 1027.6437834107783 0 0 0 0 64730862.157943726 66107818.086602688 0 66107818.086602688 186948694.59118938 0 0 0 0 -66758195.140205383 292702901.8164711 0 292702901.8164711 174017563.62699795 0 0 0 0 59148806.857544422 73366287.922624618 0 73366287.922624618 30419460.072268486 0 0 0 0 58406185.574893475 105651810.93644577 0 105651810.93644577 151607612.08216763 0 0 0 0 -13309706.802391052 112894099.3438133 0 112894099.3438133 19826448.785920858 0 0 0 0 -7418152.8249416351 133457288.94356212 0 133457288.94356212 -89303242.234022617 0 0 0 0 23903509.82270813 140561396.27433124 0 140561396.27433124 -34994005.964055419 0 0 0 0 -27351685.015411377 -26848253.995592743 0 -26848253.995592743 60856605.76126641 0 0 0 0 99890987.892217636 71329856.047858477 0 71329856.047858477 -31800971.137536049 0 0 0 0 102578378.30622864 76758372.039657384 0 76758372.039657384 -51296281.903047919 0 0 0 0 86207417.022911072 -25096829.562512755 0 -25096829.562512755 -194172421.48192233 0 0 0 0 19707754.333049774 139182060.78363124 0 139182060.78363124 227940210.34395385 0 0 0 0 241389.87670570612 -364981.17810334032 0 -364981.17810334032 -71614.634939296782 0 0 0 0 446678.31751675904 -628406.13317027339 0 -628406.13317027339 -127826.68154952885 0 0 0 0 -34744291.735340118 105068761.85578573 0 105068761.85578573 49419818.324823141 0 0 0 0 52038624.69152832 89541341.191926479 0 89541341.191926479 -79104518.077658892 0 0 0 0 49263923.140182495 69159597.0601511 0 69159597.0601511 54049949.909229159 0 0 0 0 -12864425.696208954 71446830.521289706 0 71446830.521289706 165362104.81354189 0 0 0 0 1925001.1466674805 9043064.7285785675 0 9043064.7285785675 344543540.30847359 0 0 0 0 107287586.90849304 40275199.396110535 0 40275199.396110535 -23222670.826210499 0 0 0 0 85015588.935211182 143703929.69664335 0 143703929.69664335 144654595.53272867 0 0 0 0 41262549.051231384 14501650.246557236 0 14501650.246557236 174733869.1687355 0 0 0 0 -430178.5855483897 -312180.25673954561 0 -312180.25673954561 -108687.39380055259 0 0 0 0 103862424.37667847 155119203.09113216 0 155119203.09113216 229120192.69940376 0 0 0 0 -28409302.425735474 84352993.878089905 0 84352993.878089905 -208528346.61775684 0 0 0 0 84453.081820562482 27660.95686213579 0 27660.95686213579 -100325.67858861829 0 0 0 0 61586023.140899658 140255477.88400888 0 140255477.88400888 268203469.66004848 0 0 0 0 14349430.96330452 66880873.767100811 0 66880873.767100811 -246901956.52334595 0 0 0 0 -1888103.0326617546 -51914.377169682644 0 -51914.377169682644 892129.93690997327 0 0 0 0 2123794.2092329748 775354.35992423445 0 775354.35992423445 -1599433.4676495679 0 0 0 0 -32671012.685638428 51820248.636136055 0 51820248.636136055 -173475535.36884791 0 0 0 0 -14208151.63180542 78806419.751965523 0 78806419.751965523 -228679075.84691477 0 0 0 0 37182996.751213074 21446134.68161273 0 21446134.68161273 9248039.8514831066 0 0 0 0 16784579.750518799 46853605.702084303 0 46853605.702084303 27130992.254913092 0 0 0 0 -83606515.145248413 -6411032.163002491 0 -6411032.163002491 60544363.483592987 0 0 0 0 -65319460.020526886 -55244911.982748151 0 -55244911.982748151 39349104.977689743 0 0 0 0 -39131235.382019043 -30300745.376907349 0 -30300745.376907349 42847300.955242157 0 0 0 0 -772187.60099651664 -260825.87888744194 0 -260825.87888744194 409207.14740658487 0 0 0 0 -43925091.70715332 3861424.8650202751 0 3861424.8650202751 63194869.762683749 0 0 0 0 33892188.002094269 87927171.368010998 0 87927171.368010998 -66974382.54056716 0 0 0 0 -26495962.91595459 78247121.770319104 0 78247121.770319104 168485852.60749388 0 0 0 0 22256763.901542664 62718051.155220389 0 62718051.155220389 60888917.590960741 0 0 0 0 -7835558.2923660278 52700844.64686358 0 52700844.64686358 59338876.603130341 0 0 0 0 10729999.073410034 105285123.61355093 0 105285123.61355093 -21330680.726698801 0 0 0 0 143038815.64389038 66717024.916421115 0 66717024.916421115 -208622790.69643635 0 0 0 0 93830332.111030579 5963374.5837410837 0 5963374.5837410837 -167589605.56180993 0 0 0 0 -25488950.070510864 4639616.3657181114 0 4639616.3657181114 -10983773.796189293 0 0 0 0 223829.51082073897 -367374.64829675551 0 -367374.64829675551 -72097.596467815951 0 0 0 0 -30978419.622524261 49457140.885055423 0 49457140.885055423 156395665.37335658 0 0 0 0 -20609114.226455688 144000315.61780453 0 144000315.61780453 253499863.00571251 0 0 0 0 174409230.85243225 -53032610.09286046 0 -53032610.09286046 149984392.1260035 0 0 0 0 -395887.85295029357 1699692.9913150389 0 1699692.9913150389 -29589.020620873664 0 0 0 0 184868249.12835693 28801994.212342501 0 28801994.212342501 102180029.57981062 0 0 0 0 126857828.07228088 108276594.21414995 0 108276594.21414995 -88865714.422124863 0 0 0 0 140625135.20841217 63309469.407536775 0 63309469.407536775 -120020193.21804398 0 0 0 0 104855637.45602417 54929622.178085849 0 54929622.178085849 -33358763.538977731 0 0 0 0 137045363.34026337 78028421.061604351 0 78028421.061604351 -41912982.94006896 0 0 0 0 -364168.71506733634 1351002.471296398 0 1351002.471296398 88279.909383595281 0 0 0 0 -6588.7843551635742 2276380.8538410664 0 2276380.8538410664 1286245.7093119621 0 0 0 0 448.04754638671875 3173400.3340318203 0 3173400.3340318203 806643.28461742401 0 0 0 0 2482105.5053977966 3179713.2642525434 0 3179713.2642525434 78185.285824775696 0 0 0 0 1857796.0125274658 2338261.5427145958 0 2338261.5427145958 1095852.4649586678 0 0 0 0 1180518.1957168579 4111283.2138912678 0 4111283.2138912678 -223858.49154949188 0 0 0 0 -45299740.690093994 253948463.76792884 0 253948463.76792884 67335743.092488766 0 0 0 0 -395965769.68658447 -206173628.91026044 0 -206173628.91026044 390150318.23670578 0 0 0 0 -12388693.72064209 5610881.2208347321 0 5610881.2208347321 28169000.200351715 0 0 0 0 34195402.158111572 125275315.52087784 0 125275315.52087784 -90662579.695827484 0 0 0 0 -239703685.40783691 449662071.83017159 0 449662071.83017159 -388625890.94166756 0 0 0 0 -4457396.1809997559 -36717024.691191673 0 -36717024.691191673 42129889.554162979 0 0 0 0 63885021.457351685 79227976.886796951 0 79227976.886796951 -61953601.109737396 0 0 0 0 -287331.81521748379 1693505.7153255343 0 1693505.7153255343 47292.203821088187 0 0 0 0 -6680627.5503234863 -14157357.843200684 0 -14157357.843200684 36661266.718790054 0 0 0 0 45405861.020507812 -20245070.915120125 0 -20245070.915120125 23308323.728908539 0 0 0 0 -36326795.772872925 19700725.515611172 0 19700725.515611172 4777596.3710632324 0 0 0 0 -37245.774389490485 53835.690440101549 0 53835.690440101549 17857.506320062093 0 0 0 0 2303180.0671691895 -6316525.6681604385 0 -6316525.6681604385 -30863886.623825073 0 0 0 0 42272223.715759277 -14123532.650901794 0 -14123532.650901794 -111610084.46918488 0 0 0 0 26263.13533782959 19468178.406261921 0 19468178.406261921 -29389780.193353176 0 0 0 0 -837833.0651662983 -984144.66789675318 0 -984144.66789675318 -310657.9381337394 0 0 0 0 2899063.6393184662 454469.6525054574 0 454469.6525054574 -5412552.4231643677 0 0 0 0 -1913508.7042694092 16188044.802534103 0 16188044.802534103 -15995713.408589363 0 0 0 0 155245104.80758667 -139818986.69236982 0 -139818986.69236982 -134349942.31826687 0 0 0 0 -22418642.762176514 -27855477.013842106 0 -27855477.013842106 -175021791.72071755 0 0 0 0 206502662.07044983 -111053747.8624332 0 -111053747.8624332 -186506815.58004284 0 0 0 0 216677295.97503662 -216235621.69183445 0 -216235621.69183445 -111215888.40294075 0 0 0 0 215661802.01089478 -133258698.30786419 0 -133258698.30786419 -148853621.72104812 0 0 0 0 298473307.96179199 -218474917.72417998 0 -218474917.72417998 -98142058.049488962 0 0 0 0 265874920.76177979 -32666435.542329073 0 -32666435.542329073 -103809441.48382032 0 0 0 0 235410531.66209412 38277634.97029829 0 38277634.97029829 -206519257.68735886 0 0 0 0 167371323.34194946 -84023499.545483589 0 -84023499.545483589 -128178528.81045532 0 0 0 0 111847511.64846802 147728379.70170164 0 147728379.70170164 -137452516.12055564 0 0 0 0 136013636.70516205 171959622.15090132 0 171959622.15090132 -151550066.99202013 0 0 0 0 218521014.96072388 75250888.252399445 0 75250888.252399445 -96663724.670348883 0 0 0 0 123054663.2808075 193067413.35127437 0 193067413.35127437 -43865521.746914387 0 0 0 0 152250412.47747803 155105845.3869884 0 155105845.3869884 -261662018.48472881 0 0 0 0 36527763.533676147 192904214.04174638 0 192904214.04174638 -151798067.43590307 0 0 0 0 31644162.269332886 208950131.35849619 0 208950131.35849619 -255931537.07941592 0 0 0 0 -37200321.17767334 286572617.01272678 0 286572617.01272678 -337590709.32441235 0 0 0 0 48738994.90965271 -37520881.939719677 0 -37520881.939719677 -139313013.01593614 0 0 0 0 92455799.791610718 100910651.45544767 0 100910651.45544767 -231390865.85418582 0 0 0 0 16273975.000976562 85690557.311205387 0 85690557.311205387 -221655889.97156525 0 0 0 0 24674671.96346283 -21990410.720865011 0 -21990410.720865011 -306199988.59929657 0 0 0 0 -130990983.59204102 186937319.88681197 0 186937319.88681197 -282558389.83111763 0 0 0 0 -129794970.25897217 199358383.96832418 0 199358383.96832418 -630671629.17234993 0 0 0 0 -218954731.20360565 139652314.36887693 0 139652314.36887693 -301174301.90925884 0 0 0 0 13098632.359821796 328569081.30659783 0 328569081.30659783 -310479973.60349846 0 0 0 0 -260243277.69847107 82080722.400922298 0 82080722.400922298 -364948131.42428017 0 0 0 0 -305062567.82159424 365919370.51777363 0 365919370.51777363 -277779829.75773573 0 0 0 0 -97242908.036514282 474727758.14394665 0 474727758.14394665 -337407529.65799713 0 0 0 0 46057038.163917542 -53913273.796314716 0 -53913273.796314716 -112457888.42829227 0 0 0 0 -21000871.299606323 155854471.63233042 0 155854471.63233042 -471783147.23110199 0 0 0 0 710067.02227393538 266519.68767122366 0 266519.68767122366 -1027489.6051235979 0 0 0 0 -655377320.53192139 531989911.44816589 0 531989911.44816589 -331405897.74680519 0 0 0 0 -438922257.5279541 479850205.34407043 0 479850205.34407043 -547833994.40603423 0 0 0 0 -216704823.54649353 233881194.21138144 0 233881194.21138144 -369546781.3757019 0 0 0 0 -618435533.46168137 322684729.01031655 0 322684729.01031655 -200222573.66641235 0 0 0 0 -96128691.786102295 124465810.61464119 0 124465810.61464119 -254352966.54948449 0 0 0 0 -110084547.20363235 113035013.19905329 0 113035013.19905329 -122514850.60963631 0 0 0 0 57894969.036560059 33045493.051534176 0 33045493.051534176 -236130854.95837688 0 0 0 0 -240519179.09475708 223552496.31557178 0 223552496.31557178 -287998491.32843018 0 0 0 0 -46918895.122833252 42165765.010526657 0 42165765.010526657 -337126409.0522542 0 0 0 0 126154006.64910126 -69422590.289837122 0 -69422590.289837122 -246025161.52695751 0 0 0 0 -70831533.836898804 36631451.885240078 0 36631451.885240078 -163859021.62761021 0 0 0 0 103879756.77098083 -130797269.85196543 0 -130797269.85196543 -82373956.802196503 0 0 0 0 189029979.32679749 -69528811.896603584 0 -69528811.896603584 -161308540.00424242 0 0 0 0 41071620.947387695 -12092890.163351536 0 -12092890.163351536 -37443688.154715538 0 0 0 0 142508923.60070801 31037410.713545799 0 31037410.713545799 -135200333.21041489 0 0 0 0 130142245.62677765 -6558662.053699553 0 -6558662.053699553 100731719.12397289 0 0 0 0 317398793.71452332 -113755578.28773689 0 -113755578.28773689 -52671017.423974037 0 0 0 0 347410559.5247345 -52914280.493583202 0 -52914280.493583202 2538315.7707281113 0 0 0 0 486365906.94204712 -178850057.98288155 0 -178850057.98288155 89476371.106484413 0 0 0 0 613885424.42684937 -125709193.03835964 0 -125709193.03835964 37380356.987402916 0 0 0 0 273182139.5799408 -4344518.7615470886 0 -4344518.7615470886 193240146.4806385 0 0 0 0 969073063.17080688 -132093111.12004805 0 -132093111.12004805 -7278820.9344844818 0 0 0 0 905814592.18762207 -122758233.69067764 0 -122758233.69067764 32088778.334518433 0 0 0 0 662558395.7507782 15360259.856204271 0 15360259.856204271 116554093.19156647 0 0 0 0 -66618.981114858063 -1047702.2437544242 0 -1047702.2437544242 183442.76817418355 0 0 0 0 -27846229.956096649 56461010.209942698 0 56461010.209942698 117510822.42407703 0 0 0 0 12870.585440848023 -57101.592972688552 0 -57101.592972688552 -77095.755276889773 0 0 0 0 476642077.72900391 -56225097.175310135 0 -56225097.175310135 137681983.27669764 0 0 0 0 858337485.17153931 112945784.13090038 0 112945784.13090038 -32001843.650629163 0 0 0 0 1793014.3565544751 578605.14183177054 0 578605.14183177054 -5938816.618703315 0 0 0 0 518172474.38175964 -43990835.00880456 0 -43990835.00880456 -55303458.041110516 0 0 0 0 487630885.72694397 -14718873.271255612 0 -14718873.271255612 -57524157.050154209 0 0 0 0 20278701.74067688 -5335772.1446595192 0 -5335772.1446595192 -16031791.131199837 0 0 0 0 220597418.3743372 -169364886.23730609 0 -169364886.23730609 -38590940.250296593 0 0 0 0 188747777.40116215 -112931068.22647871 0 -112931068.22647871 -6657406.0723934174 0 0 0 0 320765870.5087738 -100593161.49670744 0 -100593161.49670744 -89930190.408276081 0 0 0 0 357410860.35830688 -159164230.21049595 0 -159164230.21049595 -20801691.963939667 0 0 0 0 -19042519.35093689 3198444.1676020622 0 3198444.1676020622 24490984.621956229 0 0 0 0 49469300.107330322 -15631162.222673416 0 -15631162.222673416 4156141.1320098639 0 0 0 0 994171.34696519747 -3302571.5616487414 0 -3302571.5616487414 -2256311.8962788065 0 0 0 0 -157831.59536743164 -4300566.7651166916 0 -4300566.7651166916 4007247.1232221127 0 0 0 0 -18414013.978765726 -25337380.648415491 0 -25337380.648415491 70502978.755493164 0 0 0 0 -2213550.9113616943 533283.28966522217 0 533283.28966522217 5660999.8364696503 0 0 0 0 870534.0641784668 -10800398.117707253 0 -10800398.117707253 -9286753.0204381943 0 0 0 0 -43627145.778610229 93840196.301450253 0 93840196.301450253 -122280563.99275017 0 0 0 0 -8248698.7332687378 30007570.655091286 0 30007570.655091286 -47871186.972987175 0 0 0 0 -20758799.006546021 26389886.481511116 0 26389886.481511116 -35482203.977632523 0 0 0 0 233196.28883361816 36821464.651106358 0 36821464.651106358 -55171921.015160084 0 0 0 0 -10519191.94966507 -5299996.4861578941 0 -5299996.4861578941 4593632.9637813568 0 0 0 0 -62406855.396148682 35583656.979537249 0 35583656.979537249 -3018380.8683428764 0 0 0 0 -96013675.686210632 130452234.64546728 0 130452234.64546728 -107621343.47257638 0 0 0 0 -56286464.18163681 157287269.97514331 0 157287269.97514331 -112181381.14145374 0 0 0 0 265358656.03501892 -184520872.61650467 0 -184520872.61650467 -92767975.355717897 0 0 0 0 236140689.00259113 -117875657.2373703 0 -117875657.2373703 -51845311.506086826 0 0 0 0 1098191.9013809098 556774.73980253749 0 556774.73980253749 -4259778.7728993483 0 0 0 0 266037809.70376587 -79469657.15551877 0 -79469657.15551877 -5410478.0508314371 0 0 0 0 145500468.43925476 -101606034.67368472 0 -101606034.67368472 -40182572.738983452 0 0 0 0 135062544.94174194 -220367873.49522001 0 -220367873.49522001 -51870674.727156311 0 0 0 0 218360562.87500763 -201205779.22474396 0 -201205779.22474396 -50338723.929405689 0 0 0 0 547508.21355899121 439770.38266512565 0 439770.38266512565 -2488655.3524431125 0 0 0 0 -106209085.56813049 -167900529.49229574 0 -167900529.49229574 35849568.911719978 0 0 0 0 -131212848.35609055 -57656899.900895305 0 -57656899.900895305 -63158063.963580608 0 0 0 0 -519778204.24197388 -157025876.85966086 0 -157025876.85966086 79798153.863504529 0 0 0 0 140093.07849599328 199403.05542970635 0 199403.05542970635 -796990.1324250804 0 0 0 0 21866118.02204895 -285969387.22436398 0 -285969387.22436398 52676368.742190421 0 0 0 0 113734271.39492035 -164584081.61079347 0 -164584081.61079347 42224656.591329634 0 0 0 0 -117938208.71207428 211824854.71372175 0 211824854.71372175 -98133303.679407775 0 0 0 0 -152566284.48062992 103198906.97441006 0 103198906.97441006 -51574407.161448479 0 0 0 0 -635076178.76811981 224736869.10769534 0 224736869.10769534 -15731916.823038101 0 0 0 0 -295027094.83546448 83276489.649688482 0 83276489.649688482 -13789557.516221762 0 0 0 0 -204889813.11960983 277805490.45426404 0 277805490.45426404 -79696317.020287037 0 0 0 0 -90584961.971199036 136454410.5704506 0 136454410.5704506 -7865013.9114861488 0 0 0 0 -90277529.903457642 124144135.67557842 0 124144135.67557842 -175880423.85239384 0 0 0 0 -269329671.91574097 297145558.78854591 0 297145558.78854591 -308341992.95843577 0 0 0 0 -191471384.4318924 -80362268.841887742 0 -80362268.841887742 -162170456.36584771 0 0 0 0 -556470026.59005737 146599405.4049111 0 146599405.4049111 305934751.99443889 0 0 0 0 -159240174.13595581 44910779.63658458 0 44910779.63658458 206609559.25451899 0 0 0 0 30291034.373313904 -109412155.26530695 0 -109412155.26530695 309262709.0373559 0 0 0 0 -24792206.939651489 24412512.700101495 0 24412512.700101495 -10012286.133340567 0 0 0 0 137036907.78968048 158454530.84192669 0 158454530.84192669 55275006.154176056 0 0 0 0 -156591437.5319519 -189183507.74280557 0 -189183507.74280557 -255554774.52397954 0 0 0 0 -197704718.81003952 488573525.43086636 0 488573525.43086636 -143783788.06488883 0 0 0 0 -174782248.49642563 343231316.66840363 0 343231316.66840363 519118192.34303093 0 0 0 0 -58113359.506166458 388282985.92607635 0 388282985.92607635 754288263.5996604 0 0 0 0 263541254.46982574 288345297.04793084 0 288345297.04793084 448851072.77148485 0 0 0 0 364395075.50137329 28237753.86386621 0 28237753.86386621 1117150755.530829 0 0 0 0 477856128.43125153 599485115.3212167 0 599485115.3212167 691586083.97178125 0 0 0 0 682210396.64807892 171031459.79702878 0 171031459.79702878 815928416.69084668 0 0 0 0 526250456.15002441 -26259978.483623773 0 -26259978.483623773 307151310.76197875 0 0 0 0 624779752.03717804 -285402294.74386013 0 -285402294.74386013 935972145.43510318 0 0 0 0 179554750.85884094 -26438860.974446535 0 -26438860.974446535 757270295.8168757 0 0 0 0 315081961.5207901 -273007672.12206876 0 -273007672.12206876 53522670.584314734 0 0 0 0 328140338.60738373 -133773348.61902487 0 -133773348.61902487 148400589.54195154 0 0 0 0 523381022.39596558 -314922493.93179512 0 -314922493.93179512 315304007.39729124 0 0 0 0 652749494.02199936 -13661235.770134851 0 -13661235.770134851 151972627.92658782 0 0 0 0 572667868.0670166 -137231396.42414129 0 -137231396.42414129 54073839.173022568 0 0 0 0 427149373.84334838 -43254377.600506872 0 -43254377.600506872 -4307512.6039056778 0 0 0 0 431086703.81015325 -280504084.11978197 0 -280504084.11978197 18425791.985794127 0 0 0 0 255001975.43119812 -183510915.84163117 0 -183510915.84163117 -30042764.175143152 0 0 0 0 250073059.66703033 -282506462.6721741 0 -282506462.6721741 -31483187.144357502 0 0 0 0 238193178.65881348 252592784.70394897 0 252592784.70394897 160193301.32229173 0 0 0 0 356547984.24234009 146967488.79397321 0 146967488.79397321 41787631.030651286 0 0 0 0 231384379.37055969 223135847.11032814 0 223135847.11032814 78199102.736169577 0 0 0 0 113050016.75543213 224425402.55248111 0 224425402.55248111 78992383.003843069 0 0 0 0 221278840.87850952 159070340.03613603 0 159070340.03613603 41276229.578846931 0 0 0 0 237744772.27449036 154839038.41770577 0 154839038.41770577 -37244989.809200287 0 0 0 0 338113737.07435608 121380006.48902488 0 121380006.48902488 -78971490.032761455 0 0 0 0 431429690.65827942 -96765976.053304553 0 -96765976.053304553 -80173813.016425312 0 0 0 0 271492822.78289795 51183083.481871605 0 51183083.481871605 3336406.8749978542 0 0 0 0 344583862.94998169 168047762.84119928 0 168047762.84119928 153620657.58201987 0 0 0 0 513387979.1083374 34126720.850347459 0 34126720.850347459 3609127.3907886716 0 0 0 0 530917229.23553467 148925810.13575926 0 148925810.13575926 153822836.35616541 0 0 0 0 527882330.30444336 79076391.411703289 0 79076391.411703289 91098403.396454692 0 0 0 0 738399523.34861755 -26445826.61885941 0 -26445826.61885941 128979843.30974412 0 0 0 0 624609733.88383484 -69087565.516200662 0 -69087565.516200662 335919271.26497889 0 0 0 0 621123550.43019867 273049754.06425321 0 273049754.06425321 317855601.98120666 0 0 0 0 457050846.73025513 369594648.37025577 0 369594648.37025577 331865633.78447163 0 0 0 0 256188060.81089783 366516268.77919459 0 366516268.77919459 490911814.0829978 0 0 0 0 337572939.30889893 221324655.11395347 0 221324655.11395347 166492875.58488259 0 0 0 0 173027705.09792709 270421259.35073483 0 270421259.35073483 262297164.36500788 0 0 0 0 176971136.07289124 296067272.57692969 0 296067272.57692969 428960092.48402452 0 0 0 0 524127868.60832214 610429988.02624786 0 610429988.02624786 896739862.45432854 0 0 0 0 375451393.61058044 318063266.5779748 0 318063266.5779748 480987387.15827441 0 0 0 0 66296291.285095215 276367463.55989552 0 276367463.55989552 882087178.52762604 0 0 0 0 1132611123.8993225 -43193781.949187517 0 -43193781.949187517 334330555.74989539 0 0 0 0 1036455813.2876282 231595832.63818026 0 231595832.63818026 316464758.24714684 0 0 0 0 1969825442.0783081 -101503373.2657299 0 -101503373.2657299 566386592.35916686 0 0 0 0 893592469.68869019 116986773.34924519 0 116986773.34924519 537936640.59689665 0 0 0 0 -9579785.3635940552 -138811961.08443213 0 -138811961.08443213 898248420.61694527 0 0 0 0 807521015.74921417 -249762050.12532997 0 -249762050.12532997 2091572991.3875318 0 0 0 0 759870510.78871155 908495620.63079119 0 908495620.63079119 1745470557.4979677 0 0 0 0 1577712523.5455322 833868488.01721859 0 833868488.01721859 1089820134.144176 0 0 0 0 22905620.600891113 152378351.30010509 0 152378351.30010509 906704591.16798592 0 0 0 0 213838358.8054657 186300736.21552992 0 186300736.21552992 1018457240.6672255 0 0 0 0 226290766.00473022 165612706.45622444 0 165612706.45622444 708113889.11884689 0 0 0 0 -15908399.671905518 -185014563.25567245 0 -185014563.25567245 894000075.69182777 0 0 0 0 1862632.3220825195 -83277387.763088226 0 -83277387.763088226 551020467.17198896 0 0 0 0 -96360945.408569336 22052100.919776917 0 22052100.919776917 662097016.60814953 0 0 0 0 -22316347.853134155 -133704998.24409699 0 -133704998.24409699 534265033.9895401 0 0 0 0 -5919698.6803779602 27161513.309884191 0 27161513.309884191 616911314.0754652 0 0 0 0 -138448375.11375427 132781570.41739655 0 132781570.41739655 523504365.64507031 0 0 0 0 -88799524.72076416 22457283.287002087 0 22457283.287002087 467286632.28673935 0 0 0 0 -141367278.0799942 63888194.993005514 0 63888194.993005514 388681182.9177103 0 0 0 0 -145836128.75416565 57376963.857589722 0 57376963.857589722 379246682.41520786 0 0 0 0 -190726582.16605377 144439308.22651982 0 144439308.22651982 393217250.07515526 0 0 0 0 -137701379.66274261 5343151.3906712532 0 5343151.3906712532 506715649.3989563 0 0 0 0 -164480335.07859802 97652799.036869526 0 97652799.036869526 476296183.45411396 0 0 0 0 -194704874.01319885 191940234.18250394 0 191940234.18250394 455073498.39321327 0 0 0 0 -162037435.22563171 207635002.07979631 0 207635002.07979631 458062788.55276203 0 0 0 0 -102166016.65420532 175389987.92127442 0 175389987.92127442 423981190.9977622 0 0 0 0 -71579051.939376831 242792608.77374601 0 242792608.77374601 572309454.54879582 0 0 0 0 -16324005.809570312 181641263.53270078 0 181641263.53270078 525994312.38020325 0 0 0 0 68076308.829644203 242790218.13327044 0 242790218.13327044 554328242.29776192 0 0 0 0 -74977600.641860962 173563547.51991177 0 173563547.51991177 752320584.94942617 0 0 0 0 -97132371.324424744 102383877.34395957 0 102383877.34395957 524144807.98177719 0 0 0 0 -17415175.080455303 188137508.59135094 0 188137508.59135094 282830744.75842476 0 0 0 0 -133052155.86180115 218761672.04874516 0 218761672.04874516 281599960.38315511 0 0 0 0 -215448781.23109436 141076399.4154048 0 141076399.4154048 409016678.48321152 0 0 0 0 -227177231.22964287 217823371.70365077 0 217823371.70365077 370475717.70856667 0 0 0 0 -189652352.45797729 205929769.63265169 0 205929769.63265169 340032505.56549191 0 0 0 0 -180716740.13694 262282320.26381087 0 262282320.26381087 406885405.76543617 0 0 0 0 -72359135.289352417 269076115.51816416 0 269076115.51816416 321064087.76337433 0 0 0 0 -73713608.047401428 304499026.14587116 0 304499026.14587116 223654564.29669952 0 0 0 0 -240783813.5093689 409458952.73516798 0 409458952.73516798 465982833.68036127 0 0 0 0 -347939150.93254089 172142890.74512482 0 172142890.74512482 379083660.99353075 0 0 0 0 -227333163.13919067 271008163.00133121 0 271008163.00133121 184152512.29460591 0 0 0 0 -207704628.26333618 185021011.89533764 0 185021011.89533764 175790461.79890764 0 0 0 0 -234431311.91899109 190445777.89457333 0 190445777.89457333 336134384.20332003 0 0 0 0 -185242157.40596771 237205318.23549342 0 237205318.23549342 101673016.01543438 0 0 0 0 -192585082.35498047 319935471.83128786 0 319935471.83128786 64566465.223554611 0 0 0 0 -174528957.21786499 275314812.97183895 0 275314812.97183895 -10730334.565574408 0 0 0 0 -192858199.30151367 300099146.00443673 0 300099146.00443673 36997293.739742011 0 0 0 0 -245633653.66305506 205997037.18495616 0 205997037.18495616 -14275105.124369085 0 0 0 0 -245441676.81822205 200603818.86477458 0 200603818.86477458 48973193.812149286 0 0 0 0 -54811495.038238525 279504394.61924934 0 279504394.61924934 301016144.84213585 0 0 0 0 -44090601.516723633 284596828.42751521 0 284596828.42751521 196802933.44841087 0 0 0 0 29440267.414207458 328982265.20821404 0 328982265.20821404 489116186.35456848 0 0 0 0 -9915365.4880981445 238164136.9341588 0 238164136.9341588 280086386.70156133 0 0 0 0 -112136548.58564758 265731284.71753991 0 265731284.71753991 481181287.52358484 0 0 0 0 -123747178.82795715 210175648.81795484 0 210175648.81795484 306887324.55656004 0 0 0 0 -136850193.4727478 244588124.67583764 0 244588124.67583764 225494965.25964266 0 0 0 0 -172220454.99798584 251116359.14249498 0 251116359.14249498 339368849.32418597 0 0 0 0 -125566850.61701775 237124611.3064591 0 237124611.3064591 169624721.89998364 0 0 0 0 -121306006.03718567 304319229.05756032 0 304319229.05756032 108704660.74509001 0 0 0 0 -205167766.29371643 254680164.27096552 0 254680164.27096552 234107376.1741986 0 0 0 0 -196580109.33135986 321626291.3797226 0 321626291.3797226 27214420.833461523 0 0 0 0 -166185832.76781845 254958276.41140565 0 254958276.41140565 65542804.6784904 0 0 0 0 -54910332.52772522 293660109.78057033 0 293660109.78057033 58076341.584183455 0 0 0 0 -22102268.171863556 215254957.06974781 0 215254957.06974781 17426460.4903965 0 0 0 0 68080952.192077637 273393920.02217066 0 273393920.02217066 273712721.35946572 0 0 0 0 62329095.859573364 237514988.82877773 0 237514988.82877773 132723342.41929269 0 0 0 0 117302364.93952942 201785440.36950397 0 201785440.36950397 -18052368.197247028 0 0 0 0 1947465.0274353027 271748952.01656795 0 271748952.01656795 135367268.96709776 0 0 0 0 18655343.385375977 218200763.31429625 0 218200763.31429625 -17051846.807192653 0 0 0 0 29435797.933395386 208755955.84719145 0 208755955.84719145 -123846478.70207596 0 0 0 0 -74539076.877441406 249888325.16015434 0 249888325.16015434 9794428.5150487423 0 0 0 0 -62739957.757621765 257802196.06827796 0 257802196.06827796 -73599962.204959869 0 0 0 0 -52814147.420600891 214363545.60281301 0 214363545.60281301 -228140678.91073513 0 0 0 0 53076735.280059814 197527256.11812806 0 197527256.11812806 -282963025.31625462 0 0 0 0 -70155537.03704834 208568716.41831112 0 208568716.41831112 -123800833.63000742 0 0 0 0 47016259.106739044 282718044.13417494 0 282718044.13417494 -431094700.19957924 0 0 0 0 -1433607.2002868652 201475882.81371784 0 201475882.81371784 -277912509.82127571 0 0 0 0 978959.18562316895 190537016.34077048 0 190537016.34077048 -416433245.21343231 0 0 0 0 -198457830.18228149 187067570.67183018 0 187067570.67183018 -232172574.73398972 0 0 0 0 97869956.876678467 238085565.70852375 0 238085565.70852375 -588627916.7650423 0 0 0 0 -76629251.576568604 152651024.98685265 0 152651024.98685265 -433335891.2021122 0 0 0 0 -106886143.6870842 53772604.116237879 0 53772604.116237879 -589024628.55545616 0 0 0 0 25864384.073120117 123783719.65438461 0 123783719.65438461 -591293716.48429966 0 0 0 0 24715105.390319824 138677347.75636959 0 138677347.75636959 -685590308.11781693 0 0 0 0 101690876.49487305 295666346.30242634 0 295666346.30242634 -433664977.00111198 0 0 0 0 -348124941.14992905 238880914.17290163 0 238880914.17290163 -459367234.67254066 0 0 0 0 -390567153.28945923 360030666.03539085 0 360030666.03539085 -381445016.00279808 0 0 0 0 -169352720.71508789 341890943.35553169 0 341890943.35553169 -601862135.13076401 0 0 0 0 -232767559.62768555 326628438.75577927 0 326628438.75577927 -604448618.0714345 0 0 0 0 -856588961.16645813 425937515.81386948 0 425937515.81386948 -515717307.09320021 0 0 0 0 -306865594.55862427 311949537.46303177 0 311949537.46303177 -395358130.00943184 0 0 0 0 -174152174.42150879 177768144.1929903 0 177768144.1929903 -315710430.89461887 0 0 0 0 -455927915.0308075 146021648.55464983 0 146021648.55464983 -317296136.05192757 0 0 0 0 -330635275.83535767 259800422.80641842 0 259800422.80641842 -184079769.661973 0 0 0 0 -233973805.74429321 327022792.46864986 0 327022792.46864986 -270914296.26552629 0 0 0 0 -354979670.7661438 275964481.21166277 0 275964481.21166277 -288085076.99000263 0 0 0 0 -225905753.61547852 332184117.08496475 0 332184117.08496475 -378284623.01841354 0 0 0 0 -238276511.27316284 272573727.27747869 0 272573727.27747869 -191456373.43292332 0 0 0 0 -188135185.88273621 310930726.07739556 0 310930726.07739556 -116709978.38340855 0 0 0 0 -239079934.88090897 331312846.34127963 0 331312846.34127963 -122597875.17334747 0 0 0 0 -178303670.04110718 204848119.02934432 0 204848119.02934432 -96521526.991876125 0 0 0 0 -169974949.32356262 287824068.77361798 0 287824068.77361798 -123360205.15670729 0 0 0 0 -219549573.49378586 232581200.06872946 0 232581200.06872946 -177966907.70630455 0 0 0 0 -146681759.92034912 239891689.05095577 0 239891689.05095577 28061547.503448009 0 0 0 0 -124001682.80228424 283540523.1466608 0 283540523.1466608 -24433668.147603035 0 0 0 0 -204434394.84832764 253616842.75109959 0 253616842.75109959 -33683947.925168991 0 0 0 0 -192098551.42610168 272030317.1028409 0 272030317.1028409 -21890584.597692966 0 0 0 0 -191606653.42604065 341339095.76702404 0 341339095.76702404 -64186042.559312344 0 0 0 0 -142761890.12754822 279191915.32947206 0 279191915.32947206 -130335713.53074551 0 0 0 0 -129763178.84120178 286451013.39136696 0 286451013.39136696 -188035312.10844612 0 0 0 0 -220212607.93723297 239925974.12480927 0 239925974.12480927 -70914889.485692501 0 0 0 0 -113170968.96821594 234051907.76713467 0 234051907.76713467 -73810159.682164907 0 0 0 0 -21326271.486198425 38932906.863126785 0 38932906.863126785 -43471053.871944427 0 0 0 0 -33574480.974746704 153723944.58228445 0 153723944.58228445 -276336861.67693377 0 0 0 0 -44894338.674232483 123738292.58375478 0 123738292.58375478 -247112263.06228733 0 0 0 0 -184529213.88486481 340888523.66028786 0 340888523.66028786 -271647995.97107315 0 0 0 0 -90512370.25328064 273349986.17023945 0 273349986.17023945 -313327808.41175747 0 0 0 0 -191829977.86768341 337416396.50936556 0 337416396.50936556 -183129717.46068764 0 0 0 0 -236838523.20050049 327719653.50039864 0 327719653.50039864 -259115661.54126072 0 0 0 0 -99442168.413406372 248976214.34625626 0 248976214.34625626 -175994966.33035231 0 0 0 0 -127394593.82550049 326655952.10522652 0 326655952.10522652 -387826577.66890144 0 0 0 0 -169678916.22717285 313450963.09707832 0 313450963.09707832 -381667829.75269032 0 0 0 0 -4543701.7407836914 150552672.47689056 0 150552672.47689056 -492994980.97370529 0 0 0 0 71141382.148101807 113442762.21507072 0 113442762.21507072 -598056065.19787598 0 0 0 0 -113529758.53138733 353066707.33580494 0 353066707.33580494 -838965546.02080917 0 0 0 0 -22979131.374084473 181215252.95033646 0 181215252.95033646 -516358133.58657074 0 0 0 0 73186035.101089478 170472692.99204588 0 170472692.99204588 -841599973.318367 0 0 0 0 82858116.240142822 155554009.84029961 0 155554009.84029961 -840981647.82313538 0 0 0 0 12945847.411575336 5908820.2726581562 0 5908820.2726581562 -399583.60117463046 0 0 0 0 26497581.737117767 9390887.9072570801 0 9390887.9072570801 -39831374.292388916 0 0 0 0 -13810476.107486725 39157015.697225571 0 39157015.697225571 -18852903.900192261 0 0 0 0 -2929729.9143600464 19851859.531684875 0 19851859.531684875 -39110973.337768555 0 0 0 0 74740391.710898399 -10642868.9215312 0 -10642868.9215312 -141602965.04207993 0 0 0 0 64931981.705802917 20141337.416765213 0 20141337.416765213 -61171637.64107132 0 0 0 0 47897343.036705017 109879765.31406403 0 109879765.31406403 -32678375.525447845 0 0 0 0 37264637.028831482 40144727.90735817 0 40144727.90735817 -74916349.327123642 0 0 0 0 58969037.923818588 143104786.22216702 0 143104786.22216702 66656744.984378815 0 0 0 0 4285179.2799873352 53138233.412017822 0 53138233.412017822 -8115151.4942932129 0 0 0 0 28953340.174713135 35403108.301124573 0 35403108.301124573 -32224308.625541687 0 0 0 0 -8189939.3600769043 37676733.102397919 0 37676733.102397919 1628170.9871330261 0 0 0 0 -8839310.0151824951 33435383.294315338 0 33435383.294315338 -24987090.804132462 0 0 0 0 -10907462.244256973 46029536.859709263 0 46029536.859709263 -14039967.379413605 0 0 0 0 108517557.34796143 -493217144.72935295 0 -493217144.72935295 -191359729.85571301 0 0 0 0 276705918.78380585 235313606.01382411 0 235313606.01382411 -107697803.54627752 0 0 0 0 -22287593.583892822 192084622.74092484 0 192084622.74092484 -29384752.459581375 0 0 0 0 884930.06700047106 704339.31044089049 0 704339.31044089049 112095.78407452558 0 0 0 0 -41428676.134872437 412028918.4167161 0 412028918.4167161 -302630141.09521294 0 0 0 0 58832711.1512146 632801526.5864172 0 632801526.5864172 96963020.830404282 0 0 0 0 196148964.64257812 572014014.59314442 0 572014014.59314442 -357546078.26731348 0 0 0 0 15983273.763185024 401155411.42150307 0 401155411.42150307 -503850586.7746582 0 0 0 0 536113634.14152527 843606884.3884325 0 843606884.3884325 -362549345.6289196 0 0 0 0 256967328.6014061 426707576.42397332 0 426707576.42397332 -866583222.89569473 0 0 0 0 788183539.02443695 221317486.98869443 0 221317486.98869443 -1419602289.6909542 0 0 0 0 -685266085.52912903 -340894260.78553009 0 -340894260.78553009 -816684666.54307175 0 0 0 0 8283841.5716616623 10115160.500926072 0 10115160.500926072 7420593.417374027 0 0 0 0 -208463271.07200623 480968463.88422537 0 480968463.88422537 364097062.64939022 0 0 0 0 -758551311.92028809 -336770229.38406372 0 -336770229.38406372 -247668791.39860344 0 0 0 0 -389840886.15267944 538373296.43352032 0 538373296.43352032 -889088927.3431015 0 0 0 0 -138299455.46685791 418535088.54073334 0 418535088.54073334 -1056466912.5245819 0 0 0 0 -1152239.7076802403 2292285.2159330579 0 2292285.2159330579 1248989.6907882416 0 0 0 0 451508818.85505676 -233023571.49487495 0 -233023571.49487495 -28860216.705564499 0 0 0 0 6302975.3399047852 -40747837.435310364 0 -40747837.435310364 -111892109.85537338 0 0 0 0 45403712.202049255 -634642275.52722645 0 -634642275.52722645 -274450016.10598469 0 0 0 0 1303695741.5120392 -233784429.60390091 0 -233784429.60390091 -629494674.94425464 0 0 0 0 1457028191.5404053 101558123.50206566 0 101558123.50206566 -609532006.49121845 0 0 0 0 817396441.77850342 14010319.369140625 0 14010319.369140625 -381516318.09180069 0 0 0 0 927106986.44592285 -6421423.653799057 0 -6421423.653799057 -605328803.39930689 0 0 0 0 842921968.28364563 -325511794.66454506 0 -325511794.66454506 -610941530.28844881 0 0 0 0 579642232.75495148 -182058465.76219368 0 -182058465.76219368 -312657119.51691055 0 0 0 0 755913887.29763031 -57873218.576704025 0 -57873218.576704025 -234695336.79792786 0 0 0 0 723770017.64039612 -159042360.71563148 0 -159042360.71563148 -197268321.50686646 0 0 0 0 528886372.45973206 53452655.18803215 0 53452655.18803215 -385851613.85539246 0 0 0 0 790226233.73865128 -166083973.42143822 0 -166083973.42143822 -25073614.055419922 0 0 0 0 1431625685.3464661 333377555.71571732 0 333377555.71571732 -327202597.25469971 0 0 0 0 700046145.21561956 142969431.44880158 0 142969431.44880158 -353065380.79219055 0 0 0 0 698981456.50502014 -160393130.41167068 0 -160393130.41167068 -330068597.61965179 0 0 0 0 -396350412.17659378 564652832.45474434 0 564652832.45474434 2078753.1991043091 0 0 0 0 414076814.04927063 186526912.78748322 0 186526912.78748322 -298296634.22621155 0 0 0 0 647538457.37252808 841221867.51543427 0 841221867.51543427 -252770963.59503174 0 0 0 0 812756293.64768982 739523984.21075439 0 739523984.21075439 -217077306.00314522 0 0 0 0 763179810.78292847 697406499.1507988 0 697406499.1507988 -223498092.37036133 0 0 0 0 1927685357.093399 877768343.5746994 0 877768343.5746994 -204188909.23342514 0 0 0 0 1364746.5580230504 719518.97877907939 0 719518.97877907939 -936179.5300370194 0 0 0 0 136143163.00146484 504603045.37200165 0 504603045.37200165 -11750617.465736389 0 0 0 0 457857325.50402832 -759618333.45172119 0 -759618333.45172119 -1615234784.9006805 0 0 0 0 40558824.015968323 1220484751.4638844 0 1220484751.4638844 -577323701.38692474 0 0 0 0 -112338293.71045685 1189036103.7483234 0 1189036103.7483234 -111954149.54110718 0 0 0 0 506463486.77119446 999912360.06320953 0 999912360.06320953 -666937649.84780884 0 0 0 0 579325920.95093155 1231384072.6633968 0 1231384072.6633968 -7443183.97215271 0 0 0 0 76503893.697372437 122738764.26733398 0 122738764.26733398 -1427066040.2827377 0 0 0 0 240177045.2678833 234684525.70951843 0 234684525.70951843 -305025988.93339539 0 0 0 0 196618505.73886108 78830572.038642883 0 78830572.038642883 -815215231.45766068 0 0 0 0 108808624.68711376 2532462398.0215492 0 2532462398.0215492 268644270.00730133 0 0 0 0 30955934.968536377 -131499634.3560524 0 -131499634.3560524 -527310337.44791031 0 0 0 0 42972686.035430908 -39080247.525569916 0 -39080247.525569916 -159509677.43938446 0 0 0 0 -69130011.939720154 -48634049.641788483 0 -48634049.641788483 19704998.19455719 0 0 0 0 1935164.269280849 2342936.0926058544 0 2342936.0926058544 -2110222.8951387517 0 0 0 0 11800612.440992683 5077427.3254431412 0 5077427.3254431412 -362703.04443129373 0 0 0 0 -105267062.68509293 -136199922.3712368 0 -136199922.3712368 -190460814.60161972 0 0 0 0 333283951.67812347 766841777.36133575 0 766841777.36133575 -587405198.71246147 0 0 0 0 -409561330.30923462 -94676313.265442848 0 -94676313.265442848 458028837.66611767 0 0 0 0 196022785.43011475 126699606.231251 0 126699606.231251 109244065.50043249 0 0 0 0 78495167.165206909 111739676.34906554 0 111739676.34906554 188928471.17292929 0 0 0 0 7960270.1854230464 1608295.8200722863 0 1608295.8200722863 -241440.12766664632 0 0 0 0 -48431540.131057739 81607728.782991409 0 81607728.782991409 -81843536.850935936 0 0 0 0 2284064.7551283855 2909853.0123842312 0 2909853.0123842312 3498262.8566281665 0 0 0 0 -397314720.73195648 163271038.28526038 0 163271038.28526038 12049123.343329713 0 0 0 0 -192623819.7466507 138334969.13303232 0 138334969.13303232 -4556333.648578167 0 0 0 0 490032187.46047974 273794044.83631897 0 273794044.83631897 41786565.711180449 0 0 0 0 630549317.50221252 337883194.42756295 0 337883194.42756295 54174195.021669865 0 0 0 0 365291081.20370483 392658934.70347881 0 392658934.70347881 88096816.107688904 0 0 0 0 571841055.28729248 476567775.42317867 0 476567775.42317867 -88675167.160118103 0 0 0 0 414060443.56723022 349626278.18315411 0 349626278.18315411 25327892.208104134 0 0 0 0 518674011.5840683 514968217.86986589 0 514968217.86986589 119981284.61316013 0 0 0 0 415969256.85673523 490423732.9638325 0 490423732.9638325 203087246.22813988 0 0 0 0 853561380.46147156 -509856688.30095434 0 -509856688.30095434 -755298548.00341511 0 0 0 0 25934395.281417847 195875219.51643372 0 195875219.51643372 857330479.6798501 0 0 0 0 3053667.4612436965 126758.20193636138 0 126758.20193636138 -129649.98017594821 0 0 0 0 544556918.46333313 712039124.06760693 0 712039124.06760693 309399523.23986602 0 0 0 0 78532993.104103088 880101247.18637562 0 880101247.18637562 2285517769.1301098 0 0 0 0 617715906.07942581 541174525.45093358 0 541174525.45093358 62577708.466163635 0 0 0 0 -270482490.13486481 1002267613.8959916 0 1002267613.8959916 3806330064.1576777 0 0 0 0 1056769994.127594 1777570851.1313915 0 1777570851.1313915 1334634991.276885 0 0 0 0 2757736153.2605515 1752369511.9274564 0 1752369511.9274564 -1720451948.0124073 0 0 0 0 -277531036.90147257 -258432089.09426117 0 -258432089.09426117 -144153256.44250488 0 0 0 0 -10697459.777591115 6885004.1509640971 0 6885004.1509640971 6180876.5238282382 0 0 0 0 165195905.18450928 -245253751.29224515 0 -245253751.29224515 -250861930.75888491 0 0 0 0 -325011271.59475195 -184174353.4083389 0 -184174353.4083389 -104037584.43617249 0 0 0 0 1218580889.0150642 -191823022.0945121 0 -191823022.0945121 -984266910.08282757 0 0 0 0 -120869084.85559464 -165484186.84973526 0 -165484186.84973526 -179158036.68357468 0 0 0 0 -674387858.18184519 -350028086.24454594 0 -350028086.24454594 -222109951.89082432 0 0 0 0 31405779.058247089 110886142.86650562 0 110886142.86650562 -347790259.87117386 0 0 0 0 -101953470.46640909 -264629080.55709934 0 -264629080.55709934 -265643566.63664246 0 0 0 0 403608359.14870071 360916809.20009267 0 360916809.20009267 17398825.173768997 0 0 0 0 480589519.58127594 418688224.62167525 0 418688224.62167525 62898913.396120071 0 0 0 0 414298221.87316895 356399585.37452078 0 356399585.37452078 186206480.16810894 0 0 0 0 331172381.00562096 337401324.77455199 0 337401324.77455199 194003219.58016872 0 0 0 0 355049458.51751709 260007083.92807055 0 260007083.92807055 24762076.560052902 0 0 0 0 205916982.23825073 254355802.70843124 0 254355802.70843124 199190147.33026218 0 0 0 0 -395366373.59723854 -655591943.03972626 0 -655591943.03972626 -184374774.96478271 0 0 0 0 -331559144.61384964 -544457383.12236786 0 -544457383.12236786 58810466.474769592 0 0 0 0 472699.60873378546 -175643.64868946047 0 -175643.64868946047 -340892.86401720624 0 0 0 0 -11209715.488021491 5882942.0544809233 0 5882942.0544809233 6411721.8693266567 0 0 0 0 143600841.26365662 380318534.92864704 0 380318534.92864704 251598792.63615417 0 0 0 0 193210373.8788147 337459450.11011887 0 337459450.11011887 271202834.71442032 0 0 0 0 205995441.87273407 495845345.32001281 0 495845345.32001281 108826217.44644165 0 0 0 0 -320537366.66004562 -99281794.499038696 0 -99281794.499038696 -27341589.224243164 0 0 0 0 -313568364.85585594 98013116.082633972 0 98013116.082633972 -688714243.71880341 0 0 0 0 -280391119.25862598 -213641711.90740585 0 -213641711.90740585 -186285286.44425583 0 0 0 0 -274976557.46513939 -305164567.35958099 0 -305164567.35958099 45821888.34614563 0 0 0 0 -361843877.80249119 -581412048.20303726 0 -581412048.20303726 305636277.8430481 0 0 0 0 -266069995.06897545 -275970215.32832336 0 -275970215.32832336 90221598.374660492 0 0 0 0 -253022323.19707966 -430696439.65886879 0 -430696439.65886879 680400185.13295364 0 0 0 0 182749168.26784468 -599439200.41989136 0 -599439200.41989136 268747054.4118576 0 0 0 0 -468090192.87890625 -220887386.88807869 0 -220887386.88807869 57456512.270141602 0 0 0 0 1383228.7333857119 1135340.4197961949 0 1135340.4197961949 2071755.0286232622 0 0 0 0 -249095135.89539719 239906758.46722814 0 239906758.46722814 2666541.9635457993 0 0 0 0 526972448.2677002 347221387.29167032 0 347221387.29167032 141541014.59019566 0 0 0 0 868984279.81759644 255083796.48727369 0 255083796.48727369 148042415.7617285 0 0 0 0 536368761.55934143 347949462.79377651 0 347949462.79377651 96488515.204234123 0 0 0 0 360218195.59059906 391157473.07328391 0 391157473.07328391 344078101.72314644 0 0 0 0 473372965.06166077 522079816.44464958 0 522079816.44464958 263856497.07078171 0 0 0 0 365952189.04315186 391210936.70671558 0 391210936.70671558 169398320.68118286 0 0 0 0 442416468.64663696 54122015.199802399 0 54122015.199802399 -118991181.76874614 0 0 0 0 604682170.73277283 262511522.20493984 0 262511522.20493984 195260577.51998138 0 0 0 0 395234623.443573 343268380.2511158 0 343268380.2511158 -161904113.32334137 0 0 0 0 391501849.60103607 333417119.61803937 0 333417119.61803937 205625026.63282013 0 0 0 0 417471702.26272583 -4581477.3246097565 0 -4581477.3246097565 102054786.67973042 0 0 0 0 605874644.5092392 798910974.2806561 0 798910974.2806561 729306452.66504765 0 0 0 0 857087912.97128296 477441609.81502485 0 477441609.81502485 233337640.10002375 0 0 0 0 1734317636.6331787 688819518.26278973 0 688819518.26278973 51362910.553168297 0 0 0 0 -803705501.75822449 72123771.048969984 0 72123771.048969984 263845893.7202878 0 0 0 0 486182.60676116147 221820.90399357304 0 221820.90399357304 678897.91903630318 0 0 0 0 242267321.53939819 508544847.45493269 0 508544847.45493269 338950322.63302803 0 0 0 0 265210482.69862366 251182260.73199081 0 251182260.73199081 882742143.79265761 0 0 0 0 297474788.99516296 363639161.04620934 0 363639161.04620934 49936223.819321632 0 0 0 0 386618932.41858673 212988865.86011004 0 212988865.86011004 225340565.53435326 0 0 0 0 -615307219.31007004 -28996014.085758209 0 -28996014.085758209 69450820.572052002 0 0 0 0 143902104.38393402 -85201256.150527 0 -85201256.150527 198989490.8949728 0 0 0 0 44350788.455551147 131493430.3906889 0 131493430.3906889 224045463.41110229 0 0 0 0 -13064260.985220283 5804571.5407821555 0 5804571.5407821555 6472781.3195068436 0 0 0 0 55803476.678329468 169699340.20761013 0 169699340.20761013 300342991.11849689 0 0 0 0 154135024.33108521 256371626.26596069 0 256371626.26596069 346561228.41315746 0 0 0 0 412109136.45600891 209259303.85179663 0 209259303.85179663 287670548.20272446 0 0 0 0 127767439.04961967 21060156.194768429 0 21060156.194768429 357023513.32808495 0 0 0 0 385555653.54266357 189289368.10224628 0 189289368.10224628 506971300.73939419 0 0 0 0 326773988.69961548 27947235.534001112 0 27947235.534001112 320927935.42928886 0 0 0 0 -543066090.59819603 -42302238.585075378 0 -42302238.585075378 19563438.265415192 0 0 0 0 -482526483.12828636 36429819.6016922 0 36429819.6016922 -76816958.505344391 0 0 0 0 61243160.460536957 249742616.61847043 0 249742616.61847043 -393577184.6654129 0 0 0 0 172374317.10502625 76116158.816484928 0 76116158.816484928 20023780.615452766 0 0 0 0 -1160910.225917276 12086.052607897669 0 12086.052607897669 812256.02294725738 0 0 0 0 -7187189.2903741943 10696987.614821134 0 10696987.614821134 6273880.0867156722 0 0 0 0 84388044.547836304 88341858.070202827 0 88341858.070202827 40107628.478271484 0 0 0 0 114525482.34825134 140957194.33549213 0 140957194.33549213 -52411337.642440319 0 0 0 0 -22478855.665196896 142426112.12989366 0 142426112.12989366 102317704.27244759 0 0 0 0 184200466.7301178 283443899.75801945 0 283443899.75801945 187716390.44953728 0 0 0 0 -336284056.83841133 19994543.839736938 0 19994543.839736938 220772764.98725128 0 0 0 0 -20397403.075891018 105668229.51285648 0 105668229.51285648 323037029.69036865 0 0 0 0 -219203047.11342907 -81737277.296802521 0 -81737277.296802521 166399456.01516914 0 0 0 0 -401733627.32382298 955605.25694656372 0 955605.25694656372 151536111.58504295 0 0 0 0 -240214247.85455489 4966560.8644661903 0 4966560.8644661903 56848786.230155945 0 0 0 0 -409507407.97021246 49232560.294082642 0 49232560.294082642 -114392386.49453735 0 0 0 0 -645661022.5432272 127061200.98658371 0 127061200.98658371 -23266044.415336609 0 0 0 0 -545635174.38103056 -4042817.0995445251 0 -4042817.0995445251 127155850.31587982 0 0 0 0 -432760485.72606039 17108982.12493515 0 17108982.12493515 65392817.60508728 0 0 0 0 -535684392.23950577 58402112.920402527 0 58402112.920402527 102737886.10372925 0 0 0 0 -399067844.20349026 101388536.92583084 0 101388536.92583084 149642874.45020294 0 0 0 0 -415851083.06815577 172943537.80470562 0 172943537.80470562 11850489.283340454 0 0 0 0 -428977413.78375149 143963084.17603302 0 143963084.17603302 -30243455.691101074 0 0 0 0 -395245932.73307061 98480315.582127094 0 98480315.582127094 118507528.37197113 0 0 0 0 -475615454.25756836 91854046.269485474 0 91854046.269485474 135984335.00608063 0 0 0 0 -203329895.14293289 143986077.2396183 0 143986077.2396183 75554152.310155869 0 0 0 0 -144668293.66646618 -112712372.91297603 0 -112712372.91297603 307188291.15731812 0 0 0 0 -50066168.451732159 -110062720.60858154 0 -110062720.60858154 222845062.92741394 0 0 0 0 220289146.86830187 -287995748.82457829 0 -287995748.82457829 291291680.39770889 0 0 0 0 225368453.10642576 -84721318.496351242 0 -84721318.496351242 443877219.2609787 0 0 0 0 383316209.87285805 150833845.15340805 0 150833845.15340805 316923690.44088745 0 0 0 0 -103629103.64599133 -87294265.026794434 0 -87294265.026794434 599234967.29145432 0 0 0 0 1059144865.7999773 930735182.00550652 0 930735182.00550652 950842609.19598389 0 0 0 0 251195584.51030779 263137401.61872005 0 263137401.61872005 405588169.61415482 0 0 0 0 2038574723.7123165 361878583.89950752 0 361878583.89950752 -21164645.073175192 0 0 0 0 553268144.45611477 86990686.730194092 0 86990686.730194092 17221424.004642487 0 0 0 0 114025.61515482608 751434.26528145559 0 751434.26528145559 1278280.9520579241 0 0 0 0 -12421504.006783158 -339969693.50343513 0 -339969693.50343513 1382641826.6354294 0 0 0 0 27281525.245315492 839699234.09386826 0 839699234.09386826 1759557394.2451344 0 0 0 0 1964404363.879817 167086591.62488937 0 167086591.62488937 259353564.79687309 0 0 0 0 -173444660.71566963 19419594.699464798 0 19419594.699464798 1561423218.0195179 0 0 0 0 743154445.3658061 -438582777.93177319 0 -438582777.93177319 -774446769.30537796 0 0 0 0 2639378.580669946 517968.07996634766 0 517968.07996634766 -708049.92319990229 0 0 0 0 -217678035.0907321 160964189.93182468 0 160964189.93182468 311788545.32157135 0 0 0 0 15607850.69932127 -35496186.023483276 0 -35496186.023483276 -152050612.48753643 0 0 0 0 22205168.942934275 -1364762.6503362656 0 -1364762.6503362656 -108097496.68089485 0 0 0 0 17604542.928864706 -69115253.849111557 0 -69115253.849111557 -174945558.83251762 0 0 0 0 45653692.37493819 -19524194.653349876 0 -19524194.653349876 -169428068.77131271 0 0 0 0 -7406963.3454477787 -243118718.15450478 0 -243118718.15450478 -434271762.7299068 0 0 0 0 -73891623.355041504 -72372056.292001724 0 -72372056.292001724 -137588261.39417458 0 0 0 0 370054737.0458318 -84620281.832186222 0 -84620281.832186222 -238544161.60551453 0 0 0 0 85765836.025996745 147407085.30980015 0 147407085.30980015 52932681.456619263 0 0 0 0 -52753234.15928936 -438134394.3134861 0 -438134394.3134861 212503621.87193108 0 0 0 0 1097296.701675046 153430.6114662718 0 153430.6114662718 -250855.76049241796 0 0 0 0 -467913341.33927441 -85405197.053091049 0 -85405197.053091049 507157445.74078941 0 0 0 0 2232845.9275159836 18061054.443313599 0 18061054.443313599 241326293.32270813 0 0 0 0 -112920329.87524796 36886216.559844971 0 36886216.559844971 49553257.056617737 0 0 0 0 35263951.111651897 81623490.113847733 0 81623490.113847733 82402130.135334015 0 0 0 0 607629.79603431327 947443.33259315323 0 947443.33259315323 -38655.071494782344 0 0 0 0 -61015157.774414301 -69671538.961374283 0 -69671538.961374283 -27965126.801670074 0 0 0 0 26175181.873597145 249553772.91780567 0 249553772.91780567 314272455.67451859 0 0 0 0 183471577.88861656 379388673.21835136 0 379388673.21835136 359839551.13956594 0 0 0 0 -37946982.173480034 160895729.16640854 0 160895729.16640854 421386305.46246529 0 0 0 0 -6771220.5113706589 135661537.9347477 0 135661537.9347477 221196484.32110596 0 0 0 0 -42965630.618779659 103217470.06843948 0 103217470.06843948 89492399.946411133 0 0 0 0 64266514.028285563 -142572683.93639374 0 -142572683.93639374 166151936.15744305 0 0 0 0 -16793798.361468136 577372456.04392433 0 577372456.04392433 677687215.35428619 0 0 0 0 -80281613.296801805 21620380.17908287 0 21620380.17908287 988095441.19919586 0 0 0 0 154149005.88417244 522673455.54189301 0 522673455.54189301 459488925.10892487 0 0 0 0 2668118.1711779563 850367.96327954624 0 850367.96327954624 -880777.6435746951 0 0 0 0 581655547.7364552 254422582.46374512 0 254422582.46374512 -417838145.35889053 0 0 0 0 1169442.2599488099 548074.83830744214 0 548074.83830744214 -466396.45157892071 0 0 0 0 257113440.1642375 626390768.92119598 0 626390768.92119598 561755695.62019157 0 0 0 0 56347389.80332613 491023242.9253931 0 491023242.9253931 483729384.79810905 0 0 0 0 57839671.147576809 232345084.91675186 0 232345084.91675186 309650890.71380615 0 0 0 0 542174184.78539944 354624243.64598751 0 354624243.64598751 302527486.99516165 0 0 0 0 64298327.914920807 203650950.05670929 0 203650950.05670929 324570450.6316185 0 0 0 0 165261372.42166567 47027467.365949631 0 47027467.365949631 462016185.24839592 0 0 0 0 410450553.02432394 208873486.74783611 0 208873486.74783611 -747429.96365737915 0 0 0 0 38904031.461545944 209158290.66159248 0 209158290.66159248 186415425.67352962 0 0 0 0 -177334720.28390265 126270149.57717752 0 126270149.57717752 161945896.11323166 0 0 0 0 62812813.32149744 289182007.04203606 0 289182007.04203606 439513178.69577408 0 0 0 0 331495087.71095276 -131112914.06377602 0 -131112914.06377602 -154439219.6424799 0 0 0 0 139332814.79652023 -22369266.945937872 0 -22369266.945937872 -137763199.71719742 0 0 0 0 83936450.053872108 -159094969.06760883 0 -159094969.06760883 -46849775.180288315 0 0 0 0 -3817562.3490457535 -10531174.764632225 0 -10531174.764632225 -99253305.079013824 0 0 0 0 25082428.761399269 -63293204.773334503 0 -63293204.773334503 -65600543.10748291 0 0 0 0 128288674.04708004 -63136973.247270584 0 -63136973.247270584 -112186062.65395355 0 0 0 0 47874285.926892042 -34626335.312053919 0 -34626335.312053919 -120708848.82456207 0 0 0 0 63087052.415953636 -19660052.291912079 0 -19660052.291912079 -146308961.01581573 0 0 0 0 60352260.425755501 -1277535.2179298401 0 -1277535.2179298401 -164809189.70274639 0 0 0 0 135812622.51874542 48407809.272786617 0 48407809.272786617 -132128382.8434906 0 0 0 0 128158967.91262054 29312091.228192329 0 29312091.228192329 -164452734.7667408 0 0 0 0 123505645.85133934 -22839762.502374649 0 -22839762.502374649 -157459639.64332962 0 0 0 0 132514971.61782694 -37219277.830011845 0 -37219277.830011845 -139654331.63931274 0 0 0 0 201102633.63392353 -19755287.397840977 0 -19755287.397840977 -294099244.07280922 0 0 0 0 69357618.180274963 -38603299.671271324 0 -38603299.671271324 -173814485.02707005 0 0 0 0 82397305.972232819 97945819.3792696 0 97945819.3792696 -252290501.36382985 0 0 0 0 -191410894.4168992 304283489.20908833 0 304283489.20908833 -512633482.60738754 0 0 0 0 103818035.42431355 126718394.61149597 0 126718394.61149597 -72057358.592492104 0 0 0 0 -216623903.80064917 -139775178.4681282 0 -139775178.4681282 -293653976.07579422 0 0 0 0 -83834268.629591703 -103594561.37267113 0 -103594561.37267113 -65965208.985074043 0 0 0 0 11645089.4106282 -45822841.636374474 0 -45822841.636374474 -138132958.57695389 0 0 0 0 575311.169164769 -102293.64237929136 0 -102293.64237929136 -532193.7961307643 0 0 0 0 -91894198.015641689 -126559524.93575668 0 -126559524.93575668 -89105024.051837921 0 0 0 0 -265428280.58847237 -74720047.60193634 0 -74720047.60193634 -97800034.057697296 0 0 0 0 -143487309.48489761 -89712426.017776489 0 -89712426.017776489 -112657720.64194107 0 0 0 0 -77947733.534079075 -125166468.4255619 0 -125166468.4255619 -139224562.65094757 0 0 0 0 -182279969.82170486 -106044551.17253399 0 -106044551.17253399 -129409756.38622284 0 0 0 0 991517.12663627719 -267394.56461919332 0 -267394.56461919332 -800949.60394248832 0 0 0 0 -261762541.61760521 -140744194.07990265 0 -140744194.07990265 -83406995.94486618 0 0 0 0 -154690253.65683699 -156253665.46276474 0 -156253665.46276474 -91911260.449386597 0 0 0 0 -322494576.38436943 -101936110.32445765 0 -101936110.32445765 -56815819.314147949 0 0 0 0 -22617309.454419732 -26870057.17254734 0 -26870057.17254734 -130663119.63686752 0 0 0 0 -87128.346637248993 -20590250.027038574 0 -20590250.027038574 -120303355.72610283 0 0 0 0 -1426328.5197682381 -36947944.843875885 0 -36947944.843875885 -116662911.80797839 0 0 0 0 -18655.035343647003 -25058444.32223177 0 -25058444.32223177 -83985577.693008423 0 0 0 0 5034042.5554029942 -54432223.215056419 0 -54432223.215056419 -74686326.183101654 0 0 0 0 -43934515.176950216 -9082128.2622585297 0 -9082128.2622585297 -52893701.933296204 0 0 0 0 -8846185.0174269676 -13136249.528295517 0 -13136249.528295517 -126349705.0843792 0 0 0 0 -19991482.142990112 -38474239.935758591 0 -38474239.935758591 -123844273.18174458 0 0 0 0 -1025539.316470623 -32043498.873430252 0 -32043498.873430252 -82270984.015464306 0 0 0 0 46350444.656368971 -29039670.020233154 0 -29039670.020233154 -127609568.48826599 0 0 0 0 14997930.630314827 -5733240.3412876129 0 -5733240.3412876129 -142768562.43762589 0 0 0 0 13059220.507963181 -22955841.323171616 0 -22955841.323171616 -128632528.56614399 0 0 0 0 11517662.420552492 -20567275.465765953 0 -20567275.465765953 -128039866.62841415 0 0 0 0 -33992175.924507141 -25129065.736282349 0 -25129065.736282349 -125578011.92900562 0 0 0 0 -25875819.407914042 -34187620.563661575 0 -34187620.563661575 -125604373.65621376 0 0 0 0 -5550356.1080842977 -2003922.9376169094 0 -2003922.9376169094 4250509.7217422239 0 0 0 0 -28566760.468584538 -44637045.088844299 0 -44637045.088844299 -131577318.38055038 0 0 0 0 -143979016.44367599 45049633.70816946 0 45049633.70816946 8746220.7292098999 0 0 0 0 -12192706.660659917 13256200.699510615 0 13256200.699510615 -1027948.5137712061 0 0 0 0 -38989373.532255173 -79854748.173727989 0 -79854748.173727989 -254535009.65079498 0 0 0 0 -95645909.09616065 127233500.31060314 0 127233500.31060314 -187830926.39002228 0 0 0 0 1712578.2034594119 -33625222.167601585 0 -33625222.167601585 -26725731.31155014 0 0 0 0 -1604048.1357235466 -576067.33130198251 0 -576067.33130198251 1177191.246193747 0 0 0 0 -154876114.36602068 -107820652.52447891 0 -107820652.52447891 -59241855.934263229 0 0 0 0 -190796308.99905145 56228831.840312958 0 56228831.840312958 -157034671.56856537 0 0 0 0 -286485693.04300976 -113362790.58999348 0 -113362790.58999348 198592798.41796112 0 0 0 0 -111580777.11225176 -143856580.07650375 0 -143856580.07650375 -39621125.143753052 0 0 0 0 14166719.009609848 -72360732.854820251 0 -72360732.854820251 -86497248.623065948 0 0 0 0 -11607222.539102416 9616059.3793960102 0 9616059.3793960102 4232629.2765400484 0 0 0 0 -312671044.43469524 -426609064.29552102 0 -426609064.29552102 576377944.14824295 0 0 0 0 -91936219.7400949 -138824531.28486443 0 -138824531.28486443 -65594356.136714935 0 0 0 0 -86088551.304285526 -174497114.52858543 0 -174497114.52858543 -13915825.475812912 0 0 0 0 563371825.80854797 367379183.77675629 0 367379183.77675629 -330342212.40501404 0 0 0 0 -181379642.79127502 282441317.43576813 0 282441317.43576813 -116295805.98108673 0 0 0 0 229339422.57029724 93245964.479309082 0 93245964.479309082 -59609184.519427299 0 0 0 0 260095033.85154724 128187296.96381378 0 128187296.96381378 -94658345.030360222 0 0 0 0 305993875.6706543 38350007.362930298 0 38350007.362930298 -42627934.955535889 0 0 0 0 303440358.6521759 89038015.240730286 0 89038015.240730286 -101203587.97042847 0 0 0 0 2961224.3226394653 39651495.242897034 0 39651495.242897034 -70068724.901218414 0 0 0 0 7311345.9664597437 6863505.6927372832 0 6863505.6927372832 -2393012.8715426223 0 0 0 0 -196288489.33160782 87201118.154690742 0 87201118.154690742 499562475.70796585 0 0 0 0 23987040.955467224 -549877.29827880859 0 -549877.29827880859 425863657.08807659 0 0 0 0 -111731169.01119232 64818572.101791382 0 64818572.101791382 229658397.90894318 0 0 0 0 168157783.1897583 167874552.81632996 0 167874552.81632996 192503419.73711395 0 0 0 0 16881912.768264771 219610979.44599915 0 219610979.44599915 366171525.1700325 0 0 0 0 -619744604.92166138 170173162.89839935 0 170173162.89839935 353969893.84297752 0 0 0 0 481158.15402373113 648785.21052495204 0 648785.21052495204 -312168.07149947621 0 0 0 0 189884089.03562927 328507928.99364281 0 328507928.99364281 367919506.01316833 0 0 0 0 102662873.64001274 73525865.741716385 0 73525865.741716385 469551445.54904556 0 0 0 0 399461137.82217789 346150073.47000885 0 346150073.47000885 333178631.50068665 0 0 0 0 -21241323.482276917 60957258.435810089 0 60957258.435810089 -26214193.274626732 0 0 0 0 -20729711.883235216 -30838326.085340977 0 -30838326.085340977 53446845.702400208 0 0 0 0 -17791694.867537729 12640508.461881582 0 12640508.461881582 581177.03895572363 0 0 0 0 -573524.37049489212 3526329.2052368992 0 3526329.2052368992 -455454.20035954297 0 0 0 0 57215532.969880104 42984014.364226341 0 42984014.364226341 -11878360.766859531 0 0 0 0 11623376.519964218 -48041602.772316933 0 -48041602.772316933 9431599.2643013 0 0 0 0 -14289276.04012062 10640096.758595215 0 10640096.758595215 -2794407.0768379327 0 0 0 0 227340239.75270844 137033973.51880836 0 137033973.51880836 -23143224.34696579 0 0 0 0 -80005748.003284454 156728045.97412682 0 156728045.97412682 483326864.5053978 0 0 0 0 -3954957.8386535197 1553235.5632620864 0 1553235.5632620864 3794215.4159746766 0 0 0 0 163288487.98928833 603778658.1036911 0 603778658.1036911 438235436.46606445 0 0 0 0 267480036.92496109 478619555.11614609 0 478619555.11614609 586873425.45659637 0 0 0 0 -151007371.4148941 -19037335.159397125 0 -19037335.159397125 115077842.82795715 0 0 0 0 195304011.44523239 -112587209.51458359 0 -112587209.51458359 -86300264.580070496 0 0 0 0 416047786.41126251 243335624.14849281 0 243335624.14849281 72873327.81375885 0 0 0 0 -29028747.85798645 18726594.415317535 0 18726594.415317535 -19311103.592525482 0 0 0 0 38651360.990631104 307138528.50067902 0 307138528.50067902 443329507.97665596 0 0 0 0 163154162.18348694 168753181.22987366 0 168753181.22987366 -21556998.632411957 0 0 0 0 -70266782.151344299 114699888.21556091 0 114699888.21556091 227230563.63518524 0 0 0 0 -53754884.984598637 321641823.04874372 0 321641823.04874372 897226768.19359589 0 0 0 0 1383721.6092920769 1030282.0382204726 0 1030282.0382204726 701578.55442367028 0 0 0 0 86797721.195550919 55906772.111459255 0 55906772.111459255 -73066870.476821899 0 0 0 0 131074166.25696564 35864169.125823975 0 35864169.125823975 -69456242.98718071 0 0 0 0 1739576.084591385 -565366.2073812536 0 -565366.2073812536 -1883384.8902764823 0 0 0 0 129434977.88079453 -66574549.969687462 0 -66574549.969687462 -65325763.364608765 0 0 0 0 1105124.8151531219 2718016.0168037415 0 2718016.0168037415 -3151150.3677444458 0 0 0 0 1448153.5008220263 526242.54246170167 0 526242.54246170167 148708.55735373963 0 0 0 0 53609952.691371918 -39333958.742332458 0 -39333958.742332458 -103654938.23932266 0 0 0 0 -153574.12686157227 -177530.87879943848 0 -177530.87879943848 -5094609.7385406494 0 0 0 0 2961430.6108827498 682959.80369795533 0 682959.80369795533 -1328581.1626276262 0 0 0 0 149307.42379760742 1095579.7449874878 0 1095579.7449874878 -2979722.3844614029 0 0 0 0 -173006971.9284668 139406000.143013 0 139406000.143013 -234065859.44606018 0 0 0 0 2728206.5509248148 3090913.51003878 0 3090913.51003878 -1105808.7166912723 0 0 0 0 24732454.306488037 236642194.15234375 0 236642194.15234375 -334450589.37281799 0 0 0 0 -4449014.3714294434 -492881.53154754639 0 -492881.53154754639 3454735.9093360901 0 0 0 0 485832.9703507591 -42967.222019290552 0 -42967.222019290552 136628.09191101603 0 0 0 0 -93876863.48664856 195155288.01422501 0 195155288.01422501 -177091096.29001617 0 0 0 0 4329601.4863853455 278770949.61494637 0 278770949.61494637 -125581805.26800537 0 0 0 0 -93135450.624221802 139259290.16762543 0 139259290.16762543 -22777308.597232819 0 0 0 0 163132098.91807556 78049162.188749313 0 78049162.188749313 -154284390.55840302 0 0 0 0 114072881.28438282 213486728.4880929 0 213486728.4880929 198864298.48813629 0 0 0 0 117595300.54053974 216100547.37862873 0 216100547.37862873 4250952.3209533691 0 0 0 0 1401485.9780359771 1708761.4702972705 0 1708761.4702972705 -1300484.3650536444 0 0 0 0 -113575514.11963654 -76685911.503795624 0 -76685911.503795624 -3920077.4722824097 0 0 0 0 -112193231.77459711 113066089.26403461 0 113066089.26403461 -56334981.421379089 0 0 0 0 -150356665.8097229 305059429.91492462 0 305059429.91492462 -117405017.47623444 0 0 0 0 -360938018.92782974 267322467.68225861 0 267322467.68225861 -81691820.802841187 0 0 0 0 -177010001.61484241 174123952.63254231 0 174123952.63254231 41804507.521003723 0 0 0 0 54949404.339805603 103794666.76939297 0 103794666.76939297 -197905147.89827013 0 0 0 0 -10035918.241084099 45997500.90612936 0 45997500.90612936 -169644884.32457352 0 0 0 0 41009031.449053764 107908061.79072022 0 107908061.79072022 -25991499.196092606 0 0 0 0 141513206.77076721 96647875.770098686 0 96647875.770098686 -29803313.202068806 0 0 0 0 92519741.801092148 174307837.48068285 0 174307837.48068285 64729577.006570697 0 0 0 0 -68050055.336835861 -20529112.752001762 0 -20529112.752001762 58805689.006790161 0 0 0 0 -14356855.573751606 12098114.853802584 0 12098114.853802584 -4089077.0177121013 0 0 0 0 84353452.400112629 70388790.553199291 0 70388790.553199291 43247182.724134445 0 0 0 0 113743157.42550278 74394909.892289162 0 74394909.892289162 -163919692.69394875 0 0 0 0 59169841.238397598 -9825383.9505720139 0 -9825383.9505720139 -104473427.50484538 0 0 0 0 -70863030.609214783 -8704712.5912361145 0 -8704712.5912361145 15751301.881530762 0 0 0 0 1256707104.6074829 433137566.96231842 0 433137566.96231842 76974669.289429665 0 0 0 0 716128099.89279556 -450773473.03630257 0 -450773473.03630257 -521435117.10097504 0 0 0 0 1069534179.1641502 1176666720.6015472 0 1176666720.6015472 439442197.33158112 0 0 0 0 975509.15908734687 161789.22785018198 0 161789.22785018198 -313949.7486542901 0 0 0 0 167422504.13485718 -269024205.91641998 0 -269024205.91641998 55580255.004333496 0 0 0 0 -329394983.95350647 460372097.26285362 0 460372097.26285362 276465887.07072449 0 0 0 0 550817472.07014465 148575604.51495743 0 148575604.51495743 -152607689.12032318 0 0 0 0 88618561.288543701 172635814.27313232 0 172635814.27313232 -149546162.13963842 0 0 0 0 921968.19772167318 2231286.4124601651 0 2231286.4124601651 -195281.47487285733 0 0 0 0 -624842147.45013428 3241605.1908578873 0 3241605.1908578873 137227101.70457458 0 0 0 0 -1728626829.8347778 81239508.294769287 0 81239508.294769287 124837838.63791656 0 0 0 0 113202053.11930847 -211307977.01471901 0 -211307977.01471901 68281624.198384285 0 0 0 0 -14313348.859063726 13511955.418400116 0 13511955.418400116 -4243181.5602800492 0 0 0 0 5043034.518910408 181887410.65747714 0 181887410.65747714 226847155.14086628 0 0 0 0 171549484.03430557 172883202.07509804 0 172883202.07509804 80178644.652242661 0 0 0 0 -36057468.215968132 -7730284.7211244106 0 -7730284.7211244106 133602901.0441637 0 0 0 0 61472389.623573303 136813877.07609606 0 136813877.07609606 38988104.728631735 0 0 0 0 75698238.619689941 31912162.064620972 0 31912162.064620972 -7045582.4187641144 0 0 0 0 67184849.346565247 45286639.517303467 0 45286639.517303467 1373980.5528869629 0 0 0 0 66524148.333595276 32875160.111206055 0 32875160.111206055 -6987311.4175739288 0 0 0 0 56892705.980018616 37986914.335174561 0 37986914.335174561 7813875.1584320068 0 0 0 0 87353965.468212128 59343066.318447113 0 59343066.318447113 2915938.6273422241 0 0 0 0 83228254.684493542 38492584.265179157 0 38492584.265179157 -21401375.015293121 0 0 0 0 63358628.878353119 24921750.619172096 0 24921750.619172096 -6596616.6999549866 0 0 0 0 3157708.1712197782 6969091.7320744656 0 6969091.7320744656 -673296.08937910944 0 0 0 0 57041510.993614197 26751737.628173828 0 26751737.628173828 -3294507.3382349014 0 0 0 0 -90747225.147979736 -11437045.339031219 0 -11437045.339031219 22683837.098175049 0 0 0 0 53357985.55380249 25543434.425178528 0 25543434.425178528 -3684425.6355056763 0 0 0 0 -33826709.339294434 -2942707.8424987793 0 -2942707.8424987793 -20958844.234558105 0 0 0 0 -31312125.948547363 9152303.2928771973 0 9152303.2928771973 -16929469.366455078 0 0 0 0 -24432714.638244629 18921282.275588989 0 18921282.275588989 -5560675.5063400269 0 0 0 0 -44917589.986022949 -950436.01968383789 0 -950436.01968383789 3671729.916809082 0 0 0 0 -43765252.513824463 -11978375.184402466 0 -11978375.184402466 -12560804.097518921 0 0 0 0 -50754357.937835693 -9005500.1483612061 0 -9005500.1483612061 -3979989.2040557861 0 0 0 0 -5692393.1214337349 27613880.777247548 0 27613880.777247548 25054334.810180664 0 0 0 0 -56163011.656280518 18118009.094207764 0 18118009.094207764 17466700.38848877 0 0 0 0 -5894240.6714782715 20772800.000595093 0 20772800.000595093 455372.49090576172 0 0 0 0 -29035252.271514893 22744429.241409302 0 22744429.241409302 14508044.273422241 0 0 0 0 53557199.008274078 33247663.973190308 0 33247663.973190308 11769308.473098755 0 0 0 0 39029536.460418701 14318056.420326233 0 14318056.420326233 4679945.1262359619 0 0 0 0 31888993.908603668 14122087.127851486 0 14122087.127851486 11458711.856338501 0 0 0 0 -15650982.936630249 34028699.605667114 0 34028699.605667114 3738808.5058746338 0 0 0 0 31012088.620727539 16867013.624988556 0 16867013.624988556 3588412.1747054458 0 0 0 0 35869940.391777039 144020902.39037323 0 144020902.39037323 -37606522.612998962 0 0 0 0 -113991150.40476799 98805341.662180901 0 98805341.662180901 -14798747.873413086 0 0 0 0 189148909.44235229 128588289.17304993 0 128588289.17304993 -152320730.85713196 0 0 0 0 57875295.243606567 165608245.1244812 0 165608245.1244812 -100854724.45750809 0 0 0 0 36905049.408733368 155696096.61565399 0 155696096.61565399 -90920016.023208618 0 0 0 0 61825840.603543282 144343288.61095476 0 144343288.61095476 -77300514.055732727 0 0 0 0 913845.3140839329 780548.87792220525 0 780548.87792220525 -910263.9150640294 0 0 0 0 375659927.01588821 -96109465.380381107 0 -96109465.380381107 101724214.14933777 0 0 0 0 385653926.95078278 -25824146.949325562 0 -25824146.949325562 -91479438.069625854 0 0 0 0 181380712.68981934 -62571014.841323853 0 -62571014.841323853 49132084.260131836 0 0 0 0 445446680.02840042 -176335617.48820877 0 -176335617.48820877 -143964508.40887451 0 0 0 0 71738544.082630157 9024069.7164573669 0 9024069.7164573669 1684851.6717834473 0 0 0 0 892507.67120760866 1153529.8685307363 0 1153529.8685307363 -459107.8652507998 0 0 0 0 47645871.821334839 13881885.336921692 0 13881885.336921692 38678879.916701317 0 0 0 0 48681632.712478638 -4237688.6494369507 0 -4237688.6494369507 -3991128.5383453369 0 0 0 0 30488549.175611496 1732599.3117141724 0 1732599.3117141724 -12442656.569366455 0 0 0 0 15895499.094818115 8887390.07264328 0 8887390.07264328 -4365152.719078064 0 0 0 0 26505756.253093719 13513391.595439911 0 13513391.595439911 -20231149.941841125 0 0 0 0 -11311607.343063354 21724569.621032715 0 21724569.621032715 485429.6583404541 0 0 0 0 -3677390.2718429565 37256687.879184723 0 37256687.879184723 11860391.508987427 0 0 0 0 26696340.033123016 32238422.417898178 0 32238422.417898178 6671928.7557678223 0 0 0 0 19019107.027481079 24190642.837409973 0 24190642.837409973 -625980.29170227051 0 0 0 0 15815903.609481812 47565410.563110352 0 47565410.563110352 18580056.884731293 0 0 0 0 60180834.993293762 16056763.78263092 0 16056763.78263092 4633812.0313110352 0 0 0 0 1330986.3967666626 27348561.797317505 0 27348561.797317505 8160203.6050567627 0 0 0 0 -20926443.81338501 22195098.895706177 0 22195098.895706177 10925235.197368622 0 0 0 0 1484473.8619766235 3779693.1146774292 0 3779693.1146774292 2423752.8893432617 0 0 0 0 -847516.51858570054 8728845.8647775818 0 8728845.8647775818 6033628.9950949326 0 0 0 0 -27237280.309001923 18115772.145406723 0 18115772.145406723 6212290.1224212646 0 0 0 0 -22434188.905807495 25404290.274497986 0 25404290.274497986 5357127.2079772949 0 0 0 0 5845542.4876070665 3420950.8910259102 0 3420950.8910259102 -4635085.4013733193 0 0 0 0 29252993.798370361 18344472.233654022 0 18344472.233654022 7603405.5045204163 0 0 0 0 4367778.930783648 13124549.210659711 0 13124549.210659711 900347.46794257686 0 0 0 0 -16607753.466720581 22585517.993530273 0 22585517.993530273 -4071394.5063934326 0 0 0 0 -16064154.507321358 -62600572.472473145 0 -62600572.472473145 -260227591.52731323 0 0 0 0 2323231.5910701752 -9579373.1083068848 0 -9579373.1083068848 -214547445.3540802 0 0 0 0 -6171355.6079158783 35065419.654352188 0 35065419.654352188 -746739.46583557129 0 0 0 0 8162356.6971150693 14275501.148514904 0 14275501.148514904 7334046.3332271129 0 0 0 0 -52643009.305546761 24536741.763793945 0 24536741.763793945 72461015.762939453 0 0 0 0 -908354.76147843036 4954426.7299355399 0 4954426.7299355399 3107995.7063124888 0 0 0 0 15669316.258666266 7040115.537409896 0 7040115.537409896 -18452447.770201039 0 0 0 0 87547516.007555008 186247692.20411682 0 186247692.20411682 -44455919.359915733 0 0 0 0 17701921.706478391 6191375.9251305517 0 6191375.9251305517 -19016394.307355423 0 0 0 0 39948131.89541626 27853197.327335358 0 27853197.327335358 -15733459.483978271 0 0 0 0 60344181.640426636 32540982.707397461 0 32540982.707397461 -14695971.157155991 0 0 0 0 49203344.640987396 18739663.726818085 0 18739663.726818085 3819742.3308410645 0 0 0 0 81605693.373825073 -314722.78416442871 0 -314722.78416442871 -23686927.639480591 0 0 0 0 36232815.814754486 35185803.727905273 0 35185803.727905273 -3487061.5082397461 0 0 0 0 41333373.628246307 3800327.7962869406 0 3800327.7962869406 -20311191.920776367 0 0 0 0 26800696.552783966 43184040.314165115 0 43184040.314165115 17272386.755783081 0 0 0 0 2056145.0192597583 -49170.816929339431 0 -49170.816929339431 -2308922.6522410177 0 0 0 0 683117.23907852173 6016640.7862358093 0 6016640.7862358093 -19518719.557022095 0 0 0 0 4293886.0924941786 5349788.6437377976 0 5349788.6437377976 -429299.05373949744 0 0 0 0 -6059713.0126533508 -15532664.491222382 0 -15532664.491222382 26272783.239204407 0 0 0 0 -36241305.462524414 17533202.068023682 0 17533202.068023682 16198712.05292511 0 0 0 0 -2906569.5402450562 -33328476.665279388 0 -33328476.665279388 -6664930.8321228027 0 0 0 0 60822756.505882263 -31422706.552520752 0 -31422706.552520752 -14248499.67232132 0 0 0 0 -45776147.23266983 6857043.4683871269 0 6857043.4683871269 2310511.2554931641 0 0 0 0 -34775227.15429306 -10681857.732225418 0 -10681857.732225418 -3504812.125869751 0 0 0 0 -494627.96805620193 -123514.77799103037 0 -123514.77799103037 -74256.197699528188 0 0 0 0 -23400969.422842026 2090955.3519477844 0 2090955.3519477844 -138311.61029052734 0 0 0 0 -15950988.158866882 54812155.24969101 0 54812155.24969101 -38116252.637882233 0 0 0 0 16281650.438262939 -37677796.617061615 0 -37677796.617061615 48291025.683264256 0 0 0 0 -35048024.906220436 26875364.690122604 0 26875364.690122604 54743942.705101013 0 0 0 0 -33541733.868133545 239357816.13110352 0 239357816.13110352 -146821897.71182251 0 0 0 0 176965538.94367981 107131673.51722336 0 107131673.51722336 -107627616.08834076 0 0 0 0 787168.40306987241 132073.73152731406 0 132073.73152731406 -847092.81025179848 0 0 0 0 -51023701.124725342 191493530.93603134 0 191493530.93603134 -202675031.62771606 0 0 0 0 -34943799.471835136 225621864.93755341 0 225621864.93755341 -266372301.34199524 0 0 0 0 -12441590.866912842 14572799.556522369 0 14572799.556522369 13383595.201820374 0 0 0 0 -66872696.1042099 115715726.19378662 0 115715726.19378662 -264913057.26882362 0 0 0 0 1207480.0610354319 328880.39240770414 0 328880.39240770414 -1481217.0340874661 0 0 0 0 20151087.441898346 175148936.81446457 0 175148936.81446457 -278923359.62834167 0 0 0 0 -270785750.48483276 312107633.99067879 0 312107633.99067879 -202856231.44463348 0 0 0 0 -151849163.26860809 15693723.579284668 0 15693723.579284668 32978386.429473877 0 0 0 0 -55698695.575134277 186200312.00136185 0 186200312.00136185 -90021187.217529297 0 0 0 0 353621689.51113892 -32174857.429050446 0 -32174857.429050446 -103341205.32695389 0 0 0 0 1549234.3259851988 1306635.9868376949 0 1306635.9868376949 -1548438.2096913345 0 0 0 0 212803528.61339951 -61127181.365249634 0 -61127181.365249634 -120148344.40328979 0 0 0 0 146123717.96825409 14631092.071170807 0 14631092.071170807 142775431.78716278 0 0 0 0 2348141.0551094767 2774388.8122095447 0 2774388.8122095447 -928269.98062050343 0 0 0 0 81181165.438720703 144119601.77768326 0 144119601.77768326 -11045247.519775391 0 0 0 0 -155087683.03995895 74704999.334949493 0 74704999.334949493 -167699491.53377533 0 0 0 0 98476277.849748611 153236296.78248596 0 153236296.78248596 -172995146.5637207 0 0 0 0 42376435.032943726 7332861.5398216248 0 7332861.5398216248 -66410973.453475952 0 0 0 0 88571.55005306378 381317.94567524735 0 381317.94567524735 -828817.9027326107 0 0 0 0 -298652596.00929737 354845501.15197277 0 354845501.15197277 -198691944.90065002 0 0 0 0 -108914927.65148735 158068458.00971127 0 158068458.00971127 -215308718.57720947 0 0 0 0 -21025007.914541245 2409186.8150081635 0 2409186.8150081635 11646419.900188446 0 0 0 0 -68367731.105794907 44479164.968409538 0 44479164.968409538 61205283.102531433 0 0 0 0 4216418.3235364333 5437256.6679543005 0 5437256.6679543005 -280638.33336044103 0 0 0 0 351465718.32676697 -15299591.212116241 0 -15299591.212116241 -33710064.929607391 0 0 0 0 476759771.68074989 195009876.06493855 0 195009876.06493855 -26615429.850921631 0 0 0 0 559561579.44128799 219342728.08081818 0 219342728.08081818 -140607230.89536476 0 0 0 0 356621555.85165024 149815934.42050743 0 149815934.42050743 -31962796.344459534 0 0 0 0 34903856.348457336 -37345696.795276642 0 -37345696.795276642 28345632.054878235 0 0 0 0 351631558.77811813 126229147.44691467 0 126229147.44691467 55113310.308677673 0 0 0 0 80654.114912100136 -191078.23447733931 0 -191078.23447733931 -247442.0164073864 0 0 0 0 147415361.5795517 -35102803.757713318 0 -35102803.757713318 88807955.277555466 0 0 0 0 31766954.855672836 36134074.254581451 0 36134074.254581451 -19207199.194007874 0 0 0 0 99073386.347833633 40808659.933918953 0 40808659.933918953 -24626836.177436829 0 0 0 0 348266264.27906799 57477807.575754166 0 57477807.575754166 -94678284.182235718 0 0 0 0 516061883.78462219 -207417050.72566986 0 -207417050.72566986 -6061933.6578063965 0 0 0 0 585034759.00432777 -162340455.21273994 0 -162340455.21273994 -98466319.241844177 0 0 0 0 104432618.85319519 61411834.548904419 0 61411834.548904419 82943131.880672455 0 0 0 0 185177180.92523193 44197551.220596313 0 44197551.220596313 -29614446.476486206 0 0 0 0 262552413.15333176 128631236.61050224 0 128631236.61050224 2371859.5128631592 0 0 0 0 398028.80788481608 -265270.27530049346 0 -265270.27530049346 -107867.7482174146 0 0 0 0 -32700576.835362434 -39904071.68006897 0 -39904071.68006897 31572796.747817993 0 0 0 0 249408714.93372345 14328415.375663757 0 14328415.375663757 -70278686.095399857 0 0 0 0 743907850.60718918 46657189.808609009 0 46657189.808609009 -82279856.315229416 0 0 0 0 666729781.16066551 -261412167.40501595 0 -261412167.40501595 18894925.186820984 0 0 0 0 437383664.17626762 -157147778.47534561 0 -157147778.47534561 421223231.95877838 0 0 0 0 353634755.68207169 289012746.43504715 0 289012746.43504715 250507235.44483948 0 0 0 0 876539.38916196115 634155.20427510794 0 634155.20427510794 -193528.46603140607 0 0 0 0 291423644.89107132 -316242020.78758812 0 -316242020.78758812 724054782.7324791 0 0 0 0 601522136.46501732 341945813.45408821 0 341945813.45408821 -162348717.83690643 0 0 0 0 437859516.76676178 339255459.96837616 0 339255459.96837616 331348716.27598095 0 0 0 0 529274354.99347687 154346337.26124001 0 154346337.26124001 -205700832.43621826 0 0 0 0 1664016.7933409167 1740106.3567332467 0 1740106.3567332467 95089.504361351952 0 0 0 0 220025230.23299026 -338477980.7797699 0 -338477980.7797699 265433291.54648972 0 0 0 0 -198031683.66684723 -242702412.91353416 0 -242702412.91353416 -34796649.027431488 0 0 0 0 238466402.31981277 -78336044.894508362 0 -78336044.894508362 46378459.118862152 0 0 0 0 -75129831.515842438 -52188232.579837799 0 -52188232.579837799 260096512.40599132 0 0 0 0 -125562119.41619873 197849568.76678467 0 197849568.76678467 -44860484.719238281 0 0 0 0 -63790910.551082611 -9135256.8482017517 0 -9135256.8482017517 148987183.07043457 0 0 0 0 -253520466.71086121 100778537.25868225 0 100778537.25868225 177963332.08791733 0 0 0 0 -173234728.95991516 18773254.58203125 0 18773254.58203125 185442281.79834366 0 0 0 0 -628785573.89876556 207538843.57117462 0 207538843.57117462 111235025.86816978 0 0 0 0 -150943755.00990582 393117946.96667862 0 393117946.96667862 -276840841.14928436 0 0 0 0 -6866488.4321861267 170270528.27152634 0 170270528.27152634 -51536791.145530701 0 0 0 0 167667825.21882629 236217148.48303223 0 236217148.48303223 -343994006.91122437 0 0 0 0 -86100668.049360275 237500716.06577492 0 237500716.06577492 -108548695.94070435 0 0 0 0 169840877.26326752 61919043.040916443 0 61919043.040916443 -135708846.66994476 0 0 0 0 -12796417.831207275 128330201.22234344 0 128330201.22234344 -152841622.66668701 0 0 0 0 17392144.376617432 159120029.49186707 0 159120029.49186707 59805899.120997429 0 0 0 0 871962.19537365064 115451.21734791296 0 115451.21734791296 -1104241.7811906282 0 0 0 0 130309662.99315643 1494211541.6805725 0 1494211541.6805725 -408312526.74182129 0 0 0 0 -26286755.994308472 -274831635.43741608 0 -274831635.43741608 641106771.84606934 0 0 0 0 -607585102.71184254 181956183.26995945 0 181956183.26995945 38109046.231117249 0 0 0 0 110720.59498410672 1221869.1877061054 0 1221869.1877061054 673993.14290462714 0 0 0 0 25670861.467321396 -65690515.87465477 0 -65690515.87465477 -425898021.67518616 0 0 0 0 -508954706.65675354 -31820029.174427032 0 -31820029.174427032 18730323.384109497 0 0 0 0 -19330.954353150912 5583022.0223884713 0 5583022.0223884713 6154616.9753533471 0 0 0 0 -325866000.69535828 -27392182.015148163 0 -27392182.015148163 184054.8572845459 0 0 0 0 -280469469.10136795 210472300.16188049 0 210472300.16188049 22975349.246936798 0 0 0 0 -3628765.3079299927 8767336.1884622574 0 8767336.1884622574 3114559.8464736938 0 0 0 0 -4286600.853456974 6083255.7518002987 0 6083255.7518002987 3358151.896648407 0 0 0 0 -4721729.2487761974 7503238.9321059585 0 7503238.9321059585 1993680.3106079102 0 0 0 0 -51106012.490921021 285601557.18120575 0 285601557.18120575 96420042.60027504 0 0 0 0 -77959960.251209259 -41620504.407173157 0 -41620504.407173157 285536800.17098236 0 0 0 0 -109346917.45888519 144711998.05806732 0 144711998.05806732 -263983408.27060509 0 0 0 0 -452926627.61906433 334372998.16326523 0 334372998.16326523 3773992.0816230774 0 0 0 0 -427711065.23965836 237987688.91069412 0 237987688.91069412 37504316.321311951 0 0 0 0 -121546633.96791458 183831875.40667343 0 183831875.40667343 -8693221.6876831055 0 0 0 0 -331984946.35396576 314688377.30161285 0 314688377.30161285 -137699841.82985687 0 0 0 0 51669566.458618164 210595856.10132217 0 210595856.10132217 -42371452.817964554 0 0 0 0 213752030.42405128 64239473.265550613 0 64239473.265550613 -11363055.502616882 0 0 0 0 -72055357.674484253 95519301.641716003 0 95519301.641716003 -123277106.88050079 0 0 0 0 -34753879.488666534 223437212.34837723 0 223437212.34837723 -136235457.71367526 0 0 0 0 805070.726158645 -99124.535433631856 0 -99124.535433631856 -952134.83290505782 0 0 0 0 -435187578.09991729 357523099.35582268 0 357523099.35582268 -112407117.14453125 0 0 0 0 1212976.2239641361 4596060.1149119213 0 4596060.1149119213 4281434.0195988156 0 0 0 0 -5341760.8689498901 6306865.6812419891 0 6306865.6812419891 -1077391.1751823425 0 0 0 0 -2401602.3085746765 1976715.9997463226 0 1976715.9997463226 2258854.6576385498 0 0 0 0 -5336964.7673492432 5361536.3781299591 0 5361536.3781299591 -1463869.3275375366 0 0 0 0 -447815602.28680015 130146437.46710783 0 130146437.46710783 -232166095.41281891 0 0 0 0 -449363935.29096985 629534714.01350212 0 629534714.01350212 -158685452.46197653 0 0 0 0 -7339385.883228302 9172703.4590950012 0 9172703.4590950012 1285927.0259170532 0 0 0 0 -9464955.2660140991 9290921.4237785339 0 9290921.4237785339 -127073.31357383728 0 0 0 0 -5614080.4984169006 8190858.5164136887 0 8190858.5164136887 -474858.38010787964 0 0 0 0 -4977821.0707130432 7629850.1354026794 0 7629850.1354026794 -182362.40338897705 0 0 0 0 -6990732.3131904602 8074218.0633411407 0 8074218.0633411407 3235447.0913009644 0 0 0 0 -11412882.507263184 6935071.3530654907 0 6935071.3530654907 4221066.5469894409 0 0 0 0 -5956545.0303459167 4913005.182053566 0 4913005.182053566 741113.89011383057 0 0 0 0 -6947886.9893398285 8626273.6493606567 0 8626273.6493606567 -1202151.0879974365 0 0 0 0 -8387306.838470459 6697420.3653106689 0 6697420.3653106689 -298378.17132949829 0 0 0 0 -13304139.758163452 10569984.45524025 0 10569984.45524025 470057.87960243225 0 0 0 0 -11035631.846069336 14832662.602718353 0 14832662.602718353 -4957797.2139625549 0 0 0 0 -6760513.9140548706 11556018.938434601 0 11556018.938434601 -3811216.9996757507 0 0 0 0 -10039909.474583149 12559713.392444372 0 12559713.392444372 -2545485.9870147705 0 0 0 0 -14823236.938006401 15636593.770781755 0 15636593.770781755 -2912621.7367095947 0 0 0 0 -14775192.134063721 19013911.22974968 0 19013911.22974968 -8546989.0774593353 0 0 0 0 -21101334.922241211 16127650.288740158 0 16127650.288740158 3179506.7968626022 0 0 0 0 -10658046.625770569 9228103.1889209747 0 9228103.1889209747 578746.47152709961 0 0 0 0 -9356113.2786102295 7089983.5820331573 0 7089983.5820331573 3299040.5887947083 0 0 0 0 -16307368.286880493 8457026.0207281113 0 8457026.0207281113 12575071.664802551 0 0 0 0 -28439874.322845459 20164832.728759766 0 20164832.728759766 6963742.4978141785 0 0 0 0 -21567194.441253662 23498731.509399414 0 23498731.509399414 5933979.3836212158 0 0 0 0 8793765.2408618312 9623971.2492686138 0 9623971.2492686138 5220598.1026068795 0 0 0 0 -30549455.47895813 34134655.543827057 0 34134655.543827057 -3154641.9367294312 0 0 0 0 -203662500.98833847 192068826.61941093 0 192068826.61941093 -7296876.835796833 0 0 0 0 1844786.9336100817 3577057.8133509941 0 3577057.8133509941 2515064.237746926 0 0 0 0 -2575069.8819694519 10261508.268798828 0 10261508.268798828 8105093.589515686 0 0 0 0 9610423.1029891968 12931158.784067154 0 12931158.784067154 8688509.5692424774 0 0 0 0 -9185689.3703155518 5806326.5570411682 0 5806326.5570411682 11271536.061100006 0 0 0 0 2726745.7519989014 -1468712.5534439087 0 -1468712.5534439087 15639676.945285797 0 0 0 0 -8070005.3141822815 46198717.516271591 0 46198717.516271591 15832893.452077866 0 0 0 0 -18491080.543995857 12951037.896897793 0 12951037.896897793 37776169.667629242 0 0 0 0 39932138.337165833 -46020784.507862091 0 -46020784.507862091 78298860.104373932 0 0 0 0 -9003383.7808074951 43829322.52555275 0 43829322.52555275 43872089.717460632 0 0 0 0 -1201369.313369751 80787434.289369583 0 80787434.289369583 134119350.84492493 0 0 0 0 8985838.5224838257 114045917.76499557 0 114045917.76499557 64404017.37697649 0 0 0 0 2014506.7517985944 2165673.281527312 0 2165673.281527312 238700.82829084434 0 0 0 0 -257205678.28549957 203950849.15626526 0 203950849.15626526 797925437.38344765 0 0 0 0 21769743.513145447 -166310563.32640457 0 -166310563.32640457 452031132.76558685 0 0 0 0 -1134048364.6401443 685850818.2682991 0 685850818.2682991 -70033907.975151062 0 0 0 0 -2464625.246307373 793075673.08930969 0 793075673.08930969 -242446037.33015442 0 0 0 0 1813363.5922657643 -140196.61855743779 0 -140196.61855743779 -1881443.2019174639 0 0 0 0 -365389031.78136444 -213416298.53557599 0 -213416298.53557599 -117486995.54844284 0 0 0 0 1803803894.436203 -440452112.76574707 0 -440452112.76574707 -549821320.09460449 0 0 0 0 522836727.44576263 -794802634.04227448 0 -794802634.04227448 -354545946.42235565 0 0 0 0 2889149555.7086182 1948522204.3549347 0 1948522204.3549347 2535133328.7315979 0 0 0 0 1318713.7037136126 -64424.647490616422 0 -64424.647490616422 -1226337.7193148024 0 0 0 0 59817641.58654809 -500200233.64215457 0 -500200233.64215457 -352045982.65670013 0 0 0 0 -70423091.75579834 -476042032.23525429 0 -476042032.23525429 516797832.37545013 0 0 0 0 -600797578.79332733 -454115748.01027679 0 -454115748.01027679 196910640.69836426 0 0 0 0 -617848527.4839325 -593240194.14736748 0 -593240194.14736748 -455299852.65953064 0 0 0 0 154660039.10124207 437898876.61977386 0 437898876.61977386 -626075963.4894104 0 0 0 0 138964283.83721924 542803208.31815338 0 542803208.31815338 165858314.65813255 0 0 0 0 -1041112688.7849045 -2471162922.8894062 0 -2471162922.8894062 -838675659.27962494 0 0 0 0 574394547.41000366 1032442225.8088112 0 1032442225.8088112 689302822.66762543 0 0 0 0 1549948484.2513027 -353630143.70082569 0 -353630143.70082569 17965446.445968628 0 0 0 0 2665385.9158090018 1000470.6205936037 0 1000470.6205936037 -852132.35859486298 0 0 0 0 367844957.58487701 628694831.93513489 0 628694831.93513489 1568323058.4260612 0 0 0 0 17356230.903381348 -638859533.46545792 0 -638859533.46545792 840923016.20099545 0 0 0 0 281824821.02669525 -63020805.873037338 0 -63020805.873037338 73182286.52407074 0 0 0 0 878132889.51582718 312273499.7904911 0 312273499.7904911 11250478.218986511 0 0 0 0 15741918.41449213 55315420.809400558 0 55315420.809400558 768683667.90032959 0 0 0 0 358664863.72251892 448169702.97229004 0 448169702.97229004 604605853.53074265 0 0 0 0 1907871817.7420044 899660134.19287491 0 899660134.19287491 305392156.44303894 0 0 0 0 790088110.73950958 99046620.097686768 0 99046620.097686768 -109586362.17926407 0 0 0 0 717232154.86127472 -65835537.687322617 0 -65835537.687322617 -344756212.16162872 0 0 0 0 1167229584.1885757 -1140249.7737541199 0 -1140249.7737541199 -355252035.78131104 0 0 0 0 626514455.41043091 -165802646.27780151 0 -165802646.27780151 -351092101.82416534 0 0 0 0 491938215.44168091 200395612.86388397 0 200395612.86388397 -125504301.32197571 0 0 0 0 457812360.06886292 57210065.284454346 0 57210065.284454346 -142241490.43338776 0 0 0 0 344801719.57965088 38195636.831954956 0 38195636.831954956 -132945108.05193138 0 0 0 0 363163953.4412384 176382757.36620331 0 176382757.36620331 -121110358.09071732 0 0 0 0 378607209.43013 -148343429.74570084 0 -148343429.74570084 -348164218.90976715 0 0 0 0 534196073.71899033 -40654176.240310669 0 -40654176.240310669 -328208926.34820557 0 0 0 0 535551170.94807434 -62838504.635566711 0 -62838504.635566711 -94858728.519740582 0 0 0 0 487273291.25129986 -59221053.944159985 0 -59221053.944159985 -175150377.52544403 0 0 0 0 471490945.47301483 -169525132.30099869 0 -169525132.30099869 -243977474.78089142 0 0 0 0 90012221.075813293 -94594919.163784027 0 -94594919.163784027 -151988250.51989746 0 0 0 0 -66558579.625886917 88078869.325701714 0 88078869.325701714 -80984476.073127747 0 0 0 0 289545624.89216232 68042166.552612305 0 68042166.552612305 -125812283.50224304 0 0 0 0 -149082376.57135773 66866651.812870026 0 66866651.812870026 -150305047.39413452 0 0 0 0 143905712.26895523 -25870353.875333786 0 -25870353.875333786 -137076210.36434937 0 0 0 0 -237490201.91390228 -335021127.81219482 0 -335021127.81219482 -84261506.071128845 0 0 0 0 447152453.02635193 -307892671.25482941 0 -307892671.25482941 -145846813.26282501 0 0 0 0 574629571.71349335 -159766803.44360733 0 -159766803.44360733 -246416319.00229025 0 0 0 0 
</DataArray>
<DataArray type="Float64" Name="cross_section_updated" format="ascii">
1 1 1 1 1 0.08720859918933388 1 1 1 1 1 1 1 0.088866529606320216 1 1 1 1 0.08725797754066969 1 1 0.0936470947038434 1 1 1 1 0.078455870123903163 1 1 1 1 0.082438307177737133 1 1 1 1 1 1 1 1 1 1 1 1 1 0.089813960439220686 1 1 0.090043224417898929 1 1 1 1 1 0.092181679985880643 1 1 1 1 1 1 1 0.077058895082557519 1 1 1 1 0.089234627357414192 1 1 1 1 1 1 1 1 1 0.089843902594948968 1 1 0.090495368289233796 1 1 0.099250744310635436 1 1 1 1 0.091118194893989812 1 1 1 1 1 1 1 0.089232078053541886 0.090004135426307724 0.089848489193015649 1 1 0.090056651466722176 1 1 1 1 1 0.089790640900608398 1 1 1 1 1 1 1 1 1 1 1 1 1 0.090233926770498199 1 1 1 0.089600781006021563 1 1 1 1 1 1 0.089967129337408594 1 1 1 1 1 1 1 1 1 1 1 1 1 1 1 1 1 1 1 1 1 1 1 1 1 0.089933905156729957 1 1 1 0.088835791201059902 1 1 0.089486580395848725 1 1 1 1 1 1 1 1 1 1 1 0.09014660493385622 1 1 1 1 1 1 1 1 0.090722877896118631 1 1 1 1 1 1 1 1 0.091914554589232561 1 1 1 1 1 1 1 1 1 0.089615226779689361 1 1 1 1 1 1 1 1 1 1 1 1 1 1 1 1 1 1 1 1 1 1 1 0.089997560970109122 1 1 1 0.075872102081143408 1 0.090086467170150369 1 0.081522513385210216 1 1 0.10092590085507595 1 1 1 0.093590571897466529 1 0.086376743974759945 1 0.090238207486326369 1 0.08178882997044809 0.086469836410407036 1 0.088032560340430804 1 1 0.087299684059172045 1 0.09251258073333482 1 1 1 0.088621642076117987 1 0.087097715110892537 0.089296770932640421 1 1 0.091416598439879926 1 1 1 0.088213652685610239 1 0.097615893049766228 0.096189557535510756 0.088928581002486337 1 0.090098288986254965 1 1 1 0.090048700224575562 1 0.095448827896144589 0.085124524263239854 0.089808444677250077 1 1 0.094361849850316398 0.093793815506695202 1 1 1 1 0.09537194551114854 1 0.089971716554187092 1 1 0.091989149768124556 1 1 1 0.087974575649154091 1 0.089478375026018561 0.087628078351757607 0.089507880345500973 1 1 1 0.090497490567843869 1 0.088134580585038813 0.094146509226528383 0.08977446950300734 0.093499996396350288 1 1 1 0.08933608751385802 0.089998914411335229 1 1 0.086016183656498768 0.092731302637840546 0.091457723417006948 1 0.090653029213728059 1 1 1 1 0.08999524756195447 1 1 1 1 1 1 1 0.090465730252567184 1 1 1 1 1 1 0.090175827330237407 0.089997313121371589 1 1 1 0.090544857012829841 1 1 1 0.089986671532767987 1 0.092443910583331887 1 0.083626269734130315 0.099163422119938782 1 1 1 1 0.090281548742290954 1 1 0.096763109471875136 1 1 1 1 0.089966664365040847 1 0.089988396889371033 1 1 1 1 1 0.083802617579951388 0.094915984205014722 1 1 1 1 1 1 1 1 0.089795162659567634 1 1 1 0.089514669452083639 1 1 0.089461078060382976 1 0.089999374887929265 1 1 1 1 1 1 1 1 1 1 1 0.10048364648012742 1 0.089849857746165052 1 0.098136875218724551 1 1 1 0.089021727415994151 1 0.090006456706754903 1 0.086875868351583257 1 1 1 1 1 1 0.093160221291858344 1 0.087043455189336483 1 1 1 0.092223820760331365 1 1 1 0.094308456412834724 1 0.087426903666503505 0.10166422661765426 1 1 1 1 0.090053307533652205 1 1 1 1 0.08442946446417289 0.097679307113220509 1 1 0.092184573208377724 1 0.090989966709737927 1 0.090153087927299619 0.091559364366970986 1 1 1 0.089979993082667256 1 1 1 1 0.084765085689874314 1 1 1 1 1 1 1 1 1 1 1 0.089995665380026832 1 1 1 1 0.093727210859369484 1 1 1 0.08633990110372193 1 0.091881338724454142 0.090872925490793621 0.089999784199907729 1 1 1 0.096989791911989254 0.082653831927375354 1 0.081153786364772967 1 1 0.088854954334189426 1 1 1 1 0.081488004196686614 1 1 1 1 1 1 1 1 1 1 1 0.080940927068851115 0.103021955533594 1 1 0.085226262839983538 1 1 1 0.09000746024752096 1 1 1 1 1 1 0.098681662395152511 1 1 1 0.091014871862684435 1 1 1 0.089937487502113084 1 1 1 1 1 1 1 1 1 1 1 0.097215929168244786 1 1 1 0.095722491527596862 1 1 1 1 1 1 1 0.089397312712898178 1 1 1 1 1 0.08820893880364844 1 1 1 1 1 1 1 1 1 1 1 1 1 1 1 1 1 1 1 0.09032596785217531 1 1 1 1 0.090379527019674485 1 1 0.090199946370347298 1 1 1 1 1 1 1 0.090274971798809139 1 1 1 1 1 1 1 1 0.089989431174220785 1 0.09083550115869779 1 1 0.088383256125649498 1 1 1 0.089484270948326658 1 1 0.090253581307839836 1 1 1 0.086959604932100198 1 0.088615990261032229 1 1 0.090002975634886975 1 0.085882254325881077 1 1 1 1 1 1 1 1 1 1 1 1 1 1 1 1 1 1 1 1 1 1 0.089835289530568574 1 0.089325751188346902 1 0.089778952195238682 1 1 1 1 1 1 1 1 1 1 1 1 1 1 1 0.089911429265667975 1 1 1 1 1 1 1 1 1 0.089923860264900596 1 1 1 1 1 1 1 1 1 1 1 1 1 1 1 1 1 1 1 1 1 1 1 1 1 1 1 1 1 0.089953483456126609 1 1 0.09000884777542234 1 1 1 0.088641610914772948 0.093446843750128877 1 0.093097201759377593 1 1 1 1 1 0.088883665784071794 1 1 1 1 1 0.089134053569943902 1 1 1 1 1 1 1 1 1 1 1 1 1 1 1 1 1 1 1 1 1 1 1 1 1 1 1 1 1 1 1 1 1 1 1 1 1 1 1 1 1 1 1 1 1 1 1 1 1 0.090482533109375762 1 1 1 1 1 1 1 1 1 1 1 1 1 1 1 0.092478919678957772 1 1 1 1 0.091029977194865067 1 1 1 1 1 1 1 1 1 1 1 1 1 1 1 1 1 1 1 1 1 1 1 1 1 1 1 0.09321148586143975 1 1 0.089359817018540386 1 0.085271852618105465 0.091105016879913042 0.092600603927206829 0.10188238061946903 1 1 0.089969985384066573 1 1 1 1 1 1 1 1 1 1 1 1 1 1 1 1 1 0.084538619644418139 1 1 0.08562352296046738 1 0.094066133322089171 1 1 1 1 0.078245450967886973 1 0.092033969303489407 1 1 1 1 0.089973452348804897 1 1 1 0.090839389537692466 1 1 1 1 1 0.08360518434309186 1 0.09111670898287888 1 1 0.091054929992480521 0.094687793475337914 1 0.088568247245471354 1 1 1 1 1 1 1 1 1 1 1 0.07968228205665627 1 1 1 0.079187158134738089 1 1 1 0.094377763176197338 1 1 0.079669302675047363 0.089864428564106952 0.089944951424837313 1 1 1 1 1 1 1 1 1 1 1 0.089975225577195353 1 1 1 1 1 1 1 1 0.079423567409292156 0.073537838508928727 0.079194503912014422 1 1 1 1 1 1 1 1 0.075617526197490514 0.089928036956289731 1 1 1 0.094129401730084744 1 1 0.089145922239760089 1 1 1 1 1 1 1 1 1 1 1 0.089736740949456786 1 1 1 1 1 1 1 1 0.089794472605571107 1 1 1 1 1 1 1 1 1 1 0.090017172684530647 1 0.089202729159376923 0.08691339795014931 0.088574722519093527 1 1 1 1 1 1 1 0.079151022931138279 0.075581872504616482 1 0.090738904163856327 1 1 1 1 1 0.090943298936738221 1 0.089901056217809791 0.084600312994921226 1 1 1 0.084144743878415446 1 0.083532125495671572 1 1 1 1 0.089994478901547395 1 1 1 1 1 1 1 1 1 1 1 1 1 1 1 1 1 0.090893975344929837 1 1 1 0.089565810940038973 1 1 1 1 1 0.090426939436459103 1 1 1 1 1 1 0.089821257110016872 1 0.089950908580890193 1 1 1 1 1 1 1 1 0.089410942198447391 1 1 1 0.090617325931238099 1 1 1 1 1 1 1 1 1 1 1 1 1 1 1 1 1 1 1 1 1 1 1 1 1 0.08907868861181456 0.09286739362999917 0.10205663397756266 1 1 1 1 0.085523563341245168 1 1 1 1 0.083449988827849486 1 1 1 1 1 1 1 0.09100806694324351 1 1 1 1 1 1 1 1 0.091684802895049267 1 1 1 1 1 1 1 1 1 1 1 1 0.092701421108821319 1 1 1 1 1 1 0.090059487977236119 1 1 1 1 1 1 1 1 0.090837927579124095 1 1 1 0.097794781475903744 1 1 1 1 1 1 1 1 1 1 1 1 0.090676735951805795 1 1 1 1 1 1 1 1 1 1 1 1 1 1 1 1 1 1 1 1 1 1 1 1 1 1 1 1 1 1 1 1 1 1 1 1 1 1 1 1 1 1 1 1 1 1 1 0.089768541169714736 1 1 1 1 1 1 1 1 1 1 1 1 1 1 1 1 1 1 1 1 1 1 1 1 0.090625548580542586 1 1 1 1 1 1 1 1 1 1 0.089948749525692095 1 1 0.091762350860149652 1 1 1 1 1 1 1 1 1 0.089733241806126532 1 0.089415793893537043 1 1 1 1 0.092735565113418766 1 1 0.089803201664485549 1 0.088496900120727279 1 1 1 1 1 0.089280641206690714 1 1 1 1 1 1 1 1 0.090776961821767338 1 1 1 1 1 1 1 1 1 1 1 1 1 1 0.089228440818475405 1 0.090514078990378527 0.090112072218236167 1 1 1 1 1 0.090041779846219569 1 1 1 1 1 1 1 1 1 1 1 1 1 1 1 0.090127349110756344 1 1 1 1 1 1 1 1 1 1 1 1 1 1 1 1 0.089506229310293117 1 1 1 1 1 0.089285205393421496 0.089679828020890584 1 1 0.089868369457109409 1 1 1 1 1 1 1 1 1 1 0.090029319499518562 1 1 1 1 1 1 1 1 1 0.088960359782677065 1 0.11439588053647566 1 1 1 1 1 0.089108681409821658 1 1 1 1 0.11319540651024051 1 1 1 0.086738801536302479 1 1 1 0.10793252630974516 1 1 0.089713820934181815 1 1 1 1 1 1 1 1 1 1 1 1 1 1 1 1 0.089379515867733461 1 1 1 1 1 1 1 0.089870236448905183 1 1 1 1 1 1 1 1 1 1 1 1 1 1 1 1 1 1 1 1 1 1 1 1 1 1 1 0.10776297623642833 1 1 1 1 0.089900853437498887 1 1 1 0.071847189803187411 1 1 1 1 1 1 1 1 1 0.073692489396100472 1 0.090002698137954307 1 1 1 1 1 1 1 1 1 1 1 1 1 1 1 1 1 1 0.090012489907835114 0.10192910508090396 1 1 1 0.088736542372676364 1 1 0.09634932586144096 1 1 0.092954643208604318 1 1 1 0.089689860452553768 1 1 0.091063974718552571 1 1 1 1 1 1 1 1 1 1 1 1 1 1 1 1 1 1 1 1 0.089196089762846903 1 0.09030922287831851 1 1 1 1 1 1 1 1 1 1 1 0.08992513076806613 1 0.088212271218167257 1 1 1 0.077534649561258426 1 1 1 1 1 0.090058681582905628 1 1 1 1 1 1 0.080110937857523712 1 1 1 1 1 1 1 1 1 1 1 0.083353714004706536 1 1 1 1 1 1 1 1 0.073894533297576115 1 1 1 0.080131197285236391 1 1 0.086473347359806579 1 1 1 1 1 0.092811208585364596 1 1 1 1 1 1 1 1 1 0.090001152568530099 1 1 0.099294565242181915 1 0.095655411576673399 1 0.086398151222164266 0.09285991182621367 0.090508636032633372 1 0.089949522066618062 1 1 1 1 1 1 0.079187392281655486 1 1 1 1 1 1 0.090165187062030111 1 1 1 1 1 1 1 0.078261910015465466 1 1 1 1 0.077409994888570366 1 1 1 1 1 0.090506216165157805 1 0.08998250465451374 1 1 1 1 1 1 1 1 1 1 0.090422296877497726 1 1 1 1 1 1 1 0.089006118980997972 1 1 1 1 1 1 1 0.090004622446033494 1 0.090613786335291241 1 1 1 1 1 1 1 1 0.10092845182389557 1 1 1 0.1047043094127485 0.090041278019544008 1 1 1 1 1 0.09942923116216365 0.089988030223056195 1 0.097922486903720532 1 1 0.085619585500566919 1 1 0.088661347612937272 1 1 1 1 1 1 1 1 0.074263487461734862 1 1 1 1 1 0.12044068948005818 1 1 1 1 0.10990863408778803 1 1 0.1076039959063874 1 1 1 1 1 1 1 1 1 1 1 1 1 1 1 1 1 1 1 1 1 1 1 1 1 1 1 1 1 1 1 1 1 1 1 1 1 1 1 1 1 0.088961669172705704 1 1 0.090054002230525065 1 1 1 1 1 0.091396668431116809 1 1 1 1 0.089061276758669414 1 1 1 1 1 1 1 1 1 1 1 1 1 1 1 1 1 1 1 1 1 1 1 1 0.091210819447553965 1 1 1 0.090532284804521052 1 1 1 1 1 1 0.090089568273699877 1 1 1 1 1 1 1 1 1 1 1 0.097301579853679834 1 0.091115980327146809 0.091512661309900739 1 1 0.091823096807070126 1 1 1 1 1 1 1 1 1 1 1 0.098714315908427289 1 1 0.092858648870868365 1 1 1 1 1 1 1 1 1 1 1 1 1 1 1 0.096345048894175833 1 1 1 1 1 1 1 0.089920247548962759 1 0.091136602187926699 1 1 1 1 0.091710626764213612 1 0.089580843914943614 1 1 1 1 1 1 1 1 1 0.088298472053080598 1 1 1 1 1 1 1 1 1 1 1 1 1 1 1 1 1 0.090612905956168152 1 1 1 1 1 1 1 1 1 1 1 1 1 1 1 1 1 1 1 1 1 1 1 1 1 0.088973024739976578 0.089873523761631643 1 1 1 1 1 1 1 1 1 1 1 0.088434654113023536 1 1 1 1 0.086914616103387674 1 1 1 1 0.0875161335505973 1 1 1 1 1 1 1 1 0.092385194351172206 1 1 1 1 1 1 1 1 1 0.090461528454278226 1 1 1 1 1 1 1 1 1 1 1 1 1 1 1 1 1 1 1 1 0.057505475395593163 1 1 1 1 1 1 1 1 1 1 1 1 1 1 0.099965629628446503 1 0.090082658437293309 1 1 1 1 1 1 1 1 0.098635278835808485 1 1 0.090172226710993189 1 1 1 1 1 1 1 1 1 1 1 1 1 1 1 1 1 1 1 1 1 1 1 1 1 1 1 1 1 1 1 1 1 1 1 1 0.090097118222688982 1 1 0.090105447413895312 1 1 1 1 0.083652931196426389 1 0.093429103246494088 1 1 0.093071482181314932 1 0.09126448964071282 1 1 1 1 1 0.090535475736838122 1 1 1 1 1 1 1 1 1 1 1 1 0.082749316197124445 1 1 1 0.083290712170755385 1 1 1 1 1 1 1 1 1 0.09423757853340059 1 1 1 1 0.093930590476107217 0.086991029526559113 1 1 1 1 1 1 1 1 0.089931411515631526 1 1 1 1 1 0.10518951023136763 1 1 1 0.10250725491394247 1 1 1 0.057753044396070409 1 1 1 1 0.10112134025474266 1 1 1 1 1 1 1 1 1 1 1 1 1 1 0.080431103405401841 1 1 1 1 1 1 0.087365995389583992 1 0.079831979286748039 0.090001140235477312 1 0.087327906252524429 1 0.091594602811231718 1 1 1 1 0.08974970218621002 1 1 1 1 0.089309570399231805 1 1 1 1 1 1 1 1 1 0.090658037488729651 1 1 1 1 1 1 1 1 1 1 1 1 1 1 0.091387051392604349 1 1 1 0.090107675815155178 1 1 1 0.090282337438599702 1 0.08998681990986572 1 1 1 1 1 1 1 1 1 1 1 1 1 1 1 1 0.091451416270455069 1 1 1 1 1 1 0.094677732030971351 1 1 1 1 1 1 1 1 1 1 1 1 1 1 1 1 1 1 0.10255059291030509 1 1 1 1 1 1 1 1 1 1 1 1 1 1 1 1 1 1 1 1 1 1 1 1 1 1 1 1 1 1 1 1 1 1 0.088011702459382307 1 1 1 1 0.090174330827505478 1 1 1 1 1 1 1 0.099818957249372536 1 1 1 1 1 1 1 1 1 0.078678237874763551 1 1 0.10685785962564284 1 1 1 1 1 0.089971921382971443 1 1 1 0.087282457902824476 1 1 0.090561898781514966 1 1 1 1 1 1 1 1 1 1 1 1 1 1 1 1 1 1 1 1 0.078065689483755779 1 1 1 1 1 1 1 1 1 1 0.093247880778115272 0.077467285686577889 1 0.10822290666257368 1 1 1 1 1 0.10916378019907597 1 1 1 1 0.091506081630744793 1 1 1 1 1 0.089889414051545408 1 0.089872872327351111 1 1 0.087628099796918366 1 1 1 1 1 1 1 1 0.089208406309075047 1 1 1 1 1 1 0.090057262576120872 1 1 1 1 1 1 0.090280311214012671 1 1 1 1 0.090847844710962286 1 1 0.090008628876956681 1 0.091415271135509957 1 1 0.089998511321445485 1 1 1 1 1 1 0.090345466937262781 1 1 1 1 0.089985112875652751 1 1 1 1 1 1 1 1 0.090684998457327623 0.092044008429222168 1 1 1 1 1 1 1 1 0.089945875221622174 1 1 1 1 1 1 0.090021248633129686 1 1 1 1 1 1 1 0.090938120151177526 1 1 1 0.094263093213456051 1 1 1 1 1 1 1 1 1 1 1 1 0.085174898548038863 1 1 1 1 0.082400234664804867 1 1 0.094744354144587956 1 1 1 1 0.090706562668844054 1 1 1 0.090031340504499013 0.09160610480124233 1 1 1 0.089802602273309301 1 1 1 0.083088808608147213 1 1 1 1 1 1 1 1 1 0.092162380250105938 1 1 1 0.090017125921580385 1 1 1 1 1 1 1 1 1 1 1 1 0.089554569751066959 1 0.089965434057682966 1 1 0.079100774325646869 1 1 0.085797863746736563 1 1 1 1 1 1 1 0.090009600997975225 1 1 1 1 1 0.089990018810436112 1 0.078591671956861966 1 1 1 0.091506029850164941 0.090786744505795547 1 0.092982200680280347 0.086232555928532684 1 0.085728396194292913 1 1 1 1 1 1 0.09022587677838656 1 0.10152033745363176 1 1 1 1 1 1 1 1 1 1 1 1 1 0.089987988997455109 1 1 0.094465526775511899 1 0.090718123594167754 1 1 0.098446255338308059 1 1 1 0.090995873653382464 0.086764917111482293 1 1 0.10002735978133792 1 1 1 1 1 1 1 1 1 1 1 1 1 1 1 1 1 1 1 1 1 1 1 0.089123192922223038 0.089972169548717909 1 0.089780617967076343 1 0.089855313046624141 1 1 0.090000826053529895 0.090736635635447996 1 1 0.089999124128282731 1 1 0.091001638873747626 1 1 0.089611515417787183 1 0.089815810155364995 1 1 1 1 0.090017487088606574 1 1 1 1 0.089844137984964684 1 0.088399789258472236 0.090995569762458789 1 0.091792121397580251 1 1 0.089849428780336707 0.088668260936352272 1 1 1 0.090550966704599556 1 1 1 1 0.094324179879550968 0.089445096411525177 1 1 1 1 1 0.090209996639283738 1 1 1 1 1 1 1 1 1 1 1 0.095194170951813331 1 0.086462879914174465 1 0.082630492588990787 1 1 0.08999921395978272 1 0.083349577976604083 1 1 1 1 1 1 1 1 0.088741077069513591 1 1 0.091304641335389569 1 1 1 1 0.090000463804994657 1 1 1 1 1 1 1 1 1 1 1 1 0.087786382465225493 1 1 1 1 1 1 1 1 1 1 1 0.090073035334890486 1 1 1 1 1 1 0.09005994475714528 1 0.092077283422339409 1 1 0.090211048033283808 1 1 1 1 1 1 1 1 1 1 1 1 1 1 1 1 1 0.089802229451894769 0.088539307524349492 1 1 1 0.089916847652849755 1 1 0.087994599291814912 1 1 1 1 1 1 1 1 1 1 1 1 1 1 1 1 1 1 1 1 1 1 1 1 1 0.090003198013111546 0.081919745482535514 1 1 1 1 1 1 1 1 1 1 1 0.081200765605111747 1 1 1 1 1 1 1 1 1 1 1 1 1 1 1 1 1 1 1 1 1 1 1 1 1 1 1 1 1 1 1 1 1 0.089939326656803237 1 1 1 1 1 0.089950299995942964 1 1 0.090332198411190737 1 1 0.084941609884285868 0.1036976842894064 1 1 1 1 1 1 1 1 1 1 1 1 1 0.10162132251480718 1 1 0.090117481234883695 1 1 1 1 1 1 0.089996431733550514 1 1 0.099456933321514562 1 1 1 1 1 1 1 1 1 1 1 1 1 0.100268597598484 1 1 1 1 1 1 1 0.089995281438185804 1 1 1 1 1 1 1 1 1 1 1 1 0.090093003809735395 1 1 0.090033059052590098 1 1 1 1 1 1 1 1 1 1 1 1 1 1 1 1 1 1 1 1 0.098148071513088547 1 1 0.090038729481268759 1 0.092122645411183299 1 1 1 0.089985545734579814 1 1 0.088376546141535006 1 0.096059580352225629 1 1 1 0.087767325412509825 1 1 1 1 0.089961201255020051 1 1 1 1 1 1 1 0.089899191594978181 1 1 1 0.08907067864636263 1 1 1 1 1 1 1 1 1 1 1 1 0.090722637171148257 1 1 1 1 1 1 1 1 0.09066484209040454 1 1 1 1 1 1 1 1 1 1 1 0.089069681315648741 1 1 1 1 1 1 1 1 1 1 1 1 1 1 1 1 1 1 1 0.091888179384641167 0.088760814130584023 1 1 1 0.089583937238302436 1 1 1 1 1 1 1 1 1 1 1 1 0.090051003717244657 1 1 1 1 1 1 1 1 1 0.090124177329859487 1 1 1 1 1 1 1 1 1 1 1 1 1 1 1 1 0.087625646410271402 1 0.089646942175063069 1 1 1 1 1 0.088121158726265997 1 1 1 1 0.090096150503203382 1 1 1 0.090013238815685209 1 1 1 0.089154983574738056 1 1 1 1 1 1 1 1 1 0.089519731410510242 1 1 1 0.088706998603398687 1 1 0.089860000393464187 1 1 1 1 1 1 0.089902206425534134 1 1 1 1 1 1 1 1 0.089864709937009873 1 1 1 0.089898770160402958 1 1 1 1 1 1 1 1 1 1 1 1 1 1 1 1 1 1 1 1 1 1 1 1 1 1 1 0.089494605237235916 1 1 1 1 1 1 1 0.089789582771361287 1 1 1 1 1 1 1 1 1 1 1 1 1 1 1 1 1 1 1 1 1 1 1 1 1 0.089944253462912793 1 0.089995634491136164 1 1 1 1 1 1 0.089729892614609189 1 1 1 0.090194895146147994 1 1 0.090539767514580788 1 1 1 1 1 1 1 1 1 1 1 1 0.058039221434918631 1 1 1 1 1 0.057445045231352736 1 1 1 1 1 1 1 1 1 1 1 1 1 0.08978127364283256 1 1 1 0.089475405269279606 1 1 1 1 1 1 1 1 1 1 1 1 0.088507529197485571 0.098230823733201994 1 1 1 1 0.097552237561731842 1 1 1 1 1 1 1 1 1 0.089945583839430202 0.088470848944728522 1 1 1 1 1 0.088032927491829824 1 1 1 1 1 0.089965494608486588 1 1 1 1 1 0.09001608276700801 1 0.080886949029209496 1 1 1 1 0.089565677593381035 1 0.088419802659105137 1 0.096116965880449379 0.090011208745661736 1 1 1 1 1 1 1 0.090050147319109347 0.089806235623641067 1 1 1 1 1 1 0.090002466949143087 0.095270159635941723 0.091116020499449224 1 0.087834133668337477 0.087852028473038524 1 1 1 0.091280041889977764 1 1 1 1 1 0.0982027974857725 0.089317079953703304 0.090000229872726711 1 0.093761611346236728 1 1 1 0.089974920680475606 1 0.092450015605520505 0.090164376322041648 1 1 1 1 1 1 1 0.089200176291482802 0.090462031685865682 1 1 0.092223332947245648 0.087337100216362512 0.093848940749032342 1 1 1 1 1 1 1 1 1 1 1 1 1 1 1 1 1 1 1 1 1 1 1 1 1 1 1 1 1 1 1 1 1 1 1 1 1 1 1 1 0.089969337287963747 1 1 1 1 1 1 1 1 1 1 0.089541823179887681 1 1 1 1 1 1 0.088552746116472153 1 1 0.087053771932779633 1 1 1 1 1 1 1 1 1 1 1 1 1 0.091189857288411891 1 0.093631382033890417 1 1 1 1 0.091187001252919883 1 1 1 0.097480221708077033 1 1 0.098732123805349514 1 1 1 0.089991365824578506 1 1 0.089947056731510794 1 1 1 1 1 0.089953940556022433 1 1 1 1 1 1 1 0.089981011205293421 1 1 1 1 1 1 1 0.099591223552569108 1 1 0.10021947895631195 1 1 1 1 0.089650426025029539 1 0.090147143300254695 1 1 1 1 1 0.088873067263984445 1 1 1 1 0.09069540027857094 1 1 1 1 1 1 0.09220213541285413 0.078007151505008365 1 1 1 1 1 0.10002739722223587 1 1 0.090907028533657022 1 1 1 1 1 1 1 1 1 1 0.091161681773802711 1 1 1 1 1 1 1 1 1 1 1 1 1 1 1 1 1 1 0.090371408361003713 1 1 1 1 1 1 0.089993471825415824 1 1 1 1 1 1 1 0.087480037447893677 0.090011210474754022 1 1 1 1 0.089985959942101498 1 1 1 1 1 1 1 0.0894354674905007 1 1 0.082264754283588079 1 0.091609532556215109 0.096809567451427242 0.082955083825422188 1 1 1 1 1 1 0.08381680826927132 1 1 1 1 1 0.090004041331636336 1 1 1 1 0.084307133020965097 1 1 1 0.093570148962446503 1 1 1 0.092978730858893716 1 1 1 1 1 1 1 1 1 1 1 1 1 1 1 1 1 1 1 1 1 1 1 1 1 0.092280301904238679 1 1 1 1 1 1 1 0.090569915915058724 1 0.093277442474534622 1 1 1 1 1 1 0.10119781266262048 1 1 0.090948933464228165 1 1 1 0.089962398788707904 1 1 0.08909483193453821 1 1 1 1 1 0.089935015126816259 1 1 1 0.089979651447033557 0.089791790482054601 1 1 1 1 1 1 1 1 1 1 1 1 0.090703763187374928 1 1 1 1 1 1 1 1 1 0.092149793136651892 1 1 1 1 1 0.090089803404883373 0.084433444415799114 1 1 1 1 1 1 1 1 1 0.089257423108509926 1 1 1 1 1 1 1 1 0.086606526501995101 1 1 1 1 1 1 1 1 1 1 1 1 1 1 1 1 1 1 0.089121783646366401 1 1 1 1 0.088192462292729021 1 0.088879701485128304 1 0.089789763083460469 1 1 1 1 1 1 1 1 1 1 1 1 1 1 1 1 1 0.090041833508722163 1 1 1 1 1 0.087294414845152796 1 1 1 0.09153136431841577 0.08570922883014917 1 1 1 1 1 0.087556717193405242 1 1 1 1 0.089273162370095138 1 1 1 1 1 1 1 1 0.086979520317861547 1 1 1 1 1 1 1 0.088114226635576581 1 1 1 1 1 1 1 1 1 0.090210574940914279 1 1 1 1 1 1 1 1 1 1 1 1 1 1 1 1 1 1 0.089844197849864249 1 1 1 1 1 1 1 1 1 1 1 1 1 0.090250674647169654 1 1 1 1 1 1 0.090003963194738315 1 1 0.089965939776606912 1 1 0.090019406353434708 1 1 1 1 1 1 1 1 1 1 1 1 1 1 1 1 1 1 1 1 1 1 1 1 1 1 0.090031600286465494 1 0.087224068790274889 1 0.090001625881342071 0.091135429253910397 1 1 1 0.092633334863278419 1 1 1 1 1 1 1 1 1 0.089558426291743459 0.090741013995520176 1 0.10398243136835919 1 1 1 1 1 1 1 1 1 1 1 1 1 1 0.089998989974836074 1 0.088790379970322256 0.086401457122835201 1 0.095656604885066138 1 1 1 1 1 1 1 1 1 0.088445387496601025 0.089668785987499611 1 1 1 1 1 1 1 1 1 1 1 1 1 1 1 1 1 1 1 1 1 1 0.091033800209204069 1 1 1 1 1 0.089483460237760409 1 1 1 1 1 0.088290691073775587 1 1 1 0.094028130039216215 1 1 1 1 1 1 1 1 1 0.091336044009721479 1 1 1 1 0.10364808292535613 1 1 1 1 1 1 0.089544872633830527 1 1 1 1 1 1 1 0.089343248383745646 1 1 1 1 0.088219059746464615 1 1 1 1 1 1 1 1 1 1 0.090467906948371243 1 1 1 1 0.088839682372078538 1 1 1 0.098492537699304578 1 1 1 1 1 0.080964093889955444 1 1 1 1 1 1 1 1 1 1 1 1 1 1 0.087452725037650406 0.1042396181746289 1 1 0.09878070330322844 1 1 1 1 1 1 1 0.089160974337493051 1 1 1 1 1 1 0.088312855697740639 1 1 1 1 1 1 1 1 1 1 1 1 1 1 1 1 1 1 1 1 1 1 1 0.085538263688118593 1 1 1 1 1 1 1 1 0.090186491820321665 1 1 1 1 0.090973031963576159 1 1 1 1 1 0.083585188306221206 1 0.090024349442453994 1 0.093112279789527505 1 1 1 1 1 1 1 0.090004896657832539 1 1 1 0.088670366872380557 1 1 1 1 1 0.092411330816649304 1 1 1 1 1 0.090009800993958597 1 0.089998989721462294 1 1 0.090205426672933173 1 0.092981002482672867 1 1 1 1 1 0.088209343320148043 1 1 1 0.084483259263918864 1 1 1 1 1 1 1 1 1 1 0.090323322946193565 1 1 1 1 1 1 1 1 1 1 1 1 1 1 1 1 1 1 1 1 1 1 0.087646871033850465 1 1 1 1 1 1 1 1 1 1 1 1 1 1 1 1 1 1 0.083592951304186203 1 1 1 0.080357223811937037 1 1 1 1 1 1 0.09807988465105813 1 1 1 0.092884922602092898 0.09245687042123335 1 0.085088887784659853 1 0.091003950000603531 0.094597585033056764 1 0.09451330275832584 1 1 0.089998439759037749 1 1 0.090999277776956503 0.090052153145214475 1 1 1 1 1 1 1 1 0.089997048278839031 1 0.089997731440671108 1 1 1 1 1 1 1 1 1 1 1 1 1 1 1 1 1 1 1 1 1 1 0.095055757805536489 1 1 1 1 1 1 1 1 0.096979268721528927 1 1 0.090067964139706164 1 1 0.098820907572621408 0.090097904042379467 1 1 0.090031583960139203 1 1 1 1 1 1 1 1 1 1 1 1 1 1 1 1 1 1 1 1 1 1 1 1 1 1 1 1 1 1 1 1 1 1 1 1 1 1 1 0.097925180895127459 1 0.097799099710087462 1 1 1 1 1 1 1 1 1 1 1 1 1 1 1 1 1 1 1 1 1 1 1 1 1 1 1 1 1 1 1 1 1 1 1 1 1 1 1 1 0.087484176642093209 1 1 0.086515759780981055 1 1 1 1 1 0.090485629360038636 1 0.090055324301708234 1 1 0.088610864089951558 1 1 1 1 1 1 0.088365899466666814 1 1 1 1 1 1 1 1 1 1 1 0.089882439750304396 1 1 0.10555440531581266 0.098380473444291044 1 0.099263469781453811 1 1 0.082591852401586327 1 1 1 1 0.098499776899456631 1 1 1 1 1 1 1 1 1 0.08998908588228495 1 0.10313485773052913 1 1 1 1 1 1 1 0.089975864194222571 1 0.087657934034984467 1 1 1 1 1 1 1 1 1 0.090226565030039479 1 0.088290416468827793 1 1 1 1 1 1 1 1 1 1 0.090732037405765451 1 1 1 0.10231454143374681 1 1 0.089997831108557719 1 1 0.091520281413369237 1 1 1 1 0.090882180284956482 1 1 1 0.09001544315869639 1 1 1 1 1 1 1 1 1 1 1 1 1 1 0.090286442916247489 1 1 1 1 1 1 0.09025085346033318 1 0.090017317925048967 1 0.1041406093733751 1 1 1 0.090178379842952128 1 1 1 1 1 1 1 1 0.1061025798130443 1 1 1 1 1 0.089991303991167601 1 1 0.10750037505109063 1 1 1 1 1 1 1 1 1 0.09525718907057025 1 1 1 0.091743601610986797 1 1 1 1 1 1 0.09881651090790998 1 1 1 1 1 1 1 1 1 1 1 1 1 1 1 1 1 1 1 1 1 1 1 1 1 1 1 1 1 1 1 0.087425338639856659 1 1 1 1 1 0.089280223010564222 1 1 0.091135893242205113 0.085756170755706934 1 1 1 1 0.083159966635956775 1 1 1 1 1 0.091166556171954405 1 1 1 1 1 1 1 1 1 1 1 1 1 1 1 1 0.088868944629325319 1 1 1 1 1 1 1 1 0.088185449180395906 0.086468253891407165 1 1 1 1 1 1 0.087982307730057843 1 1 1 1 0.09090220983258146 1 1 1 1 1 1 1 1 1 1 1 1 1 1 1 1 1 1 1 1 1 1 1 1 0.087832821380228812 1 1 0.089276427369697486 1 1 1 1 1 1 1 1 1 1 1 1 1 1 1 1 1 1 1 1 1 1 1 1 1 1 1 0.089054708970402477 1 0.088012821103168437 1 1 1 1 1 0.086058086751567509 1 1 1 1 1 1 1 1 1 1 1 1 1 1 1 1 1 1 1 1 0.094095353631116652 0.087082850390153232 1 0.092485914306271719 1 1 1 1 1 1 1 1 1 1 1 1 1 1 1 1 0.091266059770008817 1 1 1 0.090370786204336029 1 1 1 1 1 1 1 1 1 1 1 1 1 0.088045265648399068 1 1 1 1 1 1 1 1 1 1 1 1 1 1 1 1 1 1 1 1 1 1 0.11145880626730641 1 1 1 1 1 1 1 1 1 1 1 1 1 0.10863495859992135 1 0.068904145252714766 1 1 0.094615313926709438 0.081122275108089614 1 1 1 1 1 1 1 1 1 1 1 1 1 1 1 1 1 1 1 1 0.090332169966223314 1 1 0.11551949236980442 1 1 1 0.090321590842100924 1 1 1 1 1 1 0.11640861117047312 1 1 1 0.090303613021662232 1 1 1 1 1 1 1 1 0.090016269424183504 1 1 0.081763934243292008 1 1 0.1061102666520097 1 0.10206962093534487 1 1 1 1 0.094481474918091418 0.10581987364894964 1 1 0.090284881735366654 0.10578214817276649 1 1 0.083326937318292701 1 1 1 1 0.089850344880172822 1 1 0.084746202501334605 0.081717043445822188 1 0.089980484201425667 1 1 1 1 1 1 1 1 1 1 1 1 1 1 1 1 1 1 1 1 0.084965067373178882 1 1 1 1 0.085217944159019843 1 1 1 1 0.089749163726943901 0.089617830327955686 1 1 1 1 1 1 1 1 1 1 1 1 0.089920944364988264 1 1 1 0.059670159285168806 1 1 1 1 1 1 1 0.062280025666528155 1 1 1 0.090758706070042661 1 1 0.089990176837561275 0.089984826119898914 1 1 1 0.065912125866510268 1 1 1 0.089992993694016074 1 1 1 1 1 1 1 1 1 1 1 1 1 1 1 1 1 1 0.089977071816174869 1 1 1 1 1 1 1 1 1 1 1 1 1 1 1 1 1 1 0.090072400950711534 0.089971890173060676 1 1 1 1 1 0.09002617322470019 0.090177301825464434 1 0.090124157144460704 1 1 1 1 1 1 1 1 1 0.10226377327868648 1 1 1 0.10036238897604534 1 1 1 1 1 1 1 1 1 1 1 1 1 1 0.10235825893011782 1 1 1 1 1 1 1 0.096532920950816323 1 1 0.098449014568779455 1 1 1 1 1 1 0.079238894138894428 1 1 1 1 0.080099684636667112 1 1 1 1 1 1 0.089036311643489935 1 1 1 1 1 1 1 1 0.090032210199142773 0.078467296593256144 1 1 1 0.090060596718124011 0.081918670289654646 1 1 1 1 1 0.090049083694450735 1 1 1 1 1 1 0.090637581743039486 1 1 1 1 0.089849105960611714 1 1 1 1 1 0.090215586079364904 1 1 1 1 0.088403153544284907 1 1 1 1 1 1 1 1 1 1 1 1 1 1 1 1 1 1 1 1 1 1 1 1 1 0.090081507185100926 1 1 1 1 0.094584693318665994 1 0.09669302660569766 1 0.095875804924330982 1 1 0.098503728850827393 1 1 0.08336498739823639 1 1 0.089245718524542772 1 1 1 1 1 1 0.088843444999530147 1 1 0.090912815686508164 1 0.091489539760395033 0.082912610921036092 0.091785536096011061 1 1 0.077235190857349784 1 0.090546256836496974 0.08017468216134252 1 1 1 0.087871361338865708 1 0.090019686353858971 1 1 1 1 1 1 0.091166246732668571 1 1 1 0.08997440911078608 1 1 1 1 1 1 1 0.09282191688447862 1 1 1 0.090979279070264304 1 0.088286177464984072 0.088852015458228961 1 1 1 1 1 1 1 0.088865786384761711 1 1 1 1 1 1 1 1 0.089787048168716896 0.091480385972158407 1 1 1 1 0.091711225521726961 1 1 0.091437842512103129 1 1 1 0.089999983878308376 1 1 1 0.091774418248311895 0.089644513930389552 1 1 1 1 0.089945265008225472 1 1 1 1 1 0.090394559847141703 0.091045534832746217 1 1 1 1 1 1 1 1 1 1 1 1 1 1 1 1 1 1 1 1 1 1 1 1 1 1 1 1 1 1 1 0.089544971199849999 1 1 1 0.090041990634662158 1 1 1 1 1 1 1 1 1 1 1 1 1 1 1 0.090603434032370339 1 0.090024646931375116 0.088231823973023898 1 1 0.09107825559441117 1 1 1 1 1 1 1 1 1 1 1 1 1 1 1 1 1 1 1 1 1 1 1 0.089958012646766894 1 1 0.09104853838794591 0.089979422694893563 1 1 1 1 1 1 1 0.090688790765395183 1 1 1 0.089619398419050852 1 1 1 1 0.089993942030179089 0.089995796340420986 1 1 1 1 1 1 1 0.091283703047441989 1 1 1 1 0.090837851332499137 1 1 1 1 0.090205713841799845 1 1 1 1 1 1 1 1 1 1 1 1 1 1 1 1 1 1 1 0.089668925260349003 1 1 1 1 1 1 1 1 1 1 1 1 1 1 1 1 0.090133763526050223 1 1 1 0.090015479914960075 1 1 1 1 1 1 1 1 1 0.090309265586701215 1 1 1 1 1 1 1 1 1 1 1 1 1 1 1 1 1 1 1 1 1 0.089751284056731079 1 1 1 1 1 1 1 1 1 1 1 1 1 1 1 1 1 0.089175569340790781 1 1 1 1 1 0.089957134106308054 1 1 1 1 1 1 1 1 1 1 1 1 1 1 1 1 1 1 1 1 1 1 1 1 1 1 1 0.090085057697326359 1 1 0.077440139770280872 1 1 1 0.075567460854518917 1 1 1 1 1 1 1 1 1 1 1 1 1 1 1 0.081281781124399793 1 0.088408515864201509 1 1 1 1 1 1 1 1 1 0.082982314499901635 1 1 1 1 1 1 1 1 1 0.088597569325413211 0.085529015647091852 1 1 1 1 1 1 1 1 1 1 1 1 1 1 1 1 1 1 1 1 1 1 1 1 1 1 1 1 1 1 1 1 1 1 1 1 1 1 1 1 1 1 1 1 1 1 1 1 1 1 1 1 1 1 1 1 1 1 1 1 1 1 1 1 1 1 1 1 1 1 1 0.088664059340039403 1 1 1 1 1 1 0.08633909933022442 1 1 1 1 1 1 1 1 1 0.088537621553255702 1 0.086272609315598242 1 1 1 1 1 1 1 1 1 1 1 1 1 1 1 1 1 1 1 1 1 1 1 1 1 1 1 1 1 1 1 1 1 1 0.091713634191282895 1 1 1 0.089120361139617105 0.089716945453912761 1 1 1 1 1 1 1 1 1 1 1 1 1 1 1 1 1 1 1 1 1 1 0.090557081163366582 0.089492533733738111 1 1 1 1 1 1 1 1 0.087562193161687493 1 1 1 1 1 1 0.087043019356753404 1 1 1 1 1 0.089466742447191314 1 1 1 1 0.089767627753495782 1 1 1 0.089400869223896909 1 1 1 0.089071110023562813 1 1 0.088183099849356086 1 1 1 1 1 1 1 1 1 1 1 1 1 0.089643898386472937 1 1 1 1 1 1 1 1 0.087981059304772 1 1 1 1 1 1 1 1 1 1 1 0.091006436102181842 1 1 1 0.090307145907537703 1 1 1 1 0.088932504813717866 1 1 1 1 1 1 1 1 0.088416620686644867 1 0.093570499207907276 1 1 0.085418624637569926 1 1 1 1 1 0.092194451409023478 1 1 1 1 1 1 1 1 1 1 1 1 0.089462315033360912 1 1 1 1 1 1 1 1 1 0.088235852400093961 1 1 1 1 1 1 0.088868630315329711 1 1 1 1 1 1 1 0.089070959341306696 1 1 1 1 1 0.088533274374667598 1 1 1 1 1 1 1 1 1 1 1 1 1 1 1 1 1 1 1 1 1 1 1 1 1 1 1 1 1 1 1 1 1 1 1 1 1 1 1 1 1 1 1 1 1 1 1 0.090566684377029805 1 0.091412729788831595 1 1 1 1 1 1 1 1 1 1 1 1 1 1 0.089816586495998246 1 1 1 1 1 1 1 1 1 1 1 1 1 1 1 0.085410945923576995 1 1 0.091444325732664561 1 0.092803927567432748 1 1 1 1 1 0.09282970889912745 1 1 1 1 1 1 1 1 1 1 1 1 1 1 1 1 1 1 1 1 0.078990748129125377 1 1 1 1 1 1 1 1 1 1 1 0.078332253681207081 1 0.090079640701410363 1 1 0.078050590585383009 1 0.1000249754908563 1 1 1 1 1 1 1 0.08993030526109741 1 0.067216017857510316 1 1 1 1 0.062153060467354734 1 1 1 1 0.090259064570319042 0.08371748713786327 1 1 0.078664027110445872 1 1 1 1 1 1 1 1 1 1 1 1 1 1 1 1 0.087970934418085192 1 1 1 1 1 1 1 1 1 1 1 1 1 1 0.084049380071951368 1 0.089921656850041595 1 1 1 1 1 1 1 0.12510449869474283 1 0.12228298252351197 1 1 1 1 1 1 1 1 1 0.089875628588460835 0.0547812044849822 1 1 1 0.070892648000189018 1 1 1 1 0.10120271892199449 1 0.078432396085863276 1 1 0.097191325023578745 1 0.10355675014993314 0.10338648124125008 0.091403727462526577 1 1 0.090014877204136159 1 1 1 0.10557944548966844 0.076473577608582685 0.079199604379527777 1 1 1 1 1 1 1 1 1 1 1 0.083206373357549393 1 1 1 1 1 1 0.055277978507545726 1 1 1 0.090417982724586163 1 1 1 1 1 1 1 1 0.086459437091871053 1 1 1 0.088900872964113517 1 1 1 1 1 1 1 1 1 1 1 1 1 1 1 1 1 1 1 1 1 1 1 1 1 1 1 1 1 1 1 1 1 1 1 1 1 1 1 1 1 1 1 1 1 1 1 1 1 1 1 1 1 1 1 1 1 1 1 1 0.091305997027674168 1 1 1 1 1 0.093501614863599078 1 1 1 1 0.090722355797383414 1 1 1 0.096196695116284842 1 1 1 1 1 1 1 1 1 1 1 1 1 1 1 1 1 1 1 1 1 1 1 1 1 1 1 1 1 1 1 1 1 1 1 1 1 1 1 1 0.088737179182092119 1 1 0.086321008097278884 1 1 1 1 1 1 1 0.090407167278680242 1 1 1 1 1 1 1 1 1 1 1 0.091228015230942233 1 1 0.090029685599493939 1 0.091631349004730883 1 1 1 0.084021317352921371 1 1 1 1 1 1 1 1 0.089884418241866521 1 1 1 1 0.090653654640556136 1 1 1 1 0.082249621464346848 1 0.090821083248825624 1 1 1 1 1 1 1 1 1 1 1 1 0.08254860292097177 1 0.082261036099912338 1 1 1 1 1 1 1 1 1 1 1 1 1 0.090512006507367321 1 1 1 1 1 1 1 1 1 0.090888571781227473 1 1 1 0.090376565273860177 1 1 1 1 1 1 1 1 1 1 1 1 1 1 1 1 1 1 1 1 1 1 1 1 1 1 1 1 1 1 1 1 1 1 1 0.092644035164157701 1 1 0.08991227777477892 1 1 1 1 0.088462654322426906 1 1 1 1 1 1 1 1 1 1 1 1 1 1 1 0.091443481211233552 1 1 1 1 1 1 1 1 1 0.089115272920010286 1 0.090516846482666738 1 1 1 1 1 1 1 0.089592789224304734 1 1 1 1 1 1 1 1 1 1 1 1 1 1 0.089607626718980746 1 1 1 1 1 1 1 1 1 1 1 0.089347282557200591 1 1 1 1 1 1 1 1 1 1 1 1 1 1 1 1 1 1 1 1 1 1 1 0.089890550973991318 1 0.09058722728802561 1 1 1 1 1 1 0.082564802544755483 1 0.091650356501141117 1 1 1 0.082541988633791835 1 1 1 0.098525453726068718 1 1 1 0.08234879618652001 1 1 0.096144547495801397 1 1 1 1 1 1 1 0.092402553789132674 1 1 1 1 1 1 1 0.085862235519851143 1 1 1 1 1 1 1 1 1 1 1 1 1 0.087690935430736777 1 1 1 1 1 1 1 1 0.082852865058397382 1 1 1 1 1 1 1 1 1 1 1 1 1 1 1 1 1 1 1 1 0.088963682842484043 1 1 1 1 1 1 1 1 1 1 1 1 1 1 1 1 1 1 1 1 1 1 1 1 1 1 1 1 1 1 1 1 1 1 1 1 1 1 1 1 1 1 1 1 1 1 1 1 1 1 0.091083296872222302 1 0.08438749072843546 1 1 1 0.092496822741081799 1 1 0.089753769304989059 0.08237359364821463 1 0.092732604197212826 1 1 1 1 1 1 1 1 1 1 1 1 1 1 1 1 1 1 1 1 1 1 1 1 1 1 1 1 1 1 1 1 1 1 1 0.090161923431445912 1 1 1 1 0.090483613798096316 1 1 0.079490162663679753 1 1 1 0.089964073784702225 1 1 1 1 0.091961300244981059 1 0.089995057964240135 0.091386219863010362 1 1 1 1 0.092284509565512651 1 1 1 0.090555965717324494 1 1 1 0.090018364566545023 1 1 1 1 1 1 0.089776050409958397 1 1 1 1 1 1 1 1 1 1 1 1 1 1 1 1 1 1 1 1 0.090710918416559094 1 1 1 1 1 1 1 1 1 1 1 1 1 1 1 1 1 1 0.089415792907185182 1 1 0.088358853666198417 1 1 0.095111251470003738 1 1 1 1 1 1 1 1 1 1 1 0.087444205133558869 1 1 1 1 0.091091654816444545 1 1 1 1 0.089859552672306969 1 1 1 0.090869376990207737 1 1 1 1 1 1 1 1 1 1 1 1 1 1 1 1 1 1 1 1 1 1 1 1 1 0.088440868109390808 1 1 1 1 1 1 1 1 0.09086845247653598 1 1 1 0.093234900924572067 1 1 1 1 1 1 1 1 1 1 1 1 1 1 1 1 1 1 1 1 1 1 1 1 0.099660989507515993 1 1 1 0.085317079764106449 1 1 1 1 1 1 1 1 0.097491946556943612 1 1 0.087115514316147821 1 1 1 1 0.08901894979126497 1 1 1 1 1 1 1 0.10214354188347985 1 0.088664458256816944 1 1 0.088725538115059385 1 1 0.098947977439303669 0.090012150820754533 1 1 1 1 1 1 1 1 1 1 1 1 1 1 1 1 1 1 1 1 1 0.10840874730915892 1 1 1 1 0.10530870620242214 1 1 1 1 1 1 1 1 1 1 1 1 1 0.11027425130557413 1 1 0.090382382173648787 1 1 1 1 1 1 1 1 1 1 1 1 1 1 1 1 1 1 1 1 1 1 1 1 1 1 1 1 1 1 1 1 1 1 1 1 1 1 1 1 1 1 1 1 1 1 1 1 1 1 1 1 1 1 1 1 1 1 1 1 1 1 1 1 1 1 1 1 1 1 1 1 1 1 1 1 1 1 1 1 1 1 1 1 1 1 1 1 1 1 1 1 1 1 1 1 1 1 1 1 1 1 1 1 1 1 1 1 1 1 1 1 1 1 1 1 1 1 1 1 1 1 1 1 1 1 1 1 0.089512493467678256 1 1 1 1 1 1 1 0.091912177288116959 1 1 1 1 1 1 1 1 1 0.095447317273528398 1 0.082470958097751998 1 1 1 0.08682013234658234 1 1 0.086214656542810436 1 1 1 1 1 1 1 1 1 1 1 1 1 1 1 1 1 1 1 1 1 1 1 1 1 1 1 1 1 1 1 1 1 1 1 1 1 0.087884148268291787 1 1 0.085562621990759258 0.097547044589173224 1 1 0.090479236866504401 1 1 0.078802688758030148 1 1 1 0.080963271781349266 1 1 1 1 1 1 1 1 1 0.085445034187184105 1 1 1 1 1 1 0.088885563470098544 1 1 1 1 1 1 1 1 1 1 1 1 1 1 1 1 1 1 1 1 1 1 1 1 1 1 1 1 1 1 1 0.11480585536088614 1 1 1 1 1 1 1 1 1 1 1 1 1 1 1 1 1 1 1 1 1 1 1 1 1 1 1 1 1 1 1 1 1 1 1 1 1 1 1 1 1 1 1 1 1 1 0.076094291052975979 1 0.094946099483412219 1 1 1 1 0.090596340737145925 1 1 1 1 0.077638496655332095 1 1 1 1 0.090305457541114603 1 1 1 1 1 1 1 1 0.094027982312679559 1 1 0.091240699772161885 1 0.090106549677011899 1 1 1 1 0.092808477853484339 1 1 0.081381632844206353 0.099132174645924331 1 1 1 1 1 1 0.089948461371792521 1 1 1 1 1 1 1 1 1 1 0.081994538819673723 0.08480130724742875 1 1 1 1 1 0.082338676211341444 1 1 0.092120218966258521 1 1 1 1 0.098881198058884706 1 1 0.090022176074743901 1 1 1 1 1 1 1 1 1 1 1 1 1 1 1 1 1 1 1 1 1 1 1 1 1 1 1 1 1 0.089902557266239205 1 0.089968261682241257 1 1 1 1 1 1 1 1 1 1 1 1 1 0.090167819412684452 1 1 1 1 0.071655652983996204 0.068828533507395595 1 1 1 1 1 1 1 1 1 1 1 1 1 1 1 1 1 1 1 1 1 1 1 1 1 1 1 1 1 1 1 1 1 1 1 1 1 1 1 1 1 1 0.090336435828654818 1 1 1 0.090168616415970376 1 1 1 1 1 1 1 1 1 1 1 1 1 1 1 1 1 1 1 1 0.074480707660607812 1 1 0.077348753761793537 1 1 1 1 1 1 1 1 1 0.090010611675905947 1 1 1 1 1 0.078376169763382089 1 1 1 1 1 0.090063170572694223 1 0.089969180270907334 1 1 1 1 1 1 1 1 1 1 1 1 1 0.087135107749125557 1 1 1 0.091612412017579636 0.080551002038080161 1 1 1 1 1 1 1 1 0.090024817210185265 1 1 0.082427245185897058 1 1 0.090000504410739923 0.08677384292004138 1 1 1 1 1 0.090014848442090706 1 1 1 1 1 1 1 0.088690229886582456 1 1 0.086221860986170462 0.090670427041515483 1 1 1 1 1 1 0.08980372345232164 0.089975532438847386 1 1 1 0.089927381735457307 1 1 1 1 1 1 1 0.090564695717646776 1 1 1 1 1 1 1 1 1 1 1 1 1 1 1 1 1 1 1 1 1 1 1 1 1 1 0.052002364337321069 1 1 1 1 1 1 1 0.090276024145383577 1 1 1 1 1 1 1 1 1 1 1 0.060881064307286903 1 1 1 1 1 1 1 1 0.090625634944810407 1 1 1 1 1 1 1 1 1 1 1 1 1 1 1 1 0.090857172390427704 1 1 1 0.090359279229366693 1 1 1 1 1 0.092560402177217727 1 1 1 1 1 1 1 1 1 1 1 1 1 1 0.087778588095462101 1 1 1 1 0.082899257870069215 1 1 0.077263504495124299 1 1 1 1 1 0.089964384028400915 1 1 1 1 1 1 1 1 1 1 1 1 1 1 0.090651017791691824 1 0.10247153511237024 1 1 1 0.085626995807227158 1 0.067742475953152512 1 0.11029261672875453 1 1 1 1 1 1 0.090136286391454976 0.049679564809570684 1 1 1 1 1 1 0.052953397850089873 1 0.091163340639412491 1 1 1 1 1 1 1 1 1 1 1 1 1 1 1 1 1 0.10360794329179461 1 1 1 0.090154267763521895 0.10060477011309608 1 1 1 1 1 0.091066778475845822 1 1 0.090357747537209404 0.090269335266028594 1 1 1 1 1 1 1 1 1 1 1 1 1 1 1 1 1 1 1 1 1 1 1 1 1 1 1 1 1 1 1 1 1 1 1 1 1 1 1 1 1 1 1 1 0.10401022785241403 1 1 0.080232066734617635 0.084690228872278533 0.089648739891177956 1 1 1 1 1 1 0.090221149995097144 1 1 1 1 1 1 1 1 1 0.089767853983955911 1 1 1 0.098167902882796546 1 1 1 1 1 1 1 1 1 1 1 1 1 1 1 1 1 1 1 1 0.094107778098272171 1 1 1 1 0.091345055434628591 1 1 1 1 1 1 1 1 1 1 1 1 1 1 1 1 1 1 1 1 1 1 1 1 1 1 1 1 1 1 1 1 1 1 0.089368005540573198 1 0.089800279527863125 1 1 1 1 1 1 1 1 0.089844649958546227 1 1 1 0.087554164790450306 1 0.090044370430683085 1 1 1 1 1 1 1 1 0.071415240336963642 1 1 1 1 0.083576436243203628 1 1 1 1 0.083998258954005256 1 1 1 1 1 1 1 0.082192292670269979 1 1 1 1 0.0863801929661418 1 1 1 1 1 1 1 1 1 1 1 1 1 1 1 1 1 1 1 1 1 1 1 1 1 1 1 1 1 1 1 1 1 1 1 1 1 1 1 1 1 1 1 1 1 1 0.090949588047132601 1 1 1 1 0.090036756238740842 0.092703851817123206 1 1 0.095789311670862937 0.09033490541940066 1 1 1 1 1 1 1 1 1 1 1 1 1 1 1 1 1 1 1 0.090029676407284001 1 1 1 0.09070762712692286 0.090014592885713618 1 1 1 1 1 1 1 1 1 1 1 1 1 1 1 1 1 1 1 1 1 1 1 1 1 1 1 0.090114983690982697 1 1 1 1 1 1 1 0.08926563597943106 1 1 1 1 1 1 1 1 1 1 1 1 1 1 1 0.088317114103449001 1 1 1 1 1 1 1 1 0.09038630903814919 1 0.089491017715300492 0.091021622521479523 1 1 1 1 1 1 1 1 1 1 1 1 0.090266355715443725 1 1 1 1 1 1 1 1 1 1 1 1 1 1 1 1 1 1 0.094452988199474758 1 1 1 0.089687998327834223 1 1 1 1 1 1 1 1 0.089826719190214621 1 1 1 1 1 1 1 1 1 1 1 1 1 1 1 0.090908207352895093 1 1 1 0.090312260924986967 1 1 1 1 1 1 1 1 1 1 1 1 1 1 1 1 1 1 1 1 1 1 1 1 1 1 1 1 1 1 1 1 1 0.090223347864478096 1 0.090108573222961161 1 1 1 1 1 1 1 1 0.089972345328163297 1 1 1 1 1 1 1 1 1 0.089841959103896252 1 1 0.090683580146976223 1 1 1 1 1 0.090354403968962993 1 1 1 1 0.089965778308580491 1 1 1 1 0.089031381421423861 1 1 1 0.089102130049768885 1 0.08917626026845564 1 1 0.089362794138025781 1 1 1 1 1 1 1 1 1 1 1 1 1 1 0.089994758023341059 1 1 0.089979241925279493 1 0.090100189494574226 1 1 1 0.089878948875682041 1 1 0.088088565697352933 1 1 1 1 0.090663601112745837 1 0.090470839966804315 1 1 1 1 1 1 0.090172679048070831 1 0.090130129298808453 1 1 1 1 1 0.096481942512422619 1 1 1 1 0.09060547849550285 1 1 1 1 1 1 0.096016804590377466 1 1 1 1 1 1 1 1 1 1 1 1 1 1 1 1 1 1 1 1 1 1 1 1 1 1 1 1 1 1 1 1 1 0.090011640803461621 0.090009257083503574 1 1 1 1 1 1 1 1 1 1 0.096278938562633434 1 1 0.090545847324885534 0.095011338460556483 1 0.090001910379574029 1 1 1 1 1 1 1 0.095361062639346184 1 1 1 1 1 1 1 1 1 1 1 1 0.089260170557047491 1 1 1 1 0.089751558695617961 1 1 1 1 1 1 1 1 1 1 1 1 0.095468061223368705 1 1 1 1 1 1 1 1 1 1 1 1 1 1 1 1 1 0.094716396435741215 1 1 1 1 1 0.091414304579302885 1 1 1 0.092322716140971428 1 1 1 1 1 1 0.09237369189789145 1 0.096897080699026694 1 1 1 0.094045242561647646 1 1 1 1 1 1 1 1 1 0.10171842296768714 1 1 0.0900794771636583 1 1 1 1 1 1 1 0.091129798806044146 1 1 1 1 1 1 1 1 1 1 1 1 1 0.088519310218818495 1 1 0.091392828643764967 1 1 1 1 1 1 0.089952796089792703 1 1 1 1 1 1 0.1061896895349011 1 1 1 1 1 1 1 0.11407612811933773 1 1 1 1 1 1 1 1 1 1 1 1 1 1 1 1 1 1 1 1 1 1 0.091873072380780352 1 1 1 1 1 1 1 1 1 1 0.088259031895061346 1 1 1 1 0.086230091749137983 0.10003113108684182 1 1 1 1 0.097798077457254773 1 1 1 1 1 1 1 1 1 0.095627308649344586 1 1 1 1 1 1 1 1 1 1 1 0.096597050484805727 1 1 1 0.090863595930262456 1 1 1 0.092309040653184238 1 1 1 1 1 1 1 1 1 1 1 1 0.090517049941584452 1 1 1 1 1 0.090026269110480811 1 1 0.090070283083188291 1 1 1 1 1 1 1 1 1 1 1 1 1 1 0.090112768839721843 1 1 1 1 1 1 1 0.089906174760042437 1 1 1 0.08892057192748315 1 1 1 1 1 0.090084102508469141 1 1 1 1 1 1 1 1 1 0.090040088535761675 1 1 1 1 1 1 1 1 0.087274205484187573 1 1 1 1 1 0.090709346240699734 1 1 1 1 1 1 1 0.090258551440741852 1 1 1 1 1 1 1 1 1 1 1 1 1 1 1 1 1 1 1 1 1 1 1 1 1 1 1 1 1 1 1 1 1 1 1 1 1 1 1 1 1 1 1 1 1 1 1 1 0.091078823049124139 1 1 1 1 1 1 1 0.090141274530533902 1 1 1 1 1 1 1 1 1 1 1 1 1 1 1 1 1 1 1 1 1 1 0.09076506305598793 0.090226759712433935 1 1 0.090509195700468142 0.094091066946768817 1 1 1 1 1 1 1 0.095769532745466956 1 1 1 1 1 1 1 1 1 1 1 1 1 1 0.090317235358576331 1 1 1 1 1 1 1 1 0.090059663684881025 1 1 0.09006131316953439 1 1 1 0.090191395190961351 1 1 1 1 1 1 1 1 1 1 1 1 1 1 1 1 1 1 1 1 1 1 1 1 1 1 1 1 0.089762376896747473 1 1 1 1 1 1 1 1 0.090021872909037168 1 1 1 1 1 1 0.089143629721372145 0.090063945707076667 1 1 1 1 0.090232573156963675 1 1 0.090457090713666394 1 1 0.088342363282942871 1 1 1 1 1 1 0.089825205543711317 1 1 1 1 1 1 1 1 0.089974375996443132 1 1 1 1 1 1 1 1 1 1 1 0.089949764260400369 1 1 0.089975319414019136 1 1 1 1 1 1 1 0.089139075333894063 1 1 1 0.09023487446337787 1 0.091205929918788911 1 0.089482675057046351 1 1 1 1 1 1 1 1 1 1 1 1 1 1 1 1 1 0.094440840512185181 1 0.089997445237422785 1 1 1 1 1 1 1 1 1 1 0.092970332250856713 1 1 1 1 1 1 1 0.090217235855611422 1 1 1 0.089994462183583757 1 0.099135444818831769 0.08873972814141512 1 1 0.093702307914806285 1 1 1 1 0.097702987907124811 1 1 1 0.088239137734719725 1 1 1 0.098917999011216118 1 0.093418889815047146 0.10234879219614561 1 1 1 1 1 1 0.093762872438847511 1 1 1 1 1 1 1 1 0.092017484466382971 0.090001279004672405 0.089464846240268472 1 0.093659478682776201 1 1 0.09506870689400837 0.090000887194113532 1 1 0.085189485753797436 1 1 1 1 1 1 1 1 1 1 1 0.090018008133224386 1 1 1 1 1 1 1 1 1 1 1 1 1 0.084935945186630765 0.090691035379702578 1 1 1 1 0.087194023846583341 1 1 1 0.091007981052773773 1 1 1 1 1 0.090055066235783812 0.089999445742515005 1 1 1 0.090916082228834266 1 1 1 1 1 1 1 1 1 1 1 1 1 1 1 0.088841777424333496 1 1 1 0.092618857260418921 1 1 1 0.089343460709029127 1 1 1 1 1 1 0.10152794624346172 1 1 1 1 1 0.097464410459254844 1 1 1 1 1 1 1 1 0.089987143568676251 1 1 1 1 1 1 1 1 1 0.090396078972533128 1 1 1 1 0.08967187010304134 1 0.090037363948435784 1 1 0.088502337445634821 1 0.090503217558985827 1 1 1 1 1 1 0.090553166944582111 1 0.089991314856279342 0.097899577736436941 1 1 1 1 1 1 1 1 0.094308132579537532 1 0.089770754874715419 1 0.089964570290185425 1 0.099565855209124476 1 1 1 1 1 1 1 1 1 1 1 0.090067075180200545 1 1 1 0.089987741077981631 1 1 1 1 1 1 1 1 0.089920665897781082 1 1 1 1 1 1 1 1 1 0.08949624315902649 1 1 1 1 0.090740452727346946 1 1 0.092178319414778803 1 1 1 1 1 1 1 1 1 0.095492122662711468 1 1 1 0.093631614275838312 1 1 1 1 1 1 1 1 1 1 1 1 1 1 1 1 1 1 1 0.097697567851322914 1 1 1 1 1 1 1 1 1 1 0.090707610390191165 1 1 1 1 1 1 1 1 1 1 1 1 1 1 1 1 1 1 1 1 1 1 1 1 1 1 1 1 1 1 1 1 1 1 1 1 1 1 1 1 1 1 1 1 1 0.09100494943053207 0.090033132118817596 1 1 1 1 1 1 1 1 1 1 1 1 1 0.085117917207119975 0.083847150179167176 1 1 1 0.085164859656413378 1 1 0.099027455437484632 1 1 1 0.10127973058215653 1 1 1 0.092360990175665431 1 1 1 1 1 1 1 1 0.089780135827939922 1 1 0.090486025194999598 1 0.085899544510410236 0.088384588448965684 1 1 1 1 1 1 0.10227816530362638 1 0.087435376939983267 0.089958109422387661 0.090005206230277565 1 1 0.088698510001024217 1 1 0.10132056271553376 0.10068220183420178 1 1 1 1 1 1 1 1 1 1 1 1 1 1 1 1 1 1 1 1 1 0.099485445441727272 1 1 1 1 1 1 1 1 1 0.089576868553787048 1 1 1 1 1 1 1 0.08995490899093167 0.10059652801530551 1 1 1 1 1 1 1 1 1 1 1 1 1 1 1 1 1 1 1 1 1 1 1 0.090323800902597645 1 0.090000290966922775 1 1 1 1 1 1 1 0.092054613757219031 1 1 1 0.081262966742796205 0.10093030514262302 1 1 0.090944440128152559 1 1 1 1 0.080509479223531591 1 1 1 0.10507581948593231 1 1 1 0.08792966303730318 1 1 1 1 1 1 1 1 1 0.088892842388279408 0.090032868205265473 1 1 1 1 1 0.1046986558272051 1 1 0.074560494971700558 0.089342391640734847 0.083873529639946168 1 1 1 1 1 0.10153004345112696 1 1 1 1 1 1 1 1 1 0.089659202040347066 1 0.089854700820527544 1 1 1 1 1 1 1 1 1 1 1 1 1 1 1 1 1 1 1 1 1 1 1 1 0.091550782709566764 1 1 1 1 0.085795421619831724 0.094703428361147313 1 1 1 0.082983278684446424 1 1 1 1 1 1 1 1 1 1 1 1 1 1 1 1 0.11299137905527128 1 1 1 0.090040298893728332 1 1 0.091957319910699095 1 1 1 1 1 1 1 1 1 1 1 1 1 0.097843973385157629 1 1 0.10766761725946275 1 1 1 0.085001798020291452 1 0.087033353918552103 1 0.090231777325464974 1 0.089678370208817887 0.11264938332081778 0.090057404323541895 1 1 1 1 1 1 1 1 0.090314095500912295 1 1 1 1 1 1 1 1 0.10897106607600551 1 1 0.07648934189786076 1 1 1 1 1 1 1 1 1 1 1 1 1 1 1 1 1 1 1 1 1 0.084755744751975226 1 1 1 1 1 1 1 1 1 1 0.086764336972516898 1 0.079030348072982426 1 1 0.087389648953037358 1 0.09229148446309754 1 0.089971531656158454 1 1 0.090018507531598901 1 0.10696675964037444 1 1 0.085261939212880722 1 1 1 0.08952817860573753 1 1 1 1 1 1 1 1 1 1 1 1 1 1 1 1 1 1 1 1 1 1 1 1 1 1 1 1 1 1 1 1 1 1 1 1 1 1 1 1 1 1 1 1 1 1 1 1 1 1 1 1 1 1 1 1 1 1 1 1 1 0.095545941388836472 1 1 0.10879970629684374 1 1 1 1 1 1 0.087954564539902844 0.09986391948316517 1 1 1 1 1 1 1 1 1 1 1 1 1 1 1 1 1 1 0.10447108791115674 1 1 1 0.090171259599691633 1 1 1 1 1 1 1 1 1 1 1 1 1 1 1 1 0.089918806136386281 1 1 1 1 1 1 1 0.10547368002019475 1 1 1 1 1 1 1 1 0.10146329818427363 1 0.090218546963590329 1 1 1 1 1 1 1 1 1 1 1 1 1 1 1 1 0.090014689404646353 1 1 1 1 1 1 1 0.090027904128426053 1 1 1 1 0.090069290785030925 1 1 1 1 1 1 1 0.090219812839838653 1 1 0.07830116412049834 0.090037193414376437 1 1 0.092250925731953259 1 1 1 1 1 1 0.090026949914029514 1 1 1 1 1 1 1 1 1 0.090196883511448639 1 1 0.089964882134549159 1 1 0.089993977292471661 1 1 0.078722253858238361 1 1 1 1 1 0.07945256798691272 1 1 1 1 1 1 1 1 0.089588000515093885 1 1 1 1 1 1 1 0.088515700850089141 1 1 1 1 1 1 1 1 1 1 1 1 0.088901006347441081 1 1 1 1 1 1 1 0.090353558331017936 0.089969070445785934 1 0.086383982888803085 1 0.076389167932568239 1 1 1 1 1 1 1 1 1 1 1 1 1 1 1 0.09000615699471809 1 0.076810850221714105 1 1 1 1 1 1 1 1 0.089043669163160505 1 0.087687359396094303 1 0.08087864465453859 1 0.088005990792082239 1 0.090143483466743723 1 1 0.089775000298224494 1 1 1 1 1 0.089212834450124109 1 1 1 1 1 1 1 1 0.090095997500539593 1 1 1 1 1 0.090289942526089004 1 1 0.086854804587716522 1 0.092143654331845903 0.08597839489455486 1 1 1 1 1 1 1 1 0.089999831244960582 1 1 1 1 1 1 1 1 1 1 1 1 1 0.088616367890880399 1 1 1 1 1 1 1 0.089990759529670311 1 1 1 0.089990776679605908 1 1 1 1 1 1 1 1 1 1 1 1 1 1 1 1 1 0.090616914643195795 1 1 1 1 1 1 1 0.090215768996818962 1 1 0.089492504808759574 1 1 1 1 1 1 1 1 1 1 1 1 1 1 1 0.089659635562583245 1 1 1 1 0.091153148124360428 1 1 1 1 1 1 1 1 1 1 1 1 1 1 1 1 1 1 1 1 1 1 1 1 1 0.087407725984807588 1 1 1 1 1 1 0.089840583120991246 1 1 1 1 1 1 1 1 1 0.086204219489293923 0.089345456290227776 1 1 1 0.091380136685788843 1 0.090031754414389042 1 1 1 1 1 1 1 1 1 1 1 1 1 1 1 0.08982612721212424 1 1 1 1 1 1 1 1 1 1 1 1 0.090249705465987956 0.090473913583013765 1 1 1 1 1 1 1 1 0.089610899195245369 1 1 0.090055260532315121 1 1 0.087548876214150528 0.092020815719851018 1 1 1 1 1 1 1 0.089155084170345456 1 1 1 1 1 1 1 1 1 0.090224208117025834 1 1 1 0.089052129689692408 1 1 1 1 1 0.089398325397716305 1 1 1 1 1 1 1 1 1 1 1 1 0.089166756141997025 1 1 1 0.089994677022173536 1 1 1 0.090011774594236149 1 1 1 1 1 1 1 1 1 1 1 1 1 1 1 1 1 1 1 1 1 1 1 1 1 1 1 1 1 1 1 1 0.089323237300321226 1 1 1 1 1 1 1 1 1 1 1 1 1 1 1 1 1 1 1 1 1 1 1 1 0.090423896797776598 1 0.090031301494670452 1 1 0.081458821339959783 1 1 1 1 1 1 1 1 1 0.092187449016414333 1 1 1 1 1 1 1 1 1 1 1 1 1 1 0.083850768600296555 1 1 1 1 0.086389285191102366 1 1 1 0.08883441558171197 1 1 1 1 1 1 1 1 1 1 1 1 1 1 1 1 1 1 1 1 1 1 1 1 1 1 1 1 1 1 1 1 1 1 1 1 1 1 1 1 1 1 1 1 1 1 1 1 1 1 1 1 1 1 1 1 1 1 1 1 1 1 1 1 1 1 1 1 1 1 1 1 1 1 1 1 1 1 1 1 1 1 1 1 1 1 1 1 1 1 1 1 1 1 1 1 1 1 1 1 1 1 1 1 1 1 1 1 1 1 1 1 1 1 1 1 1 1 1 1 1 1 1 1 1 1 1 1 1 1 1 1 1 1 1 1 1 1 1 1 1 1 1 1 1 1 1 1 1 1 1 1 1 1 1 1 1 1 1 1 1 1 1 1 1 1 1 1 1 1 1 1 1 1 1 1 1 1 1 1 1 1 1 1 1 1 1 1 1 0.10986604618467163 1 1 1 1 1 1 1 1 1 1 1 1 1 1 1 1 0.091724702085274445 1 1 1 1 1 1 1 1 0.11494761341986479 1 1 1 1 0.088975836685198637 1 1 1 1 1 1 1 1 1 1 1 1 1 1 1 1 1 1 1 1 1 1 0.091064571382796403 1 1 1 1 1 1 1 1 1 1 1 1 1 0.086524914411353654 0.10802872526783557 1 1 1 1 1 0.10169119856962092 1 0.094377239510826216 1 1 1 1 1 1 1 1 1 1 1 0.094357546114674173 1 1 1 1 1 1 1 0.084459002282098405 1 1 1 1 1 1 1 1 1 1 1 1 1 1 1 0.090320342267949216 0.085760103243482669 1 1 1 1 1 1 1 1 1 1 1 1 0.092715969685365843 1 1 1 1 1 1 1 1 1 1 1 1 1 1 1 1 0.090921793066063628 1 1 1 1 1 1 1 0.085272956496419999 1 1 1 1 1 1 1 1 1 1 0.089956085916070017 0.081103533578915948 1 1 1 1 1 1 1 1 1 1 1 1 1 1 1 1 1 1 1 1 1 1 1 1 1 1 1 1 1 1 0.092351305565473413 1 1 1 1 1 0.092916115779771352 1 1 1 1 1 1 1 1 1 1 0.091268586570334376 1 1 1 1 0.08964320076398774 1 1 1 1 1 1 1 1 1 1 0.092659354779295003 1 0.091011825569857999 1 1 1 1 1 1 1 1 1 1 1 1 1 1 1 1 1 1 1 1 1 1 1 1 1 1 1 1 1 1 1 0.090143448832187167 1 1 1 1 1 0.090463791100136387 1 1 1 1 1 1 1 1 1 1 1 1 1 1 1 1 1 1 0.089225103039502748 1 1 0.068331157637143036 1 1 1 0.089748549998764041 1 1 1 1 1 0.078683023896245929 1 1 1 1 1 1 1 1 1 1 0.10183001888256525 1 1 1 1 1 1 0.09003135882295045 1 1 1 1 1 0.067424229683991879 0.089933187923889449 1 1 0.060661405674431866 1 1 0.090798312208436399 1 1 1 1 1 1 1 1 1 1 0.092622418258386324 1 1 0.090716908537894353 1 1 0.092315522464467628 1 1 0.093725119166019069 1 1 0.090698424563590868 1 1 0.090634135620108441 1 1 1 1 1 1 0.089446038527694838 1 1 1 1 1 1 1 1 1 1 1 0.058060059562012427 1 1 1 1 1 1 1 0.091192821967111537 1 1 1 1 0.087889827459543518 1 1 1 0.056147185872140036 1 1 1 1 1 1 1 1 1 1 1 0.083373259087618667 1 1 1 1 1 1 1 1 1 1 1 1 1 1 1 1 1 1 1 1 1 1 1 1 0.089966614223636304 1 1 1 1 1 0.090137115066590889 1 1 1 1 1 1 1 1 1 1 1 1 1 1 0.089656855216036141 1 1 0.083655185282860534 1 0.11265698377814926 1 1 1 1 0.12143615752806135 1 0.089335188896231613 0.070019231170995927 1 0.071550312995903281 1 1 1 1 1 1 1 0.090021830625409069 1 0.093183830136862073 1 1 1 1 1 1 0.089276742932071232 1 1 1 1 1 1 0.090136108929903022 1 1 1 1 0.090258232235780805 1 1 1 1 1 0.08991941031342901 1 1 0.090582866095109918 1 1 1 1 0.090010495809589586 1 1 1 1 0.093435140320853122 1 1 1 1 1 1 0.089792036973443595 1 1 1 1 1 1 1 1 1 0.090342844249246226 1 1 1 1 1 1 0.091276357645670811 1 1 1 1 0.093558496308921643 1 1 1 1 1 1 1 1 1 1 1 1 1 1 1 1 0.089776426165862941 1 1 1 0.088969530419851645 1 1 0.10294920078439875 1 1 1 1 1 1 1 1 1 1 1 1 1 1 1 1 0.089822249790110636 1 0.10075220128711514 1 1 1 1 1 1 1 1 1 1 1 1 1 1 1 1 1 1 1 1 1 1 1 1 1 1 0.11253590036090451 1 1 0.098236303986514867 1 1 1 1 1 1 1 1 1 1 0.094467053379300128 1 1 1 1 0.08989582239653901 1 1 1 1 0.090073572606428357 1 1 1 1 1 1 1 1 1 0.093992805015463324 1 1 1 1 1 1 1 1 1 1 1 1 1 1 1 1 1 1 1 1 1 1 1 1 1 1 1 1 
</DataArray>
</CellData>
</Piece>
</UnstructuredGrid>
</VTKFile>
