<?xml version="1.0"?>
<VTKFile type="UnstructuredGrid" version="0.1" byte_order="LittleEndian">
<UnstructuredGrid>
<Piece NumberOfPoints="31898" NumberOfCells="11152">
<Points>
<DataArray type="Float64" NumberOfComponents="3" format="ascii">
-0.5 -0.5 0 -0.47620991077874902 -0.44978878706170539 0 -0.49999999999999473 -0.42132396840504388 0 -0.5 -0.5 0 -0.47160970827802529 -0.4793630013852106 0 -0.47620991077874902 -0.44978878706170539 0 -0.5 -0.5 0 -0.47160970827802529 -0.4793630013852106 0 -0.44860394795025399 -0.5 0 -0.47160970827802529 -0.4793630013852106 0 -0.44860394795025399 -0.5 0 -0.4490820238307246 -0.45820516232899983 0 -0.44860394795025399 -0.5 0 -0.4490820238307246 -0.45820516232899983 0 -0.42881687682924802 -0.47781464288736519 0 -0.4490820238307246 -0.45820516232899983 0 -0.45555437223955858 -0.42914059360647611 0 -0.4490820238307246 -0.45820516232899983 0 -0.45555437223955858 -0.42914059360647611 0 -0.43867285131603428 -0.4271457417558665 0 -0.4490820238307246 -0.45820516232899983 0 -0.43867285131603428 -0.4271457417558665 0 -0.4263356171060747 -0.44269880333887462 0 -0.47160970827802529 -0.4793630013852106 0 -0.4490820238307246 -0.45820516232899983 0 -0.47620991077874902 -0.44978878706170539 0 -0.4490820238307246 -0.45820516232899983 0 -0.47620991077874902 -0.44978878706170539 0 -0.45555437223955858 -0.42914059360647611 0 -0.47620991077874902 -0.44978878706170539 0 -0.48101336032419229 -0.41069999664450008 0 -0.45555437223955858 -0.42914059360647611 0 -0.47620991077874902 -0.44978878706170539 0 -0.49999999999999473 -0.42132396840504388 0 -0.48101336032419229 -0.41069999664450008 0 -0.49999999999999473 -0.42132396840504388 0 -0.48101336032419229 -0.41069999664450008 0 -0.5 -0.393886241813306 0 -0.49999999999999473 -0.42132396840504388 0 -0.48101336032419229 -0.41069999664450008 0 -0.5 -0.393886241813306 0 -0.47854472220918332 -0.38978458738689759 0 -0.48422759779560409 -0.37130120630367158 0 -0.5 -0.393886241813306 0 -0.5 -0.36644851522156802 0 -0.48422759779560409 -0.37130120630367158 0 -0.48101336032419229 -0.41069999664450008 0 -0.5 -0.393886241813306 0 -0.47854472220918332 -0.38978458738689759 0 -0.48101336032419229 -0.41069999664450008 0 -0.47854472220918332 -0.38978458738689759 0 -0.46202672064839212 -0.40007602488395211 0 -0.48101336032419229 -0.41069999664450008 0 -0.46202672064839212 -0.40007602488395211 0 -0.47854472220918332 -0.38978458738689759 0 -0.46725442735267431 -0.37660061361585562 0 -0.46202672064839212 -0.40007602488395211 0 -0.47854472220918332 -0.38978458738689759 0 -0.46725442735267431 -0.37660061361585562 0 -0.48422759779560409 -0.37130120630367158 0 -0.46725442735267431 -0.37660061361585562 0 -0.46202672064839212 -0.40007602488395211 0 -0.46725442735267431 -0.37660061361585562 0 -0.45645674801697989 -0.38644133236760531 0 -0.46202672064839212 -0.40007602488395211 0 -0.46725442735267431 -0.37660061361585562 0 -0.45645674801697989 -0.38644133236760531 0 -0.4540003998136638 -0.37455519391687309 0 -0.45645674801697989 -0.38644133236760531 0 -0.46202672064839212 -0.40007602488395211 0 -0.44257020456291563 -0.38918913383950271 0 -0.46202672064839212 -0.40007602488395211 0 -0.44257020456291563 -0.38918913383950271 0 -0.44727608925983742 -0.41095911152778891 0 -0.46202672064839212 -0.40007602488395211 0 -0.44257020456291563 -0.38918913383950271 0 -0.44257020456291563 -0.38918913383950271 0 -0.44727608925983742 -0.41095911152778891 0 -0.43479358559901082 -0.4041454901736512 0 -0.44257020456291563 -0.38918913383950271 0 -0.4540003998136638 -0.37455519391687309 0 -0.44172858264042247 -0.37082207246888088 0 -0.45645674801697989 -0.38644133236760531 0 -0.44257020456291563 -0.38918913383950271 0 -0.4540003998136638 -0.37455519391687309 0 -0.46202672064839212 -0.40007602488395211 0 -0.45555437223955858 -0.42914059360647611 0 -0.44727608925983742 -0.41095911152778891 0 -0.46202672064839212 -0.40007602488395211 0 -0.45555437223955858 -0.42914059360647611 0 -0.48101336032419229 -0.41069999664450008 0 -0.46202672064839212 -0.40007602488395211 0 -0.45555437223955858 -0.42914059360647611 0 -0.44727608925983742 -0.41095911152778891 0 -0.43867285131603428 -0.4271457417558665 0 -0.43676601469929588 -0.41441201227470881 0 -0.44727608925983742 -0.41095911152778891 0 -0.43676601469929588 -0.41441201227470881 0 -0.43479358559901082 -0.4041454901736512 0 -0.45555437223955858 -0.42914059360647611 0 -0.44727608925983742 -0.41095911152778891 0 -0.43867285131603428 -0.4271457417558665 0 -0.43867285131603428 -0.4271457417558665 0 -0.42681803064840879 -0.42717069814352421 0 -0.4263356171060747 -0.44269880333887462 0 -0.42681803064840879 -0.42717069814352421 0 -0.41531815884496182 -0.42985383783075998 0 -0.4263356171060747 -0.44269880333887462 0 -0.42681803064840879 -0.42717069814352421 0 -0.42624289495594048 -0.42089725947505818 0 -0.42083332353326591 -0.42146747131641099 0 -0.42681803064840879 -0.42717069814352421 0 -0.43096994786351572 -0.41951492446283251 0 -0.42624289495594048 -0.42089725947505818 0 -0.43867285131603428 -0.4271457417558665 0 -0.42681803064840879 -0.42717069814352421 0 -0.43096994786351572 -0.41951492446283251 0 -0.43867285131603428 -0.4271457417558665 0 -0.43676601469929588 -0.41441201227470881 0 -0.43096994786351572 -0.41951492446283251 0 -0.43676601469929588 -0.41441201227470881 0 -0.43096994786351572 -0.41951492446283251 0 -0.42907264086257813 -0.41311715872526122 0 -0.43676601469929588 -0.41441201227470881 0 -0.42907264086257813 -0.41311715872526122 0 -0.43479358559901082 -0.4041454901736512 0 -0.42907264086257813 -0.41311715872526122 0 -0.43479358559901082 -0.4041454901736512 0 -0.42460885511582858 -0.40417321677700252 0 -0.42907264086257813 -0.41311715872526122 0 -0.41997834854398469 -0.41180534796019508 0 -0.42907264086257813 -0.41311715872526122 0 -0.42635027777857132 -0.41543594397746519 0 -0.41997834854398469 -0.41180534796019508 0 -0.42907264086257813 -0.41311715872526122 0 -0.41997834854398469 -0.41180534796019508 0 -0.42460885511582858 -0.40417321677700252 0 -0.42635027777857132 -0.41543594397746519 0 -0.41997834854398469 -0.41180534796019508 0 -0.42635027777857132 -0.41543594397746519 0 -0.42083332353326591 -0.42146747131641099 0 -0.41997834854398469 -0.41180534796019508 0 -0.43096994786351572 -0.41951492446283251 0 -0.42624289495594048 -0.42089725947505818 0 -0.42635027777857132 -0.41543594397746519 0 -0.43096994786351572 -0.41951492446283251 0 -0.42907264086257813 -0.41311715872526122 0 -0.42635027777857132 -0.41543594397746519 0 -0.42624289495594048 -0.42089725947505818 0 -0.42635027777857132 -0.41543594397746519 0 -0.42083332353326591 -0.42146747131641099 0 -0.42083332353326591 -0.42146747131641099 0 -0.41997834854398469 -0.41180534796019508 0 -0.40992282953163789 -0.42011435591993562 0 -0.41997834854398469 -0.41180534796019508 0 -0.39756877647335259 -0.40857286797681719 0 -0.41997834854398469 -0.41180534796019508 0 -0.40992282953163789 -0.42011435591993562 0 -0.39756877647335259 -0.40857286797681719 0 -0.40992282953163789 -0.42011435591993562 0 -0.41531815884496182 -0.42985383783075998 0 -0.39591554026262499 -0.42887225451549271 0 -0.41531815884496182 -0.42985383783075998 0 -0.39591554026262499 -0.42887225451549271 0 -0.41160927495564159 -0.44339431233754628 0 -0.42083332353326591 -0.42146747131641099 0 -0.40992282953163789 -0.42011435591993562 0 -0.41531815884496182 -0.42985383783075998 0 -0.42681803064840879 -0.42717069814352421 0 -0.42083332353326591 -0.42146747131641099 0 -0.41531815884496182 -0.42985383783075998 0 -0.44257020456291563 -0.38918913383950271 0 -0.42311368847744002 -0.37830224279505142 0 -0.42594061475171041 -0.39368797999533162 0 -0.44257020456291563 -0.38918913383950271 0 -0.42311368847744002 -0.37830224279505142 0 -0.44172858264042247 -0.37082207246888088 0 -0.44257020456291563 -0.38918913383950271 0 -0.42311368847744002 -0.37830224279505142 0 -0.42311368847744002 -0.37830224279505142 0 -0.42594061475171041 -0.39368797999533162 0 -0.416587075656149 -0.38785930376960043 0 -0.44257020456291563 -0.38918913383950271 0 -0.42594061475171041 -0.39368797999533162 0 -0.43479358559901082 -0.4041454901736512 0 -0.42594061475171041 -0.39368797999533162 0 -0.43479358559901082 -0.4041454901736512 0 -0.42460885511582858 -0.40417321677700252 0 -0.41997834854398469 -0.41180534796019508 0 -0.41325908582185972 -0.39811010703057192 0 -0.39770572831670092 -0.39911486077581648 0 -0.41997834854398469 -0.41180534796019508 0 -0.39770572831670092 -0.39911486077581648 0 -0.42594061475171041 -0.39368797999533162 0 -0.42460885511582858 -0.40417321677700252 0 -0.41325908582185972 -0.39811010703057192 0 -0.41997834854398469 -0.41180534796019508 0 -0.42460885511582858 -0.40417321677700252 0 -0.41325908582185972 -0.39811010703057192 0 -0.42594061475171041 -0.39368797999533162 0 -0.41325908582185972 -0.39811010703057192 0 -0.416587075656149 -0.38785930376960043 0 -0.41325908582185972 -0.39811010703057192 0 -0.416587075656149 -0.38785930376960043 0 -0.40403491357358612 -0.38133688525744702 0 -0.42311368847744002 -0.37830224279505142 0 -0.40403491357358612 -0.38133688525744702 0 -0.40365717239196519 -0.36741535175059892 0 -0.42311368847744002 -0.37830224279505142 0 -0.416587075656149 -0.38785930376960043 0 -0.40403491357358612 -0.38133688525744702 0 -0.40403491357358612 -0.38133688525744702 0 -0.39190790742475001 -0.38540387676521748 0 -0.39770572831670092 -0.39911486077581648 0 -0.40403491357358612 -0.38133688525744702 0 -0.39190790742475001 -0.38540387676521748 0 -0.3904578797192948 -0.37473938743617019 0 -0.41325908582185972 -0.39811010703057192 0 -0.40403491357358612 -0.38133688525744702 0 -0.39770572831670092 -0.39911486077581648 0 -0.39770572831670092 -0.39911486077581648 0 -0.37543310808941849 -0.38642437359143528 0 -0.39770572831670092 -0.39911486077581648 0 -0.37515920440272033 -0.40534038799344108 0 -0.37543310808941849 -0.38642437359143528 0 -0.39770572831670092 -0.39911486077581648 0 -0.37515920440272033 -0.40534038799344108 0 -0.39756877647335259 -0.40857286797681719 0 -0.37515920440272033 -0.40534038799344108 0 -0.37543310808941849 -0.38642437359143528 0 -0.37543310808941849 -0.38642437359143528 0 -0.3904578797192948 -0.37473938743617019 0 -0.37568304780698558 -0.36916333065311507 0 -0.39190790742475001 -0.38540387676521748 0 -0.37543310808941849 -0.38642437359143528 0 -0.3904578797192948 -0.37473938743617019 0 -0.37543310808941849 -0.38642437359143528 0 -0.37568304780698558 -0.36916333065311507 0 -0.39190790742475001 -0.38540387676521748 0 -0.39770572831670092 -0.39911486077581648 0 -0.37543310808941849 -0.38642437359143528 0 -0.41997834854398469 -0.41180534796019508 0 -0.39770572831670092 -0.39911486077581648 0 -0.39756877647335259 -0.40857286797681719 0 -0.40992282953163789 -0.42011435591993562 0 -0.39591554026262499 -0.42887225451549271 0 -0.39756877647335259 -0.40857286797681719 0 -0.37515920440272033 -0.40534038799344108 0 -0.39591554026262499 -0.42887225451549271 0 -0.39756877647335259 -0.40857286797681719 0 -0.37515920440272033 -0.40534038799344108 0 -0.39756877647335259 -0.40857286797681719 0 -0.37515920440272033 -0.40534038799344108 0 -0.39591554026262499 -0.42887225451549271 0 -0.37472313619600889 -0.43545561783144832 0 -0.39591554026262499 -0.42887225451549271 0 -0.39301703415267508 -0.44654444244683272 0 -0.37472313619600889 -0.43545561783144832 0 -0.39301703415267508 -0.44654444244683272 0 -0.37428706798929601 -0.46557084766945539 0 -0.37472313619600889 -0.43545561783144832 0 -0.39591554026262499 -0.42887225451549271 0 -0.39301703415267508 -0.44654444244683272 0 -0.41160927495564159 -0.44339431233754628 0 -0.39301703415267508 -0.44654444244683272 0 -0.40396056051613372 -0.45751466911048011 0 -0.41160927495564159 -0.44339431233754628 0 -0.40396056051613372 -0.45751466911048011 0 -0.39245383412573559 -0.47875733455523922 0 -0.41207507163844148 -0.46917161410542801 0 -0.40396056051613372 -0.45751466911048011 0 -0.38912381425271458 -0.46154275838996711 0 -0.39245383412573559 -0.47875733455523922 0 -0.40396056051613372 -0.45751466911048011 0 -0.39245383412573559 -0.47875733455523922 0 -0.40396056051613372 -0.45751466911048011 0 -0.40649676728151513 -0.45682610390212369 0 -0.40396056051613372 -0.45751466911048011 0 -0.38912381425271458 -0.46154275838996711 0 -0.39301703415267508 -0.44654444244683272 0 -0.40396056051613372 -0.45751466911048011 0 -0.38912381425271458 -0.46154275838996711 0 -0.39301703415267508 -0.44654444244683272 0 -0.38912381425271458 -0.46154275838996711 0 -0.37428706798929601 -0.46557084766945539 0 -0.38912381425271458 -0.46154275838996711 0 -0.37428706798929601 -0.46557084766945539 0 -0.38912381425271458 -0.46154275838996711 0 -0.38378714202547332 -0.47159002408209011 0 -0.37428706798929601 -0.46557084766945539 0 -0.38378714202547332 -0.47159002408209011 0 -0.39245383412573559 -0.47875733455523922 0 -0.37411677223754131 -0.47733161267270968 0 -0.39245383412573559 -0.47875733455523922 0 -0.37240076261097882 -0.48974555046165519 0 -0.37411677223754131 -0.47733161267270968 0 -0.38378714202547332 -0.47159002408209011 0 -0.37411677223754131 -0.47733161267270968 0 -0.37428706798929601 -0.46557084766945539 0 -0.38912381425271458 -0.46154275838996711 0 -0.38378714202547332 -0.47159002408209011 0 -0.39245383412573559 -0.47875733455523922 0 -0.38094710773533791 -0.49999999999999839 0 -0.39245383412573559 -0.47875733455523922 0 -0.38094710773533791 -0.49999999999999839 0 -0.39245383412573559 -0.47875733455523922 0 -0.37240076261097882 -0.48974555046165519 0 -0.38094710773533791 -0.49999999999999839 0 -0.39245383412573559 -0.47875733455523922 0 -0.40997732063196057 -0.5 0 -0.39245383412573559 -0.47875733455523922 0 -0.41207507163844148 -0.46917161410542801 0 -0.40997732063196057 -0.5 0 -0.41207507163844148 -0.46917161410542801 0 -0.40997732063196057 -0.5 0 -0.42881687682924802 -0.47781464288736519 0 -0.44860394795025399 -0.5 0 -0.40997732063196057 -0.5 0 -0.42881687682924802 -0.47781464288736519 0 -0.41207507163844148 -0.46917161410542801 0 -0.42881687682924802 -0.47781464288736519 0 -0.42627766738448791 -0.46032764904509182 0 -0.4490820238307246 -0.45820516232899983 0 -0.42881687682924802 -0.47781464288736519 0 -0.42627766738448791 -0.46032764904509182 0 -0.4490820238307246 -0.45820516232899983 0 -0.42627766738448791 -0.46032764904509182 0 -0.4263356171060747 -0.44269880333887462 0 -0.42627766738448791 -0.46032764904509182 0 -0.4263356171060747 -0.44269880333887462 0 -0.41655419253802572 -0.45404861160063659 0 -0.4263356171060747 -0.44269880333887462 0 -0.41160927495564159 -0.44339431233754628 0 -0.41655419253802572 -0.45404861160063659 0 -0.41531815884496182 -0.42985383783075998 0 -0.4263356171060747 -0.44269880333887462 0 -0.41160927495564159 -0.44339431233754628 0 -0.40396056051613372 -0.45751466911048011 0 -0.41160927495564159 -0.44339431233754628 0 -0.40649676728151513 -0.45682610390212369 0 -0.41160927495564159 -0.44339431233754628 0 -0.40649676728151513 -0.45682610390212369 0 -0.41655419253802572 -0.45404861160063659 0 -0.40396056051613372 -0.45751466911048011 0 -0.41160927495564159 -0.44339431233754628 0 -0.41207507163844148 -0.46917161410542801 0 -0.40649676728151513 -0.45682610390212369 0 -0.41655419253802572 -0.45404861160063659 0 -0.40396056051613372 -0.45751466911048011 0 -0.41207507163844148 -0.46917161410542801 0 -0.40649676728151513 -0.45682610390212369 0 -0.41207507163844148 -0.46917161410542801 0 -0.42627766738448791 -0.46032764904509182 0 -0.41655419253802572 -0.45404861160063659 0 -0.45662330498375908 -0.25656877445722759 0 -0.43445882011373449 -0.25478651907497341 0 -0.45662330498375908 -0.25656877445722759 0 -0.43445882011373449 -0.25478651907497341 0 -0.45034617445999431 -0.24335722649563979 0 -0.44999384684511368 -0.2755750489792308 0 -0.45662330498375908 -0.25656877445722759 0 -0.43445882011373449 -0.25478651907497341 0 -0.44999384684511368 -0.2755750489792308 0 -0.43077531442077321 -0.27459050524281542 0 -0.43445882011373449 -0.25478651907497341 0 -0.44999384684511368 -0.2755750489792308 0 -0.441361257405879 -0.29303276451920029 0 -0.43077531442077321 -0.27459050524281542 0 -0.44999384684511368 -0.2755750489792308 0 -0.4670541169931961 -0.26846056693166809 0 -0.46910519348062618 -0.28320526693770848 0 -0.44999384684511368 -0.2755750489792308 0 -0.4670541169931961 -0.26846056693166809 0 -0.45662330498375908 -0.25656877445722759 0 -0.45662330498375908 -0.25656877445722759 0 -0.47878778985378329 -0.25835102983948688 0 -0.4670541169931961 -0.26846056693166809 0 -0.45662330498375908 -0.25656877445722759 0 -0.47878778985378329 -0.25835102983948688 0 -0.45662330498375908 -0.25656877445722759 0 -0.47878778985378329 -0.25835102983948688 0 -0.47142395938804471 -0.23802335247430181 0 -0.47878778985378329 -0.25835102983948688 0 -0.5 -0.25669760885461612 0 -0.48361763707807442 -0.27426406281091331 0 -0.47878778985378329 -0.25835102983948688 0 -0.5 -0.25669760885461612 0 -0.4875835208682564 -0.24248539692068891 0 -0.5 -0.25669760885461612 0 -0.48361763707807442 -0.27426406281091331 0 -0.5 -0.28413533544635422 0 -0.4670541169931961 -0.26846056693166809 0 -0.47878778985378329 -0.25835102983948688 0 -0.48361763707807442 -0.27426406281091331 0 -0.4670541169931961 -0.26846056693166809 0 -0.48361763707807442 -0.27426406281091331 0 -0.46910519348062618 -0.28320526693770848 0 -0.46910519348062618 -0.28320526693770848 0 -0.48580896399913942 -0.29193665231809679 0 -0.47164434439118558 -0.29859902487093259 0 -0.48361763707807442 -0.27426406281091331 0 -0.46910519348062618 -0.28320526693770848 0 -0.48580896399913942 -0.29193665231809679 0 -0.5 -0.28413533544635422 0 -0.48580896399913942 -0.29193665231809679 0 -0.5 -0.3115730620380921 0 -0.48361763707807442 -0.27426406281091331 0 -0.5 -0.28413533544635422 0 -0.48580896399913942 -0.29193665231809679 0 -0.48580896399913942 -0.29193665231809679 0 -0.5 -0.3115730620380921 0 -0.48293754746551898 -0.30617437981156609 0 -0.48293754746551898 -0.30617437981156609 0 -0.47164434439118558 -0.29859902487093259 0 -0.47203566342767839 -0.31514771464943409 0 -0.48580896399913942 -0.29193665231809679 0 -0.48293754746551898 -0.30617437981156609 0 -0.47164434439118558 -0.29859902487093259 0 -0.47164434439118558 -0.29859902487093259 0 -0.46096111539772322 -0.3069557537098867 0 -0.47203566342767839 -0.31514771464943409 0 -0.46096111539772322 -0.3069557537098867 0 -0.44739706002137658 -0.30395698434733032 0 -0.45229582611609759 -0.31444164243390338 0 -0.46096111539772322 -0.3069557537098867 0 -0.45682111422556548 -0.29317658806621089 0 -0.44739706002137658 -0.30395698434733032 0 -0.47164434439118558 -0.29859902487093259 0 -0.46096111539772322 -0.3069557537098867 0 -0.45682111422556548 -0.29317658806621089 0 -0.44999384684511368 -0.2755750489792308 0 -0.46910519348062618 -0.28320526693770848 0 -0.45682111422556548 -0.29317658806621089 0 -0.46910519348062618 -0.28320526693770848 0 -0.47164434439118558 -0.29859902487093259 0 -0.45682111422556548 -0.29317658806621089 0 -0.44999384684511368 -0.2755750489792308 0 -0.45682111422556548 -0.29317658806621089 0 -0.441361257405879 -0.29303276451920029 0 -0.45682111422556548 -0.29317658806621089 0 -0.441361257405879 -0.29303276451920029 0 -0.44739706002137658 -0.30395698434733032 0 -0.441361257405879 -0.29303276451920029 0 -0.44739706002137658 -0.30395698434733032 0 -0.43527018611072049 -0.30465000121327751 0 -0.44739706002137658 -0.30395698434733032 0 -0.44024276041750632 -0.31887045497680111 0 -0.43527018611072049 -0.30465000121327751 0 -0.44739706002137658 -0.30395698434733032 0 -0.45229582611609759 -0.31444164243390338 0 -0.44024276041750632 -0.31887045497680111 0 -0.44024276041750632 -0.31887045497680111 0 -0.45653421084860168 -0.32646185290925811 0 -0.44024276041750632 -0.31887045497680111 0 -0.43930980958642257 -0.33554338078202212 0 -0.45653421084860168 -0.32646185290925811 0 -0.45229582611609759 -0.31444164243390338 0 -0.44024276041750632 -0.31887045497680111 0 -0.45653421084860168 -0.32646185290925811 0 -0.43930980958642257 -0.33554338078202212 0 -0.44966367396753332 -0.33841986907325933 0 -0.46855294336124231 -0.32873531729210143 0 -0.43930980958642257 -0.33554338078202212 0 -0.4507851133594416 -0.34910720111649318 0 -0.43930980958642257 -0.33554338078202212 0 -0.44966367396753332 -0.33841986907325933 0 -0.4507851133594416 -0.34910720111649318 0 -0.44966367396753332 -0.33841986907325933 0 -0.46855294336124231 -0.32873531729210143 0 -0.46386644800117471 -0.33586508895417932 0 -0.43930980958642257 -0.33554338078202212 0 -0.46855294336124231 -0.32873531729210143 0 -0.43930980958642257 -0.33554338078202212 0 -0.46855294336124231 -0.32873531729210143 0 -0.45653421084860168 -0.32646185290925811 0 -0.44966367396753332 -0.33841986907325933 0 -0.4586808436472537 -0.3401528003513713 0 -0.45711636988675219 -0.34547487934353349 0 -0.44966367396753332 -0.33841986907325933 0 -0.4586808436472537 -0.3401528003513713 0 -0.46386644800117471 -0.33586508895417932 0 -0.4586808436472537 -0.3401528003513713 0 -0.46472493826860672 -0.34236766697450172 0 -0.45711636988675219 -0.34547487934353349 0 -0.4586808436472537 -0.3401528003513713 0 -0.46472493826860672 -0.34236766697450172 0 -0.46386644800117471 -0.33586508895417932 0 -0.46855294336124231 -0.32873531729210143 0 -0.46207595183026873 -0.31834845619891672 0 -0.47203566342767839 -0.31514771464943409 0 -0.46855294336124231 -0.32873531729210143 0 -0.45653421084860168 -0.32646185290925811 0 -0.46207595183026873 -0.31834845619891672 0 -0.46096111539772322 -0.3069557537098867 0 -0.45229582611609759 -0.31444164243390338 0 -0.46207595183026873 -0.31834845619891672 0 -0.45229582611609759 -0.31444164243390338 0 -0.45653421084860168 -0.32646185290925811 0 -0.46207595183026873 -0.31834845619891672 0 -0.46096111539772322 -0.3069557537098867 0 -0.46207595183026873 -0.31834845619891672 0 -0.47203566342767839 -0.31514771464943409 0 -0.48293754746551898 -0.30617437981156609 0 -0.47203566342767839 -0.31514771464943409 0 -0.47770984076123751 -0.32964979107966252 0 -0.48293754746551898 -0.30617437981156609 0 -0.47770984076123751 -0.32964979107966252 0 -0.48293754746551898 -0.30617437981156609 0 -0.48763303240419292 -0.31981883507337211 0 -0.47770984076123751 -0.32964979107966252 0 -0.46855294336124231 -0.32873531729210143 0 -0.47203566342767839 -0.31514771464943409 0 -0.47770984076123751 -0.32964979107966252 0 -0.5 -0.3115730620380921 0 -0.5 -0.33901078862982997 0 -0.49048543526404831 -0.32960291085151988 0 -0.5 -0.3115730620380921 0 -0.48763303240419292 -0.31981883507337211 0 -0.49048543526404831 -0.32960291085151988 0 -0.5 -0.3115730620380921 0 -0.48293754746551898 -0.30617437981156609 0 -0.48763303240419292 -0.31981883507337211 0 -0.48763303240419292 -0.31981883507337211 0 -0.49048543526404831 -0.32960291085151988 0 -0.47770984076123751 -0.32964979107966252 0 -0.49048543526404831 -0.32960291085151988 0 -0.47770984076123751 -0.32964979107966252 0 -0.48708430315481122 -0.3479620774366432 0 -0.5 -0.33901078862982997 0 -0.49048543526404831 -0.32960291085151988 0 -0.48708430315481122 -0.3479620774366432 0 -0.47770984076123751 -0.32964979107966252 0 -0.47248213405695583 -0.35312520234775913 0 -0.47770984076123751 -0.32964979107966252 0 -0.47248213405695583 -0.35312520234775913 0 -0.48708430315481122 -0.3479620774366432 0 -0.46472493826860672 -0.34236766697450172 0 -0.47770984076123751 -0.32964979107966252 0 -0.47248213405695583 -0.35312520234775913 0 -0.46855294336124231 -0.32873531729210143 0 -0.46386644800117471 -0.33586508895417932 0 -0.47770984076123751 -0.32964979107966252 0 -0.46472493826860672 -0.34236766697450172 0 -0.46386644800117471 -0.33586508895417932 0 -0.47770984076123751 -0.32964979107966252 0 -0.47248213405695583 -0.35312520234775913 0 -0.48708430315481122 -0.3479620774366432 0 -0.48422759779560409 -0.37130120630367158 0 -0.5 -0.33901078862982997 0 -0.48708430315481122 -0.3479620774366432 0 -0.5 -0.36644851522156802 0 -0.48708430315481122 -0.3479620774366432 0 -0.5 -0.36644851522156802 0 -0.48422759779560409 -0.37130120630367158 0 -0.46725442735267431 -0.37660061361585562 0 -0.47248213405695583 -0.35312520234775913 0 -0.48422759779560409 -0.37130120630367158 0 -0.46725442735267431 -0.37660061361585562 0 -0.47248213405695583 -0.35312520234775913 0 -0.46725442735267431 -0.37660061361585562 0 -0.4540003998136638 -0.37455519391687309 0 -0.46226041713245919 -0.36267102145096558 0 -0.46725442735267431 -0.37660061361585562 0 -0.47248213405695583 -0.35312520234775913 0 -0.46226041713245919 -0.36267102145096558 0 -0.4540003998136638 -0.37455519391687309 0 -0.46226041713245919 -0.36267102145096558 0 -0.45167034254705118 -0.36337553476545958 0 -0.47248213405695583 -0.35312520234775913 0 -0.46226041713245919 -0.36267102145096558 0 -0.46130034509645268 -0.35111989715704561 0 -0.46472493826860672 -0.34236766697450172 0 -0.47248213405695583 -0.35312520234775913 0 -0.46130034509645268 -0.35111989715704561 0 -0.46472493826860672 -0.34236766697450172 0 -0.46130034509645268 -0.35111989715704561 0 -0.45711636988675219 -0.34547487934353349 0 -0.46130034509645268 -0.35111989715704561 0 -0.45711636988675219 -0.34547487934353349 0 -0.4507851133594416 -0.34910720111649318 0 -0.46226041713245919 -0.36267102145096558 0 -0.4507851133594416 -0.34910720111649318 0 -0.45167034254705118 -0.36337553476545958 0 -0.46226041713245919 -0.36267102145096558 0 -0.46130034509645268 -0.35111989715704561 0 -0.4507851133594416 -0.34910720111649318 0 -0.46226041713245919 -0.36267102145096558 0 -0.4507851133594416 -0.34910720111649318 0 -0.4507851133594416 -0.34910720111649318 0 -0.44504098357239391 -0.35771747353496869 0 -0.45167034254705118 -0.36337553476545958 0 -0.44966367396753332 -0.33841986907325933 0 -0.45711636988675219 -0.34547487934353349 0 -0.4507851133594416 -0.34910720111649318 0 -0.4507851133594416 -0.34910720111649318 0 -0.44408457896710762 -0.34741130507322732 0 -0.44504098357239391 -0.35771747353496869 0 -0.43930980958642257 -0.33554338078202212 0 -0.4507851133594416 -0.34910720111649318 0 -0.44408457896710762 -0.34741130507322732 0 -0.44408457896710762 -0.34741130507322732 0 -0.43834809566141358 -0.35386966642967582 0 -0.4310745521241639 -0.35060051531725012 0 -0.44408457896710762 -0.34741130507322732 0 -0.43834809566141358 -0.35386966642967582 0 -0.44504098357239391 -0.35771747353496869 0 -0.43834809566141358 -0.35386966642967582 0 -0.44504098357239391 -0.35771747353496869 0 -0.43256408976529492 -0.36260533289695268 0 -0.44504098357239391 -0.35771747353496869 0 -0.44172858264042247 -0.37082207246888088 0 -0.43256408976529492 -0.36260533289695268 0 -0.4540003998136638 -0.37455519391687309 0 -0.44172858264042247 -0.37082207246888088 0 -0.45167034254705118 -0.36337553476545958 0 -0.44504098357239391 -0.35771747353496869 0 -0.44172858264042247 -0.37082207246888088 0 -0.45167034254705118 -0.36337553476545958 0 -0.42311368847744002 -0.37830224279505142 0 -0.44172858264042247 -0.37082207246888088 0 -0.43256408976529492 -0.36260533289695268 0 -0.42311368847744002 -0.37830224279505142 0 -0.43256408976529492 -0.36260533289695268 0 -0.41867380740831611 -0.36398836527224071 0 -0.43256408976529492 -0.36260533289695268 0 -0.42210656065146929 -0.35476551363046099 0 -0.41867380740831611 -0.36398836527224071 0 -0.44408457896710762 -0.34741130507322732 0 -0.4310745521241639 -0.35060051531725012 0 -0.42443636388738298 -0.3390060521705498 0 -0.43834809566141358 -0.35386966642967582 0 -0.43256408976529492 -0.36260533289695268 0 -0.4310745521241639 -0.35060051531725012 0 -0.4310745521241639 -0.35060051531725012 0 -0.42266042161335821 -0.34652378860874011 0 -0.42210656065146929 -0.35476551363046099 0 -0.4310745521241639 -0.35060051531725012 0 -0.42266042161335821 -0.34652378860874011 0 -0.42443636388738298 -0.3390060521705498 0 -0.43256408976529492 -0.36260533289695268 0 -0.4310745521241639 -0.35060051531725012 0 -0.42210656065146929 -0.35476551363046099 0 -0.42210656065146929 -0.35476551363046099 0 -0.41243440171204931 -0.35621682403100541 0 -0.41867380740831611 -0.36398836527224071 0 -0.41243440171204931 -0.35621682403100541 0 -0.40365717239196519 -0.36741535175059892 0 -0.40302160193259851 -0.3439916005776541 0 -0.42210656065146929 -0.35476551363046099 0 -0.41714587076776338 -0.34786779488983011 0 -0.41243440171204931 -0.35621682403100541 0 -0.42266042161335821 -0.34652378860874011 0 -0.42210656065146929 -0.35476551363046099 0 -0.41714587076776338 -0.34786779488983011 0 -0.42266042161335821 -0.34652378860874011 0 -0.41714587076776338 -0.34786779488983011 0 -0.41853876063601031 -0.34037906703560689 0 -0.41714587076776338 -0.34786779488983011 0 -0.41853876063601031 -0.34037906703560689 0 -0.41714587076776338 -0.34786779488983011 0 -0.41243440171204931 -0.35621682403100541 0 -0.40302160193259851 -0.3439916005776541 0 -0.41714587076776338 -0.34786779488983011 0 -0.40302160193259851 -0.3439916005776541 0 -0.41853876063601031 -0.34037906703560689 0 -0.42311368847744002 -0.37830224279505142 0 -0.41867380740831611 -0.36398836527224071 0 -0.40365717239196519 -0.36741535175059892 0 -0.42311368847744002 -0.37830224279505142 0 -0.40365717239196519 -0.36741535175059892 0 -0.41243440171204931 -0.35621682403100541 0 -0.41867380740831611 -0.36398836527224071 0 -0.40365717239196519 -0.36741535175059892 0 -0.40403491357358612 -0.38133688525744702 0 -0.40365717239196519 -0.36741535175059892 0 -0.40403491357358612 -0.38133688525744702 0 -0.40365717239196519 -0.36741535175059892 0 -0.3904578797192948 -0.37473938743617019 0 -0.40365717239196519 -0.36741535175059892 0 -0.38979507995825918 -0.35965881973269581 0 -0.40365717239196519 -0.36741535175059892 0 -0.3904578797192948 -0.37473938743617019 0 -0.38979507995825918 -0.35965881973269581 0 -0.3904578797192948 -0.37473938743617019 0 -0.38979507995825918 -0.35965881973269581 0 -0.37568304780698558 -0.36916333065311507 0 -0.37568304780698558 -0.36916333065311507 0 -0.37593298752455201 -0.35190228771479481 0 -0.38979507995825918 -0.35965881973269581 0 -0.37568304780698558 -0.36916333065311507 0 -0.37593298752455201 -0.35190228771479481 0 -0.38979507995825918 -0.35965881973269581 0 -0.37595629511297179 -0.35029264644438168 0 -0.40302160193259851 -0.3439916005776541 0 -0.37595629511297179 -0.35029264644438168 0 -0.40302160193259851 -0.3439916005776541 0 -0.38842354837557669 -0.33756560667471242 0 -0.37595629511297179 -0.35029264644438168 0 -0.40302160193259851 -0.3439916005776541 0 -0.37595629511297179 -0.35029264644438168 0 -0.37607676276689278 -0.3419730509543204 0 -0.37390838074359528 -0.35076941925389299 0 -0.37595629511297179 -0.35029264644438168 0 -0.37607676276689278 -0.3419730509543204 0 -0.37595629511297179 -0.35029264644438168 0 -0.37593298752455201 -0.35190228771479481 0 -0.37390838074359528 -0.35076941925389299 0 -0.37595629511297179 -0.35029264644438168 0 -0.37593298752455201 -0.35190228771479481 0 -0.38979507995825918 -0.35965881973269581 0 -0.37595629511297179 -0.35029264644438168 0 -0.37593298752455201 -0.35190228771479481 0 -0.38979507995825918 -0.35965881973269581 0 -0.37593298752455201 -0.35190228771479481 0 -0.40365717239196519 -0.36741535175059892 0 -0.40302160193259851 -0.3439916005776541 0 -0.40365717239196519 -0.36741535175059892 0 -0.38979507995825918 -0.35965881973269581 0 -0.40302160193259851 -0.3439916005776541 0 -0.40302160193259851 -0.3439916005776541 0 -0.40263324863316441 -0.32967896077653092 0 -0.40263324863316441 -0.32967896077653092 0 -0.38842354837557669 -0.33756560667471242 0 -0.38442983343225828 -0.32189177462067481 0 -0.40302160193259851 -0.3439916005776541 0 -0.40263324863316441 -0.32967896077653092 0 -0.38842354837557669 -0.33756560667471242 0 -0.37607676276689278 -0.3419730509543204 0 -0.37641717267996733 -0.3184640617331177 0 -0.38842354837557669 -0.33756560667471242 0 -0.37607676276689278 -0.3419730509543204 0 -0.38442983343225828 -0.32189177462067481 0 -0.37607676276689278 -0.3419730509543204 0 -0.38442983343225828 -0.32189177462067481 0 -0.37595629511297179 -0.35029264644438168 0 -0.38842354837557669 -0.33756560667471242 0 -0.37607676276689278 -0.3419730509543204 0 -0.37607676276689278 -0.3419730509543204 0 -0.37641717267996733 -0.3184640617331177 0 -0.38442983343225828 -0.32189177462067481 0 -0.37641717267996733 -0.3184640617331177 0 -0.38442983343225828 -0.32189177462067481 0 -0.3841914044669909 -0.30132118344037401 0 -0.37641717267996733 -0.3184640617331177 0 -0.38442983343225828 -0.32189177462067481 0 -0.40263324863316441 -0.32967896077653092 0 -0.38442983343225828 -0.32189177462067481 0 -0.40185461233875269 -0.30098256284660307 0 -0.40263324863316441 -0.32967896077653092 0 -0.38442983343225828 -0.32189177462067481 0 -0.40263324863316441 -0.32967896077653092 0 -0.40185461233875269 -0.30098256284660307 0 -0.40263324863316441 -0.32967896077653092 0 -0.41242695344044827 -0.31820451366256841 0 -0.40185461233875269 -0.30098256284660307 0 -0.41242695344044827 -0.31820451366256841 0 -0.41920998916455232 -0.33677027649670849 0 -0.42301959421646518 -0.31628833020920039 0 -0.41920998916455232 -0.33677027649670849 0 -0.42301959421646518 -0.31628833020920039 0 -0.41242695344044827 -0.31820451366256841 0 -0.42301959421646518 -0.31628833020920039 0 -0.41541732284930832 -0.30730243798379953 0 -0.40302160193259851 -0.3439916005776541 0 -0.41920998916455232 -0.33677027649670849 0 -0.41853876063601031 -0.34037906703560689 0 -0.40302160193259851 -0.3439916005776541 0 -0.40263324863316441 -0.32967896077653092 0 -0.41920998916455232 -0.33677027649670849 0 -0.40263324863316441 -0.32967896077653092 0 -0.41920998916455232 -0.33677027649670849 0 -0.40263324863316441 -0.32967896077653092 0 -0.41242695344044827 -0.31820451366256841 0 -0.41920998916455232 -0.33677027649670849 0 -0.40302160193259851 -0.3439916005776541 0 -0.41853876063601031 -0.34037906703560689 0 -0.41853876063601031 -0.34037906703560689 0 -0.42443636388738298 -0.3390060521705498 0 -0.41920998916455232 -0.33677027649670849 0 -0.42443636388738298 -0.3390060521705498 0 -0.41920998916455232 -0.33677027649670849 0 -0.41853876063601031 -0.34037906703560689 0 -0.42443636388738298 -0.3390060521705498 0 -0.41920998916455232 -0.33677027649670849 0 -0.41853876063601031 -0.34037906703560689 0 -0.43930980958642257 -0.33554338078202212 0 -0.44408457896710762 -0.34741130507322732 0 -0.42443636388738298 -0.3390060521705498 0 -0.43930980958642257 -0.33554338078202212 0 -0.42443636388738298 -0.3390060521705498 0 -0.42301959421646518 -0.31628833020920039 0 -0.41920998916455232 -0.33677027649670849 0 -0.42443636388738298 -0.3390060521705498 0 -0.42301959421646518 -0.31628833020920039 0 -0.44408457896710762 -0.34741130507322732 0 -0.42443636388738298 -0.3390060521705498 0 -0.42266042161335821 -0.34652378860874011 0 -0.41853876063601031 -0.34037906703560689 0 -0.42443636388738298 -0.3390060521705498 0 -0.43930980958642257 -0.33554338078202212 0 -0.42443636388738298 -0.3390060521705498 0 -0.43930980958642257 -0.33554338078202212 0 -0.42301959421646518 -0.31628833020920039 0 -0.44024276041750632 -0.31887045497680111 0 -0.42395130998641067 -0.31127905704434472 0 -0.44024276041750632 -0.31887045497680111 0 -0.43930980958642257 -0.33554338078202212 0 -0.42301959421646518 -0.31628833020920039 0 -0.44024276041750632 -0.31887045497680111 0 -0.42301959421646518 -0.31628833020920039 0 -0.42395130998641067 -0.31127905704434472 0 -0.42301959421646518 -0.31628833020920039 0 -0.42395130998641067 -0.31127905704434472 0 -0.42395130998641067 -0.31127905704434472 0 -0.42709180872781188 -0.29439449141065738 0 -0.44024276041750632 -0.31887045497680111 0 -0.42395130998641067 -0.31127905704434472 0 -0.43527018611072049 -0.30465000121327751 0 -0.42395130998641067 -0.31127905704434472 0 -0.42709180872781188 -0.29439449141065738 0 -0.41541732284930832 -0.30730243798379953 0 -0.42395130998641067 -0.31127905704434472 0 -0.43527018611072049 -0.30465000121327751 0 -0.42709180872781188 -0.29439449141065738 0 -0.441361257405879 -0.29303276451920029 0 -0.43527018611072049 -0.30465000121327751 0 -0.42709180872781188 -0.29439449141065738 0 -0.42709180872781188 -0.29439449141065738 0 -0.43077531442077321 -0.27459050524281542 0 -0.42709180872781188 -0.29439449141065738 0 -0.41684225135067149 -0.28376244362903152 0 -0.43077531442077321 -0.27459050524281542 0 -0.441361257405879 -0.29303276451920029 0 -0.42709180872781188 -0.29439449141065738 0 -0.441361257405879 -0.29303276451920029 0 -0.42709180872781188 -0.29439449141065738 0 -0.43077531442077321 -0.27459050524281542 0 -0.42709180872781188 -0.29439449141065738 0 -0.41684225135067149 -0.28376244362903152 0 -0.40618483967714292 -0.29638963380315841 0 -0.42709180872781188 -0.29439449141065738 0 -0.40618483967714292 -0.29638963380315841 0 -0.41684225135067149 -0.28376244362903152 0 -0.40690107601488551 -0.28490397733270861 0 -0.40618483967714292 -0.29638963380315841 0 -0.41541732284930832 -0.30730243798379953 0 -0.40185461233875269 -0.30098256284660307 0 -0.40618483967714292 -0.29638963380315841 0 -0.42709180872781188 -0.29439449141065738 0 -0.41541732284930832 -0.30730243798379953 0 -0.40618483967714292 -0.29638963380315841 0 -0.41541732284930832 -0.30730243798379953 0 -0.40618483967714292 -0.29638963380315841 0 -0.41242695344044827 -0.31820451366256841 0 -0.41541732284930832 -0.30730243798379953 0 -0.40185461233875269 -0.30098256284660307 0 -0.41541732284930832 -0.30730243798379953 0 -0.40185461233875269 -0.30098256284660307 0 -0.42301959421646518 -0.31628833020920039 0 -0.41541732284930832 -0.30730243798379953 0 -0.42395130998641067 -0.31127905704434472 0 -0.41541732284930832 -0.30730243798379953 0 -0.42301959421646518 -0.31628833020920039 0 -0.42395130998641067 -0.31127905704434472 0 -0.41541732284930832 -0.30730243798379953 0 -0.38442983343225828 -0.32189177462067481 0 -0.40185461233875269 -0.30098256284660307 0 -0.39448508010510541 -0.297525044214214 0 -0.40185461233875269 -0.30098256284660307 0 -0.40174149504185092 -0.29681366012781812 0 -0.40618483967714292 -0.29638963380315841 0 -0.40185461233875269 -0.30098256284660307 0 -0.40174149504185092 -0.29681366012781812 0 -0.40185461233875269 -0.30098256284660307 0 -0.39448508010510541 -0.297525044214214 0 -0.40174149504185092 -0.29681366012781812 0 -0.40185461233875269 -0.30098256284660307 0 -0.39448508010510541 -0.297525044214214 0 -0.39448508010510541 -0.297525044214214 0 -0.40174149504185092 -0.29681366012781812 0 -0.37641717267996733 -0.3184640617331177 0 -0.37669606201677502 -0.29920373422444158 0 -0.38442983343225828 -0.32189177462067481 0 -0.39448508010510541 -0.297525044214214 0 -0.38442983343225828 -0.32189177462067481 0 -0.39448508010510541 -0.297525044214214 0 -0.3841914044669909 -0.30132118344037401 0 -0.37641717267996733 -0.3184640617331177 0 -0.3841914044669909 -0.30132118344037401 0 -0.37669606201677502 -0.29920373422444158 0 -0.39448508010510541 -0.297525044214214 0 -0.3841914044669909 -0.30132118344037401 0 -0.37928718982873688 -0.29895646409505849 0 -0.39448508010510541 -0.297525044214214 0 -0.37928718982873688 -0.29895646409505849 0 -0.3841914044669909 -0.30132118344037401 0 -0.37928718982873688 -0.29895646409505849 0 -0.3841914044669909 -0.30132118344037401 0 -0.37928718982873688 -0.29895646409505849 0 -0.37669606201677502 -0.29920373422444158 0 -0.37928718982873688 -0.29895646409505849 0 -0.37669606201677502 -0.29920373422444158 0 -0.37671758341694961 -0.29771744858697219 0 -0.37928718982873688 -0.29895646409505849 0 -0.37671758341694961 -0.29771744858697219 0 -0.37928718982873688 -0.29895646409505849 0 -0.37669606201677502 -0.29920373422444158 0 -0.37669606201677502 -0.29920373422444158 0 -0.37671758341694961 -0.29771744858697219 0 -0.37671758341694961 -0.29771744858697219 0 -0.38607699004493318 -0.28757386461908069 0 -0.38483052758877101 -0.28123782127595193 0 -0.37671758341694961 -0.29771744858697219 0 -0.3770412393053626 -0.27536550612006683 0 -0.37671758341694961 -0.29771744858697219 0 -0.38483052758877101 -0.28123782127595193 0 -0.3770412393053626 -0.27536550612006683 0 -0.37928718982873688 -0.29895646409505849 0 -0.37671758341694961 -0.29771744858697219 0 -0.38467000758835601 -0.29297497791584359 0 -0.37671758341694961 -0.29771744858697219 0 -0.38467000758835601 -0.29297497791584359 0 -0.38607699004493318 -0.28757386461908069 0 -0.39448508010510541 -0.297525044214214 0 -0.37928718982873688 -0.29895646409505849 0 -0.38467000758835601 -0.29297497791584359 0 -0.39448508010510541 -0.297525044214214 0 -0.38467000758835601 -0.29297497791584359 0 -0.39448508010510541 -0.297525044214214 0 -0.38467000758835601 -0.29297497791584359 0 -0.39217701296355612 -0.28987936211692023 0 -0.38467000758835601 -0.29297497791584359 0 -0.38607699004493318 -0.28757386461908069 0 -0.39217701296355612 -0.28987936211692023 0 -0.38607699004493318 -0.28757386461908069 0 -0.39049541959166939 -0.28414526237041138 0 -0.39217701296355612 -0.28987936211692023 0 -0.39049541959166939 -0.28414526237041138 0 -0.39420405367365152 -0.27853706101481662 0 -0.38483052758877101 -0.28123782127595193 0 -0.38607699004493318 -0.28757386461908069 0 -0.39049541959166939 -0.28414526237041138 0 -0.38483052758877101 -0.28123782127595193 0 -0.39597078832761667 -0.28551153658085893 0 -0.40174149504185092 -0.29681366012781812 0 -0.40123596036735593 -0.27818233727432817 0 -0.39049541959166939 -0.28414526237041138 0 -0.39597078832761667 -0.28551153658085893 0 -0.39420405367365152 -0.27853706101481662 0 -0.40174149504185092 -0.29681366012781812 0 -0.40123596036735593 -0.27818233727432817 0 -0.40174149504185092 -0.29681366012781812 0 -0.40322207619149192 -0.29288764445213411 0 -0.40123596036735593 -0.27818233727432817 0 -0.39049541959166939 -0.28414526237041138 0 -0.39597078832761667 -0.28551153658085893 0 -0.39217701296355612 -0.28987936211692023 0 -0.39597078832761667 -0.28551153658085893 0 -0.39217701296355612 -0.28987936211692023 0 -0.40174149504185092 -0.29681366012781812 0 -0.39448508010510541 -0.297525044214214 0 -0.39217701296355612 -0.28987936211692023 0 -0.40174149504185092 -0.29681366012781812 0 -0.40690107601488551 -0.28490397733270861 0 -0.40322207619149192 -0.29288764445213411 0 -0.40618483967714292 -0.29638963380315841 0 -0.40174149504185092 -0.29681366012781812 0 -0.40322207619149192 -0.29288764445213411 0 -0.40618483967714292 -0.29638963380315841 0 -0.40174149504185092 -0.29681366012781812 0 -0.40618483967714292 -0.29638963380315841 0 -0.40322207619149192 -0.29288764445213411 0 -0.40618483967714292 -0.29638963380315841 0 -0.40690107601488551 -0.28490397733270861 0 -0.40322207619149192 -0.29288764445213411 0 -0.40123596036735593 -0.27818233727432817 0 -0.39420405367365152 -0.27853706101481662 0 -0.37710287173325818 -0.2711091198417086 0 -0.40073042569286338 -0.25955101442083811 0 -0.40123596036735593 -0.27818233727432817 0 -0.39420405367365152 -0.27853706101481662 0 -0.40073042569286338 -0.25955101442083811 0 -0.40123596036735593 -0.27818233727432817 0 -0.40073042569286338 -0.25955101442083811 0 -0.40123596036735593 -0.27818233727432817 0 -0.40073042569286338 -0.25955101442083811 0 -0.41341650638623911 -0.27076301679274262 0 -0.39597078832761667 -0.28551153658085893 0 -0.40123596036735593 -0.27818233727432817 0 -0.39420405367365152 -0.27853706101481662 0 -0.39420405367365152 -0.27853706101481662 0 -0.37710287173325818 -0.2711091198417086 0 -0.3770412393053626 -0.27536550612006683 0 -0.39420405367365152 -0.27853706101481662 0 -0.3770412393053626 -0.27536550612006683 0 -0.39420405367365152 -0.27853706101481662 0 -0.38483052758877101 -0.28123782127595193 0 -0.3770412393053626 -0.27536550612006683 0 -0.37710287173325818 -0.2711091198417086 0 -0.3770412393053626 -0.27536550612006683 0 -0.37710287173325818 -0.2711091198417086 0 -0.38543722149146659 -0.25821727905458303 0 -0.40073042569286338 -0.25955101442083811 0 -0.37710287173325818 -0.2711091198417086 0 -0.37747963509906429 -0.24508953120583671 0 -0.37710287173325818 -0.2711091198417086 0 -0.40073042569286338 -0.25955101442083811 0 -0.37710287173325818 -0.2711091198417086 0 -0.38543722149146659 -0.25821727905458303 0 -0.37747963509906429 -0.24508953120583671 0 -0.38543722149146659 -0.25821727905458303 0 -0.3938256931015453 -0.25037754026629511 0 -0.37747963509906429 -0.24508953120583671 0 -0.38543722149146659 -0.25821727905458303 0 -0.3938256931015453 -0.25037754026629511 0 -0.40073042569286338 -0.25955101442083811 0 -0.40073042569286338 -0.25955101442083811 0 -0.40282532782868952 -0.25224285689579767 0 -0.40022281387448849 -0.24084313907701979 0 -0.40073042569286338 -0.25955101442083811 0 -0.40022281387448849 -0.24084313907701979 0 -0.3938256931015453 -0.25037754026629511 0 -0.40073042569286338 -0.25955101442083811 0 -0.40022281387448849 -0.24084313907701979 0 -0.40073042569286338 -0.25955101442083811 0 -0.40282532782868952 -0.25224285689579767 0 -0.41385673751816382 -0.25312989710486528 0 -0.40073042569286338 -0.25955101442083811 0 -0.41385673751816382 -0.25312989710486528 0 -0.40073042569286338 -0.25955101442083811 0 -0.41385673751816382 -0.25312989710486528 0 -0.41341650638623911 -0.27076301679274262 0 -0.41385673751816382 -0.25312989710486528 0 -0.41341650638623911 -0.27076301679274262 0 -0.42312684460972783 -0.26331748455384929 0 -0.41385673751816382 -0.25312989710486528 0 -0.41679144862722167 -0.25169429778568547 0 -0.43445882011373449 -0.25478651907497341 0 -0.40282532782868952 -0.25224285689579767 0 -0.41385673751816382 -0.25312989710486528 0 -0.4086566941719203 -0.24778871483445111 0 -0.40282532782868952 -0.25224285689579767 0 -0.41385673751816382 -0.25312989710486528 0 -0.41385673751816382 -0.25312989710486528 0 -0.41679144862722167 -0.25169429778568547 0 -0.41627810448972868 -0.24641300060905449 0 -0.41385673751816382 -0.25312989710486528 0 -0.41679144862722167 -0.25169429778568547 0 -0.41684225135067149 -0.28376244362903152 0 -0.41341650638623911 -0.27076301679274262 0 -0.43077531442077321 -0.27459050524281542 0 -0.40690107601488551 -0.28490397733270861 0 -0.40123596036735593 -0.27818233727432817 0 -0.41341650638623911 -0.27076301679274262 0 -0.41684225135067149 -0.28376244362903152 0 -0.40690107601488551 -0.28490397733270861 0 -0.41341650638623911 -0.27076301679274262 0 -0.41341650638623911 -0.27076301679274262 0 -0.43077531442077321 -0.27459050524281542 0 -0.42312684460972783 -0.26331748455384929 0 -0.43077531442077321 -0.27459050524281542 0 -0.42312684460972783 -0.26331748455384929 0 -0.43445882011373449 -0.25478651907497341 0 -0.41385673751816382 -0.25312989710486528 0 -0.43445882011373449 -0.25478651907497341 0 -0.43077531442077321 -0.27459050524281542 0 -0.43445882011373449 -0.25478651907497341 0 -0.41385673751816382 -0.25312989710486528 0 -0.42312684460972783 -0.26331748455384929 0 -0.43445882011373449 -0.25478651907497341 0 -0.41679144862722167 -0.25169429778568547 0 -0.43445882011373449 -0.25478651907497341 0 -0.42335340856967768 -0.24893549408922019 0 -0.32580796388430833 -0.26195871891040218 0 -0.34139866608006603 -0.2687790352098644 0 -0.31202674084989918 -0.26335133138269068 0 -0.32580796388430833 -0.26195871891040218 0 -0.33345250408021371 -0.25331871279766999 0 -0.32023222063025569 -0.2489608815952247 0 -0.32580796388430833 -0.26195871891040218 0 -0.31664960680882542 -0.25714232151458272 0 -0.32023222063025569 -0.2489608815952247 0 -0.31664960680882542 -0.25714232151458272 0 -0.30853150187083839 -0.25429835417001312 0 -0.32023222063025569 -0.2489608815952247 0 -0.32580796388430833 -0.26195871891040218 0 -0.31664960680882542 -0.25714232151458272 0 -0.31202674084989918 -0.26335133138269068 0 -0.33223611708196649 -0.27626932861073827 0 -0.31972670239926188 -0.28454160199560091 0 -0.31187737399160442 -0.27618124236115132 0 -0.34139866608006603 -0.2687790352098644 0 -0.31202674084989918 -0.26335133138269068 0 -0.33223611708196649 -0.27626932861073827 0 -0.31202674084989918 -0.26335133138269068 0 -0.3062135479255173 -0.26372173898871692 0 -0.33223611708196649 -0.27626932861073827 0 -0.31187737399160442 -0.27618124236115132 0 -0.3062135479255173 -0.26372173898871692 0 -0.33260241140844943 -0.2743168067351805 0 -0.33223611708196649 -0.27626932861073827 0 -0.31202674084989918 -0.26335133138269068 0 -0.33223611708196649 -0.27626932861073827 0 -0.3062135479255173 -0.26372173898871692 0 -0.33260241140844943 -0.2743168067351805 0 -0.34139866608006603 -0.2687790352098644 0 -0.31202674084989918 -0.26335133138269068 0 -0.33223611708196649 -0.27626932861073827 0 -0.34139866608006603 -0.2687790352098644 0 -0.34951875912658742 -0.28460269103381453 0 -0.33223611708196649 -0.27626932861073827 0 -0.34951875912658742 -0.28460269103381453 0 -0.33260241140844943 -0.2743168067351805 0 -0.33223611708196649 -0.27626932861073827 0 -0.34139866608006603 -0.2687790352098644 0 -0.33260241140844943 -0.2743168067351805 0 -0.33223611708196649 -0.27626932861073827 0 -0.34139866608006603 -0.2687790352098644 0 -0.3363084638556994 -0.26041051377605268 0 -0.34457472137820933 -0.25758558818627408 0 -0.32580796388430833 -0.26195871891040218 0 -0.34139866608006603 -0.2687790352098644 0 -0.3363084638556994 -0.26041051377605268 0 -0.32580796388430833 -0.26195871891040218 0 -0.3363084638556994 -0.26041051377605268 0 -0.33345250408021371 -0.25331871279766999 0 -0.3363084638556994 -0.26041051377605268 0 -0.33345250408021371 -0.25331871279766999 0 -0.34457472137820933 -0.25758558818627408 0 -0.33345250408021371 -0.25331871279766999 0 -0.34457472137820933 -0.25758558818627408 0 -0.34395992200845399 -0.24382677409400949 0 -0.34139866608006603 -0.2687790352098644 0 -0.34457472137820933 -0.25758558818627408 0 -0.35733732661955131 -0.26288598862094092 0 -0.34457472137820933 -0.25758558818627408 0 -0.35872453044413888 -0.25078889886649508 0 -0.34395992200845399 -0.24382677409400949 0 -0.34457472137820933 -0.25758558818627408 0 -0.35733732661955131 -0.26288598862094092 0 -0.35872453044413888 -0.25078889886649508 0 -0.37710287173325818 -0.2711091198417086 0 -0.36828299104124951 -0.26081605551440462 0 -0.37747963509906429 -0.24508953120583671 0 -0.35872453044413888 -0.25078889886649508 0 -0.36828299104124951 -0.26081605551440462 0 -0.37747963509906429 -0.24508953120583671 0 -0.35733732661955131 -0.26288598862094092 0 -0.35872453044413888 -0.25078889886649508 0 -0.36828299104124951 -0.26081605551440462 0 -0.37077059131023282 -0.27420673903703829 0 -0.34951875912658742 -0.28460269103381453 0 -0.37710287173325818 -0.2711091198417086 0 -0.3770412393053626 -0.27536550612006683 0 -0.37077059131023282 -0.27420673903703829 0 -0.3770412393053626 -0.27536550612006683 0 -0.37077059131023282 -0.27420673903703829 0 -0.37710287173325818 -0.2711091198417086 0 -0.36828299104124951 -0.26081605551440462 0 -0.37077059131023282 -0.27420673903703829 0 -0.37710287173325818 -0.2711091198417086 0 -0.37077059131023282 -0.27420673903703829 0 -0.35733732661955131 -0.26288598862094092 0 -0.36828299104124951 -0.26081605551440462 0 -0.37077059131023282 -0.27420673903703829 0 -0.34139866608006603 -0.2687790352098644 0 -0.35733732661955131 -0.26288598862094092 0 -0.37077059131023282 -0.27420673903703829 0 -0.34139866608006603 -0.2687790352098644 0 -0.37077059131023282 -0.27420673903703829 0 -0.34951875912658742 -0.28460269103381453 0 -0.34139866608006603 -0.2687790352098644 0 -0.37077059131023282 -0.27420673903703829 0 -0.34951875912658742 -0.28460269103381453 0 -0.3581763596052473 -0.30097106086504849 0 -0.34010739644885768 -0.2892065328944351 0 -0.34951875912658742 -0.28460269103381453 0 -0.34010739644885768 -0.2892065328944351 0 -0.37671758341694961 -0.29771744858697219 0 -0.37077059131023282 -0.27420673903703829 0 -0.34951875912658742 -0.28460269103381453 0 -0.37671758341694961 -0.29771744858697219 0 -0.34951875912658742 -0.28460269103381453 0 -0.37671758341694961 -0.29771744858697219 0 -0.3770412393053626 -0.27536550612006683 0 -0.37077059131023282 -0.27420673903703829 0 -0.37671758341694961 -0.29771744858697219 0 -0.34951875912658742 -0.28460269103381453 0 -0.3581763596052473 -0.30097106086504849 0 -0.37669606201677502 -0.29920373422444158 0 -0.37671758341694961 -0.29771744858697219 0 -0.3581763596052473 -0.30097106086504849 0 -0.37641717267996733 -0.3184640617331177 0 -0.37669606201677502 -0.29920373422444158 0 -0.36799370156123501 -0.30592930732763762 0 -0.37641717267996733 -0.3184640617331177 0 -0.36799370156123501 -0.30592930732763762 0 -0.35803691493684492 -0.31060122461938489 0 -0.37669606201677502 -0.29920373422444158 0 -0.36799370156123501 -0.30592930732763762 0 -0.3581763596052473 -0.30097106086504849 0 -0.37669606201677502 -0.29920373422444158 0 -0.3581763596052473 -0.30097106086504849 0 -0.36799370156123501 -0.30592930732763762 0 -0.35803691493684492 -0.31060122461938489 0 -0.3581763596052473 -0.30097106086504849 0 -0.35803691493684492 -0.31060122461938489 0 -0.33965665719371979 -0.30273838750565862 0 -0.35803691493684492 -0.31060122461938489 0 -0.33965665719371979 -0.30273838750565862 0 -0.34514704515453298 -0.31300544250539297 0 -0.3581763596052473 -0.30097106086504849 0 -0.33965665719371979 -0.30273838750565862 0 -0.34010739644885768 -0.2892065328944351 0 -0.35803691493684492 -0.31060122461938489 0 -0.3581763596052473 -0.30097106086504849 0 -0.33965665719371979 -0.30273838750565862 0 -0.3581763596052473 -0.30097106086504849 0 -0.33965665719371979 -0.30273838750565862 0 -0.33676996251121621 -0.31158184422573892 0 -0.33965665719371979 -0.30273838750565862 0 -0.34514704515453298 -0.31300544250539297 0 -0.33676996251121621 -0.31158184422573892 0 -0.33965665719371979 -0.30273838750565862 0 -0.32704471803945162 -0.30394193902942662 0 -0.33676996251121621 -0.31158184422573892 0 -0.32594772137393307 -0.30978944971135602 0 -0.32704471803945162 -0.30394193902942662 0 -0.33965665719371979 -0.30273838750565862 0 -0.32704471803945162 -0.30394193902942662 0 -0.32819068517220462 -0.29783339261299951 0 -0.33965665719371979 -0.30273838750565862 0 -0.32704471803945162 -0.30394193902942662 0 -0.32819068517220462 -0.29783339261299951 0 -0.33965665719371979 -0.30273838750565862 0 -0.33223611708196649 -0.27626932861073827 0 -0.32819068517220462 -0.29783339261299951 0 -0.33223611708196649 -0.27626932861073827 0 -0.32819068517220462 -0.29783339261299951 0 -0.34010739644885768 -0.2892065328944351 0 -0.33223611708196649 -0.27626932861073827 0 -0.34951875912658742 -0.28460269103381453 0 -0.34010739644885768 -0.2892065328944351 0 -0.32819068517220462 -0.29783339261299951 0 -0.33965665719371979 -0.30273838750565862 0 -0.34010739644885768 -0.2892065328944351 0 -0.32819068517220462 -0.29783339261299951 0 -0.31972670239926188 -0.28454160199560091 0 -0.31332574866090718 -0.291474364566292 0 -0.32819068517220462 -0.29783339261299951 0 -0.31332574866090718 -0.291474364566292 0 -0.33223611708196649 -0.27626932861073827 0 -0.32819068517220462 -0.29783339261299951 0 -0.31972670239926188 -0.28454160199560091 0 -0.31972670239926188 -0.28454160199560091 0 -0.31332574866090718 -0.291474364566292 0 -0.30937392239009109 -0.28339120160471948 0 -0.31972670239926188 -0.28454160199560091 0 -0.30937392239009109 -0.28339120160471948 0 -0.31187737399160442 -0.27618124236115132 0 -0.31992409361072222 -0.30462145692723192 0 -0.32594772137393307 -0.30978944971135602 0 -0.31307430431717392 -0.31869978567557272 0 -0.31992409361072222 -0.30462145692723192 0 -0.32594772137393307 -0.30978944971135602 0 -0.32594772137393307 -0.30978944971135602 0 -0.32704471803945162 -0.30394193902942662 0 -0.31992409361072222 -0.30462145692723192 0 -0.32594772137393307 -0.30978944971135602 0 -0.32704471803945162 -0.30394193902942662 0 -0.32819068517220462 -0.29783339261299951 0 -0.31332574866090718 -0.291474364566292 0 -0.31992409361072222 -0.30462145692723192 0 -0.32819068517220462 -0.29783339261299951 0 -0.32704471803945162 -0.30394193902942662 0 -0.32819068517220462 -0.29783339261299951 0 -0.31992409361072222 -0.30462145692723192 0 -0.32704471803945162 -0.30394193902942662 0 -0.31992409361072222 -0.30462145692723192 0 -0.32704471803945162 -0.30394193902942662 0 -0.32594772137393307 -0.30978944971135602 0 -0.31307430431717392 -0.31869978567557272 0 -0.32184288384298337 -0.33167017375041419 0 -0.32594772137393307 -0.30978944971135602 0 -0.32184288384298337 -0.33167017375041419 0 -0.32184288384298337 -0.33167017375041419 0 -0.31773804631203251 -0.35355089778947202 0 -0.32184288384298337 -0.33167017375041419 0 -0.34475024534571441 -0.34586667392980902 0 -0.31773804631203251 -0.35355089778947202 0 -0.32184288384298337 -0.33167017375041419 0 -0.34612464597635118 -0.32710031367078812 0 -0.34475024534571441 -0.34586667392980902 0 -0.33676996251121621 -0.31158184422573892 0 -0.32594772137393307 -0.30978944971135602 0 -0.34612464597635118 -0.32710031367078812 0 -0.32594772137393307 -0.30978944971135602 0 -0.34612464597635118 -0.32710031367078812 0 -0.32594772137393307 -0.30978944971135602 0 -0.32184288384298337 -0.33167017375041419 0 -0.34612464597635118 -0.32710031367078812 0 -0.33676996251121621 -0.31158184422573892 0 -0.34514704515453298 -0.31300544250539297 0 -0.34612464597635118 -0.32710031367078812 0 -0.35803691493684492 -0.31060122461938489 0 -0.34514704515453298 -0.31300544250539297 0 -0.34612464597635118 -0.32710031367078812 0 -0.35803691493684492 -0.31060122461938489 0 -0.34612464597635118 -0.32710031367078812 0 -0.35600230731325749 -0.33324145173106873 0 -0.37641717267996733 -0.3184640617331177 0 -0.35803691493684492 -0.31060122461938489 0 -0.37641717267996733 -0.3184640617331177 0 -0.35803691493684492 -0.31060122461938489 0 -0.36719759625642318 -0.33008752154143739 0 -0.35803691493684492 -0.31060122461938489 0 -0.36719759625642318 -0.33008752154143739 0 -0.35600230731325749 -0.33324145173106873 0 -0.37607676276689278 -0.3419730509543204 0 -0.37641717267996733 -0.3184640617331177 0 -0.36719759625642318 -0.33008752154143739 0 -0.37607676276689278 -0.3419730509543204 0 -0.3688763256213185 -0.34309961767568647 0 -0.36719759625642318 -0.33008752154143739 0 -0.36719759625642318 -0.33008752154143739 0 -0.36118874601324108 -0.3436521492952741 0 -0.35600230731325749 -0.33324145173106873 0 -0.3688763256213185 -0.34309961767568647 0 -0.36719759625642318 -0.33008752154143739 0 -0.36118874601324108 -0.3436521492952741 0 -0.34612464597635118 -0.32710031367078812 0 -0.35600230731325749 -0.33324145173106873 0 -0.34475024534571441 -0.34586667392980902 0 -0.36118874601324108 -0.3436521492952741 0 -0.35600230731325749 -0.33324145173106873 0 -0.34475024534571441 -0.34586667392980902 0 -0.36118874601324108 -0.3436521492952741 0 -0.34475024534571441 -0.34586667392980902 0 -0.35925477447714671 -0.35134479444962452 0 -0.34475024534571441 -0.34586667392980902 0 -0.35480891830463612 -0.3592101017575729 0 -0.33937201587241012 -0.36587749477948078 0 -0.34475024534571441 -0.34586667392980902 0 -0.35480891830463612 -0.3592101017575729 0 -0.35925477447714671 -0.35134479444962452 0 -0.36118874601324108 -0.3436521492952741 0 -0.37225797237559449 -0.35115364910559932 0 -0.36118874601324108 -0.3436521492952741 0 -0.35925477447714671 -0.35134479444962452 0 -0.36985982957495511 -0.35171195823109852 0 -0.37568304780698558 -0.36916333065311507 0 -0.37593298752455201 -0.35190228771479481 0 -0.37225797237559449 -0.35115364910559932 0 -0.35480891830463612 -0.3592101017575729 0 -0.35925477447714671 -0.35134479444962452 0 -0.36985982957495511 -0.35171195823109852 0 -0.37607676276689278 -0.3419730509543204 0 -0.3688763256213185 -0.34309961767568647 0 -0.37225797237559449 -0.35115364910559932 0 -0.37607676276689278 -0.3419730509543204 0 -0.37225797237559449 -0.35115364910559932 0 -0.37607676276689278 -0.3419730509543204 0 -0.37390838074359528 -0.35076941925389299 0 -0.37225797237559449 -0.35115364910559932 0 -0.37593298752455201 -0.35190228771479481 0 -0.37390838074359528 -0.35076941925389299 0 -0.37225797237559449 -0.35115364910559932 0 -0.3688763256213185 -0.34309961767568647 0 -0.36118874601324108 -0.3436521492952741 0 -0.37225797237559449 -0.35115364910559932 0 -0.37593298752455201 -0.35190228771479481 0 -0.37390838074359528 -0.35076941925389299 0 -0.36118874601324108 -0.3436521492952741 0 -0.36985982957495511 -0.35171195823109852 0 -0.37225797237559449 -0.35115364910559932 0 -0.37595629511297179 -0.35029264644438168 0 -0.37390838074359528 -0.35076941925389299 0 -0.37390838074359528 -0.35076941925389299 0 -0.37225797237559449 -0.35115364910559932 0 -0.36985982957495511 -0.35171195823109852 0 -0.37225797237559449 -0.35115364910559932 0 -0.37568304780698558 -0.36916333065311507 0 -0.37225797237559449 -0.35115364910559932 0 -0.36100598543278789 -0.37820409176948921 0 -0.35480891830463612 -0.3592101017575729 0 -0.36985982957495511 -0.35171195823109852 0 -0.36100598543278789 -0.37820409176948921 0 -0.36985982957495511 -0.35171195823109852 0 -0.37225797237559449 -0.35115364910559932 0 -0.36100598543278789 -0.37820409176948921 0 -0.37225797237559449 -0.35115364910559932 0 -0.36100598543278789 -0.37820409176948921 0 -0.33937201587241012 -0.36587749477948078 0 -0.36100598543278789 -0.37820409176948921 0 -0.35480891830463612 -0.3592101017575729 0 -0.33937201587241012 -0.36587749477948078 0 -0.36100598543278789 -0.37820409176948921 0 -0.33937201587241012 -0.36587749477948078 0 -0.31773804631203251 -0.35355089778947202 0 -0.33937201587241012 -0.36587749477948078 0 -0.31773804631203251 -0.35355089778947202 0 -0.32803705280137402 -0.37447550275240871 0 -0.34475024534571441 -0.34586667392980902 0 -0.33937201587241012 -0.36587749477948078 0 -0.31773804631203251 -0.35355089778947202 0 -0.31773804631203251 -0.35355089778947202 0 -0.31381007312398762 -0.37448885129246268 0 -0.31773804631203251 -0.35355089778947202 0 -0.31381007312398762 -0.37448885129246268 0 -0.32803705280137402 -0.37447550275240871 0 -0.31381007312398762 -0.37448885129246268 0 -0.29871455833571747 -0.36148408621311728 0 -0.29196992941862432 -0.3825632544476108 0 -0.31773804631203251 -0.35355089778947202 0 -0.31381007312398762 -0.37448885129246268 0 -0.29871455833571747 -0.36148408621311728 0 -0.31773804631203251 -0.35355089778947202 0 -0.29871455833571747 -0.36148408621311728 0 -0.29282778547957722 -0.33935753649529382 0 -0.31773804631203251 -0.35355089778947202 0 -0.29282778547957722 -0.33935753649529382 0 -0.29871455833571747 -0.36148408621311728 0 -0.27675503022224163 -0.36681377825091099 0 -0.29282778547957722 -0.33935753649529382 0 -0.29871455833571747 -0.36148408621311728 0 -0.27675503022224163 -0.36681377825091099 0 -0.29196992941862432 -0.3825632544476108 0 -0.27675503022224163 -0.36681377825091099 0 -0.25757508569408222 -0.36424633604315798 0 -0.26546808025963542 -0.34847395767735678 0 -0.27675503022224163 -0.36681377825091099 0 -0.25757508569408222 -0.36424633604315798 0 -0.25812358553267323 -0.37605355791306738 0 -0.25757508569408222 -0.36424633604315798 0 -0.24839247009954951 -0.37292447016044328 0 -0.24532753696728959 -0.36501789644951049 0 -0.25757508569408222 -0.36424633604315798 0 -0.25812358553267323 -0.37605355791306738 0 -0.24839247009954951 -0.37292447016044328 0 -0.25757508569408222 -0.36424633604315798 0 -0.26546808025963542 -0.34847395767735678 0 -0.24650166737573331 -0.3569693529562265 0 -0.26546808025963542 -0.34847395767735678 0 -0.24650166737573331 -0.3569693529562265 0 -0.24881121389389799 -0.33838995723746451 0 -0.27675503022224163 -0.36681377825091099 0 -0.26546808025963542 -0.34847395767735678 0 -0.29282778547957722 -0.33935753649529382 0 -0.26791752464712137 -0.32516417520111718 0 -0.27544300416693679 -0.31995488319631832 0 -0.29282778547957722 -0.33935753649529382 0 -0.26546808025963542 -0.34847395767735678 0 -0.26791752464712137 -0.32516417520111718 0 -0.29282778547957722 -0.33935753649529382 0 -0.26791752464712137 -0.32516417520111718 0 -0.29282778547957722 -0.33935753649529382 0 -0.26791752464712137 -0.32516417520111718 0 -0.24881121389389799 -0.33838995723746451 0 -0.26546808025963542 -0.34847395767735678 0 -0.26791752464712137 -0.32516417520111718 0 -0.24881121389389799 -0.33838995723746451 0 -0.26791752464712137 -0.32516417520111718 0 -0.24881121389389799 -0.33838995723746451 0 -0.2441082332202735 -0.32380704628422963 0 -0.26791752464712137 -0.32516417520111718 0 -0.2444966906846206 -0.31181945912301329 0 -0.26791752464712137 -0.32516417520111718 0 -0.26963915832665503 -0.30942012505775762 0 -0.2444966906846206 -0.31181945912301329 0 -0.26791752464712137 -0.32516417520111718 0 -0.2441082332202735 -0.32380704628422963 0 -0.2444966906846206 -0.31181945912301329 0 -0.26791752464712137 -0.32516417520111718 0 -0.27544300416693679 -0.31995488319631832 0 -0.26963915832665503 -0.30942012505775762 0 -0.26791752464712137 -0.32516417520111718 0 -0.27544300416693679 -0.31995488319631832 0 -0.27544300416693679 -0.31995488319631832 0 -0.29403167998309421 -0.32125824908992018 0 -0.29478162596868879 -0.30702079099249591 0 -0.27544300416693679 -0.31995488319631832 0 -0.29403167998309421 -0.32125824908992018 0 -0.29282778547957722 -0.33935753649529382 0 -0.31307430431717392 -0.31869978567557272 0 -0.32184288384298337 -0.33167017375041419 0 -0.29282778547957722 -0.33935753649529382 0 -0.32184288384298337 -0.33167017375041419 0 -0.31773804631203251 -0.35355089778947202 0 -0.29282778547957722 -0.33935753649529382 0 -0.31307430431717392 -0.31869978567557272 0 -0.29403167998309421 -0.32125824908992018 0 -0.29282778547957722 -0.33935753649529382 0 -0.31307430431717392 -0.31869978567557272 0 -0.29403167998309421 -0.32125824908992018 0 -0.29478162596868879 -0.30702079099249591 0 -0.31992409361072222 -0.30462145692723192 0 -0.29478162596868879 -0.30702079099249591 0 -0.31992409361072222 -0.30462145692723192 0 -0.31307430431717392 -0.31869978567557272 0 -0.29478162596868879 -0.30702079099249591 0 -0.31992409361072222 -0.30462145692723192 0 -0.30687808727867438 -0.29770175581860719 0 -0.29478162596868879 -0.30702079099249591 0 -0.30687808727867438 -0.29770175581860719 0 -0.29813438661480679 -0.29530641477552327 0 -0.29478162596868879 -0.30702079099249591 0 -0.31992409361072222 -0.30462145692723192 0 -0.2984608121496099 -0.28511533651958437 0 -0.31992409361072222 -0.30462145692723192 0 -0.30687808727867438 -0.29770175581860719 0 -0.2984608121496099 -0.28511533651958437 0 -0.31332574866090718 -0.291474364566292 0 -0.31992409361072222 -0.30462145692723192 0 -0.2984608121496099 -0.28511533651958437 0 -0.31332574866090718 -0.291474364566292 0 -0.30937392239009109 -0.28339120160471948 0 -0.2984608121496099 -0.28511533651958437 0 -0.31332574866090718 -0.291474364566292 0 -0.2984608121496099 -0.28511533651958437 0 -0.30937392239009109 -0.28339120160471948 0 -0.2984608121496099 -0.28511533651958437 0 -0.30347897474907187 -0.279643462580969 0 -0.30687808727867438 -0.29770175581860719 0 -0.29951482580247829 -0.29240083595456018 0 -0.29813438661480679 -0.29530641477552327 0 -0.30687808727867438 -0.29770175581860719 0 -0.2984608121496099 -0.28511533651958437 0 -0.29951482580247829 -0.29240083595456018 0 -0.29951482580247829 -0.29240083595456018 0 -0.29813438661480679 -0.29530641477552327 0 -0.29499124589990039 -0.29073588210889412 0 -0.2984608121496099 -0.28511533651958437 0 -0.29951482580247829 -0.29240083595456018 0 -0.29499124589990039 -0.29073588210889412 0 -0.29499124589990039 -0.29073588210889412 0 -0.29148170063899659 -0.29460773718781319 0 -0.28586576089235322 -0.28577101837165192 0 -0.29813438661480679 -0.29530641477552327 0 -0.29499124589990039 -0.29073588210889412 0 -0.29148170063899659 -0.29460773718781319 0 -0.2984608121496099 -0.28511533651958437 0 -0.29499124589990039 -0.29073588210889412 0 -0.28586576089235322 -0.28577101837165192 0 -0.29148170063899659 -0.29460773718781319 0 -0.28586576089235322 -0.28577101837165192 0 -0.2798353156189245 -0.29508903771003908 0 -0.29148170063899659 -0.29460773718781319 0 -0.29478162596868879 -0.30702079099249591 0 -0.2798353156189245 -0.29508903771003908 0 -0.29478162596868879 -0.30702079099249591 0 -0.26963915832665503 -0.30942012505775762 0 -0.2798353156189245 -0.29508903771003908 0 -0.29478162596868879 -0.30702079099249591 0 -0.26963915832665503 -0.30942012505775762 0 -0.29813438661480679 -0.29530641477552327 0 -0.29148170063899659 -0.29460773718781319 0 -0.29478162596868879 -0.30702079099249591 0 -0.27544300416693679 -0.31995488319631832 0 -0.29478162596868879 -0.30702079099249591 0 -0.26963915832665503 -0.30942012505775762 0 -0.26963915832665503 -0.30942012505775762 0 -0.26057201890547982 -0.29344093798311832 0 -0.2798353156189245 -0.29508903771003908 0 -0.26963915832665503 -0.30942012505775762 0 -0.2444966906846206 -0.31181945912301329 0 -0.26963915832665503 -0.30942012505775762 0 -0.26057201890547982 -0.29344093798311832 0 -0.2444966906846206 -0.31181945912301329 0 -0.26057201890547982 -0.29344093798311832 0 -0.27108878797196961 -0.28331686931735522 0 -0.25298377122075039 -0.27518622721876451 0 -0.26057201890547982 -0.29344093798311832 0 -0.25298377122075039 -0.27518622721876451 0 -0.2435111179254994 -0.29490773243705071 0 -0.26057201890547982 -0.29344093798311832 0 -0.27108878797196961 -0.28331686931735522 0 -0.2798353156189245 -0.29508903771003908 0 -0.28586576089235322 -0.28577101837165192 0 -0.27108878797196961 -0.28331686931735522 0 -0.2798353156189245 -0.29508903771003908 0 -0.27108878797196961 -0.28331686931735522 0 -0.27618707322233982 -0.26709712530320262 0 -0.25298377122075039 -0.27518622721876451 0 -0.28586576089235322 -0.28577101837165192 0 -0.27108878797196961 -0.28331686931735522 0 -0.27618707322233982 -0.26709712530320262 0 -0.27618707322233982 -0.26709712530320262 0 -0.25431856302814809 -0.24833495949118861 0 -0.27618707322233982 -0.26709712530320262 0 -0.25298377122075039 -0.27518622721876451 0 -0.25431856302814809 -0.24833495949118861 0 -0.27618707322233982 -0.26709712530320262 0 -0.27309361240676189 -0.24179026653703889 0 -0.25431856302814809 -0.24833495949118861 0 -0.27618707322233982 -0.26709712530320262 0 -0.2907170577323625 -0.25177677077710309 0 -0.27309361240676189 -0.24179026653703889 0 -0.27618707322233982 -0.26709712530320262 0 -0.2907170577323625 -0.25177677077710309 0 -0.29477899871119112 -0.26293378760569941 0 -0.2984608121496099 -0.28511533651958437 0 -0.28586576089235322 -0.28577101837165192 0 -0.27618707322233982 -0.26709712530320262 0 -0.2984608121496099 -0.28511533651958437 0 -0.27618707322233982 -0.26709712530320262 0 -0.27618707322233982 -0.26709712530320262 0 -0.29477899871119112 -0.26293378760569941 0 -0.29948479845841441 -0.27338487519771032 0 -0.2984608121496099 -0.28511533651958437 0 -0.27618707322233982 -0.26709712530320262 0 -0.29948479845841441 -0.27338487519771032 0 -0.29477899871119112 -0.26293378760569941 0 -0.29948479845841441 -0.27338487519771032 0 -0.30156079933714469 -0.26765617134954151 0 -0.30156079933714469 -0.26765617134954151 0 -0.30403476516136241 -0.27459464834518948 0 -0.30588444940973558 -0.27063474712059482 0 -0.29948479845841441 -0.27338487519771032 0 -0.30156079933714469 -0.26765617134954151 0 -0.30403476516136241 -0.27459464834518948 0 -0.30156079933714469 -0.26765617134954151 0 -0.30588444940973558 -0.27063474712059482 0 -0.3062135479255173 -0.26372173898871692 0 -0.2984608121496099 -0.28511533651958437 0 -0.29948479845841441 -0.27338487519771032 0 -0.30347897474907187 -0.279643462580969 0 -0.29948479845841441 -0.27338487519771032 0 -0.30403476516136241 -0.27459464834518948 0 -0.30347897474907187 -0.279643462580969 0 -0.30937392239009109 -0.28339120160471948 0 -0.30347897474907187 -0.279643462580969 0 -0.31187737399160442 -0.27618124236115132 0 -0.30403476516136241 -0.27459464834518948 0 -0.30347897474907187 -0.279643462580969 0 -0.31187737399160442 -0.27618124236115132 0 -0.30403476516136241 -0.27459464834518948 0 -0.31187737399160442 -0.27618124236115132 0 -0.30588444940973558 -0.27063474712059482 0 -0.31187737399160442 -0.27618124236115132 0 -0.30588444940973558 -0.27063474712059482 0 -0.3062135479255173 -0.26372173898871692 0 -0.31664960680882542 -0.25714232151458272 0 -0.31202674084989918 -0.26335133138269068 0 -0.30853150187083839 -0.25429835417001312 0 -0.2907170577323625 -0.25177677077710309 0 -0.29477899871119112 -0.26293378760569941 0 -0.30853150187083839 -0.25429835417001312 0 -0.31202674084989918 -0.26335133138269068 0 -0.3062135479255173 -0.26372173898871692 0 -0.30853150187083839 -0.25429835417001312 0 -0.29477899871119112 -0.26293378760569941 0 -0.30156079933714469 -0.26765617134954151 0 -0.3062135479255173 -0.26372173898871692 0 -0.29477899871119112 -0.26293378760569941 0 -0.3062135479255173 -0.26372173898871692 0 -0.30853150187083839 -0.25429835417001312 0 -0.33709504481289931 -0.46474263175187808 0 -0.33075086723682939 -0.45093918684289991 0 -0.35302422329502631 -0.44785824460859458 0 -0.33709504481289931 -0.46474263175187808 0 -0.33075086723682939 -0.45093918684289991 0 -0.32054712240525829 -0.47546959342145068 0 -0.33075086723682939 -0.45093918684289991 0 -0.34095461206840061 -0.42640878026434909 0 -0.33075086723682939 -0.45093918684289991 0 -0.35302422329502631 -0.44785824460859458 0 -0.34095461206840061 -0.42640878026434909 0 -0.33075086723682939 -0.45093918684289991 0 -0.32054706720266329 -0.44859283512714471 0 -0.3206124180200437 -0.43193612962395289 0 -0.33075086723682939 -0.45093918684289991 0 -0.32054706720266329 -0.44859283512714471 0 -0.31571728338184601 -0.45752087103574601 0 -0.32054706720266329 -0.44859283512714471 0 -0.31571728338184601 -0.45752087103574601 0 -0.30706080135445341 -0.45057148265483188 0 -0.33075086723682939 -0.45093918684289991 0 -0.32054712240525829 -0.47546959342145068 0 -0.33075086723682939 -0.45093918684289991 0 -0.31571728338184601 -0.45752087103574601 0 -0.32054712240525829 -0.47546959342145068 0 -0.32054712240525829 -0.47546959342145068 0 -0.32750579650535672 -0.48798687004089669 0 -0.32933965142182292 -0.47777380670114528 0 -0.32054712240525829 -0.47546959342145068 0 -0.31034337757368669 -0.50000000000000133 0 -0.32750579650535672 -0.48798687004089669 0 -0.33387795429423722 -0.5 0 -0.31034337757368669 -0.50000000000000133 0 -0.32054712240525829 -0.47546959342145068 0 -0.32750579650535672 -0.48798687004089669 0 -0.31034337757368669 -0.50000000000000133 0 -0.32750579650535672 -0.48798687004089669 0 -0.34342087683177741 -0.48669095008188618 0 -0.33387795429423722 -0.5 0 -0.33709504481289931 -0.46474263175187808 0 -0.32933965142182292 -0.47777380670114528 0 -0.35181335970555933 -0.47167232718529989 0 -0.34342087683177741 -0.48669095008188618 0 -0.32933965142182292 -0.47777380670114528 0 -0.35181335970555933 -0.47167232718529989 0 -0.32750579650535672 -0.48798687004089669 0 -0.34342087683177741 -0.48669095008188618 0 -0.32933965142182292 -0.47777380670114528 0 -0.33709504481289931 -0.46474263175187808 0 -0.32054712240525829 -0.47546959342145068 0 -0.32933965142182292 -0.47777380670114528 0 -0.32933965142182292 -0.47777380670114528 0 -0.35181335970555933 -0.47167232718529989 0 -0.34342087683177741 -0.48669095008188618 0 -0.35181335970555933 -0.47167232718529989 0 -0.35979455825166368 -0.48519290092039941 0 -0.34342087683177741 -0.48669095008188618 0 -0.35741253101478748 -0.5 0 -0.35979455825166368 -0.48519290092039941 0 -0.34342087683177741 -0.48669095008188618 0 -0.33387795429423722 -0.5 0 -0.35741253101478748 -0.5 0 -0.38094710773533791 -0.49999999999999839 0 -0.35741253101478748 -0.5 0 -0.37240076261097882 -0.48974555046165519 0 -0.35741253101478748 -0.5 0 -0.35979455825166368 -0.48519290092039941 0 -0.37240076261097882 -0.48974555046165519 0 -0.35181335970555933 -0.47167232718529989 0 -0.35979455825166368 -0.48519290092039941 0 -0.37411677223754131 -0.47733161267270968 0 -0.35181335970555933 -0.47167232718529989 0 -0.37411677223754131 -0.47733161267270968 0 -0.37428706798929601 -0.46557084766945539 0 -0.35979455825166368 -0.48519290092039941 0 -0.37240076261097882 -0.48974555046165519 0 -0.37411677223754131 -0.47733161267270968 0 -0.37411677223754131 -0.47733161267270968 0 -0.37428706798929601 -0.46557084766945539 0 -0.35181335970555933 -0.47167232718529989 0 -0.37428706798929601 -0.46557084766945539 0 -0.35302422329502631 -0.44785824460859458 0 -0.35181335970555933 -0.47167232718529989 0 -0.37428706798929601 -0.46557084766945539 0 -0.33709504481289931 -0.46474263175187808 0 -0.35181335970555933 -0.47167232718529989 0 -0.35302422329502631 -0.44785824460859458 0 -0.37428706798929601 -0.46557084766945539 0 -0.35302422329502631 -0.44785824460859458 0 -0.37472313619600889 -0.43545561783144832 0 -0.37428706798929601 -0.46557084766945539 0 -0.37472313619600889 -0.43545561783144832 0 -0.35302422329502631 -0.44785824460859458 0 -0.37472313619600889 -0.43545561783144832 0 -0.36076670325611282 -0.42019275678090617 0 -0.37515920440272033 -0.40534038799344108 0 -0.37472313619600889 -0.43545561783144832 0 -0.36076670325611282 -0.42019275678090617 0 -0.37515920440272033 -0.40534038799344108 0 -0.36076670325611282 -0.42019275678090617 0 -0.35115835689997099 -0.40187837368579798 0 -0.37515920440272033 -0.40534038799344108 0 -0.37472313619600889 -0.43545561783144832 0 -0.36076670325611282 -0.42019275678090617 0 -0.35115835689997099 -0.40187837368579798 0 -0.34095461206840061 -0.42640878026434909 0 -0.34815033243380111 -0.40144447968524521 0 -0.35115835689997099 -0.40187837368579798 0 -0.34095461206840061 -0.42640878026434909 0 -0.35115835689997099 -0.40187837368579798 0 -0.34095461206840061 -0.42640878026434909 0 -0.35302422329502631 -0.44785824460859458 0 -0.36076670325611282 -0.42019275678090617 0 -0.34095461206840061 -0.42640878026434909 0 -0.37543310808941849 -0.38642437359143528 0 -0.36100598543278789 -0.37820409176948921 0 -0.35115835689997099 -0.40187837368579798 0 -0.37543310808941849 -0.38642437359143528 0 -0.37568304780698558 -0.36916333065311507 0 -0.36100598543278789 -0.37820409176948921 0 -0.37543310808941849 -0.38642437359143528 0 -0.36100598543278789 -0.37820409176948921 0 -0.37515920440272033 -0.40534038799344108 0 -0.37543310808941849 -0.38642437359143528 0 -0.35115835689997099 -0.40187837368579798 0 -0.37515920440272033 -0.40534038799344108 0 -0.35115835689997099 -0.40187837368579798 0 -0.35115835689997099 -0.40187837368579798 0 -0.34646966066369161 -0.38533898881774881 0 -0.34316085436749 -0.39382471367395527 0 -0.34815033243380111 -0.40144447968524521 0 -0.35115835689997099 -0.40187837368579798 0 -0.34316085436749 -0.39382471367395527 0 -0.34815033243380111 -0.40144447968524521 0 -0.35115835689997099 -0.40187837368579798 0 -0.33937201587241012 -0.36587749477948078 0 -0.36100598543278789 -0.37820409176948921 0 -0.34646966066369161 -0.38533898881774881 0 -0.36100598543278789 -0.37820409176948921 0 -0.35115835689997099 -0.40187837368579798 0 -0.36100598543278789 -0.37820409176948921 0 -0.35115835689997099 -0.40187837368579798 0 -0.34646966066369161 -0.38533898881774881 0 -0.33937201587241012 -0.36587749477948078 0 -0.32803705280137402 -0.37447550275240871 0 -0.34646966066369161 -0.38533898881774881 0 -0.32803705280137402 -0.37447550275240871 0 -0.34646966066369161 -0.38533898881774881 0 -0.32931529664348408 -0.38869437358142001 0 -0.34646966066369161 -0.38533898881774881 0 -0.32931529664348408 -0.38869437358142001 0 -0.34316085436749 -0.39382471367395527 0 -0.34815033243380111 -0.40144447968524521 0 -0.33486919938690762 -0.39884665705885908 0 -0.32944617452305069 -0.41182817437998842 0 -0.32931529664348408 -0.38869437358142001 0 -0.34316085436749 -0.39382471367395527 0 -0.33486919938690762 -0.39884665705885908 0 -0.32931529664348408 -0.38869437358142001 0 -0.33486919938690762 -0.39884665705885908 0 -0.32365381597648563 -0.39942827076698811 0 -0.34815033243380111 -0.40144447968524521 0 -0.34316085436749 -0.39382471367395527 0 -0.33486919938690762 -0.39884665705885908 0 -0.33486919938690762 -0.39884665705885908 0 -0.32365381597648563 -0.39942827076698811 0 -0.32944617452305069 -0.41182817437998842 0 -0.32931529664348408 -0.38869437358142001 0 -0.32365381597648563 -0.39942827076698811 0 -0.30988209993594379 -0.39542680479545339 0 -0.32365381597648563 -0.39942827076698811 0 -0.30595412674790001 -0.41636475829844438 0 -0.30988209993594379 -0.39542680479545339 0 -0.31381007312398762 -0.37448885129246268 0 -0.32931529664348408 -0.38869437358142001 0 -0.30988209993594379 -0.39542680479545339 0 -0.31381007312398762 -0.37448885129246268 0 -0.32803705280137402 -0.37447550275240871 0 -0.32931529664348408 -0.38869437358142001 0 -0.34095461206840061 -0.42640878026434909 0 -0.32944617452305069 -0.41182817437998842 0 -0.3206124180200437 -0.43193612962395289 0 -0.33075086723682939 -0.45093918684289991 0 -0.34095461206840061 -0.42640878026434909 0 -0.3206124180200437 -0.43193612962395289 0 -0.34815033243380111 -0.40144447968524521 0 -0.34095461206840061 -0.42640878026434909 0 -0.32944617452305069 -0.41182817437998842 0 -0.32944617452305069 -0.41182817437998842 0 -0.3206124180200437 -0.43193612962395289 0 -0.30595412674790001 -0.41636475829844438 0 -0.32365381597648563 -0.39942827076698811 0 -0.32944617452305069 -0.41182817437998842 0 -0.30595412674790001 -0.41636475829844438 0 -0.3206124180200437 -0.43193612962395289 0 -0.30595412674790001 -0.41636475829844438 0 -0.29602166034141808 -0.43748304283089118 0 -0.30595412674790001 -0.41636475829844438 0 -0.28680587137917263 -0.41476105187328532 0 -0.29502227998321778 -0.40112933436643161 0 -0.30595412674790001 -0.41636475829844438 0 -0.28680587137917263 -0.41476105187328532 0 -0.29602166034141808 -0.43748304283089118 0 -0.28680587137917263 -0.41476105187328532 0 -0.29602166034141808 -0.43748304283089118 0 -0.27149625348017281 -0.42637325053463759 0 -0.29602166034141808 -0.43748304283089118 0 -0.27149625348017281 -0.42637325053463759 0 -0.29602166034141808 -0.43748304283089118 0 -0.27149625348017281 -0.42637325053463759 0 -0.27906578537949278 -0.44687665772048962 0 -0.31381007312398762 -0.37448885129246268 0 -0.30988209993594379 -0.39542680479545339 0 -0.31381007312398762 -0.37448885129246268 0 -0.30988209993594379 -0.39542680479545339 0 -0.29196992941862432 -0.3825632544476108 0 -0.30595412674790001 -0.41636475829844438 0 -0.30988209993594379 -0.39542680479545339 0 -0.30595412674790001 -0.41636475829844438 0 -0.30988209993594379 -0.39542680479545339 0 -0.29502227998321778 -0.40112933436643161 0 -0.30988209993594379 -0.39542680479545339 0 -0.29502227998321778 -0.40112933436643161 0 -0.29196992941862432 -0.3825632544476108 0 -0.28680587137917263 -0.41476105187328532 0 -0.29502227998321778 -0.40112933436643161 0 -0.2806661672136338 -0.39648987600255969 0 -0.29502227998321778 -0.40112933436643161 0 -0.29196992941862432 -0.3825632544476108 0 -0.2806661672136338 -0.39648987600255969 0 -0.27675503022224163 -0.36681377825091099 0 -0.29196992941862432 -0.3825632544476108 0 -0.26924588117792803 -0.38334910629271668 0 -0.29196992941862432 -0.3825632544476108 0 -0.26924588117792803 -0.38334910629271668 0 -0.2806661672136338 -0.39648987600255969 0 -0.27675503022224163 -0.36681377825091099 0 -0.26924588117792803 -0.38334910629271668 0 -0.25812358553267323 -0.37605355791306738 0 -0.28680587137917263 -0.41476105187328532 0 -0.2806661672136338 -0.39648987600255969 0 -0.26326431180229581 -0.40282557300305732 0 -0.26924588117792803 -0.38334910629271668 0 -0.2806661672136338 -0.39648987600255969 0 -0.26326431180229581 -0.40282557300305732 0 -0.26326431180229581 -0.40282557300305732 0 -0.2504897110532438 -0.38524934403489181 0 -0.24394706363899241 -0.39877073912243299 0 -0.26326431180229581 -0.40282557300305732 0 -0.24697084661892749 -0.41526345823838401 0 -0.24394706363899241 -0.39877073912243299 0 -0.26924588117792803 -0.38334910629271668 0 -0.26326431180229581 -0.40282557300305732 0 -0.2504897110532438 -0.38524934403489181 0 -0.26924588117792803 -0.38334910629271668 0 -0.2504897110532438 -0.38524934403489181 0 -0.25812358553267323 -0.37605355791306738 0 -0.2504897110532438 -0.38524934403489181 0 -0.25812358553267323 -0.37605355791306738 0 -0.24839247009954951 -0.37292447016044328 0 -0.28680587137917263 -0.41476105187328532 0 -0.26326431180229581 -0.40282557300305732 0 -0.27149625348017281 -0.42637325053463759 0 -0.27149625348017281 -0.42637325053463759 0 -0.24697084661892749 -0.41526345823838401 0 -0.26326431180229581 -0.40282557300305732 0 -0.27149625348017281 -0.42637325053463759 0 -0.24697084661892749 -0.41526345823838401 0 -0.27149625348017281 -0.42637325053463759 0 -0.25687425522332558 -0.44642006451091643 0 -0.24697084661892749 -0.41526345823838401 0 -0.25687425522332558 -0.44642006451091643 0 -0.27607931301277078 -0.46657199895299017 0 -0.25409384940020791 -0.47271975939701871 0 -0.25687425522332558 -0.44642006451091643 0 -0.27607931301277078 -0.46657199895299017 0 -0.27906578537949278 -0.44687665772048962 0 -0.27149625348017281 -0.42637325053463759 0 -0.25687425522332558 -0.44642006451091643 0 -0.27906578537949278 -0.44687665772048962 0 -0.29602166034141808 -0.43748304283089118 0 -0.27906578537949278 -0.44687665772048962 0 -0.29968055871002541 -0.46203125713240301 0 -0.27607931301277078 -0.46657199895299017 0 -0.27906578537949278 -0.44687665772048962 0 -0.29968055871002541 -0.46203125713240301 0 -0.31571728338184601 -0.45752087103574601 0 -0.29968055871002541 -0.46203125713240301 0 -0.30706080135445341 -0.45057148265483188 0 -0.31571728338184601 -0.45752087103574601 0 -0.32054712240525829 -0.47546959342145068 0 -0.29968055871002541 -0.46203125713240301 0 -0.32054706720266329 -0.44859283512714471 0 -0.29602166034141808 -0.43748304283089118 0 -0.32054706720266329 -0.44859283512714471 0 -0.3206124180200437 -0.43193612962395289 0 -0.29602166034141808 -0.43748304283089118 0 -0.32054706720266329 -0.44859283512714471 0 -0.29602166034141808 -0.43748304283089118 0 -0.30706080135445341 -0.45057148265483188 0 -0.29602166034141808 -0.43748304283089118 0 -0.29968055871002541 -0.46203125713240301 0 -0.30706080135445341 -0.45057148265483188 0 -0.32054712240525829 -0.47546959342145068 0 -0.31034337757368669 -0.50000000000000133 0 -0.2941570887960146 -0.48201569375099518 0 -0.32054712240525829 -0.47546959342145068 0 -0.29968055871002541 -0.46203125713240301 0 -0.2941570887960146 -0.48201569375099518 0 -0.27607931301277078 -0.46657199895299017 0 -0.29968055871002541 -0.46203125713240301 0 -0.2941570887960146 -0.48201569375099518 0 -0.2941570887960146 -0.48201569375099518 0 -0.28248249767631262 -0.5 0 -0.27039562620846602 -0.48462576079096858 0 -0.31034337757368669 -0.50000000000000133 0 -0.2941570887960146 -0.48201569375099518 0 -0.28248249767631262 -0.5 0 -0.28248249767631262 -0.5 0 -0.27039562620846602 -0.48462576079096858 0 -0.25462161777893849 -0.5 0 -0.27607931301277078 -0.46657199895299017 0 -0.2941570887960146 -0.48201569375099518 0 -0.27039562620846602 -0.48462576079096858 0 -0.27607931301277078 -0.46657199895299017 0 -0.27039562620846602 -0.48462576079096858 0 -0.25409384940020791 -0.47271975939701871 0 -0.27039562620846602 -0.48462576079096858 0 -0.25409384940020791 -0.47271975939701871 0 -0.25462161777893849 -0.5 0 -0.25462161777893849 -0.5 0 -0.23155232774708009 -0.47932355884050398 0 -0.22676073788156451 -0.5 0 -0.25409384940020791 -0.47271975939701871 0 -0.25462161777893849 -0.5 0 -0.23155232774708009 -0.47932355884050398 0 -0.25409384940020791 -0.47271975939701871 0 -0.23155232774708009 -0.47932355884050398 0 -0.2350399564306665 -0.45937717328673289 0 -0.23155232774708009 -0.47932355884050398 0 -0.2350399564306665 -0.45937717328673289 0 -0.2080224731694312 -0.47403962225972662 0 -0.23155232774708009 -0.47932355884050398 0 -0.22676073788156451 -0.5 0 -0.2080224731694312 -0.47403962225972662 0 -0.25687425522332558 -0.44642006451091643 0 -0.2350399564306665 -0.45937717328673289 0 -0.23180750449586429 -0.4343742486430574 0 -0.25687425522332558 -0.44642006451091643 0 -0.25409384940020791 -0.47271975939701871 0 -0.2350399564306665 -0.45937717328673289 0 -0.2350399564306665 -0.45937717328673289 0 -0.21590660946663959 -0.44883644739355771 0 -0.2080224731694312 -0.47403962225972662 0 -0.2350399564306665 -0.45937717328673289 0 -0.21590660946663959 -0.44883644739355771 0 -0.23180750449586429 -0.4343742486430574 0 -0.21590660946663959 -0.44883644739355771 0 -0.1943898331460783 -0.4473597119794826 0 -0.20910912931781811 -0.42543372189632289 0 -0.21590660946663959 -0.44883644739355771 0 -0.1943898331460783 -0.4473597119794826 0 -0.2080224731694312 -0.47403962225972662 0 -0.1943898331460783 -0.4473597119794826 0 -0.2080224731694312 -0.47403962225972662 0 -0.17967053697433849 -0.46928570206264231 0 -0.22676073788156451 -0.5 0 -0.2080224731694312 -0.47403962225972662 0 -0.19889985798419041 -0.5 0 -0.2080224731694312 -0.47403962225972662 0 -0.1821948971586228 -0.48648437486529872 0 -0.17967053697433849 -0.46928570206264231 0 -0.2080224731694312 -0.47403962225972662 0 -0.19889985798419041 -0.5 0 -0.1821948971586228 -0.48648437486529872 0 -0.19889985798419041 -0.5 0 -0.1821948971586228 -0.48648437486529872 0 -0.17103897808681609 -0.49999999999999778 0 -0.1821948971586228 -0.48648437486529872 0 -0.17103897808681609 -0.49999999999999778 0 -0.16495124080259491 -0.49121169214579941 0 -0.17103897808681609 -0.49999999999999778 0 -0.16495124080259491 -0.49121169214579941 0 -0.17103897808681609 -0.49999999999999778 0 -0.16495124080259491 -0.49121169214579941 0 -0.15905149781887321 -0.49999999999999961 0 -0.16495124080259491 -0.49121169214579941 0 -0.15905149781887321 -0.49999999999999961 0 -0.1545750311736096 -0.49062041690426861 0 -0.16495124080259491 -0.49121169214579941 0 -0.15905149781887321 -0.49999999999999961 0 -0.16495124080259491 -0.49121169214579941 0 -0.16530166315622061 -0.47155300009798301 0 -0.17967053697433849 -0.46928570206264231 0 -0.16495124080259491 -0.49121169214579941 0 -0.16530166315622061 -0.47155300009798301 0 -0.15083103946930049 -0.47082765280793248 0 -0.16495124080259491 -0.49121169214579941 0 -0.1545750311736096 -0.49062041690426861 0 -0.15083103946930049 -0.47082765280793248 0 -0.16495124080259491 -0.49121169214579941 0 -0.15083103946930049 -0.47082765280793248 0 -0.16495124080259491 -0.49121169214579941 0 -0.17967053697433849 -0.46928570206264231 0 -0.1821948971586228 -0.48648437486529872 0 -0.16495124080259491 -0.49121169214579941 0 -0.17967053697433849 -0.46928570206264231 0 -0.1943898331460783 -0.4473597119794826 0 -0.17967053697433849 -0.46928570206264231 0 -0.1943898331460783 -0.4473597119794826 0 -0.17967053697433849 -0.46928570206264231 0 -0.1657538353786501 -0.45488695337555668 0 -0.1943898331460783 -0.4473597119794826 0 -0.1657538353786501 -0.45488695337555668 0 -0.1755027511393909 -0.43471579892562301 0 -0.1657538353786501 -0.45488695337555668 0 -0.15761868306950341 -0.43586407366366631 0 -0.1755027511393909 -0.43471579892562301 0 -0.16530166315622061 -0.47155300009798301 0 -0.1657538353786501 -0.45488695337555668 0 -0.15083103946930049 -0.47082765280793248 0 -0.16530166315622061 -0.47155300009798301 0 -0.17967053697433849 -0.46928570206264231 0 -0.1657538353786501 -0.45488695337555668 0 -0.13671083813600751 -0.45044361347006462 0 -0.15083103946930049 -0.47082765280793248 0 -0.13671083813600751 -0.45044361347006462 0 -0.13441782301728619 -0.47175980973682791 0 -0.15083103946930049 -0.47082765280793248 0 -0.1657538353786501 -0.45488695337555668 0 -0.13671083813600751 -0.45044361347006462 0 -0.15083103946930049 -0.47082765280793248 0 -0.13671083813600751 -0.45044361347006462 0 -0.13816776916695811 -0.432543871779144 0 -0.15761868306950341 -0.43586407366366631 0 -0.1657538353786501 -0.45488695337555668 0 -0.13671083813600751 -0.45044361347006462 0 -0.15761868306950341 -0.43586407366366631 0 -0.13671083813600751 -0.45044361347006462 0 -0.13816776916695811 -0.432543871779144 0 -0.1225906368027144 -0.43005957413219659 0 -0.13671083813600751 -0.45044361347006462 0 -0.1225906368027144 -0.43005957413219659 0 -0.13671083813600751 -0.45044361347006462 0 -0.13441782301728619 -0.47175980973682791 0 -0.1201929706126502 -0.46127799294672761 0 -0.13441782301728619 -0.47175980973682791 0 -0.12605423818426559 -0.48707922202292669 0 -0.14429533434837091 -0.48908967660720287 0 -0.13441782301728619 -0.47175980973682791 0 -0.12605423818426559 -0.48707922202292669 0 -0.1201929706126502 -0.46127799294672761 0 -0.1295391708778694 -0.5 0 -0.12605423818426559 -0.48707922202292669 0 -0.14429533434837091 -0.48908967660720287 0 -0.15905149781887321 -0.49999999999999961 0 -0.1295391708778694 -0.5 0 -0.14429533434837091 -0.48908967660720287 0 -0.15905149781887321 -0.49999999999999961 0 -0.14429533434837091 -0.48908967660720287 0 -0.1545750311736096 -0.49062041690426861 0 -0.14429533434837091 -0.48908967660720287 0 -0.1545750311736096 -0.49062041690426861 0 -0.15083103946930049 -0.47082765280793248 0 -0.13441782301728619 -0.47175980973682791 0 -0.14429533434837091 -0.48908967660720287 0 -0.15083103946930049 -0.47082765280793248 0 -0.15345949684661231 -0.4053237642064671 0 -0.15136585988972451 -0.39002590355483568 0 -0.13982663417143551 -0.39933000433158738 0 -0.15136585988972451 -0.39002590355483568 0 -0.1368738238800834 -0.3880397179408614 0 -0.13982663417143551 -0.39933000433158738 0 -0.15345949684661231 -0.4053237642064671 0 -0.13982663417143551 -0.39933000433158738 0 -0.1398029654186671 -0.41064466143528439 0 -0.15136585988972451 -0.39002590355483568 0 -0.1368738238800834 -0.3880397179408614 0 -0.13959568407155781 -0.37291875636350952 0 -0.15136585988972451 -0.39002590355483568 0 -0.15951650330528561 -0.37856285477961621 0 -0.13959568407155781 -0.37291875636350952 0 -0.1368738238800834 -0.3880397179408614 0 -0.12625141541498519 -0.38197991289387551 0 -0.13959568407155781 -0.37291875636350952 0 -0.1368738238800834 -0.3880397179408614 0 -0.12625141541498519 -0.38197991289387551 0 -0.1273295258527142 -0.39594401256049883 0 -0.1368738238800834 -0.3880397179408614 0 -0.1273295258527142 -0.39594401256049883 0 -0.13982663417143551 -0.39933000433158738 0 -0.13982663417143551 -0.39933000433158738 0 -0.1295768038857959 -0.40463739140698729 0 -0.1398029654186671 -0.41064466143528439 0 -0.1273295258527142 -0.39594401256049883 0 -0.13982663417143551 -0.39933000433158738 0 -0.1295768038857959 -0.40463739140698729 0 -0.1273295258527142 -0.39594401256049883 0 -0.1295768038857959 -0.40463739140698729 0 -0.1219584454402414 -0.40406961642135292 0 -0.1295768038857959 -0.40463739140698729 0 -0.1296119374269841 -0.41417592727859581 0 -0.1225700411049412 -0.40994677461386392 0 -0.1296119374269841 -0.41417592727859581 0 -0.12315425937001 -0.41747458531602638 0 -0.1225700411049412 -0.40994677461386392 0 -0.1296119374269841 -0.41417592727859581 0 -0.13713184062407599 -0.42036644340313623 0 -0.12908399078123631 -0.42243277819987513 0 -0.1296119374269841 -0.41417592727859581 0 -0.12908399078123631 -0.42243277819987513 0 -0.12315425937001 -0.41747458531602638 0 -0.1296119374269841 -0.41417592727859581 0 -0.13713184062407599 -0.42036644340313623 0 -0.1398029654186671 -0.41064466143528439 0 -0.1295768038857959 -0.40463739140698729 0 -0.1296119374269841 -0.41417592727859581 0 -0.1398029654186671 -0.41064466143528439 0 -0.12908399078123631 -0.42243277819987513 0 -0.13816776916695811 -0.432543871779144 0 -0.1225906368027144 -0.43005957413219659 0 -0.13713184062407599 -0.42036644340313623 0 -0.12908399078123631 -0.42243277819987513 0 -0.13816776916695811 -0.432543871779144 0 -0.13816776916695811 -0.432543871779144 0 -0.14921107955709881 -0.42003443798493328 0 -0.15761868306950341 -0.43586407366366631 0 -0.13713184062407599 -0.42036644340313623 0 -0.13816776916695811 -0.432543871779144 0 -0.14921107955709881 -0.42003443798493328 0 -0.15345949684661231 -0.4053237642064671 0 -0.1398029654186671 -0.41064466143528439 0 -0.14921107955709881 -0.42003443798493328 0 -0.13713184062407599 -0.42036644340313623 0 -0.1398029654186671 -0.41064466143528439 0 -0.14921107955709881 -0.42003443798493328 0 -0.15345949684661231 -0.4053237642064671 0 -0.14921107955709881 -0.42003443798493328 0 -0.17009787391258249 -0.41611158199907422 0 -0.14921107955709881 -0.42003443798493328 0 -0.17009787391258249 -0.41611158199907422 0 -0.15761868306950341 -0.43586407366366631 0 -0.17009787391258249 -0.41611158199907422 0 -0.15761868306950341 -0.43586407366366631 0 -0.1755027511393909 -0.43471579892562301 0 -0.1943898331460783 -0.4473597119794826 0 -0.1755027511393909 -0.43471579892562301 0 -0.18951413900105801 -0.42212105940109063 0 -0.17009787391258249 -0.41611158199907422 0 -0.1755027511393909 -0.43471579892562301 0 -0.18951413900105801 -0.42212105940109063 0 -0.17009787391258249 -0.41611158199907422 0 -0.18562609472684241 -0.40161550393767448 0 -0.18951413900105801 -0.42212105940109063 0 -0.18562609472684241 -0.40161550393767448 0 -0.16863204450281991 -0.39380366607865908 0 -0.18254917963999329 -0.38971973427100182 0 -0.17009787391258249 -0.41611158199907422 0 -0.18562609472684241 -0.40161550393767448 0 -0.16863204450281991 -0.39380366607865908 0 -0.18562609472684241 -0.40161550393767448 0 -0.18254917963999329 -0.38971973427100182 0 -0.19364364155811911 -0.391297223908462 0 -0.15345949684661231 -0.4053237642064671 0 -0.17009787391258249 -0.41611158199907422 0 -0.16863204450281991 -0.39380366607865908 0 -0.15345949684661231 -0.4053237642064671 0 -0.15136585988972451 -0.39002590355483568 0 -0.16863204450281991 -0.39380366607865908 0 -0.15951650330528561 -0.37856285477961621 0 -0.17625218554490921 -0.38180729220612769 0 -0.1663610822414904 -0.3702523776444529 0 -0.16863204450281991 -0.39380366607865908 0 -0.15951650330528561 -0.37856285477961621 0 -0.17625218554490921 -0.38180729220612769 0 -0.15136585988972451 -0.39002590355483568 0 -0.16863204450281991 -0.39380366607865908 0 -0.15951650330528561 -0.37856285477961621 0 -0.17625218554490921 -0.38180729220612769 0 -0.1663610822414904 -0.3702523776444529 0 -0.18579747934449059 -0.37379744869579251 0 -0.16863204450281991 -0.39380366607865908 0 -0.17625218554490921 -0.38180729220612769 0 -0.18254917963999329 -0.38971973427100182 0 -0.17625218554490921 -0.38180729220612769 0 -0.18254917963999329 -0.38971973427100182 0 -0.18859193186727599 -0.38007498522408562 0 -0.17625218554490921 -0.38180729220612769 0 -0.18859193186727599 -0.38007498522408562 0 -0.18579747934449059 -0.37379744869579251 0 -0.18859193186727599 -0.38007498522408562 0 -0.2014200033848125 -0.37119512976538899 0 -0.18859193186727599 -0.38007498522408562 0 -0.2014200033848125 -0.37119512976538899 0 -0.18579747934449059 -0.37379744869579251 0 -0.18859193186727599 -0.38007498522408562 0 -0.1989719328316337 -0.38216032023399737 0 -0.2014200033848125 -0.37119512976538899 0 -0.1989719328316337 -0.38216032023399737 0 -0.20694960464083431 -0.38128159833907621 0 -0.2014200033848125 -0.37119512976538899 0 -0.1989719328316337 -0.38216032023399737 0 -0.19364364155811911 -0.391297223908462 0 -0.20620014074293039 -0.39180645285032889 0 -0.18859193186727599 -0.38007498522408562 0 -0.1989719328316337 -0.38216032023399737 0 -0.19364364155811911 -0.391297223908462 0 -0.18254917963999329 -0.38971973427100182 0 -0.18859193186727599 -0.38007498522408562 0 -0.19364364155811911 -0.391297223908462 0 -0.18562609472684241 -0.40161550393767448 0 -0.19364364155811911 -0.391297223908462 0 -0.20208872018367391 -0.4070926974887904 0 -0.19364364155811911 -0.391297223908462 0 -0.20620014074293039 -0.39180645285032889 0 -0.20208872018367391 -0.4070926974887904 0 -0.20620014074293039 -0.39180645285032889 0 -0.21479853281951461 -0.38638530273916921 0 -0.22382842548955789 -0.4035077318131633 0 -0.20620014074293039 -0.39180645285032889 0 -0.20208872018367391 -0.4070926974887904 0 -0.22382842548955789 -0.4035077318131633 0 -0.21479853281951461 -0.38638530273916921 0 -0.20694960464083431 -0.38128159833907621 0 -0.21335741342528061 -0.3748607861064962 0 -0.21479853281951461 -0.38638530273916921 0 -0.22412886374227589 -0.38235217247817599 0 -0.21335741342528061 -0.3748607861064962 0 -0.20694960464083431 -0.38128159833907621 0 -0.2014200033848125 -0.37119512976538899 0 -0.21335741342528061 -0.3748607861064962 0 -0.20620014074293039 -0.39180645285032889 0 -0.21479853281951461 -0.38638530273916921 0 -0.20694960464083431 -0.38128159833907621 0 -0.1989719328316337 -0.38216032023399737 0 -0.20620014074293039 -0.39180645285032889 0 -0.20694960464083431 -0.38128159833907621 0 -0.1943898331460783 -0.4473597119794826 0 -0.20910912931781811 -0.42543372189632289 0 -0.1943898331460783 -0.4473597119794826 0 -0.18951413900105801 -0.42212105940109063 0 -0.20910912931781811 -0.42543372189632289 0 -0.18951413900105801 -0.42212105940109063 0 -0.20208872018367391 -0.4070926974887904 0 -0.20910912931781811 -0.42543372189632289 0 -0.18562609472684241 -0.40161550393767448 0 -0.18951413900105801 -0.42212105940109063 0 -0.20208872018367391 -0.4070926974887904 0 -0.20208872018367391 -0.4070926974887904 0 -0.20910912931781811 -0.42543372189632289 0 -0.22382842548955789 -0.4035077318131633 0 -0.20910912931781811 -0.42543372189632289 0 -0.22382842548955789 -0.4035077318131633 0 -0.21590660946663959 -0.44883644739355771 0 -0.20910912931781811 -0.42543372189632289 0 -0.23180750449586429 -0.4343742486430574 0 -0.20910912931781811 -0.42543372189632289 0 -0.23180750449586429 -0.4343742486430574 0 -0.22382842548955789 -0.4035077318131633 0 -0.23180750449586429 -0.4343742486430574 0 -0.24697084661892749 -0.41526345823838401 0 -0.22382842548955789 -0.4035077318131633 0 -0.25687425522332558 -0.44642006451091643 0 -0.23180750449586429 -0.4343742486430574 0 -0.24697084661892749 -0.41526345823838401 0 -0.22412886374227589 -0.38235217247817599 0 -0.2351820232309369 -0.38700758852266848 0 -0.22952037500089251 -0.37311519752493849 0 -0.22412886374227589 -0.38235217247817599 0 -0.22186900287429051 -0.37074082218821958 0 -0.21335741342528061 -0.3748607861064962 0 -0.22412886374227589 -0.38235217247817599 0 -0.22952037500089251 -0.37311519752493849 0 -0.22186900287429051 -0.37074082218821958 0 -0.22382842548955789 -0.4035077318131633 0 -0.24394706363899241 -0.39877073912243299 0 -0.2351820232309369 -0.38700758852266848 0 -0.21479853281951461 -0.38638530273916921 0 -0.22412886374227589 -0.38235217247817599 0 -0.22382842548955789 -0.4035077318131633 0 -0.22412886374227589 -0.38235217247817599 0 -0.22382842548955789 -0.4035077318131633 0 -0.2351820232309369 -0.38700758852266848 0 -0.24697084661892749 -0.41526345823838401 0 -0.22382842548955789 -0.4035077318131633 0 -0.24394706363899241 -0.39877073912243299 0 -0.2504897110532438 -0.38524934403489181 0 -0.24394706363899241 -0.39877073912243299 0 -0.2351820232309369 -0.38700758852266848 0 -0.2504897110532438 -0.38524934403489181 0 -0.2351820232309369 -0.38700758852266848 0 -0.24036284435674521 -0.37772398595485779 0 -0.2351820232309369 -0.38700758852266848 0 -0.24036284435674521 -0.37772398595485779 0 -0.22952037500089251 -0.37311519752493849 0 -0.2504897110532438 -0.38524934403489181 0 -0.24036284435674521 -0.37772398595485779 0 -0.24839247009954951 -0.37292447016044328 0 -0.24839247009954951 -0.37292447016044328 0 -0.24532753696728959 -0.36501789644951049 0 -0.23861636880082099 -0.36955921174380651 0 -0.24036284435674521 -0.37772398595485779 0 -0.24839247009954951 -0.37292447016044328 0 -0.23861636880082099 -0.36955921174380651 0 -0.25757508569408222 -0.36424633604315798 0 -0.24532753696728959 -0.36501789644951049 0 -0.24650166737573331 -0.3569693529562265 0 -0.24532753696728959 -0.36501789644951049 0 -0.24234943749700691 -0.36154613291017651 0 -0.24650166737573331 -0.3569693529562265 0 -0.24532753696728959 -0.36501789644951049 0 -0.24234943749700691 -0.36154613291017651 0 -0.23928568589256061 -0.36455139619594779 0 -0.24234943749700691 -0.36154613291017651 0 -0.23928568589256061 -0.36455139619594779 0 -0.23696933381926599 -0.3585493042599866 0 -0.24532753696728959 -0.36501789644951049 0 -0.23928568589256061 -0.36455139619594779 0 -0.23861636880082099 -0.36955921174380651 0 -0.23928568589256061 -0.36455139619594779 0 -0.23861636880082099 -0.36955921174380651 0 -0.23345080570298909 -0.36409891217005902 0 -0.23928568589256061 -0.36455139619594779 0 -0.23345080570298909 -0.36409891217005902 0 -0.23696933381926599 -0.3585493042599866 0 -0.24036284435674521 -0.37772398595485779 0 -0.23861636880082099 -0.36955921174380651 0 -0.22952037500089251 -0.37311519752493849 0 -0.23345080570298909 -0.36409891217005902 0 -0.22186900287429051 -0.37074082218821958 0 -0.21424807490234879 -0.36231527430669241 0 -0.22952037500089251 -0.37311519752493849 0 -0.23345080570298909 -0.36409891217005902 0 -0.22186900287429051 -0.37074082218821958 0 -0.23696933381926599 -0.3585493042599866 0 -0.21424807490234879 -0.36231527430669241 0 -0.23861636880082099 -0.36955921174380651 0 -0.22952037500089251 -0.37311519752493849 0 -0.23345080570298909 -0.36409891217005902 0 -0.23345080570298909 -0.36409891217005902 0 -0.23696933381926599 -0.3585493042599866 0 -0.21424807490234879 -0.36231527430669241 0 -0.22913587473404851 -0.35200963246311751 0 -0.2097464541822805 -0.33582260124732738 0 -0.22913587473404851 -0.35200963246311751 0 -0.23696933381926599 -0.3585493042599866 0 -0.21424807490234879 -0.36231527430669241 0 -0.22913587473404851 -0.35200963246311751 0 -0.21998707993494029 -0.33959044394559312 0 -0.22913587473404851 -0.35200963246311751 0 -0.21424807490234879 -0.36231527430669241 0 -0.22913587473404851 -0.35200963246311751 0 -0.23696933381926599 -0.3585493042599866 0 -0.22913587473404851 -0.35200963246311751 0 -0.24881121389389799 -0.33838995723746451 0 -0.22913587473404851 -0.35200963246311751 0 -0.23696933381926599 -0.3585493042599866 0 -0.24650166737573331 -0.3569693529562265 0 -0.22913587473404851 -0.35200963246311751 0 -0.24650166737573331 -0.3569693529562265 0 -0.24881121389389799 -0.33838995723746451 0 -0.23696933381926599 -0.3585493042599866 0 -0.24650166737573331 -0.3569693529562265 0 -0.24234943749700691 -0.36154613291017651 0 -0.23696933381926599 -0.3585493042599866 0 -0.24650166737573331 -0.3569693529562265 0 -0.22913587473404851 -0.35200963246311751 0 -0.24881121389389799 -0.33838995723746451 0 -0.2325545649384867 -0.33453283978227571 0 -0.24881121389389799 -0.33838995723746451 0 -0.2441082332202735 -0.32380704628422963 0 -0.2325545649384867 -0.33453283978227571 0 -0.23613058105125781 -0.31890710479075163 0 -0.2279063026952847 -0.3135077128279592 0 -0.2444966906846206 -0.31181945912301329 0 -0.2441082332202735 -0.32380704628422963 0 -0.23498207165859719 -0.32537142019391418 0 -0.23613058105125781 -0.31890710479075163 0 -0.2441082332202735 -0.32380704628422963 0 -0.23498207165859719 -0.32537142019391418 0 -0.2325545649384867 -0.33453283978227571 0 -0.2441082332202735 -0.32380704628422963 0 -0.23613058105125781 -0.31890710479075163 0 -0.2444966906846206 -0.31181945912301329 0 -0.2279063026952847 -0.3135077128279592 0 -0.2193464910840433 -0.31976030368968739 0 -0.21134622408423179 -0.310554889255794 0 -0.23613058105125781 -0.31890710479075163 0 -0.2279063026952847 -0.3135077128279592 0 -0.22829430606921119 -0.32293804105388452 0 -0.23498207165859719 -0.32537142019391418 0 -0.22829430606921119 -0.32293804105388452 0 -0.2325545649384867 -0.33453283978227571 0 -0.23498207165859719 -0.32537142019391418 0 -0.23613058105125781 -0.31890710479075163 0 -0.22829430606921119 -0.32293804105388452 0 -0.22829430606921119 -0.32293804105388452 0 -0.2193464910840433 -0.31976030368968739 0 -0.22209033975117781 -0.32887735541776358 0 -0.2279063026952847 -0.3135077128279592 0 -0.22829430606921119 -0.32293804105388452 0 -0.2193464910840433 -0.31976030368968739 0 -0.22913587473404851 -0.35200963246311751 0 -0.2325545649384867 -0.33453283978227571 0 -0.21998707993494029 -0.33959044394559312 0 -0.22913587473404851 -0.35200963246311751 0 -0.21998707993494029 -0.33959044394559312 0 -0.2097464541822805 -0.33582260124732738 0 -0.22829430606921119 -0.32293804105388452 0 -0.2325545649384867 -0.33453283978227571 0 -0.22209033975117781 -0.32887735541776358 0 -0.2325545649384867 -0.33453283978227571 0 -0.22209033975117781 -0.32887735541776358 0 -0.21998707993494029 -0.33959044394559312 0 -0.21998707993494029 -0.33959044394559312 0 -0.21026925672920721 -0.32756514861737779 0 -0.22209033975117781 -0.32887735541776358 0 -0.21998707993494029 -0.33959044394559312 0 -0.21026925672920721 -0.32756514861737779 0 -0.21998707993494029 -0.33959044394559312 0 -0.2097464541822805 -0.33582260124732738 0 -0.21026925672920721 -0.32756514861737779 0 -0.2097464541822805 -0.33582260124732738 0 -0.21026925672920721 -0.32756514861737779 0 -0.21026925672920721 -0.32756514861737779 0 -0.21134622408423179 -0.310554889255794 0 -0.19267178705524021 -0.30578920503631912 0 -0.21026925672920721 -0.32756514861737779 0 -0.21134622408423179 -0.310554889255794 0 -0.2097464541822805 -0.33582260124732738 0 -0.21026925672920721 -0.32756514861737779 0 -0.19254159852174429 -0.31996122112867409 0 -0.2193464910840433 -0.31976030368968739 0 -0.21026925672920721 -0.32756514861737779 0 -0.21134622408423179 -0.310554889255794 0 -0.2193464910840433 -0.31976030368968739 0 -0.22209033975117781 -0.32887735541776358 0 -0.21026925672920721 -0.32756514861737779 0 -0.2097464541822805 -0.33582260124732738 0 -0.1943588054861482 -0.32297640251143073 0 -0.19254159852174429 -0.31996122112867409 0 -0.21026925672920721 -0.32756514861737779 0 -0.19267178705524021 -0.30578920503631912 0 -0.21026925672920721 -0.32756514861737779 0 -0.19254159852174429 -0.31996122112867409 0 -0.19267178705524021 -0.30578920503631912 0 -0.2097464541822805 -0.33582260124732738 0 -0.19254159852174429 -0.31996122112867409 0 -0.1943588054861482 -0.32297640251143073 0 -0.18737083868624629 -0.33075534874643497 0 -0.18479650728396149 -0.32227615663527998 0 -0.1943588054861482 -0.32297640251143073 0 -0.19254159852174429 -0.31996122112867409 0 -0.1789711567900161 -0.3101302037755338 0 -0.2097464541822805 -0.33582260124732738 0 -0.19466829689393059 -0.33824472710720138 0 -0.19565175395430129 -0.3512554891803924 0 -0.2097464541822805 -0.33582260124732738 0 -0.1943588054861482 -0.32297640251143073 0 -0.19466829689393059 -0.33824472710720138 0 -0.2097464541822805 -0.33582260124732738 0 -0.1943588054861482 -0.32297640251143073 0 -0.1943588054861482 -0.32297640251143073 0 -0.19466829689393059 -0.33824472710720138 0 -0.18737083868624629 -0.33075534874643497 0 -0.19466829689393059 -0.33824472710720138 0 -0.18164424501215659 -0.34621916084723381 0 -0.18737083868624629 -0.33075534874643497 0 -0.19466829689393059 -0.33824472710720138 0 -0.19565175395430129 -0.3512554891803924 0 -0.18164424501215659 -0.34621916084723381 0 -0.20800359978069241 -0.36335027445133922 0 -0.18480326185087809 -0.36719565018674682 0 -0.19565175395430129 -0.3512554891803924 0 -0.20800359978069241 -0.36335027445133922 0 -0.18480326185087809 -0.36719565018674682 0 -0.2014200033848125 -0.37119512976538899 0 -0.18480326185087809 -0.36719565018674682 0 -0.18579747934449059 -0.37379744869579251 0 -0.2014200033848125 -0.37119512976538899 0 -0.20800359978069241 -0.36335027445133922 0 -0.18480326185087809 -0.36719565018674682 0 -0.2014200033848125 -0.37119512976538899 0 -0.20800359978069241 -0.36335027445133922 0 -0.20803809997708481 -0.36661394692190907 0 -0.20800359978069241 -0.36335027445133922 0 -0.20803809997708481 -0.36661394692190907 0 -0.21424807490234879 -0.36231527430669241 0 -0.20800359978069241 -0.36335027445133922 0 -0.20803809997708481 -0.36661394692190907 0 -0.2014200033848125 -0.37119512976538899 0 -0.20803809997708481 -0.36661394692190907 0 -0.21335741342528061 -0.3748607861064962 0 -0.2014200033848125 -0.37119512976538899 0 -0.20803809997708481 -0.36661394692190907 0 -0.20803809997708481 -0.36661394692190907 0 -0.21335741342528061 -0.3748607861064962 0 -0.21424807490234879 -0.36231527430669241 0 -0.22186900287429051 -0.37074082218821958 0 -0.21335741342528061 -0.3748607861064962 0 -0.21424807490234879 -0.36231527430669241 0 -0.20800359978069241 -0.36335027445133922 0 -0.21424807490234879 -0.36231527430669241 0 -0.20803809997708481 -0.36661394692190907 0 -0.21424807490234879 -0.36231527430669241 0 -0.2097464541822805 -0.33582260124732738 0 -0.19565175395430129 -0.3512554891803924 0 -0.20800359978069241 -0.36335027445133922 0 -0.2097464541822805 -0.33582260124732738 0 -0.20800359978069241 -0.36335027445133922 0 -0.2097464541822805 -0.33582260124732738 0 -0.20800359978069241 -0.36335027445133922 0 -0.21424807490234879 -0.36231527430669241 0 -0.22913587473404851 -0.35200963246311751 0 -0.2097464541822805 -0.33582260124732738 0 -0.21424807490234879 -0.36231527430669241 0 -0.2335542019388327 -0.26090262277066528 0 -0.21472073189145299 -0.25725591714607071 0 -0.22837296648480071 -0.23789375384220129 0 -0.2335542019388327 -0.26090262277066528 0 -0.21357196166535461 -0.27540027352014051 0 -0.21472073189145299 -0.25725591714607071 0 -0.25298377122075039 -0.27518622721876451 0 -0.2335542019388327 -0.26090262277066528 0 -0.25431856302814809 -0.24833495949118861 0 -0.25298377122075039 -0.27518622721876451 0 -0.2335542019388327 -0.26090262277066528 0 -0.23093648268818689 -0.28342115129973 0 -0.2335542019388327 -0.26090262277066528 0 -0.23093648268818689 -0.28342115129973 0 -0.21357196166535461 -0.27540027352014051 0 -0.23093648268818689 -0.28342115129973 0 -0.21242319143925911 -0.29354462989421048 0 -0.21357196166535461 -0.27540027352014051 0 -0.23093648268818689 -0.28342115129973 0 -0.2435111179254994 -0.29490773243705071 0 -0.2284599410619414 -0.30268204450860919 0 -0.23093648268818689 -0.28342115129973 0 -0.2284599410619414 -0.30268204450860919 0 -0.21242319143925911 -0.29354462989421048 0 -0.25298377122075039 -0.27518622721876451 0 -0.23093648268818689 -0.28342115129973 0 -0.2435111179254994 -0.29490773243705071 0 -0.2444966906846206 -0.31181945912301329 0 -0.2284599410619414 -0.30268204450860919 0 -0.2435111179254994 -0.29490773243705071 0 -0.2444966906846206 -0.31181945912301329 0 -0.2284599410619414 -0.30268204450860919 0 -0.26057201890547982 -0.29344093798311832 0 -0.2435111179254994 -0.29490773243705071 0 -0.2444966906846206 -0.31181945912301329 0 -0.2279063026952847 -0.3135077128279592 0 -0.2444966906846206 -0.31181945912301329 0 -0.2284599410619414 -0.30268204450860919 0 -0.2284599410619414 -0.30268204450860919 0 -0.21242319143925911 -0.29354462989421048 0 -0.2279063026952847 -0.3135077128279592 0 -0.2284599410619414 -0.30268204450860919 0 -0.21134622408423179 -0.310554889255794 0 -0.2284599410619414 -0.30268204450860919 0 -0.21134622408423179 -0.310554889255794 0 -0.21242319143925911 -0.29354462989421048 0 -0.21134622408423179 -0.310554889255794 0 -0.19267178705524021 -0.30578920503631912 0 -0.21242319143925911 -0.29354462989421048 0 -0.21134622408423179 -0.310554889255794 0 -0.21242319143925911 -0.29354462989421048 0 -0.19267178705524021 -0.30578920503631912 0 -0.19410774352861071 -0.2831088592208712 0 -0.21242319143925911 -0.29354462989421048 0 -0.19410774352861071 -0.2831088592208712 0 -0.21242319143925911 -0.29354462989421048 0 -0.21357196166535461 -0.27540027352014051 0 -0.19410774352861071 -0.2831088592208712 0 -0.21242319143925911 -0.29354462989421048 0 -0.21242319143925911 -0.29354462989421048 0 -0.21357196166535461 -0.27540027352014051 0 -0.21357196166535461 -0.27540027352014051 0 -0.21472073189145299 -0.25725591714607071 0 -0.19410774352861071 -0.2831088592208712 0 -0.21357196166535461 -0.27540027352014051 0 -0.1965391795889786 -0.26204425282134669 0 -0.19410774352861071 -0.2831088592208712 0 -0.1965391795889786 -0.26204425282134669 0 -0.17579229561796161 -0.27267308854753308 0 -0.1965391795889786 -0.26204425282134669 0 -0.20565562739327201 -0.24334207984173631 0 -0.18863044441395099 -0.24733650333174401 0 -0.1965391795889786 -0.26204425282134669 0 -0.18340152769721799 -0.25642831405215172 0 -0.18863044441395099 -0.24733650333174401 0 -0.1965391795889786 -0.26204425282134669 0 -0.21472073189145299 -0.25725591714607071 0 -0.20565562739327201 -0.24334207984173631 0 -0.21357196166535461 -0.27540027352014051 0 -0.1965391795889786 -0.26204425282134669 0 -0.21472073189145299 -0.25725591714607071 0 -0.15747684770731041 -0.26223731787419863 0 -0.16344648285301799 -0.25937253054906129 0 -0.17579229561796161 -0.27267308854753308 0 -0.1593809120407062 -0.25278805690175971 0 -0.16344648285301799 -0.25937253054906129 0 -0.1534429259631987 -0.25724555178864622 0 -0.1593809120407062 -0.25278805690175971 0 -0.16344648285301799 -0.25937253054906129 0 -0.16709258238786229 -0.25188408856254202 0 -0.1593809120407062 -0.25278805690175971 0 -0.16709258238786229 -0.25188408856254202 0 -0.1601832428566283 -0.24550858739866141 0 -0.15747684770731041 -0.26223731787419863 0 -0.16344648285301799 -0.25937253054906129 0 -0.1534429259631987 -0.25724555178864622 0 -0.16344648285301799 -0.25937253054906129 0 -0.1534429259631987 -0.25724555178864622 0 -0.16344648285301799 -0.25937253054906129 0 -0.17379217291466831 -0.25992581321180469 0 -0.17579229561796161 -0.27267308854753308 0 -0.16344648285301799 -0.25937253054906129 0 -0.16709258238786229 -0.25188408856254202 0 -0.17379217291466831 -0.25992581321180469 0 -0.16709258238786229 -0.25188408856254202 0 -0.17679077873490559 -0.25046109420941731 0 -0.17379217291466831 -0.25992581321180469 0 -0.1965391795889786 -0.26204425282134669 0 -0.18340152769721799 -0.25642831405215172 0 -0.17579229561796161 -0.27267308854753308 0 -0.17679077873490559 -0.25046109420941731 0 -0.18340152769721799 -0.25642831405215172 0 -0.17379217291466831 -0.25992581321180469 0 -0.18340152769721799 -0.25642831405215172 0 -0.17379217291466831 -0.25992581321180469 0 -0.17579229561796161 -0.27267308854753308 0 -0.17679077873490559 -0.25046109420941731 0 -0.18340152769721799 -0.25642831405215172 0 -0.18863044441395099 -0.24733650333174401 0 -0.19410774352861071 -0.2831088592208712 0 -0.17579229561796161 -0.27267308854753308 0 -0.17507431738127369 -0.28401326145526029 0 -0.19410774352861071 -0.2831088592208712 0 -0.17579229561796161 -0.27267308854753308 0 -0.15747684770731041 -0.26223731787419863 0 -0.17507431738127369 -0.28401326145526029 0 -0.15747684770731041 -0.26223731787419863 0 -0.17579229561796161 -0.27267308854753308 0 -0.15747684770731041 -0.26223731787419863 0 -0.17579229561796161 -0.27267308854753308 0 -0.17507431738127369 -0.28401326145526029 0 -0.15747684770731041 -0.26223731787419863 0 -0.1596399504195592 -0.27820623095404468 0 -0.17507431738127369 -0.28401326145526029 0 -0.1596399504195592 -0.27820623095404468 0 -0.1624028041075358 -0.29248408411088062 0 -0.1494793968803598 -0.28070198605355251 0 -0.1624028041075358 -0.29248408411088062 0 -0.15973767967650701 -0.30493196891575292 0 -0.15108397830665751 -0.29236825921418419 0 -0.1624028041075358 -0.29248408411088062 0 -0.17507431738127369 -0.28401326145526029 0 -0.17391538329452061 -0.29489800819007239 0 -0.1596399504195592 -0.27820623095404468 0 -0.1624028041075358 -0.29248408411088062 0 -0.17507431738127369 -0.28401326145526029 0 -0.19267178705524021 -0.30578920503631912 0 -0.19410774352861071 -0.2831088592208712 0 -0.17507431738127369 -0.28401326145526029 0 -0.19267178705524021 -0.30578920503631912 0 -0.17507431738127369 -0.28401326145526029 0 -0.17391538329452061 -0.29489800819007239 0 -0.19267178705524021 -0.30578920503631912 0 -0.17507431738127369 -0.28401326145526029 0 -0.17391538329452061 -0.29489800819007239 0 -0.17532621133471249 -0.30426618216820789 0 -0.19254159852174429 -0.31996122112867409 0 -0.19267178705524021 -0.30578920503631912 0 -0.17532621133471249 -0.30426618216820789 0 -0.19267178705524021 -0.30578920503631912 0 -0.17391538329452061 -0.29489800819007239 0 -0.17532621133471249 -0.30426618216820789 0 -0.19254159852174429 -0.31996122112867409 0 -0.17532621133471249 -0.30426618216820789 0 -0.1789711567900161 -0.3101302037755338 0 -0.19254159852174429 -0.31996122112867409 0 -0.17532621133471249 -0.30426618216820789 0 -0.17532621133471249 -0.30426618216820789 0 -0.15973767967650701 -0.30493196891575292 0 -0.16582550601247259 -0.31644195918285489 0 -0.1624028041075358 -0.29248408411088062 0 -0.17532621133471249 -0.30426618216820789 0 -0.15973767967650701 -0.30493196891575292 0 -0.1624028041075358 -0.29248408411088062 0 -0.17532621133471249 -0.30426618216820789 0 -0.1624028041075358 -0.29248408411088062 0 -0.17391538329452061 -0.29489800819007239 0 -0.17532621133471249 -0.30426618216820789 0 -0.144593184228827 -0.30237793828586917 0 -0.15261731536399281 -0.31699983390472031 0 -0.1327552185807534 -0.31482398186879779 0 -0.15973767967650701 -0.30493196891575292 0 -0.144593184228827 -0.30237793828586917 0 -0.15261731536399281 -0.31699983390472031 0 -0.15973767967650701 -0.30493196891575292 0 -0.144593184228827 -0.30237793828586917 0 -0.15108397830665751 -0.29236825921418419 0 -0.144593184228827 -0.30237793828586917 0 -0.1304175251842298 -0.30012492429455973 0 -0.1327552185807534 -0.31482398186879779 0 -0.1304175251842298 -0.30012492429455973 0 -0.1327552185807534 -0.31482398186879779 0 -0.11567190875339491 -0.3081878681979589 0 -0.1304175251842298 -0.30012492429455973 0 -0.13697378053928061 -0.28594316463020741 0 -0.11725087491461519 -0.29108504565108578 0 -0.144593184228827 -0.30237793828586917 0 -0.1304175251842298 -0.30012492429455973 0 -0.13697378053928061 -0.28594316463020741 0 -0.13697378053928061 -0.28594316463020741 0 -0.15108397830665751 -0.29236825921418419 0 -0.1494793968803598 -0.28070198605355251 0 -0.144593184228827 -0.30237793828586917 0 -0.13697378053928061 -0.28594316463020741 0 -0.15108397830665751 -0.29236825921418419 0 -0.1624028041075358 -0.29248408411088062 0 -0.15108397830665751 -0.29236825921418419 0 -0.1494793968803598 -0.28070198605355251 0 -0.1624028041075358 -0.29248408411088062 0 -0.1494793968803598 -0.28070198605355251 0 -0.15747684770731041 -0.26223731787419863 0 -0.1596399504195592 -0.27820623095404468 0 -0.1503927610565664 -0.27179087804580171 0 -0.1596399504195592 -0.27820623095404468 0 -0.1494793968803598 -0.28070198605355251 0 -0.1503927610565664 -0.27179087804580171 0 -0.15747684770731041 -0.26223731787419863 0 -0.1503927610565664 -0.27179087804580171 0 -0.1469785187108 -0.2635474229235048 0 -0.1503927610565664 -0.27179087804580171 0 -0.13966748117377659 -0.26847157538705668 0 -0.1469785187108 -0.2635474229235048 0 -0.1503927610565664 -0.27179087804580171 0 -0.14153524490660671 -0.2763029116229278 0 -0.13966748117377659 -0.26847157538705668 0 -0.1494793968803598 -0.28070198605355251 0 -0.1503927610565664 -0.27179087804580171 0 -0.14153524490660671 -0.2763029116229278 0 -0.13697378053928061 -0.28594316463020741 0 -0.1494793968803598 -0.28070198605355251 0 -0.14153524490660671 -0.2763029116229278 0 -0.13697378053928061 -0.28594316463020741 0 -0.14153524490660671 -0.2763029116229278 0 -0.13219795163187159 -0.27110871778552531 0 -0.13697378053928061 -0.28594316463020741 0 -0.1173011125765811 -0.2721428964285707 0 -0.13697378053928061 -0.28594316463020741 0 -0.13219795163187159 -0.27110871778552531 0 -0.1173011125765811 -0.2721428964285707 0 -0.13219795163187159 -0.27110871778552531 0 -0.1333337708168415 -0.26377523499205202 0 -0.12600056203783161 -0.26301541000095829 0 -0.13219795163187159 -0.27110871778552531 0 -0.12600056203783161 -0.26301541000095829 0 -0.1173011125765811 -0.2721428964285707 0 -0.13219795163187159 -0.27110871778552531 0 -0.13966748117377659 -0.26847157538705668 0 -0.1333337708168415 -0.26377523499205202 0 -0.14153524490660671 -0.2763029116229278 0 -0.13219795163187159 -0.27110871778552531 0 -0.13966748117377659 -0.26847157538705668 0 -0.13966748117377659 -0.26847157538705668 0 -0.13807993829988649 -0.25979154560904222 0 -0.1333337708168415 -0.26377523499205202 0 -0.13807993829988649 -0.25979154560904222 0 -0.1333337708168415 -0.26377523499205202 0 -0.13072292094084129 -0.25648892617767749 0 -0.12600056203783161 -0.26301541000095829 0 -0.13072292094084129 -0.25648892617767749 0 -0.1187556211832122 -0.25814451816493872 0 -0.1333337708168415 -0.26377523499205202 0 -0.12600056203783161 -0.26301541000095829 0 -0.13072292094084129 -0.25648892617767749 0 -0.13072292094084129 -0.25648892617767749 0 -0.13218950310710981 -0.25272660122947088 0 -0.1187556211832122 -0.25814451816493872 0 -0.13072292094084129 -0.25648892617767749 0 -0.13218950310710981 -0.25272660122947088 0 -0.13218950310710981 -0.25272660122947088 0 -0.1459019403517107 -0.25564217047089421 0 -0.13375162957080131 -0.24871916986845621 0 -0.13218950310710981 -0.25272660122947088 0 -0.1459019403517107 -0.25564217047089421 0 -0.13218950310710981 -0.25272660122947088 0 -0.13375162957080131 -0.24871916986845621 0 -0.1459019403517107 -0.25564217047089421 0 -0.13375162957080131 -0.24871916986845621 0 -0.13807993829988649 -0.25979154560904222 0 -0.13218950310710981 -0.25272660122947088 0 -0.1459019403517107 -0.25564217047089421 0 -0.13807993829988649 -0.25979154560904222 0 -0.13072292094084129 -0.25648892617767749 0 -0.13218950310710981 -0.25272660122947088 0 -0.1459019403517107 -0.25564217047089421 0 -0.1534429259631987 -0.25724555178864622 0 -0.1378886282313006 -0.2381062402767252 0 -0.13966748117377659 -0.26847157538705668 0 -0.13807993829988649 -0.25979154560904222 0 -0.1469785187108 -0.2635474229235048 0 -0.13807993829988649 -0.25979154560904222 0 -0.1459019403517107 -0.25564217047089421 0 -0.1469785187108 -0.2635474229235048 0 -0.15747684770731041 -0.26223731787419863 0 -0.1459019403517107 -0.25564217047089421 0 -0.1534429259631987 -0.25724555178864622 0 -0.15747684770731041 -0.26223731787419863 0 -0.1459019403517107 -0.25564217047089421 0 -0.1469785187108 -0.2635474229235048 0 -0.15747684770731041 -0.26223731787419863 0 -0.1459019403517107 -0.25564217047089421 0 -0.15747684770731041 -0.26223731787419863 0 -0.1534429259631987 -0.25724555178864622 0 -0.1593809120407062 -0.25278805690175971 0 -0.1534429259631987 -0.25724555178864622 0 -0.15289321433053751 -0.246830478479277 0 -0.1459019403517107 -0.25564217047089421 0 -0.1534429259631987 -0.25724555178864622 0 -0.17143624801538501 -0.35840063883308271 0 -0.1580141783998408 -0.34710035810185619 0 -0.15489216358121211 -0.36256913283011211 0 -0.17143624801538501 -0.35840063883308271 0 -0.1580141783998408 -0.34710035810185619 0 -0.18164424501215659 -0.34621916084723381 0 -0.17143624801538501 -0.35840063883308271 0 -0.1663610822414904 -0.3702523776444529 0 -0.15489216358121211 -0.36256913283011211 0 -0.15951650330528561 -0.37856285477961621 0 -0.1663610822414904 -0.3702523776444529 0 -0.15489216358121211 -0.36256913283011211 0 -0.17143624801538501 -0.35840063883308271 0 -0.1663610822414904 -0.3702523776444529 0 -0.18480326185087809 -0.36719565018674682 0 -0.1663610822414904 -0.3702523776444529 0 -0.18480326185087809 -0.36719565018674682 0 -0.1663610822414904 -0.3702523776444529 0 -0.18480326185087809 -0.36719565018674682 0 -0.18579747934449059 -0.37379744869579251 0 -0.18480326185087809 -0.36719565018674682 0 -0.18579747934449059 -0.37379744869579251 0 -0.18480326185087809 -0.36719565018674682 0 -0.18164424501215659 -0.34621916084723381 0 -0.19565175395430129 -0.3512554891803924 0 -0.18480326185087809 -0.36719565018674682 0 -0.18164424501215659 -0.34621916084723381 0 -0.17143624801538501 -0.35840063883308271 0 -0.18480326185087809 -0.36719565018674682 0 -0.18164424501215659 -0.34621916084723381 0 -0.18164424501215659 -0.34621916084723381 0 -0.17848522817343529 -0.32524267150772068 0 -0.1629610955137164 -0.33076913941787212 0 -0.18164424501215659 -0.34621916084723381 0 -0.17848522817343529 -0.32524267150772068 0 -0.18164424501215659 -0.34621916084723381 0 -0.18737083868624629 -0.33075534874643497 0 -0.17848522817343529 -0.32524267150772068 0 -0.17532621133471249 -0.30426618216820789 0 -0.17848522817343529 -0.32524267150772068 0 -0.17532621133471249 -0.30426618216820789 0 -0.1789711567900161 -0.3101302037755338 0 -0.17848522817343529 -0.32524267150772068 0 -0.17532621133471249 -0.30426618216820789 0 -0.17848522817343529 -0.32524267150772068 0 -0.16582550601247259 -0.31644195918285489 0 -0.1943588054861482 -0.32297640251143073 0 -0.1789711567900161 -0.3101302037755338 0 -0.18479650728396149 -0.32227615663527998 0 -0.1789711567900161 -0.3101302037755338 0 -0.18479650728396149 -0.32227615663527998 0 -0.17848522817343529 -0.32524267150772068 0 -0.1943588054861482 -0.32297640251143073 0 -0.1789711567900161 -0.3101302037755338 0 -0.18737083868624629 -0.33075534874643497 0 -0.18479650728396149 -0.32227615663527998 0 -0.17848522817343529 -0.32524267150772068 0 -0.17848522817343529 -0.32524267150772068 0 -0.16582550601247259 -0.31644195918285489 0 -0.1629610955137164 -0.33076913941787212 0 -0.16582550601247259 -0.31644195918285489 0 -0.1629610955137164 -0.33076913941787212 0 -0.15261731536399281 -0.31699983390472031 0 -0.15973767967650701 -0.30493196891575292 0 -0.16582550601247259 -0.31644195918285489 0 -0.15261731536399281 -0.31699983390472031 0 -0.1580141783998408 -0.34710035810185619 0 -0.18164424501215659 -0.34621916084723381 0 -0.1629610955137164 -0.33076913941787212 0 -0.1580141783998408 -0.34710035810185619 0 -0.1629610955137164 -0.33076913941787212 0 -0.14559484309128301 -0.3331209990743299 0 -0.14559484309128301 -0.3331209990743299 0 -0.15261731536399281 -0.31699983390472031 0 -0.1327552185807534 -0.31482398186879779 0 -0.1629610955137164 -0.33076913941787212 0 -0.14559484309128301 -0.3331209990743299 0 -0.15261731536399281 -0.31699983390472031 0 -0.14559484309128301 -0.3331209990743299 0 -0.1327552185807534 -0.31482398186879779 0 -0.12678352480283511 -0.3369129194106073 0 -0.14559484309128301 -0.3331209990743299 0 -0.12678352480283511 -0.3369129194106073 0 -0.14043772588655989 -0.35211976174212622 0 -0.12678352480283511 -0.3369129194106073 0 -0.14043772588655989 -0.35211976174212622 0 -0.1203130985899742 -0.35955571918490481 0 -0.1580141783998408 -0.34710035810185619 0 -0.14043772588655989 -0.35211976174212622 0 -0.15489216358121211 -0.36256913283011211 0 -0.1580141783998408 -0.34710035810185619 0 -0.14559484309128301 -0.3331209990743299 0 -0.14043772588655989 -0.35211976174212622 0 -0.14043772588655989 -0.35211976174212622 0 -0.15489216358121211 -0.36256913283011211 0 -0.13959568407155781 -0.37291875636350952 0 -0.15951650330528561 -0.37856285477961621 0 -0.15489216358121211 -0.36256913283011211 0 -0.13959568407155781 -0.37291875636350952 0 -0.12625141541498519 -0.38197991289387551 0 -0.13959568407155781 -0.37291875636350952 0 -0.1203130985899742 -0.35955571918490481 0 -0.14043772588655989 -0.35211976174212622 0 -0.13959568407155781 -0.37291875636350952 0 -0.1203130985899742 -0.35955571918490481 0 -0.1203130985899742 -0.35955571918490481 0 -0.11384267237711319 -0.38219851895920232 0 -0.1203130985899742 -0.35955571918490481 0 -0.10849363524981311 -0.36442991456039969 0 -0.11384267237711319 -0.38219851895920232 0 -0.12625141541498519 -0.38197991289387551 0 -0.1203130985899742 -0.35955571918490481 0 -0.11384267237711319 -0.38219851895920232 0 -0.10849363524981311 -0.36442991456039969 0 -0.096157591159299352 -0.35547454281719221 0 -0.10176491866177829 -0.38015793077534599 0 -0.096157591159299352 -0.35547454281719221 0 -0.10176491866177829 -0.38015793077534599 0 -0.096157591159299352 -0.35547454281719221 0 -0.10176491866177829 -0.38015793077534599 0 -0.085276019388031976 -0.37619188405436782 0 -0.096157591159299352 -0.35547454281719221 0 -0.10964553082547281 -0.34513317088572909 0 -0.090550263656820479 -0.33079115485903843 0 -0.10849363524981311 -0.36442991456039969 0 -0.096157591159299352 -0.35547454281719221 0 -0.10964553082547281 -0.34513317088572909 0 -0.1203130985899742 -0.35955571918490481 0 -0.10849363524981311 -0.36442991456039969 0 -0.10964553082547281 -0.34513317088572909 0 -0.12678352480283511 -0.3369129194106073 0 -0.1203130985899742 -0.35955571918490481 0 -0.10964553082547281 -0.34513317088572909 0 -0.12678352480283511 -0.3369129194106073 0 -0.1203130985899742 -0.35955571918490481 0 -0.12678352480283511 -0.3369129194106073 0 -0.10964553082547281 -0.34513317088572909 0 -0.1112875311940303 -0.32576775904759792 0 -0.1327552185807534 -0.31482398186879779 0 -0.12678352480283511 -0.3369129194106073 0 -0.1112875311940303 -0.32576775904759792 0 -0.1327552185807534 -0.31482398186879779 0 -0.1112875311940303 -0.32576775904759792 0 -0.11567190875339491 -0.3081878681979589 0 -0.1112875311940303 -0.32576775904759792 0 -0.1011365257202933 -0.31403431577096802 0 -0.11567190875339491 -0.3081878681979589 0 -0.1112875311940303 -0.32576775904759792 0 -0.1011365257202933 -0.31403431577096802 0 -0.090550263656820479 -0.33079115485903843 0 -0.10964553082547281 -0.34513317088572909 0 -0.1112875311940303 -0.32576775904759792 0 -0.090550263656820479 -0.33079115485903843 0 -0.096157591159299352 -0.35547454281719221 0 -0.090550263656820479 -0.33079115485903843 0 -0.096157591159299352 -0.35547454281719221 0 -0.090550263656820479 -0.33079115485903843 0 -0.073144777225565616 -0.33606175945158517 0 -0.090550263656820479 -0.33079115485903843 0 -0.084942936154341619 -0.30610776690088481 0 -0.090550263656820479 -0.33079115485903843 0 -0.073144777225565616 -0.33606175945158517 0 -0.084942936154341619 -0.30610776690088481 0 -0.1011365257202933 -0.31403431577096802 0 -0.090550263656820479 -0.33079115485903843 0 -0.084942936154341619 -0.30610776690088481 0 -0.073144777225565616 -0.33606175945158517 0 -0.084942936154341619 -0.30610776690088481 0 -0.060613113796085999 -0.32288269869712272 0 -0.073144777225565616 -0.33606175945158517 0 -0.076755031766953086 -0.35884624094615858 0 -0.063306301319701316 -0.35299520754669739 0 -0.076755031766953086 -0.35884624094615858 0 -0.063306301319701316 -0.35299520754669739 0 -0.065890469742167113 -0.37350781086095058 0 -0.076755031766953086 -0.35884624094615858 0 -0.065890469742167113 -0.37350781086095058 0 -0.085276019388031976 -0.37619188405436782 0 -0.096157591159299352 -0.35547454281719221 0 -0.076755031766953086 -0.35884624094615858 0 -0.085276019388031976 -0.37619188405436782 0 -0.096157591159299352 -0.35547454281719221 0 -0.073144777225565616 -0.33606175945158517 0 -0.076755031766953086 -0.35884624094615858 0 -0.097628444613881649 -0.25834262822693399 0 -0.1173011125765811 -0.2721428964285707 0 -0.097628444613881649 -0.25834262822693399 0 -0.1187556211832122 -0.25814451816493872 0 -0.1098930818979398 -0.24798588601512411 0 -0.13218950310710981 -0.25272660122947088 0 -0.1187556211832122 -0.25814451816493872 0 -0.1098930818979398 -0.24798588601512411 0 -0.097628444613881649 -0.25834262822693399 0 -0.1187556211832122 -0.25814451816493872 0 -0.1173011125765811 -0.2721428964285707 0 -0.13218950310710981 -0.25272660122947088 0 -0.1098930818979398 -0.24798588601512411 0 -0.12600056203783161 -0.26301541000095829 0 -0.1187556211832122 -0.25814451816493872 0 -0.1173011125765811 -0.2721428964285707 0 -0.097628444613881649 -0.25834262822693399 0 -0.1173011125765811 -0.2721428964285707 0 -0.090762408808148426 -0.27102181932101072 0 -0.1173011125765811 -0.2721428964285707 0 -0.096655829275762523 -0.28444542957314378 0 -0.090762408808148426 -0.27102181932101072 0 -0.096655829275762523 -0.28444542957314378 0 -0.10322998884287909 -0.29931702984935987 0 -0.084942936154341619 -0.30610776690088481 0 -0.096655829275762523 -0.28444542957314378 0 -0.11725087491461519 -0.29108504565108578 0 -0.10322998884287909 -0.29931702984935987 0 -0.13697378053928061 -0.28594316463020741 0 -0.1173011125765811 -0.2721428964285707 0 -0.11725087491461519 -0.29108504565108578 0 -0.1173011125765811 -0.2721428964285707 0 -0.096655829275762523 -0.28444542957314378 0 -0.11725087491461519 -0.29108504565108578 0 -0.11725087491461519 -0.29108504565108578 0 -0.11567190875339491 -0.3081878681979589 0 -0.10322998884287909 -0.29931702984935987 0 -0.1304175251842298 -0.30012492429455973 0 -0.11725087491461519 -0.29108504565108578 0 -0.11567190875339491 -0.3081878681979589 0 -0.1011365257202933 -0.31403431577096802 0 -0.10322998884287909 -0.29931702984935987 0 -0.084942936154341619 -0.30610776690088481 0 -0.1011365257202933 -0.31403431577096802 0 -0.11567190875339491 -0.3081878681979589 0 -0.10322998884287909 -0.29931702984935987 0 -0.084942936154341619 -0.30610776690088481 0 -0.066237696895848033 -0.30175990202967712 0 -0.078368201618682937 -0.28822753231137022 0 -0.084942936154341619 -0.30610776690088481 0 -0.066237696895848033 -0.30175990202967712 0 -0.060613113796085999 -0.32288269869712272 0 -0.066237696895848033 -0.30175990202967712 0 -0.078368201618682937 -0.28822753231137022 0 -0.057136779716869042 -0.28712205926022771 0 -0.078368201618682937 -0.28822753231137022 0 -0.072744725061100565 -0.27289296274949931 0 -0.057136779716869042 -0.28712205926022771 0 -0.096655829275762523 -0.28444542957314378 0 -0.084942936154341619 -0.30610776690088481 0 -0.078368201618682937 -0.28822753231137022 0 -0.096655829275762523 -0.28444542957314378 0 -0.078368201618682937 -0.28822753231137022 0 -0.090762408808148426 -0.27102181932101072 0 -0.078368201618682937 -0.28822753231137022 0 -0.090762408808148426 -0.27102181932101072 0 -0.072744725061100565 -0.27289296274949931 0 -0.090762408808148426 -0.27102181932101072 0 -0.072744725061100565 -0.27289296274949931 0 -0.081281336266817772 -0.26097832242812891 0 -0.072744725061100565 -0.27289296274949931 0 -0.067161912638977472 -0.25903173736147111 0 -0.055745381016590281 -0.2682223094504298 0 -0.072744725061100565 -0.27289296274949931 0 -0.067161912638977472 -0.25903173736147111 0 -0.081281336266817772 -0.26097832242812891 0 -0.067161912638977472 -0.25903173736147111 0 -0.081281336266817772 -0.26097832242812891 0 -0.077955776651182085 -0.24454236002529731 0 -0.067161912638977472 -0.25903173736147111 0 -0.056939497423126581 -0.24878681181634871 0 -0.077955776651182085 -0.24454236002529731 0 -0.097628444613881649 -0.25834262822693399 0 -0.081281336266817772 -0.26097832242812891 0 -0.077955776651182085 -0.24454236002529731 0 -0.097628444613881649 -0.25834262822693399 0 -0.090762408808148426 -0.27102181932101072 0 -0.081281336266817772 -0.26097832242812891 0 -0.097628444613881649 -0.25834262822693399 0 -0.077955776651182085 -0.24454236002529731 0 -0.025857267464119819 -0.25506418495113531 0 -0.050191684441297867 -0.2485850187836515 0 -0.034199021844566052 -0.25740496373097072 0 -0.056939497423126581 -0.24878681181634871 0 -0.034199021844566052 -0.25740496373097072 0 -0.041398382443623198 -0.25192549838374201 0 -0.056939497423126581 -0.24878681181634871 0 -0.041398382443623198 -0.25192549838374201 0 -0.025857267464119819 -0.25506418495113531 0 -0.050191684441297867 -0.2485850187836515 0 -0.034199021844566052 -0.25740496373097072 0 -0.048255079716108998 -0.25800015923011232 0 -0.056939497423126581 -0.24878681181634871 0 -0.034199021844566052 -0.25740496373097072 0 -0.041398382443623198 -0.25192549838374201 0 -0.025857267464119819 -0.25506418495113531 0 -0.041398382443623198 -0.25192549838374201 0 -0.025857267464119819 -0.25506418495113531 0 -0.034199021844566052 -0.25740496373097072 0 -0.037307574571523318 -0.26201401924185519 0 -0.024854767991187229 -0.26705994663832661 0 -0.037307574571523318 -0.26201401924185519 0 -0.048255079716108998 -0.25800015923011232 0 -0.046606779304586107 -0.26584835010199509 0 -0.034199021844566052 -0.25740496373097072 0 -0.037307574571523318 -0.26201401924185519 0 -0.048255079716108998 -0.25800015923011232 0 -0.05702546769870083 -0.25851025446459042 0 -0.048255079716108998 -0.25800015923011232 0 -0.056939497423126581 -0.24878681181634871 0 -0.041398382443623198 -0.25192549838374201 0 -0.056939497423126581 -0.24878681181634871 0 -0.067161912638977472 -0.25903173736147111 0 -0.05702546769870083 -0.25851025446459042 0 -0.056939497423126581 -0.24878681181634871 0 -0.067161912638977472 -0.25903173736147111 0 -0.05702546769870083 -0.25851025446459042 0 -0.055745381016590281 -0.2682223094504298 0 -0.05702546769870083 -0.25851025446459042 0 -0.048255079716108998 -0.25800015923011232 0 -0.055745381016590281 -0.2682223094504298 0 -0.048255079716108998 -0.25800015923011232 0 -0.055745381016590281 -0.2682223094504298 0 -0.046606779304586107 -0.26584835010199509 0 -0.055745381016590281 -0.2682223094504298 0 -0.045119081914121867 -0.27515691248558288 0 -0.046606779304586107 -0.26584835010199509 0 -0.055745381016590281 -0.2682223094504298 0 -0.045119081914121867 -0.27515691248558288 0 -0.057136779716869042 -0.28712205926022771 0 -0.072744725061100565 -0.27289296274949931 0 -0.055745381016590281 -0.2682223094504298 0 -0.057136779716869042 -0.28712205926022771 0 -0.037307574571523318 -0.26201401924185519 0 -0.034478529498429812 -0.28951379058442123 0 -0.037307574571523318 -0.26201401924185519 0 -0.034478529498429812 -0.28951379058442123 0 -0.024854767991187229 -0.26705994663832661 0 -0.037307574571523318 -0.26201401924185519 0 -0.045119081914121867 -0.27515691248558288 0 -0.034478529498429812 -0.28951379058442123 0 -0.037307574571523318 -0.26201401924185519 0 -0.045119081914121867 -0.27515691248558288 0 -0.046606779304586107 -0.26584835010199509 0 -0.045119081914121867 -0.27515691248558288 0 -0.034478529498429812 -0.28951379058442123 0 -0.057136779716869042 -0.28712205926022771 0 -0.034478529498429812 -0.28951379058442123 0 -0.057136779716869042 -0.28712205926022771 0 -0.05012745319326059 -0.30445945297878008 0 -0.066237696895848033 -0.30175990202967712 0 -0.05012745319326059 -0.30445945297878008 0 -0.060613113796085999 -0.32288269869712272 0 -0.066237696895848033 -0.30175990202967712 0 -0.057136779716869042 -0.28712205926022771 0 -0.05012745319326059 -0.30445945297878008 0 -0.034478529498429812 -0.28951379058442123 0 -0.05012745319326059 -0.30445945297878008 0 -0.031649484425336299 -0.31701356192698721 0 -0.034478529498429812 -0.28951379058442123 0 -0.031649484425336299 -0.31701356192698721 0 -0.034478529498429812 -0.28951379058442123 0 -0.020284114256294641 -0.29759304008048471 0 -0.031649484425336299 -0.31701356192698721 0 -0.020284114256294641 -0.29759304008048471 0 -0.01007927323019326 -0.3103345258507364 0 -0.031649484425336299 -0.31701356192698721 0 -0.020284114256294641 -0.29759304008048471 0 -0.01007927323019326 -0.3103345258507364 0 -0.0080748459131490501 -0.2914060437848453 0 -0.01007927323019326 -0.3103345258507364 0 -0.0080748459131490501 -0.2914060437848453 0 0.0017563221397047381 -0.2997067901486577 0 -0.020284114256294641 -0.29759304008048471 0 -0.0080748459131490501 -0.2914060437848453 0 -0.017138438214364771 -0.27969727825543328 0 -0.0080748459131490501 -0.2914060437848453 0 -0.002848760243290064 -0.27761611820401882 0 0.0066437179820165657 -0.2861171845936395 0 -0.0080748459131490501 -0.2914060437848453 0 -0.017138438214364771 -0.27969727825543328 0 -0.002848760243290064 -0.27761611820401882 0 -0.034478529498429812 -0.28951379058442123 0 -0.020284114256294641 -0.29759304008048471 0 -0.017138438214364771 -0.27969727825543328 0 -0.034478529498429812 -0.28951379058442123 0 -0.024854767991187229 -0.26705994663832661 0 -0.017138438214364771 -0.27969727825543328 0 -0.024854767991187229 -0.26705994663832661 0 -0.01588915841142927 -0.27169793716392882 0 -0.01145854626600548 -0.26602311564559261 0 -0.024854767991187229 -0.26705994663832661 0 -0.01588915841142927 -0.27169793716392882 0 -0.017138438214364771 -0.27969727825543328 0 -0.017138438214364771 -0.27969727825543328 0 -0.011833725783772399 -0.27375861231724341 0 -0.002848760243290064 -0.27761611820401882 0 -0.01145854626600548 -0.26602311564559261 0 0.01128192931255503 -0.27464126756021451 0 -0.002848760243290064 -0.27761611820401882 0 -0.01145854626600548 -0.26602311564559261 0 0.01128192931255503 -0.27464126756021451 0 -0.01588915841142927 -0.27169793716392882 0 -0.017138438214364771 -0.27969727825543328 0 -0.011833725783772399 -0.27375861231724341 0 -0.011833725783772399 -0.27375861231724341 0 -0.002848760243290064 -0.27761611820401882 0 -0.01145854626600548 -0.26602311564559261 0 -0.01588915841142927 -0.27169793716392882 0 -0.011833725783772399 -0.27375861231724341 0 -0.01145854626600548 -0.26602311564559261 0 -0.01269776775011346 -0.25850600500130039 0 -0.0051360078472848583 -0.25701396995817721 0 0.0057158633005241696 -0.26337829885565528 0 -0.01145854626600548 -0.26602311564559261 0 -0.01269776775011346 -0.25850600500130039 0 0.0057158633005241696 -0.26337829885565528 0 -0.01269776775011346 -0.25850600500130039 0 0.0057158633005241696 -0.26337829885565528 0 -0.0009620894167222515 -0.25496392916579452 0 -0.0051360078472848583 -0.25701396995817721 0 0.0057158633005241696 -0.26337829885565528 0 -0.0071971320314794382 -0.2528457057960789 0 -0.01082738352359053 -0.24876902592697839 0 -0.0029313858115674811 -0.24854412401401971 0 -0.0009620894167222515 -0.25496392916579452 0 -0.0071971320314794382 -0.2528457057960789 0 -0.0029313858115674811 -0.24854412401401971 0 -0.0009620894167222515 -0.25496392916579452 0 -0.0051360078472848583 -0.25701396995817721 0 -0.0071971320314794382 -0.2528457057960789 0 -0.0051360078472848583 -0.25701396995817721 0 -0.0071971320314794382 -0.2528457057960789 0 -0.0094143843739788544 -0.25459574361389747 0 -0.0071971320314794382 -0.2528457057960789 0 -0.0094143843739788544 -0.25459574361389747 0 -0.01082738352359053 -0.24876902592697839 0 -0.01269776775011346 -0.25850600500130039 0 -0.0094143843739788544 -0.25459574361389747 0 -0.01082738352359053 -0.24876902592697839 0 -0.01269776775011346 -0.25850600500130039 0 -0.0051360078472848583 -0.25701396995817721 0 -0.0094143843739788544 -0.25459574361389747 0 -0.01269776775011346 -0.25850600500130039 0 -0.025857267464119819 -0.25506418495113531 0 -0.034199021844566052 -0.25740496373097072 0 -0.01145854626600548 -0.26602311564559261 0 -0.025857267464119819 -0.25506418495113531 0 -0.01269776775011346 -0.25850600500130039 0 -0.025857267464119819 -0.25506418495113531 0 -0.02368513365757598 -0.23851275990414511 0 -0.034199021844566052 -0.25740496373097072 0 -0.024854767991187229 -0.26705994663832661 0 -0.01145854626600548 -0.26602311564559261 0 -0.034199021844566052 -0.25740496373097072 0 -0.01145854626600548 -0.26602311564559261 0 -0.01145854626600548 -0.26602311564559261 0 -0.01269776775011346 -0.25850600500130039 0 -0.025857267464119819 -0.25506418495113531 0 -0.046940286889098168 -0.35955036210978841 0 -0.050269733973634309 -0.3392354021108881 0 -0.02882043935224279 -0.34451333326955308 0 -0.046940286889098168 -0.35955036210978841 0 -0.02882043935224279 -0.34451333326955308 0 -0.026419717968229769 -0.36867473508972981 0 -0.046940286889098168 -0.35955036210978841 0 -0.026419717968229769 -0.36867473508972981 0 -0.046935058978613817 -0.3783756837809118 0 -0.065890469742167113 -0.37350781086095058 0 -0.046940286889098168 -0.35955036210978841 0 -0.046935058978613817 -0.3783756837809118 0 -0.063306301319701316 -0.35299520754669739 0 -0.065890469742167113 -0.37350781086095058 0 -0.046940286889098168 -0.35955036210978841 0 -0.063306301319701316 -0.35299520754669739 0 -0.046940286889098168 -0.35955036210978841 0 -0.050269733973634309 -0.3392354021108881 0 -0.073144777225565616 -0.33606175945158517 0 -0.063306301319701316 -0.35299520754669739 0 -0.050269733973634309 -0.3392354021108881 0 -0.073144777225565616 -0.33606175945158517 0 -0.050269733973634309 -0.3392354021108881 0 -0.060613113796085999 -0.32288269869712272 0 -0.050269733973634309 -0.3392354021108881 0 -0.060613113796085999 -0.32288269869712272 0 -0.031649484425336299 -0.31701356192698721 0 -0.05012745319326059 -0.30445945297878008 0 -0.060613113796085999 -0.32288269869712272 0 -0.031649484425336299 -0.31701356192698721 0 -0.050269733973634309 -0.3392354021108881 0 -0.031649484425336299 -0.31701356192698721 0 -0.02882043935224279 -0.34451333326955308 0 -0.031649484425336299 -0.31701356192698721 0 -0.02882043935224279 -0.34451333326955308 0 -0.031649484425336299 -0.31701356192698721 0 -0.0038616663111063101 -0.33241552487502413 0 -0.02882043935224279 -0.34451333326955308 0 -0.01007927323019326 -0.3103345258507364 0 -0.031649484425336299 -0.31701356192698721 0 -0.0038616663111063101 -0.33241552487502413 0 -0.01007927323019326 -0.3103345258507364 0 -0.0038616663111063101 -0.33241552487502413 0 0.0094652366165251054 -0.31053241408104548 0 -0.0038616663111063101 -0.33241552487502413 0 -0.0043130761299947744 -0.35643483176966217 0 -0.02882043935224279 -0.34451333326955308 0 -0.0043130761299947744 -0.35643483176966217 0 -0.02882043935224279 -0.34451333326955308 0 -0.026419717968229769 -0.36867473508972981 0 -0.0043130761299947744 -0.35643483176966217 0 -0.026419717968229769 -0.36867473508972981 0 -0.0064694903547723136 -0.38059021958606692 0 -0.0064694903547723136 -0.38059021958606692 0 -0.0080625817845775948 -0.40608726553411861 0 -0.026496984295852101 -0.39226102623928111 0 -0.0064694903547723136 -0.38059021958606692 0 -0.0080625817845775948 -0.40608726553411861 0 0.009690974369139977 -0.39295199195252922 0 -0.0080625817845775948 -0.40608726553411861 0 -0.026496984295852101 -0.39226102623928111 0 -0.029852467816379728 -0.41236872525256307 0 -0.026419717968229769 -0.36867473508972981 0 -0.0064694903547723136 -0.38059021958606692 0 -0.026496984295852101 -0.39226102623928111 0 -0.026496984295852101 -0.39226102623928111 0 -0.048213792324517578 -0.39768762776665978 0 -0.046935058978613817 -0.3783756837809118 0 -0.026419717968229769 -0.36867473508972981 0 -0.026496984295852101 -0.39226102623928111 0 -0.046935058978613817 -0.3783756837809118 0 -0.026496984295852101 -0.39226102623928111 0 -0.048213792324517578 -0.39768762776665978 0 -0.029852467816379728 -0.41236872525256307 0 -0.048213792324517578 -0.39768762776665978 0 -0.065379196062645584 -0.39052657147488062 0 -0.06528413140028641 -0.40548789039177052 0 -0.048213792324517578 -0.39768762776665978 0 -0.046935058978613817 -0.3783756837809118 0 -0.065379196062645584 -0.39052657147488062 0 -0.065890469742167113 -0.37350781086095058 0 -0.046935058978613817 -0.3783756837809118 0 -0.065379196062645584 -0.39052657147488062 0 -0.052630130657334448 -0.42871109396582502 0 -0.036803499053157718 -0.43392585985635063 0 -0.055908543568221357 -0.44353945242809251 0 -0.052630130657334448 -0.42871109396582502 0 -0.048282499091199083 -0.41684649723306111 0 -0.065713266975248902 -0.42040157794015642 0 -0.052630130657334448 -0.42871109396582502 0 -0.055908543568221357 -0.44353945242809251 0 -0.077753046024815156 -0.43509142098737241 0 -0.048282499091199083 -0.41684649723306111 0 -0.06528413140028641 -0.40548789039177052 0 -0.065713266975248902 -0.42040157794015642 0 -0.048213792324517578 -0.39768762776665978 0 -0.048282499091199083 -0.41684649723306111 0 -0.06528413140028641 -0.40548789039177052 0 -0.048213792324517578 -0.39768762776665978 0 -0.048282499091199083 -0.41684649723306111 0 -0.029852467816379728 -0.41236872525256307 0 -0.048282499091199083 -0.41684649723306111 0 -0.036803499053157718 -0.43392585985635063 0 -0.029852467816379728 -0.41236872525256307 0 -0.052630130657334448 -0.42871109396582502 0 -0.048282499091199083 -0.41684649723306111 0 -0.036803499053157718 -0.43392585985635063 0 -0.036803499053157718 -0.43392585985635063 0 -0.01686747062211669 -0.42668809062348251 0 -0.022482277956740859 -0.44034230556013138 0 -0.036803499053157718 -0.43392585985635063 0 -0.01686747062211669 -0.42668809062348251 0 -0.029852467816379728 -0.41236872525256307 0 -0.0080625817845775948 -0.40608726553411861 0 -0.01686747062211669 -0.42668809062348251 0 -0.029852467816379728 -0.41236872525256307 0 -0.0080625817845775948 -0.40608726553411861 0 -0.01686747062211669 -0.42668809062348251 0 0.01224976062295041 -0.42183763890738629 0 -0.01686747062211669 -0.42668809062348251 0 -0.008216644178786571 -0.4466179140804285 0 0.01224976062295041 -0.42183763890738629 0 -0.008216644178786571 -0.4466179140804285 0 -0.0021957942935651631 -0.46571035637089769 0 -0.016151777162071251 -0.46269316979172348 0 -0.0021957942935651631 -0.46571035637089769 0 -0.016151777162071251 -0.46269316979172348 0 -0.01292321871024151 -0.47600360382280887 0 -0.008216644178786571 -0.4466179140804285 0 -0.016151777162071251 -0.46269316979172348 0 -0.028753682251359231 -0.45370767630375852 0 -0.016151777162071251 -0.46269316979172348 0 -0.030722049445265721 -0.46513815794063051 0 -0.025757536927686689 -0.47561542944709773 0 -0.016151777162071251 -0.46269316979172348 0 -0.030722049445265721 -0.46513815794063051 0 -0.028753682251359231 -0.45370767630375852 0 -0.036803499053157718 -0.43392585985635063 0 -0.028753682251359231 -0.45370767630375852 0 -0.022482277956740859 -0.44034230556013138 0 -0.01686747062211669 -0.42668809062348251 0 -0.008216644178786571 -0.4466179140804285 0 -0.022482277956740859 -0.44034230556013138 0 -0.008216644178786571 -0.4466179140804285 0 -0.028753682251359231 -0.45370767630375852 0 -0.022482277956740859 -0.44034230556013138 0 -0.011489863113854141 -0.5 0 -0.010144146689038991 -0.48941639725935437 0 0.012735562036971701 -0.48508522326900949 0 -0.010144146689038991 -0.48941639725935437 0 -0.00065605929082254884 -0.47874224407546379 0 -0.01292321871024151 -0.47600360382280887 0 -0.010144146689038991 -0.48941639725935437 0 -0.01292321871024151 -0.47600360382280887 0 -0.022633997898264431 -0.48384402599231691 0 -0.0021957942935651631 -0.46571035637089769 0 -0.00065605929082254884 -0.47874224407546379 0 -0.01292321871024151 -0.47600360382280887 0 -0.016151777162071251 -0.46269316979172348 0 -0.01292321871024151 -0.47600360382280887 0 -0.025757536927686689 -0.47561542944709773 0 -0.025757536927686689 -0.47561542944709773 0 -0.022633997898264431 -0.48384402599231691 0 -0.032724513000240443 -0.48384135401243772 0 -0.01292321871024151 -0.47600360382280887 0 -0.025757536927686689 -0.47561542944709773 0 -0.022633997898264431 -0.48384402599231691 0 -0.011489863113854141 -0.5 0 -0.010144146689038991 -0.48941639725935437 0 -0.033023855415049652 -0.49374757124969931 0 -0.010144146689038991 -0.48941639725935437 0 -0.022633997898264431 -0.48384402599231691 0 -0.033023855415049652 -0.49374757124969931 0 -0.011489863113854141 -0.5 0 -0.041002190054857779 -0.5 0 -0.033023855415049652 -0.49374757124969931 0 -0.010144146689038991 -0.48941639725935437 0 -0.033023855415049652 -0.49374757124969931 0 -0.022633997898264431 -0.48384402599231691 0 -0.033023855415049652 -0.49374757124969931 0 -0.032724513000240443 -0.48384135401243772 0 -0.041002190054857779 -0.5 0 -0.040644419244316249 -0.48874723383863622 0 -0.055758353525359711 -0.48944453406372251 0 -0.041002190054857779 -0.5 0 -0.033023855415049652 -0.49374757124969931 0 -0.040644419244316249 -0.48874723383863622 0 -0.033023855415049652 -0.49374757124969931 0 -0.040644419244316249 -0.48874723383863622 0 -0.032724513000240443 -0.48384135401243772 0 -0.040644419244316249 -0.48874723383863622 0 -0.040713184226073652 -0.47670270986732172 0 -0.055758353525359711 -0.48944453406372251 0 -0.040644419244316249 -0.48874723383863622 0 -0.040713184226073652 -0.47670270986732172 0 -0.032724513000240443 -0.48384135401243772 0 -0.025757536927686689 -0.47561542944709773 0 -0.040713184226073652 -0.47670270986732172 0 -0.032724513000240443 -0.48384135401243772 0 -0.030722049445265721 -0.46513815794063051 0 -0.025757536927686689 -0.47561542944709773 0 -0.040713184226073652 -0.47670270986732172 0 -0.040713184226073652 -0.47670270986732172 0 -0.05604151524233808 -0.47085547185542692 0 -0.042137987481662489 -0.46199998676314519 0 -0.040713184226073652 -0.47670270986732172 0 -0.05604151524233808 -0.47085547185542692 0 -0.055758353525359711 -0.48944453406372251 0 -0.05604151524233808 -0.47085547185542692 0 -0.055758353525359711 -0.48944453406372251 0 -0.068357021366280857 -0.47830767763467641 0 -0.041002190054857779 -0.5 0 -0.055758353525359711 -0.48944453406372251 0 -0.070514516995861642 -0.5 0 -0.036803499053157718 -0.43392585985635063 0 -0.028753682251359231 -0.45370767630375852 0 -0.042591220718736618 -0.44931976272637059 0 -0.036803499053157718 -0.43392585985635063 0 -0.042591220718736618 -0.44931976272637059 0 -0.055908543568221357 -0.44353945242809251 0 -0.028753682251359231 -0.45370767630375852 0 -0.042591220718736618 -0.44931976272637059 0 -0.042137987481662489 -0.46199998676314519 0 -0.030722049445265721 -0.46513815794063051 0 -0.028753682251359231 -0.45370767630375852 0 -0.042137987481662489 -0.46199998676314519 0 -0.030722049445265721 -0.46513815794063051 0 -0.040713184226073652 -0.47670270986732172 0 -0.042137987481662489 -0.46199998676314519 0 -0.042591220718736618 -0.44931976272637059 0 -0.042137987481662489 -0.46199998676314519 0 -0.054601469153056192 -0.45704509188174619 0 -0.05604151524233808 -0.47085547185542692 0 -0.054601469153056192 -0.45704509188174619 0 -0.071896784036839162 -0.45711427830285839 0 -0.05604151524233808 -0.47085547185542692 0 -0.042137987481662489 -0.46199998676314519 0 -0.054601469153056192 -0.45704509188174619 0 -0.054601469153056192 -0.45704509188174619 0 -0.055908543568221357 -0.44353945242809251 0 -0.071896784036839162 -0.45711427830285839 0 -0.042591220718736618 -0.44931976272637059 0 -0.054601469153056192 -0.45704509188174619 0 -0.055908543568221357 -0.44353945242809251 0 -0.055908543568221357 -0.44353945242809251 0 -0.071896784036839162 -0.45711427830285839 0 -0.077753046024815156 -0.43509142098737241 0 -0.071896784036839162 -0.45711427830285839 0 -0.087573937031005744 -0.47412410395137422 0 -0.093954286744555499 -0.45179652052777369 0 -0.087573937031005744 -0.47412410395137422 0 -0.093954286744555499 -0.45179652052777369 0 -0.071896784036839162 -0.45711427830285839 0 -0.093954286744555499 -0.45179652052777369 0 -0.077753046024815156 -0.43509142098737241 0 -0.093954286744555499 -0.45179652052777369 0 -0.10033463645810529 -0.42946893710417328 0 -0.077753046024815156 -0.43509142098737241 0 -0.055758353525359711 -0.48944453406372251 0 -0.070514516995861642 -0.5 0 -0.068357021366280857 -0.47830767763467641 0 -0.05604151524233808 -0.47085547185542692 0 -0.071896784036839162 -0.45711427830285839 0 -0.068357021366280857 -0.47830767763467641 0 -0.071896784036839162 -0.45711427830285839 0 -0.068357021366280857 -0.47830767763467641 0 -0.087573937031005744 -0.47412410395137422 0 -0.070514516995861642 -0.5 0 -0.068357021366280857 -0.47830767763467641 0 -0.087573937031005744 -0.47412410395137422 0 -0.070514516995861642 -0.5 0 -0.087573937031005744 -0.47412410395137422 0 -0.10002684393686551 -0.5 0 -0.087573937031005744 -0.47412410395137422 0 -0.10002684393686551 -0.5 0 -0.10780494223314389 -0.47765854937150709 0 -0.087573937031005744 -0.47412410395137422 0 -0.10780494223314389 -0.47765854937150709 0 -0.1029954147344513 -0.46359439800738522 0 -0.12605423818426559 -0.48707922202292669 0 -0.10780494223314389 -0.47765854937150709 0 -0.1201929706126502 -0.46127799294672761 0 -0.12605423818426559 -0.48707922202292669 0 -0.1201929706126502 -0.46127799294672761 0 -0.12605423818426559 -0.48707922202292669 0 -0.10002684393686551 -0.5 0 -0.10780494223314389 -0.47765854937150709 0 -0.1295391708778694 -0.5 0 -0.12605423818426559 -0.48707922202292669 0 -0.10002684393686551 -0.5 0 -0.093954286744555499 -0.45179652052777369 0 -0.10033463645810529 -0.42946893710417328 0 -0.10636180231815941 -0.44832292249131772 0 -0.11433170304103479 -0.43547676387052858 0 -0.10033463645810529 -0.42946893710417328 0 -0.10636180231815941 -0.44832292249131772 0 -0.093954286744555499 -0.45179652052777369 0 -0.10033463645810529 -0.42946893710417328 0 -0.087573937031005744 -0.47412410395137422 0 -0.093954286744555499 -0.45179652052777369 0 -0.1029954147344513 -0.46359439800738522 0 -0.10636180231815941 -0.44832292249131772 0 -0.093954286744555499 -0.45179652052777369 0 -0.1029954147344513 -0.46359439800738522 0 -0.10780494223314389 -0.47765854937150709 0 -0.1029954147344513 -0.46359439800738522 0 -0.1201929706126502 -0.46127799294672761 0 -0.10636180231815941 -0.44832292249131772 0 -0.1029954147344513 -0.46359439800738522 0 -0.1201929706126502 -0.46127799294672761 0 -0.13671083813600751 -0.45044361347006462 0 -0.1201929706126502 -0.46127799294672761 0 -0.11433170304103479 -0.43547676387052858 0 -0.10636180231815941 -0.44832292249131772 0 -0.1201929706126502 -0.46127799294672761 0 -0.11433170304103479 -0.43547676387052858 0 -0.13671083813600751 -0.45044361347006462 0 -0.1225906368027144 -0.43005957413219659 0 -0.11433170304103479 -0.43547676387052858 0 -0.1201929706126502 -0.46127799294672761 0 -0.11433170304103479 -0.43547676387052858 0 -0.1225906368027144 -0.43005957413219659 0 -0.11433170304103479 -0.43547676387052858 0 -0.10847043546942051 -0.40967553479432928 0 -0.11433170304103479 -0.43547676387052858 0 -0.10847043546942051 -0.40967553479432928 0 -0.12908399078123631 -0.42243277819987513 0 -0.1225906368027144 -0.43005957413219659 0 -0.12315425937001 -0.41747458531602638 0 -0.11433170304103479 -0.43547676387052858 0 -0.10033463645810529 -0.42946893710417328 0 -0.10847043546942051 -0.40967553479432928 0 -0.10033463645810529 -0.42946893710417328 0 -0.094107383989168333 -0.41562629379671062 0 -0.1067149861716557 -0.40714135368057303 0 -0.10033463645810529 -0.42946893710417328 0 -0.1067149861716557 -0.40714135368057303 0 -0.10847043546942051 -0.40967553479432928 0 -0.10033463645810529 -0.42946893710417328 0 -0.1067149861716557 -0.40714135368057303 0 -0.094107383989168333 -0.41562629379671062 0 -0.1067149861716557 -0.40714135368057303 0 -0.093615658715422545 -0.40476526464288082 0 -0.10847043546942051 -0.40967553479432928 0 -0.1105756132387118 -0.40676785322215941 0 -0.1073722461642546 -0.40484131873350049 0 -0.10847043546942051 -0.40967553479432928 0 -0.1073722461642546 -0.40484131873350049 0 -0.1067149861716557 -0.40714135368057303 0 -0.10847043546942051 -0.40967553479432928 0 -0.1073722461642546 -0.40484131873350049 0 -0.1067149861716557 -0.40714135368057303 0 -0.10847043546942051 -0.40967553479432928 0 -0.1225906368027144 -0.43005957413219659 0 -0.1163272184937543 -0.41351727508190028 0 -0.12315425937001 -0.41747458531602638 0 -0.10847043546942051 -0.40967553479432928 0 -0.1125412123036873 -0.40894162881917728 0 -0.1163272184937543 -0.41351727508190028 0 -0.1125412123036873 -0.40894162881917728 0 -0.1105756132387118 -0.40676785322215941 0 -0.1147915820128618 -0.40580585217832088 0 -0.1225906368027144 -0.43005957413219659 0 -0.10847043546942051 -0.40967553479432928 0 -0.1163272184937543 -0.41351727508190028 0 -0.10847043546942051 -0.40967553479432928 0 -0.1125412123036873 -0.40894162881917728 0 -0.1105756132387118 -0.40676785322215941 0 -0.1225906368027144 -0.43005957413219659 0 -0.10847043546942051 -0.40967553479432928 0 -0.1125412123036873 -0.40894162881917728 0 -0.1163272184937543 -0.41351727508190028 0 -0.1147915820128618 -0.40580585217832088 0 -0.1225700411049412 -0.40994677461386392 0 -0.1219584454402414 -0.40406961642135292 0 -0.1147915820128618 -0.40580585217832088 0 -0.1163272184937543 -0.41351727508190028 0 -0.1225700411049412 -0.40994677461386392 0 -0.1147915820128618 -0.40580585217832088 0 -0.1163272184937543 -0.41351727508190028 0 -0.12315425937001 -0.41747458531602638 0 -0.1225700411049412 -0.40994677461386392 0 -0.1273295258527142 -0.39594401256049883 0 -0.1219584454402414 -0.40406961642135292 0 -0.1190781430676657 -0.39944145851713192 0 -0.11305295545189779 -0.39895005080087959 0 -0.11384267237711319 -0.38219851895920232 0 -0.1073722461642546 -0.40484131873350049 0 -0.1295768038857959 -0.40463739140698729 0 -0.1225700411049412 -0.40994677461386392 0 -0.1219584454402414 -0.40406961642135292 0 -0.1182582065806136 -0.392437760624607 0 -0.11305295545189779 -0.39895005080087959 0 -0.11384267237711319 -0.38219851895920232 0 -0.11384267237711319 -0.38219851895920232 0 -0.1073722461642546 -0.40484131873350049 0 -0.1219584454402414 -0.40406961642135292 0 -0.1190781430676657 -0.39944145851713192 0 -0.1147915820128618 -0.40580585217832088 0 -0.1273295258527142 -0.39594401256049883 0 -0.1190781430676657 -0.39944145851713192 0 -0.1182582065806136 -0.392437760624607 0 -0.1190781430676657 -0.39944145851713192 0 -0.1182582065806136 -0.392437760624607 0 -0.11305295545189779 -0.39895005080087959 0 -0.1105756132387118 -0.40676785322215941 0 -0.1114480992169309 -0.40409126873371493 0 -0.1073722461642546 -0.40484131873350049 0 -0.1105756132387118 -0.40676785322215941 0 -0.1114480992169309 -0.40409126873371493 0 -0.1147915820128618 -0.40580585217832088 0 -0.11305295545189779 -0.39895005080087959 0 -0.1114480992169309 -0.40409126873371493 0 -0.1147915820128618 -0.40580585217832088 0 -0.11305295545189779 -0.39895005080087959 0 -0.1114480992169309 -0.40409126873371493 0 -0.1073722461642546 -0.40484131873350049 0 -0.1190781430676657 -0.39944145851713192 0 -0.11305295545189779 -0.39895005080087959 0 -0.1147915820128618 -0.40580585217832088 0 -0.12625141541498519 -0.38197991289387551 0 -0.1182582065806136 -0.392437760624607 0 -0.11384267237711319 -0.38219851895920232 0 -0.12625141541498519 -0.38197991289387551 0 -0.1273295258527142 -0.39594401256049883 0 -0.1182582065806136 -0.392437760624607 0 -0.11384267237711319 -0.38219851895920232 0 -0.10176491866177829 -0.38015793077534599 0 -0.1073722461642546 -0.40484131873350049 0 -0.10176491866177829 -0.38015793077534599 0 -0.095995502779844255 -0.39166661886747001 0 -0.085276019388031976 -0.37619188405436782 0 -0.10849363524981311 -0.36442991456039969 0 -0.11384267237711319 -0.38219851895920232 0 -0.10176491866177829 -0.38015793077534599 0 -0.10176491866177829 -0.38015793077534599 0 -0.1073722461642546 -0.40484131873350049 0 -0.095995502779844255 -0.39166661886747001 0 -0.10176491866177829 -0.38015793077534599 0 -0.1073722461642546 -0.40484131873350049 0 -0.1067149861716557 -0.40714135368057303 0 -0.1073722461642546 -0.40484131873350049 0 -0.095995502779844255 -0.39166661886747001 0 -0.1067149861716557 -0.40714135368057303 0 -0.1073722461642546 -0.40484131873350049 0 -0.1067149861716557 -0.40714135368057303 0 -0.095995502779844255 -0.39166661886747001 0 -0.1067149861716557 -0.40714135368057303 0 -0.095995502779844255 -0.39166661886747001 0 -0.093615658715422545 -0.40476526464288082 0 -0.093615658715422545 -0.40476526464288082 0 -0.081664681120336771 -0.39582842074610342 0 -0.082451352827770552 -0.41163664718976212 0 -0.095995502779844255 -0.39166661886747001 0 -0.093615658715422545 -0.40476526464288082 0 -0.081664681120336771 -0.39582842074610342 0 -0.095995502779844255 -0.39166661886747001 0 -0.081664681120336771 -0.39582842074610342 0 -0.085276019388031976 -0.37619188405436782 0 -0.081664681120336771 -0.39582842074610342 0 -0.085276019388031976 -0.37619188405436782 0 -0.074552591578295357 -0.38401367178407558 0 -0.095995502779844255 -0.39166661886747001 0 -0.085276019388031976 -0.37619188405436782 0 -0.081664681120336771 -0.39582842074610342 0 -0.065379196062645584 -0.39052657147488062 0 -0.074552591578295357 -0.38401367178407558 0 -0.065890469742167113 -0.37350781086095058 0 -0.085276019388031976 -0.37619188405436782 0 -0.074552591578295357 -0.38401367178407558 0 -0.065890469742167113 -0.37350781086095058 0 -0.065379196062645584 -0.39052657147488062 0 -0.074552591578295357 -0.38401367178407558 0 -0.081664681120336771 -0.39582842074610342 0 -0.06528413140028641 -0.40548789039177052 0 -0.082451352827770552 -0.41163664718976212 0 -0.081664681120336771 -0.39582842074610342 0 -0.065379196062645584 -0.39052657147488062 0 -0.06528413140028641 -0.40548789039177052 0 -0.065713266975248902 -0.42040157794015642 0 -0.085028608260126398 -0.42320905853578622 0 -0.082451352827770552 -0.41163664718976212 0 -0.06528413140028641 -0.40548789039177052 0 -0.065713266975248902 -0.42040157794015642 0 -0.082451352827770552 -0.41163664718976212 0 -0.065713266975248902 -0.42040157794015642 0 -0.077753046024815156 -0.43509142098737241 0 -0.085028608260126398 -0.42320905853578622 0 -0.052630130657334448 -0.42871109396582502 0 -0.065713266975248902 -0.42040157794015642 0 -0.077753046024815156 -0.43509142098737241 0 -0.10033463645810529 -0.42946893710417328 0 -0.077753046024815156 -0.43509142098737241 0 -0.085028608260126398 -0.42320905853578622 0 -0.10033463645810529 -0.42946893710417328 0 -0.094107383989168333 -0.41562629379671062 0 -0.085028608260126398 -0.42320905853578622 0 -0.094107383989168333 -0.41562629379671062 0 -0.085028608260126398 -0.42320905853578622 0 -0.082451352827770552 -0.41163664718976212 0 -0.094107383989168333 -0.41562629379671062 0 -0.093615658715422545 -0.40476526464288082 0 -0.082451352827770552 -0.41163664718976212 0 -0.080832567710134945 -0.085265223789800185 0 -0.09573268077664969 -0.090624673380050064 0 -0.094924188455715333 -0.074372309221374736 0 -0.080832567710134945 -0.085265223789800185 0 -0.0944050220014645 -0.1050702242089397 0 -0.09573268077664969 -0.090624673380050064 0 -0.094924188455715333 -0.074372309221374736 0 -0.077079431972146645 -0.050953682142663811 0 -0.080832567710134945 -0.085265223789800185 0 -0.077460787511610923 -0.070469280456870842 0 -0.094924188455715333 -0.074372309221374736 0 -0.077460787511610923 -0.070469280456870842 0 -0.094924188455715333 -0.074372309221374736 0 -0.078535685693175539 -0.061573663464548622 0 -0.080832567710134945 -0.085265223789800185 0 -0.072736864716213656 -0.076885636419884412 0 -0.077460787511610923 -0.070469280456870842 0 -0.072736864716213656 -0.076885636419884412 0 -0.077460787511610923 -0.070469280456870842 0 -0.067174029152377468 -0.071022972744677337 0 -0.077460787511610923 -0.070469280456870842 0 -0.067174029152377468 -0.071022972744677337 0 -0.070308423821052124 -0.061023041189074957 0 -0.077460787511610923 -0.070469280456870842 0 -0.078535685693175539 -0.061573663464548622 0 -0.070308423821052124 -0.061023041189074957 0 -0.067174029152377468 -0.071022972744677337 0 -0.070308423821052124 -0.061023041189074957 0 -0.060830035872249492 -0.064558057335980773 0 -0.072736864716213656 -0.076885636419884412 0 -0.067174029152377468 -0.071022972744677337 0 -0.063732237529271596 -0.080733089011810297 0 -0.067174029152377468 -0.071022972744677337 0 -0.063732237529271596 -0.080733089011810297 0 -0.058000192015007383 -0.073011667883306972 0 -0.080832567710134945 -0.085265223789800185 0 -0.063732237529271596 -0.080733089011810297 0 -0.066023591375222151 -0.09957098179305135 0 -0.080832567710134945 -0.085265223789800185 0 -0.072736864716213656 -0.076885636419884412 0 -0.063732237529271596 -0.080733089011810297 0 -0.066023591375222151 -0.09957098179305135 0 -0.069466171350113709 -0.1135628440840601 0 -0.0944050220014645 -0.1050702242089397 0 -0.066023591375222151 -0.09957098179305135 0 -0.069466171350113709 -0.1135628440840601 0 -0.054384952187449757 -0.110609208962567 0 -0.077516787342341589 -0.1242022911324857 0 -0.069466171350113709 -0.1135628440840601 0 -0.059238207921678762 -0.13024384051707169 0 -0.077516787342341589 -0.1242022911324857 0 -0.093262550211769629 -0.1231040070079162 0 -0.0944050220014645 -0.1050702242089397 0 -0.077516787342341589 -0.1242022911324857 0 -0.069466171350113709 -0.1135628440840601 0 -0.0944050220014645 -0.1050702242089397 0 -0.066023591375222151 -0.09957098179305135 0 -0.0944050220014645 -0.1050702242089397 0 -0.080832567710134945 -0.085265223789800185 0 -0.066023591375222151 -0.09957098179305135 0 -0.0944050220014645 -0.1050702242089397 0 -0.0944050220014645 -0.1050702242089397 0 -0.1071147179002416 -0.1244919901550422 0 -0.11276894493928399 -0.097790936300085646 0 -0.0944050220014645 -0.1050702242089397 0 -0.11276894493928399 -0.097790936300085646 0 -0.09573268077664969 -0.090624673380050064 0 -0.093262550211769629 -0.1231040070079162 0 -0.0944050220014645 -0.1050702242089397 0 -0.1071147179002416 -0.1244919901550422 0 -0.1071147179002416 -0.1244919901550422 0 -0.11276894493928399 -0.097790936300085646 0 -0.1306137014228527 -0.1212095633787966 0 -0.11276894493928399 -0.097790936300085646 0 -0.1306137014228527 -0.1212095633787966 0 -0.112702195828283 -0.076339248342475546 0 -0.13438499311011279 -0.096174695905308166 0 -0.11276894493928399 -0.097790936300085646 0 -0.112702195828283 -0.076339248342475546 0 -0.13438499311011279 -0.096174695905308166 0 -0.11276894493928399 -0.097790936300085646 0 -0.094924188455715333 -0.074372309221374736 0 -0.112702195828283 -0.076339248342475546 0 -0.11276894493928399 -0.097790936300085646 0 -0.094924188455715333 -0.074372309221374736 0 -0.11276894493928399 -0.097790936300085646 0 -0.09573268077664969 -0.090624673380050064 0 -0.094924188455715333 -0.074372309221374736 0 -0.094924188455715333 -0.074372309221374736 0 -0.1026030192468113 -0.064894788769428779 0 -0.112702195828283 -0.076339248342475546 0 -0.094924188455715333 -0.074372309221374736 0 -0.1026030192468113 -0.064894788769428779 0 -0.090333769324138391 -0.059362086744932152 0 -0.1026030192468113 -0.064894788769428779 0 -0.112702195828283 -0.076339248342475546 0 -0.1158705629695205 -0.060236298698018297 0 -0.112702195828283 -0.076339248342475546 0 -0.1158705629695205 -0.060236298698018297 0 -0.13497135686491851 -0.078315161523928284 0 -0.1158705629695205 -0.060236298698018297 0 -0.1150956899200111 -0.045830426672337207 0 -0.1070798181065768 -0.041876824406217303 0 -0.1158705629695205 -0.060236298698018297 0 -0.1150956899200111 -0.045830426672337207 0 -0.12809376798702951 -0.047905065599393698 0 -0.1163329610324388 -0.034474533447810513 0 -0.12530131535501859 -0.034952786400489197 0 -0.12809376798702951 -0.047905065599393698 0 -0.11023593420079281 -0.033339602888773932 0 -0.1150956899200111 -0.045830426672337207 0 -0.12809376798702951 -0.047905065599393698 0 -0.11023593420079281 -0.033339602888773932 0 -0.1163329610324388 -0.034474533447810513 0 -0.12809376798702951 -0.047905065599393698 0 -0.11023593420079281 -0.033339602888773932 0 -0.12809376798702951 -0.047905065599393698 0 -0.1163329610324388 -0.034474533447810513 0 -0.1221370268088495 -0.025998648103035 0 -0.12530131535501859 -0.034952786400489197 0 -0.11023593420079281 -0.033339602888773932 0 -0.1150956899200111 -0.045830426672337207 0 -0.1070798181065768 -0.041876824406217303 0 -0.11023593420079281 -0.033339602888773932 0 -0.1163329610324388 -0.034474533447810513 0 -0.097427134368436918 -0.027820357899848831 0 -0.11023593420079281 -0.033339602888773932 0 -0.1070798181065768 -0.041876824406217303 0 -0.097427134368436918 -0.027820357899848831 0 -0.1070798181065768 -0.041876824406217303 0 -0.096769769074122519 -0.04215743587210824 0 -0.097427134368436918 -0.027820357899848831 0 -0.1158705629695205 -0.060236298698018297 0 -0.1070798181065768 -0.041876824406217303 0 -0.096769769074122519 -0.04215743587210824 0 -0.1026030192468113 -0.064894788769428779 0 -0.1158705629695205 -0.060236298698018297 0 -0.099264754381345577 -0.055060356505970513 0 -0.1158705629695205 -0.060236298698018297 0 -0.096769769074122519 -0.04215743587210824 0 -0.099264754381345577 -0.055060356505970513 0 -0.096769769074122519 -0.04215743587210824 0 -0.099264754381345577 -0.055060356505970513 0 -0.090746651292135133 -0.048651172445365112 0 -0.1158705629695205 -0.060236298698018297 0 -0.096769769074122519 -0.04215743587210824 0 -0.1026030192468113 -0.064894788769428779 0 -0.099264754381345577 -0.055060356505970513 0 -0.090333769324138391 -0.059362086744932152 0 -0.1029392013539359 -0.0085751277431150782 0 -0.12735709500343681 0.004015926865657337 0 -0.1236693299605585 -0.0137973575501921 0 -0.1110604598185659 -0.0207882196779367 0 -0.1029392013539359 -0.0085751277431150782 0 -0.1236693299605585 -0.0137973575501921 0 -0.1029392013539359 -0.0085751277431150782 0 -0.12735709500343681 0.004015926865657337 0 -0.1236693299605585 -0.0137973575501921 0 -0.1110604598185659 -0.0207882196779367 0 -0.1221370268088495 -0.025998648103035 0 -0.1163329610324388 -0.034474533447810513 0 -0.1221370268088495 -0.025998648103035 0 -0.11173939550707281 -0.027270439782157759 0 -0.1110604598185659 -0.0207882196779367 0 -0.1221370268088495 -0.025998648103035 0 -0.11173939550707281 -0.027270439782157759 0 -0.1163329610324388 -0.034474533447810513 0 -0.097427134368436918 -0.027820357899848831 0 -0.1110604598185659 -0.0207882196779367 0 -0.097427134368436918 -0.027820357899848831 0 -0.1029392013539359 -0.0085751277431150782 0 -0.1163329610324388 -0.034474533447810513 0 -0.11173939550707281 -0.027270439782157759 0 -0.097427134368436918 -0.027820357899848831 0 -0.1110604598185659 -0.0207882196779367 0 -0.11173939550707281 -0.027270439782157759 0 -0.097427134368436918 -0.027820357899848831 0 -0.1029392013539359 -0.0085751277431150782 0 -0.086097875964997059 -0.0058870606910941042 0 -0.078521307704434995 -0.021166182351887271 0 -0.1029392013539359 -0.0085751277431150782 0 -0.078521307704434995 -0.021166182351887271 0 -0.1029392013539359 -0.0085751277431150782 0 -0.086097875964997059 -0.0058870606910941042 0 -0.091682611010439896 0.0063963380850077774 0 -0.086097875964997059 -0.0058870606910941042 0 -0.073830544796709738 -0.0078542708917730738 0 -0.078933949510919491 0.00072378658541613432 0 -0.086097875964997059 -0.0058870606910941042 0 -0.078521307704434995 -0.021166182351887271 0 -0.073830544796709738 -0.0078542708917730738 0 -0.097427134368436918 -0.027820357899848831 0 -0.078521307704434995 -0.021166182351887271 0 -0.097427134368436918 -0.027820357899848831 0 -0.078521307704434995 -0.021166182351887271 0 -0.077668975178724509 -0.024078573046198169 0 -0.097427134368436918 -0.027820357899848831 0 -0.1029392013539359 -0.0085751277431150782 0 -0.078521307704434995 -0.021166182351887271 0 -0.078521307704434995 -0.021166182351887271 0 -0.055132092173872667 -0.033226800447327051 0 -0.05822397002114936 -0.01402224463886402 0 -0.078521307704434995 -0.021166182351887271 0 -0.055132092173872667 -0.033226800447327051 0 -0.077668975178724509 -0.024078573046198169 0 -0.075465350998538308 -0.032772608828030472 0 -0.055132092173872667 -0.033226800447327051 0 -0.078521307704434995 -0.021166182351887271 0 -0.077668975178724509 -0.024078573046198169 0 -0.055132092173872667 -0.033226800447327051 0 -0.078521307704434995 -0.021166182351887271 0 -0.05822397002114936 -0.01402224463886402 0 -0.078521307704434995 -0.021166182351887271 0 -0.073830544796709738 -0.0078542708917730738 0 -0.05822397002114936 -0.01402224463886402 0 -0.073830544796709738 -0.0078542708917730738 0 -0.05822397002114936 -0.01402224463886402 0 -0.068462160169621672 0.0025537029525893409 0 -0.073830544796709738 -0.0078542708917730738 0 -0.078933949510919491 0.00072378658541613432 0 -0.068462160169621672 0.0025537029525893409 0 -0.094924188455715333 -0.074372309221374736 0 -0.090333769324138391 -0.059362086744932152 0 -0.077079431972146645 -0.050953682142663811 0 -0.094924188455715333 -0.074372309221374736 0 -0.078535685693175539 -0.061573663464548622 0 -0.077079431972146645 -0.050953682142663811 0 -0.084868245962835154 -0.053326759561897898 0 -0.090333769324138391 -0.059362086744932152 0 -0.077079431972146645 -0.050953682142663811 0 -0.084868245962835154 -0.053326759561897898 0 -0.080876314157704687 -0.04955372347343575 0 -0.082849096915408454 -0.045583035938281863 0 -0.080876314157704687 -0.04955372347343575 0 -0.078708481780428496 -0.048351416250899462 0 -0.082849096915408454 -0.045583035938281863 0 -0.080876314157704687 -0.04955372347343575 0 -0.078708481780428496 -0.048351416250899462 0 -0.077079431972146645 -0.050953682142663811 0 -0.084868245962835154 -0.053326759561897898 0 -0.080876314157704687 -0.04955372347343575 0 -0.077079431972146645 -0.050953682142663811 0 -0.084868245962835154 -0.053326759561897898 0 -0.090746651292135133 -0.048651172445365112 0 -0.082849096915408454 -0.045583035938281863 0 -0.084868245962835154 -0.053326759561897898 0 -0.090333769324138391 -0.059362086744932152 0 -0.090746651292135133 -0.048651172445365112 0 -0.099264754381345577 -0.055060356505970513 0 -0.090333769324138391 -0.059362086744932152 0 -0.090746651292135133 -0.048651172445365112 0 -0.096769769074122519 -0.04215743587210824 0 -0.088481073739883592 -0.043344290748051233 0 -0.083558777677868248 -0.036985518736449702 0 -0.096769769074122519 -0.04215743587210824 0 -0.097427134368436918 -0.027820357899848831 0 -0.077668975178724509 -0.024078573046198169 0 -0.096769769074122519 -0.04215743587210824 0 -0.077668975178724509 -0.024078573046198169 0 -0.083558777677868248 -0.036985518736449702 0 -0.096769769074122519 -0.04215743587210824 0 -0.077668975178724509 -0.024078573046198169 0 -0.090746651292135133 -0.048651172445365112 0 -0.088481073739883592 -0.043344290748051233 0 -0.082849096915408454 -0.045583035938281863 0 -0.096769769074122519 -0.04215743587210824 0 -0.090746651292135133 -0.048651172445365112 0 -0.088481073739883592 -0.043344290748051233 0 -0.077668975178724509 -0.024078573046198169 0 -0.083558777677868248 -0.036985518736449702 0 -0.075465350998538308 -0.032772608828030472 0 -0.083558777677868248 -0.036985518736449702 0 -0.082849096915408454 -0.045583035938281863 0 -0.075062618692292638 -0.040325846155841297 0 -0.088481073739883592 -0.043344290748051233 0 -0.083558777677868248 -0.036985518736449702 0 -0.082849096915408454 -0.045583035938281863 0 -0.082849096915408454 -0.045583035938281863 0 -0.078067002861142085 -0.04575568247049161 0 -0.075062618692292638 -0.040325846155841297 0 -0.078708481780428496 -0.048351416250899462 0 -0.082849096915408454 -0.045583035938281863 0 -0.078067002861142085 -0.04575568247049161 0 -0.075647814056438792 -0.048762431536943832 0 -0.055132092173872667 -0.033226800447327051 0 -0.078067002861142085 -0.04575568247049161 0 -0.075062618692292638 -0.040325846155841297 0 -0.075647814056438792 -0.048762431536943832 0 -0.075062618692292638 -0.040325846155841297 0 -0.075465350998538308 -0.032772608828030472 0 -0.055132092173872667 -0.033226800447327051 0 -0.075647814056438792 -0.048762431536943832 0 -0.061428605263776047 -0.046553119166432878 0 -0.055132092173872667 -0.033226800447327051 0 -0.075062618692292638 -0.040325846155841297 0 -0.075647814056438792 -0.048762431536943832 0 -0.055132092173872667 -0.033226800447327051 0 -0.083558777677868248 -0.036985518736449702 0 -0.075062618692292638 -0.040325846155841297 0 -0.075465350998538308 -0.032772608828030472 0 -0.065722760200719738 -0.052253177456942877 0 -0.075647814056438792 -0.048762431536943832 0 -0.061428605263776047 -0.046553119166432878 0 -0.065722760200719738 -0.052253177456942877 0 -0.07269306068786438 -0.052406879740114577 0 -0.069833853901725543 -0.055329661047837618 0 -0.065722760200719738 -0.052253177456942877 0 -0.07269306068786438 -0.052406879740114577 0 -0.075647814056438792 -0.048762431536943832 0 -0.07269306068786438 -0.052406879740114577 0 -0.073703714626092445 -0.056102563442451223 0 -0.069833853901725543 -0.055329661047837618 0 -0.07269306068786438 -0.052406879740114577 0 -0.077079431972146645 -0.050953682142663811 0 -0.073703714626092445 -0.056102563442451223 0 -0.078708481780428496 -0.048351416250899462 0 -0.077079431972146645 -0.050953682142663811 0 -0.075647814056438792 -0.048762431536943832 0 -0.07269306068786438 -0.052406879740114577 0 -0.077079431972146645 -0.050953682142663811 0 -0.075647814056438792 -0.048762431536943832 0 -0.078708481780428496 -0.048351416250899462 0 -0.078067002861142085 -0.04575568247049161 0 -0.075647814056438792 -0.048762431536943832 0 -0.078535685693175539 -0.061573663464548622 0 -0.073703714626092445 -0.056102563442451223 0 -0.070308423821052124 -0.061023041189074957 0 -0.078535685693175539 -0.061573663464548622 0 -0.077079431972146645 -0.050953682142663811 0 -0.073703714626092445 -0.056102563442451223 0 -0.073703714626092445 -0.056102563442451223 0 -0.070308423821052124 -0.061023041189074957 0 -0.069833853901725543 -0.055329661047837618 0 -0.070308423821052124 -0.061023041189074957 0 -0.064391701294429504 -0.057679717025484439 0 -0.060830035872249492 -0.064558057335980773 0 -0.070308423821052124 -0.061023041189074957 0 -0.069833853901725543 -0.055329661047837618 0 -0.064391701294429504 -0.057679717025484439 0 -0.065722760200719738 -0.052253177456942877 0 -0.069833853901725543 -0.055329661047837618 0 -0.064391701294429504 -0.057679717025484439 0 -0.064391701294429504 -0.057679717025484439 0 -0.055978059279945473 -0.056388284161067823 0 -0.060830035872249492 -0.064558057335980773 0 -0.065722760200719738 -0.052253177456942877 0 -0.064391701294429504 -0.057679717025484439 0 -0.055978059279945473 -0.056388284161067823 0 -0.055978059279945473 -0.056388284161067823 0 -0.041230103293456458 -0.058058117591144771 0 -0.049479852383656611 -0.067543566470139038 0 -0.055978059279945473 -0.056388284161067823 0 -0.049741921456861897 -0.048697412542500033 0 -0.041230103293456458 -0.058058117591144771 0 -0.055978059279945473 -0.056388284161067823 0 -0.049741921456861897 -0.048697412542500033 0 -0.061428605263776047 -0.046553119166432878 0 -0.065722760200719738 -0.052253177456942877 0 -0.055978059279945473 -0.056388284161067823 0 -0.061428605263776047 -0.046553119166432878 0 -0.049741921456861897 -0.048697412542500033 0 -0.061428605263776047 -0.046553119166432878 0 -0.055132092173872667 -0.033226800447327051 0 -0.049741921456861897 -0.048697412542500033 0 -0.055132092173872667 -0.033226800447327051 0 -0.032367863380537598 -0.044965144957206583 0 -0.055132092173872667 -0.033226800447327051 0 -0.032367863380537598 -0.044965144957206583 0 -0.055132092173872667 -0.033226800447327051 0 -0.032367863380537598 -0.044965144957206583 0 -0.031233838643279398 -0.031193199633022049 0 -0.049741921456861897 -0.048697412542500033 0 -0.032367863380537598 -0.044965144957206583 0 -0.041230103293456458 -0.058058117591144771 0 -0.032367863380537598 -0.044965144957206583 0 -0.041230103293456458 -0.058058117591144771 0 -0.026902341230915561 -0.060374551747501753 0 -0.05822397002114936 -0.01402224463886402 0 -0.057836245250817257 0.0062936453779614283 0 -0.044352522143416888 0.0050416822031405977 0 -0.05822397002114936 -0.01402224463886402 0 -0.037926632337863607 -0.0068783069258408786 0 -0.05822397002114936 -0.01402224463886402 0 -0.068462160169621672 0.0025537029525893409 0 -0.057836245250817257 0.0062936453779614283 0 -0.055132092173872667 -0.033226800447327051 0 -0.05822397002114936 -0.01402224463886402 0 -0.036243114184870161 -0.018923029155399909 0 -0.055132092173872667 -0.033226800447327051 0 -0.036243114184870161 -0.018923029155399909 0 -0.031233838643279398 -0.031193199633022049 0 -0.055132092173872667 -0.033226800447327051 0 -0.036243114184870161 -0.018923029155399909 0 -0.05822397002114936 -0.01402224463886402 0 -0.036243114184870161 -0.018923029155399909 0 -0.037926632337863607 -0.0068783069258408786 0 -0.05822397002114936 -0.01402224463886402 0 -0.037926632337863607 -0.0068783069258408786 0 -0.044352522143416888 0.0050416822031405977 0 -0.036243114184870161 -0.018923029155399909 0 -0.037926632337863607 -0.0068783069258408786 0 -0.029121832422534862 -0.0067169982391169078 0 -0.037926632337863607 -0.0068783069258408786 0 -0.029539197120254941 -0.00051038393964639519 0 -0.029121832422534862 -0.0067169982391169078 0 -0.037926632337863607 -0.0068783069258408786 0 -0.029539197120254941 -0.00051038393964639519 0 -0.03614709390981162 0.0015378833132510439 0 -0.037926632337863607 -0.0068783069258408786 0 -0.03614709390981162 0.0015378833132510439 0 -0.044352522143416888 0.0050416822031405977 0 -0.036243114184870161 -0.018923029155399909 0 -0.017354136195868258 -0.0046192578634720229 0 -0.01819617019275287 -0.0061732580868559192 0 -0.036243114184870161 -0.018923029155399909 0 -0.017354136195868258 -0.0046192578634720229 0 -0.029121832422534862 -0.0067169982391169078 0 -0.036243114184870161 -0.018923029155399909 0 -0.01819617019275287 -0.0061732580868559192 0 -0.019637671972121611 -0.02148729346067638 0 -0.036243114184870161 -0.018923029155399909 0 -0.017354136195868258 -0.0046192578634720229 0 -0.017354136195868258 -0.0046192578634720229 0 -0.01819617019275287 -0.0061732580868559192 0 -0.013500839782477779 -0.0058155532537883976 0 -0.017354136195868258 -0.0046192578634720229 0 -0.01819617019275287 -0.0061732580868559192 0 -0.017354136195868258 -0.0046192578634720229 0 -0.024546082273817361 -0.00265401331122534 0 -0.02112675760807068 0.0030512678310729521 0 -0.024546082273817361 -0.00265401331122534 0 -0.029539197120254941 -0.00051038393964639519 0 -0.02112675760807068 0.0030512678310729521 0 -0.017354136195868258 -0.0046192578634720229 0 -0.024546082273817361 -0.00265401331122534 0 -0.029121832422534862 -0.0067169982391169078 0 -0.024546082273817361 -0.00265401331122534 0 -0.029539197120254941 -0.00051038393964639519 0 -0.029121832422534862 -0.0067169982391169078 0 -0.01819617019275287 -0.0061732580868559192 0 -0.019637671972121611 -0.02148729346067638 0 -0.011008321991883009 -0.01057962122923565 0 -0.036243114184870161 -0.018923029155399909 0 -0.019637671972121611 -0.02148729346067638 0 -0.031233838643279398 -0.031193199633022049 0 -0.019637671972121611 -0.02148729346067638 0 -0.031233838643279398 -0.031193199633022049 0 -0.016064986363794779 -0.036441041599790329 0 -0.0077215053668332834 -0.022860670268973711 0 -0.00118246574067416 -0.01324232368796026 0 0.0015263381015913891 -0.033415212413580753 0 -0.0077215053668332834 -0.022860670268973711 0 -0.016064986363794779 -0.036441041599790329 0 0.0015263381015913891 -0.033415212413580753 0 -0.019637671972121611 -0.02148729346067638 0 -0.0077215053668332834 -0.022860670268973711 0 -0.016064986363794779 -0.036441041599790329 0 -0.019637671972121611 -0.02148729346067638 0 -0.0077215053668332834 -0.022860670268973711 0 -0.011008321991883009 -0.01057962122923565 0 -0.011008321991883009 -0.01057962122923565 0 -0.00118246574067416 -0.01324232368796026 0 -0.0072764121498596901 -0.0036325873431357339 0 -0.0077215053668332834 -0.022860670268973711 0 -0.011008321991883009 -0.01057962122923565 0 -0.00118246574067416 -0.01324232368796026 0 -0.00118246574067416 -0.01324232368796026 0 -0.0072764121498596901 -0.0036325873431357339 0 0.0012074066645448821 -0.00065723147797176382 0 -0.0072764121498596901 -0.0036325873431357339 0 -0.013500839782477779 -0.0058155532537883976 0 -0.013607688627124061 -0.00178224205395049 0 -0.011008321991883009 -0.01057962122923565 0 -0.0072764121498596901 -0.0036325873431357339 0 -0.013500839782477779 -0.0058155532537883976 0 -0.01819617019275287 -0.0061732580868559192 0 -0.011008321991883009 -0.01057962122923565 0 -0.013500839782477779 -0.0058155532537883976 0 -0.017354136195868258 -0.0046192578634720229 0 -0.013500839782477779 -0.0058155532537883976 0 -0.013607688627124061 -0.00178224205395049 0 -0.017354136195868258 -0.0046192578634720229 0 -0.013607688627124061 -0.00178224205395049 0 -0.032367863380537598 -0.044965144957206583 0 -0.0096036345872028556 -0.056703489467087059 0 -0.032367863380537598 -0.044965144957206583 0 -0.026902341230915561 -0.060374551747501753 0 -0.0096036345872028556 -0.056703489467087059 0 -0.032367863380537598 -0.044965144957206583 0 -0.031233838643279398 -0.031193199633022049 0 -0.016064986363794779 -0.036441041599790329 0 -0.032367863380537598 -0.044965144957206583 0 -0.016064986363794779 -0.036441041599790329 0 -0.0096036345872028556 -0.056703489467087059 0 -0.0096036345872028556 -0.056703489467087059 0 0.0015263381015913891 -0.033415212413580753 0 -0.016064986363794779 -0.036441041599790329 0 -0.0096036345872028556 -0.056703489467087059 0 0.0015263381015913891 -0.033415212413580753 0 -0.0096036345872028556 -0.056703489467087059 0 0.0015263381015913891 -0.033415212413580753 0 0.007298405735321048 -0.051477207310420908 0 -0.0096036345872028556 -0.056703489467087059 0 0.0052181775422467033 -0.064346337314722044 0 -0.0096036345872028556 -0.056703489467087059 0 -0.0043762627118289626 -0.071729097412358583 0 0.0052181775422467033 -0.064346337314722044 0 -0.0043762627118289626 -0.071729097412358583 0 -0.0092607301227374331 -0.088572496961274561 0 -0.01646375475339092 -0.071057556949349329 0 -0.0096036345872028556 -0.056703489467087059 0 -0.01646375475339092 -0.071057556949349329 0 -0.0096036345872028556 -0.056703489467087059 0 -0.0043762627118289626 -0.071729097412358583 0 -0.01646375475339092 -0.071057556949349329 0 -0.0092607301227374331 -0.088572496961274561 0 -0.00044729776891663488 -0.1011528385718463 0 0.0042106568376920582 -0.081118225430045127 0 -0.0043762627118289626 -0.071729097412358583 0 -0.0092607301227374331 -0.088572496961274561 0 0.0042106568376920582 -0.081118225430045127 0 -0.0092607301227374331 -0.088572496961274561 0 -0.037642160748979789 -0.094071739377162955 0 -0.0092607301227374331 -0.088572496961274561 0 -0.023323874919582349 -0.085411624431610003 0 -0.01646375475339092 -0.071057556949349329 0 -0.0092607301227374331 -0.088572496961274561 0 -0.023323874919582349 -0.085411624431610003 0 -0.037642160748979789 -0.094071739377162955 0 -0.023323874919582349 -0.085411624431610003 0 -0.01646375475339092 -0.071057556949349329 0 -0.023323874919582349 -0.085411624431610003 0 -0.01646375475339092 -0.071057556949349329 0 -0.034846350139989962 -0.07108844977272101 0 -0.026902341230915561 -0.060374551747501753 0 -0.01646375475339092 -0.071057556949349329 0 -0.034846350139989962 -0.07108844977272101 0 -0.026902341230915561 -0.060374551747501753 0 -0.0096036345872028556 -0.056703489467087059 0 -0.01646375475339092 -0.071057556949349329 0 -0.041230103293456458 -0.058058117591144771 0 -0.026902341230915561 -0.060374551747501753 0 -0.034846350139989962 -0.07108844977272101 0 -0.041230103293456458 -0.058058117591144771 0 -0.034846350139989962 -0.07108844977272101 0 -0.049479852383656611 -0.067543566470139038 0 -0.034846350139989962 -0.07108844977272101 0 -0.048784805137481749 -0.081200653853927454 0 -0.049479852383656611 -0.067543566470139038 0 -0.023323874919582349 -0.085411624431610003 0 -0.034846350139989962 -0.07108844977272101 0 -0.036149297736508462 -0.082943116858855345 0 -0.023323874919582349 -0.085411624431610003 0 -0.036149297736508462 -0.082943116858855345 0 -0.037642160748979789 -0.094071739377162955 0 -0.036149297736508462 -0.082943116858855345 0 -0.048784805137481749 -0.081200653853927454 0 -0.037642160748979789 -0.094071739377162955 0 -0.034846350139989962 -0.07108844977272101 0 -0.036149297736508462 -0.082943116858855345 0 -0.048784805137481749 -0.081200653853927454 0 -0.063732237529271596 -0.080733089011810297 0 -0.066023591375222151 -0.09957098179305135 0 -0.048784805137481749 -0.081200653853927454 0 -0.066023591375222151 -0.09957098179305135 0 -0.048784805137481749 -0.081200653853927454 0 -0.037642160748979789 -0.094071739377162955 0 -0.063732237529271596 -0.080733089011810297 0 -0.048784805137481749 -0.081200653853927454 0 -0.058000192015007383 -0.073011667883306972 0 -0.055978059279945473 -0.056388284161067823 0 -0.060830035872249492 -0.064558057335980773 0 -0.049479852383656611 -0.067543566470139038 0 -0.058000192015007383 -0.073011667883306972 0 -0.060830035872249492 -0.064558057335980773 0 -0.049479852383656611 -0.067543566470139038 0 -0.067174029152377468 -0.071022972744677337 0 -0.058000192015007383 -0.073011667883306972 0 -0.060830035872249492 -0.064558057335980773 0 -0.048784805137481749 -0.081200653853927454 0 -0.058000192015007383 -0.073011667883306972 0 -0.049479852383656611 -0.067543566470139038 0 -0.069466171350113709 -0.1135628440840601 0 -0.054384952187449757 -0.110609208962567 0 -0.059238207921678762 -0.13024384051707169 0 -0.054384952187449757 -0.110609208962567 0 -0.059238207921678762 -0.13024384051707169 0 -0.032945469352336033 -0.1293562392835419 0 -0.066023591375222151 -0.09957098179305135 0 -0.054384952187449757 -0.110609208962567 0 -0.037642160748979789 -0.094071739377162955 0 -0.066023591375222151 -0.09957098179305135 0 -0.037642160748979789 -0.094071739377162955 0 -0.054384952187449757 -0.110609208962567 0 -0.037642160748979789 -0.094071739377162955 0 -0.035661083064217503 -0.11124856921529409 0 -0.054384952187449757 -0.110609208962567 0 -0.032945469352336033 -0.1293562392835419 0 -0.054384952187449757 -0.110609208962567 0 -0.035661083064217503 -0.11124856921529409 0 -0.032945469352336033 -0.1293562392835419 0 -0.01767174996810443 -0.1109570892379047 0 -0.012892303975098539 -0.12786221844410239 0 -0.032945469352336033 -0.1293562392835419 0 -0.035661083064217503 -0.11124856921529409 0 -0.01767174996810443 -0.1109570892379047 0 -0.032945469352336033 -0.1293562392835419 0 -0.0092607301227374331 -0.088572496961274561 0 -0.037642160748979789 -0.094071739377162955 0 -0.01767174996810443 -0.1109570892379047 0 -0.037642160748979789 -0.094071739377162955 0 -0.035661083064217503 -0.11124856921529409 0 -0.01767174996810443 -0.1109570892379047 0 -0.01767174996810443 -0.1109570892379047 0 -0.00044729776891663488 -0.1011528385718463 0 0.005085065621477718 -0.1151057880332567 0 -0.0092607301227374331 -0.088572496961274561 0 -0.01767174996810443 -0.1109570892379047 0 -0.00044729776891663488 -0.1011528385718463 0 -0.01767174996810443 -0.1109570892379047 0 -0.012892303975098539 -0.12786221844410239 0 0.005085065621477718 -0.1151057880332567 0 -0.012892303975098539 -0.12786221844410239 0 0.0027021066240326768 -0.1317064378292063 0 0.005085065621477718 -0.1151057880332567 0 -0.011505986517222349 -0.14810326960451681 0 -0.033736789854580403 -0.16402697950055581 0 -0.032945469352336033 -0.1293562392835419 0 -0.012892303975098539 -0.12786221844410239 0 -0.011505986517222349 -0.14810326960451681 0 0.0027021066240326768 -0.1317064378292063 0 -0.011505986517222349 -0.14810326960451681 0 -0.032945469352336033 -0.1293562392835419 0 -0.012892303975098539 -0.12786221844410239 0 -0.011505986517222349 -0.14810326960451681 0 -0.032945469352336033 -0.1293562392835419 0 -0.011505986517222349 -0.14810326960451681 0 0.009933496317892726 -0.16685029992549011 0 -0.011505986517222349 -0.14810326960451681 0 -0.0085976242789068957 -0.177408956520272 0 0.009933496317892726 -0.16685029992549011 0 -0.0085976242789068957 -0.177408956520272 0 -0.003739977245034012 -0.19168309442994089 0 -0.02712874487570623 -0.18796761311505439 0 -0.0085976242789068957 -0.177408956520272 0 -0.003739977245034012 -0.19168309442994089 0 0.0034571977838801569 -0.17702496179755631 0 -0.0085976242789068957 -0.177408956520272 0 -0.02712874487570623 -0.18796761311505439 0 -0.0085976242789068957 -0.177408956520272 0 -0.033736789854580403 -0.16402697950055581 0 -0.02712874487570623 -0.18796761311505439 0 -0.011505986517222349 -0.14810326960451681 0 -0.0085976242789068957 -0.177408956520272 0 -0.033736789854580403 -0.16402697950055581 0 -0.033736789854580403 -0.16402697950055581 0 -0.041678182321736049 -0.18065303021324261 0 -0.02712874487570623 -0.18796761311505439 0 -0.033736789854580403 -0.16402697950055581 0 -0.041678182321736049 -0.18065303021324261 0 -0.060187329084152079 -0.17209125852752319 0 -0.041678182321736049 -0.18065303021324261 0 -0.060187329084152079 -0.17209125852752319 0 -0.045659865472505487 -0.198526269709837 0 -0.060187329084152079 -0.17209125852752319 0 -0.045659865472505487 -0.198526269709837 0 -0.033736789854580403 -0.16402697950055581 0 -0.060187329084152079 -0.17209125852752319 0 -0.051699405537506939 -0.14899167338562519 0 -0.060187329084152079 -0.17209125852752319 0 -0.051699405537506939 -0.14899167338562519 0 -0.072389231474787458 -0.1492400490994332 0 -0.051699405537506939 -0.14899167338562519 0 -0.059238207921678762 -0.13024384051707169 0 -0.072389231474787458 -0.1492400490994332 0 -0.033736789854580403 -0.16402697950055581 0 -0.051699405537506939 -0.14899167338562519 0 -0.032945469352336033 -0.1293562392835419 0 -0.051699405537506939 -0.14899167338562519 0 -0.059238207921678762 -0.13024384051707169 0 -0.032945469352336033 -0.1293562392835419 0 -0.025857267464119819 -0.25506418495113531 0 -0.02368513365757598 -0.23851275990414511 0 -0.036167443228362108 -0.24337299090061551 0 -0.01269776775011346 -0.25850600500130039 0 -0.02368513365757598 -0.23851275990414511 0 -0.01269776775011346 -0.25850600500130039 0 -0.02368513365757598 -0.23851275990414511 0 -0.01082738352359053 -0.24876902592697839 0 -0.02368513365757598 -0.23851275990414511 0 -0.0067432183097289999 -0.239968376336817 0 -0.0090267388034834407 -0.23007068799598671 0 -0.02368513365757598 -0.23851275990414511 0 -0.01082738352359053 -0.24876902592697839 0 -0.0067432183097289999 -0.239968376336817 0 -0.01082738352359053 -0.24876902592697839 0 -0.0029313858115674811 -0.24854412401401971 0 -0.0067432183097289999 -0.239968376336817 0 -0.0029313858115674811 -0.24854412401401971 0 -0.0067432183097289999 -0.239968376336817 0 0.0026199421412959989 -0.2430643023623929 0 -0.0067432183097289999 -0.239968376336817 0 0.0026199421412959989 -0.2430643023623929 0 0.0017465435191736189 -0.23378549097037141 0 -0.0067432183097289999 -0.239968376336817 0 -0.0090267388034834407 -0.23007068799598671 0 0.0017465435191736189 -0.23378549097037141 0 -0.0090267388034834407 -0.23007068799598671 0 -0.00080535468136348092 -0.21995366459000901 0 -0.01839049427805331 -0.2195873775130934 0 -0.0090267388034834407 -0.23007068799598671 0 -0.00080535468136348092 -0.21995366459000901 0 0.0017465435191736189 -0.23378549097037141 0 -0.02368513365757598 -0.23851275990414511 0 -0.0090267388034834407 -0.23007068799598671 0 -0.01839049427805331 -0.2195873775130934 0 -0.02368513365757598 -0.23851275990414511 0 -0.01839049427805331 -0.2195873775130934 0 -0.034672499565036527 -0.2185195148069887 0 -0.02368513365757598 -0.23851275990414511 0 -0.034672499565036527 -0.2185195148069887 0 -0.01839049427805331 -0.2195873775130934 0 -0.027127261386640289 -0.20489204062456881 0 -0.034672499565036527 -0.2185195148069887 0 -0.01839049427805331 -0.2195873775130934 0 -0.027127261386640289 -0.20489204062456881 0 -0.01084996336714465 -0.20584666152463099 0 -0.00080535468136348092 -0.21995366459000901 0 -0.01839049427805331 -0.2195873775130934 0 -0.01084996336714465 -0.20584666152463099 0 -0.00080535468136348092 -0.21995366459000901 0 -0.01084996336714465 -0.20584666152463099 0 0.01016515501406726 -0.20926501301563591 0 -0.01084996336714465 -0.20584666152463099 0 -0.003739977245034012 -0.19168309442994089 0 0.01016515501406726 -0.20926501301563591 0 -0.01084996336714465 -0.20584666152463099 0 -0.003739977245034012 -0.19168309442994089 0 -0.02712874487570623 -0.18796761311505439 0 -0.027127261386640289 -0.20489204062456881 0 -0.01084996336714465 -0.20584666152463099 0 -0.02712874487570623 -0.18796761311505439 0 -0.041678182321736049 -0.18065303021324261 0 -0.02712874487570623 -0.18796761311505439 0 -0.045659865472505487 -0.198526269709837 0 -0.02712874487570623 -0.18796761311505439 0 -0.045659865472505487 -0.198526269709837 0 -0.027127261386640289 -0.20489204062456881 0 -0.02712874487570623 -0.18796761311505439 0 -0.045659865472505487 -0.198526269709837 0 -0.045659865472505487 -0.198526269709837 0 -0.067682806497079445 -0.21107449474949169 0 -0.062708331551170268 -0.19442045911658551 0 -0.060187329084152079 -0.17209125852752319 0 -0.045659865472505487 -0.198526269709837 0 -0.062708331551170268 -0.19442045911658551 0 -0.045659865472505487 -0.198526269709837 0 -0.067682806497079445 -0.21107449474949169 0 -0.045659865472505487 -0.198526269709837 0 -0.054546183461555722 -0.22015285450131489 0 -0.067682806497079445 -0.21107449474949169 0 -0.045659865472505487 -0.198526269709837 0 -0.034672499565036527 -0.2185195148069887 0 -0.054546183461555722 -0.22015285450131489 0 -0.045659865472505487 -0.198526269709837 0 -0.034672499565036527 -0.2185195148069887 0 -0.027127261386640289 -0.20489204062456881 0 -0.045659865472505487 -0.198526269709837 0 -0.034672499565036527 -0.2185195148069887 0 -0.034672499565036527 -0.2185195148069887 0 -0.044145410485190079 -0.23242073182379891 0 -0.054546183461555722 -0.22015285450131489 0 -0.02368513365757598 -0.23851275990414511 0 -0.034672499565036527 -0.2185195148069887 0 -0.044145410485190079 -0.23242073182379891 0 -0.044145410485190079 -0.23242073182379891 0 -0.054546183461555722 -0.22015285450131489 0 -0.061280333386656921 -0.23284462843810469 0 -0.061280333386656921 -0.23284462843810469 0 -0.050191684441297867 -0.2485850187836515 0 -0.071591358857016049 -0.2429226102204386 0 -0.050191684441297867 -0.2485850187836515 0 -0.071591358857016049 -0.2429226102204386 0 -0.056939497423126581 -0.24878681181634871 0 -0.050191684441297867 -0.2485850187836515 0 -0.071591358857016049 -0.2429226102204386 0 -0.044145410485190079 -0.23242073182379891 0 -0.061280333386656921 -0.23284462843810469 0 -0.050191684441297867 -0.2485850187836515 0 -0.041398382443623198 -0.25192549838374201 0 -0.056939497423126581 -0.24878681181634871 0 -0.050191684441297867 -0.2485850187836515 0 -0.044145410485190079 -0.23242073182379891 0 -0.050191684441297867 -0.2485850187836515 0 -0.036167443228362108 -0.24337299090061551 0 -0.02368513365757598 -0.23851275990414511 0 -0.044145410485190079 -0.23242073182379891 0 -0.036167443228362108 -0.24337299090061551 0 -0.025857267464119819 -0.25506418495113531 0 -0.050191684441297867 -0.2485850187836515 0 -0.036167443228362108 -0.24337299090061551 0 -0.097628444613881649 -0.25834262822693399 0 -0.087470553331264578 -0.24262075389877999 0 -0.077955776651182085 -0.24454236002529731 0 -0.087470553331264578 -0.24262075389877999 0 -0.087928467376508473 -0.23859976953689591 0 -0.1005617376665941 -0.23997685579502359 0 -0.087928467376508473 -0.23859976953689591 0 -0.07453604668454375 -0.2421434382925548 0 -0.07383618536286593 -0.22753148747966839 0 -0.087928467376508473 -0.23859976953689591 0 -0.07453604668454375 -0.2421434382925548 0 -0.087928467376508473 -0.23859976953689591 0 -0.077955776651182085 -0.24454236002529731 0 -0.07453604668454375 -0.2421434382925548 0 -0.087470553331264578 -0.24262075389877999 0 -0.087928467376508473 -0.23859976953689591 0 -0.077955776651182085 -0.24454236002529731 0 -0.087470553331264578 -0.24262075389877999 0 -0.077955776651182085 -0.24454236002529731 0 -0.056939497423126581 -0.24878681181634871 0 -0.077955776651182085 -0.24454236002529731 0 -0.071591358857016049 -0.2429226102204386 0 -0.056939497423126581 -0.24878681181634871 0 -0.077955776651182085 -0.24454236002529731 0 -0.077955776651182085 -0.24454236002529731 0 -0.071591358857016049 -0.2429226102204386 0 -0.07453604668454375 -0.2421434382925548 0 -0.077955776651182085 -0.24454236002529731 0 -0.07453604668454375 -0.2421434382925548 0 -0.071591358857016049 -0.2429226102204386 0 -0.07453604668454375 -0.2421434382925548 0 -0.056939497423126581 -0.24878681181634871 0 -0.071591358857016049 -0.2429226102204386 0 -0.061280333386656921 -0.23284462843810469 0 -0.071591358857016049 -0.2429226102204386 0 -0.07453604668454375 -0.2421434382925548 0 -0.061280333386656921 -0.23284462843810469 0 -0.07453604668454375 -0.2421434382925548 0 -0.07383618536286593 -0.22753148747966839 0 -0.089705747521653334 -0.22362271978914661 0 -0.067682806497079445 -0.21107449474949169 0 -0.054546183461555722 -0.22015285450131489 0 -0.061280333386656921 -0.23284462843810469 0 -0.07383618536286593 -0.22753148747966839 0 -0.054546183461555722 -0.22015285450131489 0 -0.07383618536286593 -0.22753148747966839 0 -0.067682806497079445 -0.21107449474949169 0 -0.061280333386656921 -0.23284462843810469 0 -0.07453604668454375 -0.2421434382925548 0 -0.07383618536286593 -0.22753148747966839 0 -0.087928467376508473 -0.23859976953689591 0 -0.07383618536286593 -0.22753148747966839 0 -0.089705747521653334 -0.22362271978914661 0 -0.087928467376508473 -0.23859976953689591 0 -0.089705747521653334 -0.22362271978914661 0 -0.1005617376665941 -0.23997685579502359 0 -0.089705747521653334 -0.22362271978914661 0 -0.067682806497079445 -0.21107449474949169 0 -0.089705747521653334 -0.22362271978914661 0 -0.084027466008495671 -0.20735524824550181 0 -0.09921486728828334 -0.20109800384388701 0 -0.089705747521653334 -0.22362271978914661 0 -0.084027466008495671 -0.20735524824550181 0 -0.067682806497079445 -0.21107449474949169 0 -0.084027466008495671 -0.20735524824550181 0 -0.067682806497079445 -0.21107449474949169 0 -0.079506442726966622 -0.19362577459948219 0 -0.067682806497079445 -0.21107449474949169 0 -0.062708331551170268 -0.19442045911658551 0 -0.079506442726966622 -0.19362577459948219 0 -0.079506442726966622 -0.19362577459948219 0 -0.09921486728828334 -0.20109800384388701 0 -0.089369030920126963 -0.1732707743578942 0 -0.084027466008495671 -0.20735524824550181 0 -0.079506442726966622 -0.19362577459948219 0 -0.09921486728828334 -0.20109800384388701 0 -0.09921486728828334 -0.20109800384388701 0 -0.1156293974943295 -0.1822747327150937 0 -0.1210853022939376 -0.205467400633562 0 -0.1156293974943295 -0.1822747327150937 0 -0.13505851963374399 -0.18906788910329131 0 -0.09921486728828334 -0.20109800384388701 0 -0.1210853022939376 -0.205467400633562 0 -0.1156293974943295 -0.1822747327150937 0 -0.1210853022939376 -0.205467400633562 0 -0.10755849924533691 -0.2178899443088799 0 -0.11989889803527461 -0.22145143588075511 0 -0.1210853022939376 -0.205467400633562 0 -0.11989889803527461 -0.22145143588075511 0 -0.13086176299679239 -0.21746526838305219 0 -0.089705747521653334 -0.22362271978914661 0 -0.09921486728828334 -0.20109800384388701 0 -0.10755849924533691 -0.2178899443088799 0 -0.09921486728828334 -0.20109800384388701 0 -0.1210853022939376 -0.205467400633562 0 -0.10755849924533691 -0.2178899443088799 0 -0.089705747521653334 -0.22362271978914661 0 -0.11172868854622731 -0.23617094482880149 0 -0.1005617376665941 -0.23997685579502359 0 -0.089705747521653334 -0.22362271978914661 0 -0.11172868854622731 -0.23617094482880149 0 -0.089705747521653334 -0.22362271978914661 0 -0.10755849924533691 -0.2178899443088799 0 -0.11172868854622731 -0.23617094482880149 0 -0.11989889803527461 -0.22145143588075511 0 -0.11172868854622731 -0.23617094482880149 0 -0.127825895831608 -0.22987551408160201 0 -0.10755849924533691 -0.2178899443088799 0 -0.11989889803527461 -0.22145143588075511 0 -0.11172868854622731 -0.23617094482880149 0 -0.13218950310710981 -0.25272660122947088 0 -0.1218823470606431 -0.24640061544388489 0 -0.1098930818979398 -0.24798588601512411 0 -0.11172868854622731 -0.23617094482880149 0 -0.13375162957080131 -0.24871916986845621 0 -0.11172868854622731 -0.23617094482880149 0 -0.1218823470606431 -0.24640061544388489 0 -0.13375162957080131 -0.24871916986845621 0 -0.11172868854622731 -0.23617094482880149 0 -0.13375162957080131 -0.24871916986845621 0 -0.127825895831608 -0.22987551408160201 0 -0.11172868854622731 -0.23617094482880149 0 -0.1218823470606431 -0.24640061544388489 0 -0.1098930818979398 -0.24798588601512411 0 -0.097628444613881649 -0.25834262822693399 0 -0.087470553331264578 -0.24262075389877999 0 -0.1098930818979398 -0.24798588601512411 0 -0.087470553331264578 -0.24262075389877999 0 -0.1098930818979398 -0.24798588601512411 0 -0.1005617376665941 -0.23997685579502359 0 -0.087470553331264578 -0.24262075389877999 0 -0.1098930818979398 -0.24798588601512411 0 -0.11172868854622731 -0.23617094482880149 0 -0.1098930818979398 -0.24798588601512411 0 -0.1005617376665941 -0.23997685579502359 0 -0.087470553331264578 -0.24262075389877999 0 -0.1005617376665941 -0.23997685579502359 0 -0.072389231474787458 -0.1492400490994332 0 -0.089369030920126963 -0.1732707743578942 0 -0.096011965921864201 -0.14265464397282879 0 -0.077516787342341589 -0.1242022911324857 0 -0.093262550211769629 -0.1231040070079162 0 -0.096011965921864201 -0.14265464397282879 0 -0.077516787342341589 -0.1242022911324857 0 -0.072389231474787458 -0.1492400490994332 0 -0.096011965921864201 -0.14265464397282879 0 -0.077516787342341589 -0.1242022911324857 0 -0.059238207921678762 -0.13024384051707169 0 -0.072389231474787458 -0.1492400490994332 0 -0.060187329084152079 -0.17209125852752319 0 -0.072389231474787458 -0.1492400490994332 0 -0.089369030920126963 -0.1732707743578942 0 -0.060187329084152079 -0.17209125852752319 0 -0.079506442726966622 -0.19362577459948219 0 -0.089369030920126963 -0.1732707743578942 0 -0.060187329084152079 -0.17209125852752319 0 -0.062708331551170268 -0.19442045911658551 0 -0.079506442726966622 -0.19362577459948219 0 -0.089369030920126963 -0.1732707743578942 0 -0.1107512355661594 -0.16096683979900789 0 -0.096011965921864201 -0.14265464397282879 0 -0.09921486728828334 -0.20109800384388701 0 -0.089369030920126963 -0.1732707743578942 0 -0.1156293974943295 -0.1822747327150937 0 -0.089369030920126963 -0.1732707743578942 0 -0.1156293974943295 -0.1822747327150937 0 -0.1107512355661594 -0.16096683979900789 0 -0.1156293974943295 -0.1822747327150937 0 -0.13204392770037571 -0.1634514615863005 0 -0.1156293974943295 -0.1822747327150937 0 -0.1107512355661594 -0.16096683979900789 0 -0.13204392770037571 -0.1634514615863005 0 -0.1107512355661594 -0.16096683979900789 0 -0.12070185579410091 -0.1431825863629223 0 -0.13204392770037571 -0.1634514615863005 0 -0.1107512355661594 -0.16096683979900789 0 -0.12070185579410091 -0.1431825863629223 0 -0.096011965921864201 -0.14265464397282879 0 -0.1071147179002416 -0.1244919901550422 0 -0.12070185579410091 -0.1431825863629223 0 -0.096011965921864201 -0.14265464397282879 0 -0.093262550211769629 -0.1231040070079162 0 -0.1071147179002416 -0.1244919901550422 0 -0.096011965921864201 -0.14265464397282879 0 -0.1071147179002416 -0.1244919901550422 0 -0.12070185579410091 -0.1431825863629223 0 -0.1306137014228527 -0.1212095633787966 0 -0.12070185579410091 -0.1431825863629223 0 -0.14845845790642179 -0.14462819045750719 0 -0.1306137014228527 -0.1212095633787966 0 -0.14845845790642179 -0.14462819045750719 0 -0.1306137014228527 -0.1212095633787966 0 -0.15036797716661271 -0.14243845987679379 0 -0.14845845790642179 -0.14462819045750719 0 -0.1306137014228527 -0.1212095633787966 0 -0.15406265534163929 -0.1294064941378926 0 -0.15036797716661271 -0.14243845987679379 0 -0.1306137014228527 -0.1212095633787966 0 -0.15406265534163929 -0.1294064941378926 0 -0.15036797716661271 -0.14243845987679379 0 -0.1564494690737798 -0.13971242061594299 0 -0.1543278084257422 -0.1453912472931165 0 -0.14845845790642179 -0.14462819045750719 0 -0.15894149653025619 -0.15184230729274609 0 -0.15519343748037609 -0.14309809199123349 0 -0.15036797716661271 -0.14243845987679379 0 -0.1564494690737798 -0.13971242061594299 0 -0.1543278084257422 -0.1453912472931165 0 -0.15519343748037609 -0.14309809199123349 0 -0.15036797716661271 -0.14243845987679379 0 -0.1543278084257422 -0.1453912472931165 0 -0.15036797716661271 -0.14243845987679379 0 -0.14845845790642179 -0.14462819045750719 0 -0.15036797716661271 -0.14243845987679379 0 -0.14845845790642179 -0.14462819045750719 0 -0.12070185579410091 -0.1431825863629223 0 -0.14845845790642179 -0.14462819045750719 0 -0.13204392770037571 -0.1634514615863005 0 -0.14845845790642179 -0.14462819045750719 0 -0.13204392770037571 -0.1634514615863005 0 -0.13204392770037571 -0.1634514615863005 0 -0.1475860696211248 -0.17640031700015249 0 -0.13505851963374399 -0.18906788910329131 0 -0.1156293974943295 -0.1822747327150937 0 -0.13204392770037571 -0.1634514615863005 0 -0.13505851963374399 -0.18906788910329131 0 -0.1475860696211248 -0.17640031700015249 0 -0.1655722477793394 -0.1670875310098065 0 -0.15496537504316019 -0.19429807729602311 0 -0.1475860696211248 -0.17640031700015249 0 -0.13505851963374399 -0.18906788910329131 0 -0.15496537504316019 -0.19429807729602311 0 -0.1475860696211248 -0.17640031700015249 0 -0.14862352044039201 -0.16347018067920821 0 -0.1655722477793394 -0.1670875310098065 0 -0.14845845790642179 -0.14462819045750719 0 -0.13204392770037571 -0.1634514615863005 0 -0.14862352044039201 -0.16347018067920821 0 -0.14845845790642179 -0.14462819045750719 0 -0.14862352044039201 -0.16347018067920821 0 -0.1655722477793394 -0.1670875310098065 0 -0.13204392770037571 -0.1634514615863005 0 -0.1475860696211248 -0.17640031700015249 0 -0.14862352044039201 -0.16347018067920821 0 -0.1655722477793394 -0.1670875310098065 0 -0.1716614177265566 -0.15146656102038991 0 -0.1655722477793394 -0.1670875310098065 0 -0.15894149653025619 -0.15184230729274609 0 -0.1716614177265566 -0.15146656102038991 0 -0.1655722477793394 -0.1670875310098065 0 -0.17557921295501691 -0.18022020591375351 0 -0.1689483943248192 -0.19264195369377959 0 -0.1655722477793394 -0.1670875310098065 0 -0.15496537504316019 -0.19429807729602311 0 -0.1689483943248192 -0.19264195369377959 0 -0.1655722477793394 -0.1670875310098065 0 -0.15496537504316019 -0.19429807729602311 0 -0.1655722477793394 -0.1670875310098065 0 -0.17557921295501691 -0.18022020591375351 0 -0.17557921295501691 -0.18022020591375351 0 -0.18239484980351819 -0.16464781923938721 0 -0.1907059301477185 -0.18468107337543721 0 -0.1655722477793394 -0.1670875310098065 0 -0.17557921295501691 -0.18022020591375351 0 -0.18239484980351819 -0.16464781923938721 0 -0.1655722477793394 -0.1670875310098065 0 -0.18239484980351819 -0.16464781923938721 0 -0.1716614177265566 -0.15146656102038991 0 -0.18239484980351819 -0.16464781923938721 0 -0.1716614177265566 -0.15146656102038991 0 -0.1894311146879058 -0.1465309504005988 0 -0.17775058767377289 -0.13584559103097291 0 -0.1716614177265566 -0.15146656102038991 0 -0.1894311146879058 -0.1465309504005988 0 -0.17775058767377289 -0.13584559103097291 0 -0.1716614177265566 -0.15146656102038991 0 -0.17775058767377289 -0.13584559103097291 0 -0.1894311146879058 -0.1465309504005988 0 -0.17775058767377289 -0.13584559103097291 0 -0.19823449762692411 -0.13229999761030051 0 -0.18534812722118199 -0.1163550958908785 0 -0.17775058767377289 -0.13584559103097291 0 -0.18534812722118199 -0.1163550958908785 0 -0.15406265534163929 -0.1294064941378926 0 -0.16394560233522651 -0.1386698702264933 0 -0.15606779039194271 -0.1160101434681408 0 -0.17775058767377289 -0.13584559103097291 0 -0.16394560233522651 -0.1386698702264933 0 -0.15606779039194271 -0.1160101434681408 0 -0.17775058767377289 -0.13584559103097291 0 -0.15606779039194271 -0.1160101434681408 0 -0.15406265534163929 -0.1294064941378926 0 -0.16394560233522651 -0.1386698702264933 0 -0.1564494690737798 -0.13971242061594299 0 -0.16394560233522651 -0.1386698702264933 0 -0.1564494690737798 -0.13971242061594299 0 -0.15962849525536979 -0.1448502401790808 0 -0.14845845790642179 -0.14462819045750719 0 -0.1655722477793394 -0.1670875310098065 0 -0.14845845790642179 -0.14462819045750719 0 -0.1655722477793394 -0.1670875310098065 0 -0.15894149653025619 -0.15184230729274609 0 -0.15519343748037609 -0.14309809199123349 0 -0.1564494690737798 -0.13971242061594299 0 -0.15962849525536979 -0.1448502401790808 0 -0.1543278084257422 -0.1453912472931165 0 -0.15519343748037609 -0.14309809199123349 0 -0.15962849525536979 -0.1448502401790808 0 -0.1543278084257422 -0.1453912472931165 0 -0.15962849525536979 -0.1448502401790808 0 -0.15894149653025619 -0.15184230729274609 0 -0.15962849525536979 -0.1448502401790808 0 -0.15894149653025619 -0.15184230729274609 0 -0.1716614177265566 -0.15146656102038991 0 -0.17775058767377289 -0.13584559103097291 0 -0.16394560233522651 -0.1386698702264933 0 -0.1716614177265566 -0.15146656102038991 0 -0.16394560233522651 -0.1386698702264933 0 -0.15962849525536979 -0.1448502401790808 0 -0.1716614177265566 -0.15146656102038991 0 -0.1534429259631987 -0.25724555178864622 0 -0.15289321433053751 -0.246830478479277 0 -0.1378886282313006 -0.2381062402767252 0 -0.1534429259631987 -0.25724555178864622 0 -0.1378886282313006 -0.2381062402767252 0 -0.15348527020851541 -0.23913552791147211 0 -0.1378886282313006 -0.2381062402767252 0 -0.15430752157141919 -0.22794821467022949 0 -0.15289321433053751 -0.246830478479277 0 -0.15348527020851541 -0.23913552791147211 0 -0.1601832428566283 -0.24550858739866141 0 -0.15289321433053751 -0.246830478479277 0 -0.15348527020851541 -0.23913552791147211 0 -0.1378886282313006 -0.2381062402767252 0 -0.1459019403517107 -0.25564217047089421 0 -0.13375162957080131 -0.24871916986845621 0 -0.1378886282313006 -0.2381062402767252 0 -0.13375162957080131 -0.24871916986845621 0 -0.1378886282313006 -0.2381062402767252 0 -0.127825895831608 -0.22987551408160201 0 -0.13375162957080131 -0.24871916986845621 0 -0.1378886282313006 -0.2381062402767252 0 -0.13218950310710981 -0.25272660122947088 0 -0.1218823470606431 -0.24640061544388489 0 -0.13375162957080131 -0.24871916986845621 0 -0.127825895831608 -0.22987551408160201 0 -0.14435850230698141 -0.22150862358223991 0 -0.13086176299679239 -0.21746526838305219 0 -0.1378886282313006 -0.2381062402767252 0 -0.127825895831608 -0.22987551408160201 0 -0.14435850230698141 -0.22150862358223991 0 -0.11989889803527461 -0.22145143588075511 0 -0.127825895831608 -0.22987551408160201 0 -0.13086176299679239 -0.21746526838305219 0 -0.1378886282313006 -0.2381062402767252 0 -0.14435850230698141 -0.22150862358223991 0 -0.14435850230698141 -0.22150862358223991 0 -0.15430752157141919 -0.22794821467022949 0 -0.16410544360365359 -0.21493654602220469 0 -0.1378886282313006 -0.2381062402767252 0 -0.14435850230698141 -0.22150862358223991 0 -0.15430752157141919 -0.22794821467022949 0 -0.14435850230698141 -0.22150862358223991 0 -0.15496537504316019 -0.19429807729602311 0 -0.14435850230698141 -0.22150862358223991 0 -0.1373527607074172 -0.20563907323320921 0 -0.15496537504316019 -0.19429807729602311 0 -0.14435850230698141 -0.22150862358223991 0 -0.15496537504316019 -0.19429807729602311 0 -0.16410544360365359 -0.21493654602220469 0 -0.14435850230698141 -0.22150862358223991 0 -0.1373527607074172 -0.20563907323320921 0 -0.13086176299679239 -0.21746526838305219 0 -0.1210853022939376 -0.205467400633562 0 -0.1373527607074172 -0.20563907323320921 0 -0.13086176299679239 -0.21746526838305219 0 -0.1210853022939376 -0.205467400633562 0 -0.1373527607074172 -0.20563907323320921 0 -0.13505851963374399 -0.18906788910329131 0 -0.1373527607074172 -0.20563907323320921 0 -0.13505851963374399 -0.18906788910329131 0 -0.15496537504316019 -0.19429807729602311 0 -0.1689483943248192 -0.19264195369377959 0 -0.17994482166635981 -0.2014366202218163 0 -0.16410544360365359 -0.21493654602220469 0 -0.15496537504316019 -0.19429807729602311 0 -0.1689483943248192 -0.19264195369377959 0 -0.16410544360365359 -0.21493654602220469 0 -0.17557921295501691 -0.18022020591375351 0 -0.1689483943248192 -0.19264195369377959 0 -0.17994482166635981 -0.2014366202218163 0 -0.17557921295501691 -0.18022020591375351 0 -0.17994482166635981 -0.2014366202218163 0 -0.1907059301477185 -0.18468107337543721 0 -0.17994482166635981 -0.2014366202218163 0 -0.1784102433228649 -0.21681777692650089 0 -0.16410544360365359 -0.21493654602220469 0 -0.17994482166635981 -0.2014366202218163 0 -0.18904495760185211 -0.20873870471059999 0 -0.19252771524915421 -0.19930647688205899 0 -0.17994482166635981 -0.2014366202218163 0 -0.1784102433228649 -0.21681777692650089 0 -0.18904495760185211 -0.20873870471059999 0 -0.1784102433228649 -0.21681777692650089 0 -0.19175951728552271 -0.21959172261586679 0 -0.18904495760185211 -0.20873870471059999 0 -0.15430752157141919 -0.22794821467022949 0 -0.16410544360365359 -0.21493654602220469 0 -0.16877954452522659 -0.2255120540677526 0 -0.15430752157141919 -0.22794821467022949 0 -0.16877954452522659 -0.2255120540677526 0 -0.16324537569009509 -0.2357306359809743 0 -0.15348527020851541 -0.23913552791147211 0 -0.15430752157141919 -0.22794821467022949 0 -0.16324537569009509 -0.2357306359809743 0 -0.16877954452522659 -0.2255120540677526 0 -0.17781387366555559 -0.23090770197000129 0 -0.16324537569009509 -0.2357306359809743 0 -0.1784102433228649 -0.21681777692650089 0 -0.16410544360365359 -0.21493654602220469 0 -0.16877954452522659 -0.2255120540677526 0 -0.1784102433228649 -0.21681777692650089 0 -0.16877954452522659 -0.2255120540677526 0 -0.17781387366555559 -0.23090770197000129 0 -0.1784102433228649 -0.21681777692650089 0 -0.17781387366555559 -0.23090770197000129 0 -0.19175951728552271 -0.21959172261586679 0 -0.17781387366555559 -0.23090770197000129 0 -0.1805311654956796 -0.2411950136452527 0 -0.19410287643929239 -0.23312434657521411 0 -0.17781387366555559 -0.23090770197000129 0 -0.1805311654956796 -0.2411950136452527 0 -0.16955513552828311 -0.24305067226283769 0 -0.17679077873490559 -0.25046109420941731 0 -0.1805311654956796 -0.2411950136452527 0 -0.18863044441395099 -0.24733650333174401 0 -0.17679077873490559 -0.25046109420941731 0 -0.1805311654956796 -0.2411950136452527 0 -0.16955513552828311 -0.24305067226283769 0 -0.16709258238786229 -0.25188408856254202 0 -0.17679077873490559 -0.25046109420941731 0 -0.16955513552828311 -0.24305067226283769 0 -0.16709258238786229 -0.25188408856254202 0 -0.16955513552828311 -0.24305067226283769 0 -0.1601832428566283 -0.24550858739866141 0 -0.17781387366555559 -0.23090770197000129 0 -0.16955513552828311 -0.24305067226283769 0 -0.16324537569009509 -0.2357306359809743 0 -0.16955513552828311 -0.24305067226283769 0 -0.16324537569009509 -0.2357306359809743 0 -0.1601832428566283 -0.24550858739866141 0 -0.15348527020851541 -0.23913552791147211 0 -0.16324537569009509 -0.2357306359809743 0 -0.1601832428566283 -0.24550858739866141 0 -0.1593809120407062 -0.25278805690175971 0 -0.15289321433053751 -0.246830478479277 0 -0.1601832428566283 -0.24550858739866141 0 -0.20565562739327201 -0.24334207984173631 0 -0.19410287643929239 -0.23312434657521411 0 -0.21201774175915139 -0.2290986139018284 0 -0.21472073189145299 -0.25725591714607071 0 -0.20565562739327201 -0.24334207984173631 0 -0.22837296648480071 -0.23789375384220129 0 -0.20565562739327201 -0.24334207984173631 0 -0.21201774175915139 -0.2290986139018284 0 -0.22837296648480071 -0.23789375384220129 0 -0.20565562739327201 -0.24334207984173631 0 -0.18863044441395099 -0.24733650333174401 0 -0.19410287643929239 -0.23312434657521411 0 -0.1805311654956796 -0.2411950136452527 0 -0.18863044441395099 -0.24733650333174401 0 -0.19410287643929239 -0.23312434657521411 0 -0.17781387366555559 -0.23090770197000129 0 -0.19410287643929239 -0.23312434657521411 0 -0.19175951728552271 -0.21959172261586679 0 -0.19410287643929239 -0.23312434657521411 0 -0.19175951728552271 -0.21959172261586679 0 -0.20443040571370949 -0.21985141578154491 0 -0.21201774175915139 -0.2290986139018284 0 -0.20443040571370949 -0.21985141578154491 0 -0.22630383013383959 -0.21240708539258099 0 -0.19410287643929239 -0.23312434657521411 0 -0.21201774175915139 -0.2290986139018284 0 -0.20443040571370949 -0.21985141578154491 0 -0.20157622681128409 -0.2075672839719423 0 -0.21557055542943429 -0.1904257004922347 0 -0.22630383013383959 -0.21240708539258099 0 -0.20157622681128409 -0.2075672839719423 0 -0.22630383013383959 -0.21240708539258099 0 -0.20443040571370949 -0.21985141578154491 0 -0.20157622681128409 -0.2075672839719423 0 -0.22630383013383959 -0.21240708539258099 0 -0.19175951728552271 -0.21959172261586679 0 -0.20443040571370949 -0.21985141578154491 0 -0.20157622681128409 -0.2075672839719423 0 -0.19175951728552271 -0.21959172261586679 0 -0.20157622681128409 -0.2075672839719423 0 -0.19175951728552271 -0.21959172261586679 0 -0.18904495760185211 -0.20873870471059999 0 -0.20157622681128409 -0.2075672839719423 0 -0.18904495760185211 -0.20873870471059999 0 -0.20157622681128409 -0.2075672839719423 0 -0.19252771524915421 -0.19930647688205899 0 -0.17994482166635981 -0.2014366202218163 0 -0.19252771524915421 -0.19930647688205899 0 -0.1907059301477185 -0.18468107337543721 0 -0.20157622681128409 -0.2075672839719423 0 -0.19252771524915421 -0.19930647688205899 0 -0.20187756758401409 -0.19506767240709361 0 -0.19252771524915421 -0.19930647688205899 0 -0.20187756758401409 -0.19506767240709361 0 -0.1907059301477185 -0.18468107337543721 0 -0.20157622681128409 -0.2075672839719423 0 -0.21557055542943429 -0.1904257004922347 0 -0.20187756758401409 -0.19506767240709361 0 -0.21557055542943429 -0.1904257004922347 0 -0.2038146335316797 -0.1820121315948606 0 -0.20157622681128409 -0.2075672839719423 0 -0.20187756758401409 -0.19506767240709361 0 -0.21557055542943429 -0.1904257004922347 0 -0.21557055542943429 -0.1904257004922347 0 -0.23533053747689989 -0.1962925907305976 0 -0.22630383013383959 -0.21240708539258099 0 -0.23533053747689989 -0.1962925907305976 0 -0.25103143345639523 -0.21724688681321891 0 -0.25418198431724581 -0.18809916394242601 0 -0.22630383013383959 -0.21240708539258099 0 -0.25103143345639523 -0.21724688681321891 0 -0.23533053747689989 -0.1962925907305976 0 -0.22630383013383959 -0.21240708539258099 0 -0.25103143345639523 -0.21724688681321891 0 -0.21201774175915139 -0.2290986139018284 0 -0.22630383013383959 -0.21240708539258099 0 -0.22837296648480071 -0.23789375384220129 0 -0.22630383013383959 -0.21240708539258099 0 -0.22837296648480071 -0.23789375384220129 0 -0.25103143345639523 -0.21724688681321891 0 -0.22837296648480071 -0.23789375384220129 0 -0.25431856302814809 -0.24833495949118861 0 -0.25103143345639523 -0.21724688681321891 0 -0.2335542019388327 -0.26090262277066528 0 -0.22837296648480071 -0.23789375384220129 0 -0.25431856302814809 -0.24833495949118861 0 -0.20708483324238849 -0.15128624944667929 0 -0.22647357207813959 -0.15205360930679629 0 -0.2195633859389316 -0.1340578990397249 0 -0.20708483324238849 -0.15128624944667929 0 -0.19823449762692411 -0.13229999761030051 0 -0.2195633859389316 -0.1340578990397249 0 -0.19823449762692411 -0.13229999761030051 0 -0.2195633859389316 -0.1340578990397249 0 -0.21022893699736381 -0.1097241998529486 0 -0.17775058767377289 -0.13584559103097291 0 -0.19823449762692411 -0.13229999761030051 0 -0.1894311146879058 -0.1465309504005988 0 -0.20708483324238849 -0.15128624944667929 0 -0.1894311146879058 -0.1465309504005988 0 -0.19351686899232889 -0.15854259719770419 0 -0.20708483324238849 -0.15128624944667929 0 -0.19823449762692411 -0.13229999761030051 0 -0.1894311146879058 -0.1465309504005988 0 -0.20708483324238849 -0.15128624944667929 0 -0.19351686899232889 -0.15854259719770419 0 -0.19880271024428661 -0.17007658736909009 0 -0.18239484980351819 -0.16464781923938721 0 -0.1894311146879058 -0.1465309504005988 0 -0.19351686899232889 -0.15854259719770419 0 -0.18239484980351819 -0.16464781923938721 0 -0.19351686899232889 -0.15854259719770419 0 -0.19880271024428661 -0.17007658736909009 0 -0.18239484980351819 -0.16464781923938721 0 -0.19880271024428661 -0.17007658736909009 0 -0.1907059301477185 -0.18468107337543721 0 -0.19880271024428661 -0.17007658736909009 0 -0.1907059301477185 -0.18468107337543721 0 -0.2038146335316797 -0.1820121315948606 0 -0.20187756758401409 -0.19506767240709361 0 -0.1907059301477185 -0.18468107337543721 0 -0.2038146335316797 -0.1820121315948606 0 -0.21557055542943429 -0.1904257004922347 0 -0.2038146335316797 -0.1820121315948606 0 -0.21355186476225221 -0.16985639920369799 0 -0.19880271024428661 -0.17007658736909009 0 -0.2038146335316797 -0.1820121315948606 0 -0.21355186476225221 -0.16985639920369799 0 -0.20708483324238849 -0.15128624944667929 0 -0.21355186476225221 -0.16985639920369799 0 -0.22647357207813959 -0.15205360930679629 0 -0.20708483324238849 -0.15128624944667929 0 -0.19880271024428661 -0.17007658736909009 0 -0.21355186476225221 -0.16985639920369799 0 -0.22956488404758479 -0.1732841170125273 0 -0.2435592126657353 -0.1561425335328199 0 -0.22647357207813959 -0.15205360930679629 0 -0.21355186476225221 -0.16985639920369799 0 -0.22956488404758479 -0.1732841170125273 0 -0.22647357207813959 -0.15205360930679629 0 -0.21557055542943429 -0.1904257004922347 0 -0.21355186476225221 -0.16985639920369799 0 -0.22956488404758479 -0.1732841170125273 0 -0.21557055542943429 -0.1904257004922347 0 -0.22956488404758479 -0.1732841170125273 0 -0.21557055542943429 -0.1904257004922347 0 -0.23533053747689989 -0.1962925907305976 0 -0.22956488404758479 -0.1732841170125273 0 -0.23533053747689989 -0.1962925907305976 0 -0.22956488404758479 -0.1732841170125273 0 -0.25418198431724581 -0.18809916394242601 0 -0.22956488404758479 -0.1732841170125273 0 -0.25418198431724581 -0.18809916394242601 0 -0.2565438833259911 -0.1687602707777138 0 -0.22956488404758479 -0.1732841170125273 0 -0.2435592126657353 -0.1561425335328199 0 -0.22956488404758479 -0.1732841170125273 0 -0.2435592126657353 -0.1561425335328199 0 -0.2565438833259911 -0.1687602707777138 0 -0.2435592126657353 -0.1561425335328199 0 -0.22647357207813959 -0.15205360930679629 0 -0.2432602079730701 -0.13485583854350039 0 -0.22647357207813959 -0.15205360930679629 0 -0.2195633859389316 -0.1340578990397249 0 -0.2432602079730701 -0.13485583854350039 0 -0.2195633859389316 -0.1340578990397249 0 -0.2432602079730701 -0.13485583854350039 0 -0.23065476516460279 -0.11957242830579699 0 -0.2432602079730701 -0.13485583854350039 0 -0.2499653418643101 -0.1102460646797562 0 -0.23065476516460279 -0.11957242830579699 0 -0.2499653418643101 -0.1102460646797562 0 -0.2308399038819596 -0.1034577205422559 0 -0.23065476516460279 -0.11957242830579699 0 -0.2308399038819596 -0.1034577205422559 0 -0.25308440776240432 -0.086371671251396109 0 -0.2499653418643101 -0.1102460646797562 0 -0.2308399038819596 -0.1034577205422559 0 -0.25308440776240432 -0.086371671251396109 0 -0.2308399038819596 -0.1034577205422559 0 -0.21022893699736381 -0.1097241998529486 0 -0.21520721362926831 -0.098298511723915558 0 -0.2308399038819596 -0.1034577205422559 0 -0.22013457808717909 -0.089221868029860679 0 -0.21520721362926831 -0.098298511723915558 0 -0.2308399038819596 -0.1034577205422559 0 -0.23065476516460279 -0.11957242830579699 0 -0.21022893699736381 -0.1097241998529486 0 -0.2195633859389316 -0.1340578990397249 0 -0.23065476516460279 -0.11957242830579699 0 -0.21022893699736381 -0.1097241998529486 0 -0.2335598957907816 -0.079883889973887123 0 -0.24475965461883589 -0.059498385283178377 0 -0.2582325144520296 -0.070050845257802419 0 -0.2335598957907816 -0.079883889973887123 0 -0.2582325144520296 -0.070050845257802419 0 -0.25308440776240432 -0.086371671251396109 0 -0.2308399038819596 -0.1034577205422559 0 -0.2335598957907816 -0.079883889973887123 0 -0.25308440776240432 -0.086371671251396109 0 -0.2308399038819596 -0.1034577205422559 0 -0.22013457808717909 -0.089221868029860679 0 -0.2335598957907816 -0.079883889973887123 0 -0.22013457808717909 -0.089221868029860679 0 -0.2335598957907816 -0.079883889973887123 0 -0.21963876375789801 -0.077814354495200549 0 -0.2335598957907816 -0.079883889973887123 0 -0.21595644614104051 -0.065738508165203102 0 -0.24475965461883589 -0.059498385283178377 0 -0.21595644614104051 -0.065738508165203102 0 -0.24475965461883589 -0.059498385283178377 0 -0.2335598957907816 -0.079883889973887123 0 -0.21963876375789801 -0.077814354495200549 0 -0.21595644614104051 -0.065738508165203102 0 -0.20438945881064449 -0.068244458930106389 0 -0.21100771399754009 -0.086966924160961745 0 -0.21595644614104051 -0.065738508165203102 0 -0.21100771399754009 -0.086966924160961745 0 -0.20438945881064449 -0.068244458930106389 0 -0.21595644614104051 -0.065738508165203102 0 -0.21100771399754009 -0.086966924160961745 0 -0.21963876375789801 -0.077814354495200549 0 -0.21595644614104051 -0.065738508165203102 0 -0.21100771399754009 -0.086966924160961745 0 -0.20438945881064449 -0.068244458930106389 0 -0.21595644614104051 -0.065738508165203102 0 -0.20438945881064449 -0.068244458930106389 0 -0.21595644614104051 -0.065738508165203102 0 -0.20711132549122371 -0.057203435059411119 0 -0.20438945881064449 -0.068244458930106389 0 -0.21100771399754009 -0.086966924160961745 0 -0.19851231957361129 -0.085310821531315487 0 -0.22013457808717909 -0.089221868029860679 0 -0.21963876375789801 -0.077814354495200549 0 -0.21100771399754009 -0.086966924160961745 0 -0.22013457808717909 -0.089221868029860679 0 -0.21100771399754009 -0.086966924160961745 0 -0.21520721362926831 -0.098298511723915558 0 -0.21100771399754009 -0.086966924160961745 0 -0.19851231957361129 -0.085310821531315487 0 -0.20550431009004061 -0.095676697317907802 0 -0.21100771399754009 -0.086966924160961745 0 -0.21520721362926831 -0.098298511723915558 0 -0.20550431009004061 -0.095676697317907802 0 -0.19851231957361129 -0.085310821531315487 0 -0.18118326058104209 -0.08825419183970401 0 -0.18409944718507371 -0.07264022497537044 0 -0.19851231957361129 -0.085310821531315487 0 -0.19294566676858971 -0.096864600750783431 0 -0.18118326058104209 -0.08825419183970401 0 -0.19851231957361129 -0.085310821531315487 0 -0.20550431009004061 -0.095676697317907802 0 -0.19294566676858971 -0.096864600750783431 0 -0.20438945881064449 -0.068244458930106389 0 -0.19851231957361129 -0.085310821531315487 0 -0.18409944718507371 -0.07264022497537044 0 -0.20438945881064449 -0.068244458930106389 0 -0.18409944718507371 -0.07264022497537044 0 -0.18769526278089041 -0.057829612445021099 0 -0.20438945881064449 -0.068244458930106389 0 -0.18409944718507371 -0.07264022497537044 0 -0.21022893699736381 -0.1097241998529486 0 -0.21520721362926831 -0.098298511723915558 0 -0.20550431009004061 -0.095676697317907802 0 -0.21022893699736381 -0.1097241998529486 0 -0.20550431009004061 -0.095676697317907802 0 -0.19294566676858971 -0.096864600750783431 0 -0.19294566676858971 -0.096864600750783431 0 -0.18534812722118199 -0.1163550958908785 0 -0.21022893699736381 -0.1097241998529486 0 -0.19294566676858971 -0.096864600750783431 0 -0.18534812722118199 -0.1163550958908785 0 -0.19823449762692411 -0.13229999761030051 0 -0.21022893699736381 -0.1097241998529486 0 -0.18534812722118199 -0.1163550958908785 0 -0.18534812722118199 -0.1163550958908785 0 -0.17423934197139679 -0.1017815859784342 0 -0.15606779039194271 -0.1160101434681408 0 -0.17775058767377289 -0.13584559103097291 0 -0.18534812722118199 -0.1163550958908785 0 -0.15606779039194271 -0.1160101434681408 0 -0.16057304666404501 -0.10079887419961479 0 -0.17423934197139679 -0.1017815859784342 0 -0.15606779039194271 -0.1160101434681408 0 -0.16057304666404501 -0.10079887419961479 0 -0.16746185343044401 -0.091445336260546128 0 -0.1570966781871318 -0.090327755750333361 0 -0.16057304666404501 -0.10079887419961479 0 -0.17423934197139679 -0.1017815859784342 0 -0.16746185343044401 -0.091445336260546128 0 -0.17423934197139679 -0.1017815859784342 0 -0.18118326058104209 -0.08825419183970401 0 -0.16746185343044401 -0.091445336260546128 0 -0.19294566676858971 -0.096864600750783431 0 -0.18534812722118199 -0.1163550958908785 0 -0.17423934197139679 -0.1017815859784342 0 -0.19294566676858971 -0.096864600750783431 0 -0.17423934197139679 -0.1017815859784342 0 -0.18118326058104209 -0.08825419183970401 0 -0.18118326058104209 -0.08825419183970401 0 -0.18409944718507371 -0.07264022497537044 0 -0.16915717098214109 -0.081397787743409861 0 -0.18118326058104209 -0.08825419183970401 0 -0.16746185343044401 -0.091445336260546128 0 -0.16915717098214109 -0.081397787743409861 0 -0.18409944718507371 -0.07264022497537044 0 -0.1702117591297739 -0.06777753321031553 0 -0.16380943555950259 -0.077035991020633382 0 -0.18409944718507371 -0.07264022497537044 0 -0.16380943555950259 -0.077035991020633382 0 -0.16915717098214109 -0.081397787743409861 0 -0.18409944718507371 -0.07264022497537044 0 -0.17187825396406881 -0.057945450019426657 0 -0.18769526278089041 -0.057829612445021099 0 -0.18409944718507371 -0.07264022497537044 0 -0.16380943555950259 -0.077035991020633382 0 -0.18409944718507371 -0.07264022497537044 0 -0.1702117591297739 -0.06777753321031553 0 -0.17187825396406881 -0.057945450019426657 0 -0.16380943555950259 -0.077035991020633382 0 -0.16105989981045041 -0.063488466825831633 0 -0.14595160177326619 -0.062470528310013429 0 -0.1702117591297739 -0.06777753321031553 0 -0.16105989981045041 -0.063488466825831633 0 -0.17187825396406881 -0.057945450019426657 0 -0.1702117591297739 -0.06777753321031553 0 -0.16380943555950259 -0.077035991020633382 0 -0.16105989981045041 -0.063488466825831633 0 -0.16380943555950259 -0.077035991020633382 0 -0.16109871639751261 -0.084134952385501949 0 -0.14796844382834351 -0.080467891152587012 0 -0.16746185343044401 -0.091445336260546128 0 -0.16915717098214109 -0.081397787743409861 0 -0.16109871639751261 -0.084134952385501949 0 -0.16380943555950259 -0.077035991020633382 0 -0.16915717098214109 -0.081397787743409861 0 -0.16109871639751261 -0.084134952385501949 0 -0.16380943555950259 -0.077035991020633382 0 -0.16915717098214109 -0.081397787743409861 0 -0.16746185343044401 -0.091445336260546128 0 -0.16109871639751261 -0.084134952385501949 0 -0.1570966781871318 -0.090327755750333361 0 -0.16380943555950259 -0.077035991020633382 0 -0.14796844382834351 -0.080467891152587012 0 -0.14796844382834351 -0.080467891152587012 0 -0.13497135686491851 -0.078315161523928284 0 -0.1484932433812913 -0.094043062253026791 0 -0.1570966781871318 -0.090327755750333361 0 -0.14796844382834351 -0.080467891152587012 0 -0.1484932433812913 -0.094043062253026791 0 -0.16109871639751261 -0.084134952385501949 0 -0.1570966781871318 -0.090327755750333361 0 -0.14796844382834351 -0.080467891152587012 0 -0.16380943555950259 -0.077035991020633382 0 -0.14796844382834351 -0.080467891152587012 0 -0.14595160177326619 -0.062470528310013429 0 -0.16380943555950259 -0.077035991020633382 0 -0.14595160177326619 -0.062470528310013429 0 -0.14796844382834351 -0.080467891152587012 0 -0.13497135686491851 -0.078315161523928284 0 -0.14595160177326619 -0.062470528310013429 0 -0.1158705629695205 -0.060236298698018297 0 -0.13497135686491851 -0.078315161523928284 0 -0.1158705629695205 -0.060236298698018297 0 -0.13497135686491851 -0.078315161523928284 0 -0.13122182239868371 -0.062231763532838429 0 -0.13497135686491851 -0.078315161523928284 0 -0.13122182239868371 -0.062231763532838429 0 -0.14595160177326619 -0.062470528310013429 0 -0.112702195828283 -0.076339248342475546 0 -0.13497135686491851 -0.078315161523928284 0 -0.13438499311011279 -0.096174695905308166 0 -0.13497135686491851 -0.078315161523928284 0 -0.13438499311011279 -0.096174695905308166 0 -0.1484932433812913 -0.094043062253026791 0 -0.11276894493928399 -0.097790936300085646 0 -0.13438499311011279 -0.096174695905308166 0 -0.1306137014228527 -0.1212095633787966 0 -0.13438499311011279 -0.096174695905308166 0 -0.1306137014228527 -0.1212095633787966 0 -0.15606779039194271 -0.1160101434681408 0 -0.15406265534163929 -0.1294064941378926 0 -0.1306137014228527 -0.1212095633787966 0 -0.15606779039194271 -0.1160101434681408 0 -0.13438499311011279 -0.096174695905308166 0 -0.15606779039194271 -0.1160101434681408 0 -0.1484932433812913 -0.094043062253026791 0 -0.16057304666404501 -0.10079887419961479 0 -0.15606779039194271 -0.1160101434681408 0 -0.1484932433812913 -0.094043062253026791 0 -0.13438499311011279 -0.096174695905308166 0 -0.15606779039194271 -0.1160101434681408 0 -0.16057304666404501 -0.10079887419961479 0 -0.1570966781871318 -0.090327755750333361 0 -0.1484932433812913 -0.094043062253026791 0 -0.14513665439653431 -0.02122229521611602 0 -0.15148395360685291 -0.031475856168514699 0 -0.16129500549156001 -0.024264335985147129 0 -0.14513665439653431 -0.02122229521611602 0 -0.1346415055917565 -0.031432898451717602 0 -0.15148395360685291 -0.031475856168514699 0 -0.14513665439653431 -0.02122229521611602 0 -0.15327979458335059 -0.01391829646419882 0 -0.16129500549156001 -0.024264335985147129 0 -0.1412848112475209 -0.008091449167619497 0 -0.15773416148281841 -0.0035868741371463562 0 -0.14801408494475049 0.0031182785745780331 0 -0.15327979458335059 -0.01391829646419882 0 -0.1412848112475209 -0.008091449167619497 0 -0.15773416148281841 -0.0035868741371463562 0 -0.14513665439653431 -0.02122229521611602 0 -0.15327979458335059 -0.01391829646419882 0 -0.1412848112475209 -0.008091449167619497 0 -0.1236693299605585 -0.0137973575501921 0 -0.1412848112475209 -0.008091449167619497 0 -0.12735709500343681 0.004015926865657337 0 -0.1412848112475209 -0.008091449167619497 0 -0.12735709500343681 0.004015926865657337 0 -0.14801408494475049 0.0031182785745780331 0 -0.1236693299605585 -0.0137973575501921 0 -0.1412848112475209 -0.008091449167619497 0 -0.13426109495296229 -0.02049569832685658 0 -0.1236693299605585 -0.0137973575501921 0 -0.1221370268088495 -0.025998648103035 0 -0.13426109495296229 -0.02049569832685658 0 -0.14513665439653431 -0.02122229521611602 0 -0.1412848112475209 -0.008091449167619497 0 -0.13426109495296229 -0.02049569832685658 0 -0.14513665439653431 -0.02122229521611602 0 -0.13426109495296229 -0.02049569832685658 0 -0.1346415055917565 -0.031432898451717602 0 -0.1221370268088495 -0.025998648103035 0 -0.12530131535501859 -0.034952786400489197 0 -0.1346415055917565 -0.031432898451717602 0 -0.1221370268088495 -0.025998648103035 0 -0.13426109495296229 -0.02049569832685658 0 -0.1346415055917565 -0.031432898451717602 0 -0.12530131535501859 -0.034952786400489197 0 -0.1346415055917565 -0.031432898451717602 0 -0.12809376798702951 -0.047905065599393698 0 -0.1346415055917565 -0.031432898451717602 0 -0.12809376798702951 -0.047905065599393698 0 -0.14629371500633531 -0.042796653234188263 0 -0.12809376798702951 -0.047905065599393698 0 -0.14595160177326619 -0.062470528310013429 0 -0.12809376798702951 -0.047905065599393698 0 -0.14595160177326619 -0.062470528310013429 0 -0.14629371500633531 -0.042796653234188263 0 -0.13122182239868371 -0.062231763532838429 0 -0.12809376798702951 -0.047905065599393698 0 -0.14595160177326619 -0.062470528310013429 0 -0.1158705629695205 -0.060236298698018297 0 -0.13122182239868371 -0.062231763532838429 0 -0.12809376798702951 -0.047905065599393698 0 -0.14595160177326619 -0.062470528310013429 0 -0.14629371500633531 -0.042796653234188263 0 -0.15696853651444401 -0.052603520026387289 0 -0.16105989981045041 -0.063488466825831633 0 -0.14595160177326619 -0.062470528310013429 0 -0.15696853651444401 -0.052603520026387289 0 -0.15148395360685291 -0.031475856168514699 0 -0.14629371500633531 -0.042796653234188263 0 -0.16402488563849801 -0.041062174760887443 0 -0.1346415055917565 -0.031432898451717602 0 -0.15148395360685291 -0.031475856168514699 0 -0.14629371500633531 -0.042796653234188263 0 -0.14629371500633531 -0.042796653234188263 0 -0.16402488563849801 -0.041062174760887443 0 -0.15696853651444401 -0.052603520026387289 0 -0.15148395360685291 -0.031475856168514699 0 -0.16402488563849801 -0.041062174760887443 0 -0.16129500549156001 -0.024264335985147129 0 -0.16402488563849801 -0.041062174760887443 0 -0.17409393016306191 -0.030370879776367592 0 -0.16129500549156001 -0.024264335985147129 0 -0.16402488563849801 -0.041062174760887443 0 -0.15696853651444401 -0.052603520026387289 0 -0.17187825396406881 -0.057945450019426657 0 -0.16105989981045041 -0.063488466825831633 0 -0.15696853651444401 -0.052603520026387289 0 -0.17187825396406881 -0.057945450019426657 0 -0.16402488563849801 -0.041062174760887443 0 -0.17187825396406881 -0.057945450019426657 0 -0.18133558272394029 -0.043618149437272283 0 -0.17187825396406881 -0.057945450019426657 0 -0.18133558272394029 -0.043618149437272283 0 -0.18769526278089041 -0.057829612445021099 0 -0.18133558272394029 -0.043618149437272283 0 -0.17409393016306191 -0.030370879776367592 0 -0.18915768363079971 -0.025155098795753519 0 -0.16402488563849801 -0.041062174760887443 0 -0.18133558272394029 -0.043618149437272283 0 -0.17409393016306191 -0.030370879776367592 0 -0.17409393016306191 -0.030370879776367592 0 -0.17549551533112251 -0.014893414490097231 0 -0.18915768363079971 -0.025155098795753519 0 -0.16129500549156001 -0.024264335985147129 0 -0.16350931143073591 -0.01273440345064396 0 -0.17549551533112251 -0.014893414490097231 0 -0.17409393016306191 -0.030370879776367592 0 -0.16129500549156001 -0.024264335985147129 0 -0.17549551533112251 -0.014893414490097231 0 -0.15327979458335059 -0.01391829646419882 0 -0.16129500549156001 -0.024264335985147129 0 -0.16350931143073591 -0.01273440345064396 0 -0.15773416148281841 -0.0035868741371463562 0 -0.16716832075785379 -0.0032078365625175 0 -0.1619193683370386 0.0066468078375689294 0 -0.15773416148281841 -0.0035868741371463562 0 -0.16350931143073591 -0.01273440345064396 0 -0.16716832075785379 -0.0032078365625175 0 -0.15327979458335059 -0.01391829646419882 0 -0.15773416148281841 -0.0035868741371463562 0 -0.16350931143073591 -0.01273440345064396 0 -0.16350931143073591 -0.01273440345064396 0 -0.16716832075785379 -0.0032078365625175 0 -0.17549551533112251 -0.014893414490097231 0 -0.17549551533112251 -0.014893414490097231 0 -0.18154179604087481 -0.0036104187285780349 0 -0.18915768363079971 -0.025155098795753519 0 -0.18154179604087481 -0.0036104187285780349 0 -0.18915768363079971 -0.025155098795753519 0 -0.17549551533112251 -0.014893414490097231 0 -0.17584419881677341 0.0071523107965592754 0 -0.17549551533112251 -0.014893414490097231 0 -0.18154179604087481 -0.0036104187285780349 0 -0.17584419881677341 0.0071523107965592754 0 -0.16716832075785379 -0.0032078365625175 0 -0.17549551533112251 -0.014893414490097231 0 -0.17584419881677341 0.0071523107965592754 0 -0.18154179604087481 -0.0036104187285780349 0 -0.19066530249761049 -0.0041303576494283751 0 -0.18915768363079971 -0.025155098795753519 0 -0.18154179604087481 -0.0036104187285780349 0 -0.19066530249761049 -0.0041303576494283751 0 -0.18717715497560061 0.0062623078557712403 0 -0.19066530249761049 -0.0041303576494283751 0 -0.1989264366345522 -0.0080023544535597537 0 -0.18915768363079971 -0.025155098795753519 0 -0.19066530249761049 -0.0041303576494283751 0 -0.1989264366345522 -0.0080023544535597537 0 -0.1965234412062255 0.0098537758749781944 0 -0.1989264366345522 -0.0080023544535597537 0 -0.2007918169376324 -0.0191738513677071 0 -0.20680177871376751 -0.0119671669755851 0 -0.18915768363079971 -0.025155098795753519 0 -0.2007918169376324 -0.0191738513677071 0 -0.21013076049929519 -0.028334228638799381 0 -0.1989264366345522 -0.0080023544535597537 0 -0.18915768363079971 -0.025155098795753519 0 -0.2007918169376324 -0.0191738513677071 0 -0.2007918169376324 -0.0191738513677071 0 -0.21013076049929519 -0.028334228638799381 0 -0.20680177871376751 -0.0119671669755851 0 -0.21013076049929519 -0.028334228638799381 0 -0.21702438745170211 -0.0043907958627755336 0 -0.21921501925093501 -0.017985606360015789 0 -0.21013076049929519 -0.028334228638799381 0 -0.21702438745170211 -0.0043907958627755336 0 -0.21013076049929519 -0.028334228638799381 0 -0.22271521407306469 -0.037269361340154371 0 -0.21921501925093501 -0.017985606360015789 0 -0.21013076049929519 -0.028334228638799381 0 -0.21702438745170211 -0.0043907958627755336 0 -0.20680177871376751 -0.0119671669755851 0 -0.1989264366345522 -0.0080023544535597537 0 -0.20680177871376751 -0.0119671669755851 0 -0.20713549204565579 6.5395444916274768e-05 0 -0.21702438745170211 -0.0043907958627755336 0 -0.20680177871376751 -0.0119671669755851 0 -0.20713549204565579 6.5395444916274768e-05 0 -0.20438945881064449 -0.068244458930106389 0 -0.1967735712207245 -0.046699778862929052 0 -0.20438945881064449 -0.068244458930106389 0 -0.18769526278089041 -0.057829612445021099 0 -0.1967735712207245 -0.046699778862929052 0 -0.20438945881064449 -0.068244458930106389 0 -0.1967735712207245 -0.046699778862929052 0 -0.20711132549122371 -0.057203435059411119 0 -0.18133558272394029 -0.043618149437272283 0 -0.18769526278089041 -0.057829612445021099 0 -0.1967735712207245 -0.046699778862929052 0 -0.18133558272394029 -0.043618149437272283 0 -0.18915768363079971 -0.025155098795753519 0 -0.1967735712207245 -0.046699778862929052 0 -0.18915768363079971 -0.025155098795753519 0 -0.1967735712207245 -0.046699778862929052 0 -0.18915768363079971 -0.025155098795753519 0 -0.21013076049929519 -0.028334228638799381 0 -0.1967735712207245 -0.046699778862929052 0 -0.21013076049929519 -0.028334228638799381 0 -0.21132582579248671 -0.048130994279405613 0 -0.22271521407306469 -0.037269361340154371 0 -0.21013076049929519 -0.028334228638799381 0 -0.1967735712207245 -0.046699778862929052 0 -0.21132582579248671 -0.048130994279405613 0 -0.21595644614104051 -0.065738508165203102 0 -0.21132582579248671 -0.048130994279405613 0 -0.22271521407306469 -0.037269361340154371 0 -0.21595644614104051 -0.065738508165203102 0 -0.21132582579248671 -0.048130994279405613 0 -0.20711132549122371 -0.057203435059411119 0 -0.1967735712207245 -0.046699778862929052 0 -0.21132582579248671 -0.048130994279405613 0 -0.20711132549122371 -0.057203435059411119 0 -0.21595644614104051 -0.065738508165203102 0 -0.2284172135094342 -0.053659916570315727 0 -0.24475965461883589 -0.059498385283178377 0 -0.21595644614104051 -0.065738508165203102 0 -0.2284172135094342 -0.053659916570315727 0 -0.22271521407306469 -0.037269361340154371 0 -0.21595644614104051 -0.065738508165203102 0 -0.22271521407306469 -0.037269361340154371 0 -0.2284172135094342 -0.053659916570315727 0 -0.22271521407306469 -0.037269361340154371 0 -0.23903543051913109 -0.043198085603962481 0 -0.22271521407306469 -0.037269361340154371 0 -0.23903543051913109 -0.043198085603962481 0 -0.24161885061771041 -0.026720350447010301 0 -0.23903543051913109 -0.043198085603962481 0 -0.24161885061771041 -0.026720350447010301 0 -0.25766621977661042 -0.038842414379153638 0 -0.23903543051913109 -0.043198085603962481 0 -0.24475965461883589 -0.059498385283178377 0 -0.25766621977661042 -0.038842414379153638 0 -0.2284172135094342 -0.053659916570315727 0 -0.23903543051913109 -0.043198085603962481 0 -0.24475965461883589 -0.059498385283178377 0 -0.22947398200509031 -0.0088002145151058891 0 -0.22867745033346079 0.0038692188645070222 0 -0.2401015516947359 0.00075261550232862703 0 -0.21702438745170211 -0.0043907958627755336 0 -0.22947398200509031 -0.0088002145151058891 0 -0.22867745033346079 0.0038692188645070222 0 -0.21702438745170211 -0.0043907958627755336 0 -0.22947398200509031 -0.0088002145151058891 0 -0.21921501925093501 -0.017985606360015789 0 -0.22271521407306469 -0.037269361340154371 0 -0.22947398200509031 -0.0088002145151058891 0 -0.21921501925093501 -0.017985606360015789 0 -0.22271521407306469 -0.037269361340154371 0 -0.22947398200509031 -0.0088002145151058891 0 -0.22271521407306469 -0.037269361340154371 0 -0.22947398200509031 -0.0088002145151058891 0 -0.24161885061771041 -0.026720350447010301 0 -0.22947398200509031 -0.0088002145151058891 0 -0.24161885061771041 -0.026720350447010301 0 -0.2437457614006571 -0.011962382738850049 0 -0.24161885061771041 -0.026720350447010301 0 -0.2437457614006571 -0.011962382738850049 0 -0.2598032925822476 -0.0188915667982569 0 -0.22947398200509031 -0.0088002145151058891 0 -0.2437457614006571 -0.011962382738850049 0 -0.2401015516947359 0.00075261550232862703 0 -0.2437457614006571 -0.011962382738850049 0 -0.25267499080189931 -0.0034516002120552492 0 -0.2401015516947359 0.00075261550232862703 0 -0.25267499080189931 -0.0034516002120552492 0 -0.2598032925822476 -0.0188915667982569 0 -0.26909988492935111 -0.0018655285383734981 0 -0.2437457614006571 -0.011962382738850049 0 -0.25267499080189931 -0.0034516002120552492 0 -0.2598032925822476 -0.0188915667982569 0 -0.2598032925822476 -0.0188915667982569 0 -0.27267419604841259 -0.026924212746328481 0 -0.25766621977661042 -0.038842414379153638 0 -0.24161885061771041 -0.026720350447010301 0 -0.2598032925822476 -0.0188915667982569 0 -0.25766621977661042 -0.038842414379153638 0 -0.2598032925822476 -0.0188915667982569 0 -0.27267419604841259 -0.026924212746328481 0 -0.27804425228895369 -0.016131696666228459 0 -0.27267419604841259 -0.026924212746328481 0 -0.27804425228895369 -0.016131696666228459 0 -0.28378415359151371 -0.031280105512012511 0 -0.27804425228895369 -0.016131696666228459 0 -0.26909988492935111 -0.0018655285383734981 0 -0.2917254884257266 -0.0017566381736345419 0 -0.2598032925822476 -0.0188915667982569 0 -0.27804425228895369 -0.016131696666228459 0 -0.26909988492935111 -0.0018655285383734981 0 -0.27804425228895369 -0.016131696666228459 0 -0.2917254884257266 -0.0017566381736345419 0 -0.2928870998243559 -0.020527937726781 0 -0.27804425228895369 -0.016131696666228459 0 -0.2928870998243559 -0.020527937726781 0 -0.28378415359151371 -0.031280105512012511 0 -0.2928870998243559 -0.020527937726781 0 -0.29943422057661201 -0.032203920876667472 0 -0.28378415359151371 -0.031280105512012511 0 -0.2928870998243559 -0.020527937726781 0 -0.31144738423897378 -0.02126732740536201 0 -0.29943422057661201 -0.032203920876667472 0 -0.31144738423897378 -0.02126732740536201 0 -0.31110423911055801 -0.035316851109560482 0 -0.29943422057661201 -0.032203920876667472 0 -0.2917254884257266 -0.0017566381736345419 0 -0.31144738423897378 -0.02126732740536201 0 -0.31177688145040278 0.0050359958776742568 0 -0.2917254884257266 -0.0017566381736345419 0 -0.2928870998243559 -0.020527937726781 0 -0.31144738423897378 -0.02126732740536201 0 -0.2917254884257266 -0.0017566381736345419 0 -0.31144738423897378 -0.02126732740536201 0 -0.30323190850646392 -0.052883144282766713 0 -0.3023660715744253 -0.047018139519123002 0 -0.29757341552329353 -0.05219957266967655 0 -0.29931176789370939 -0.061629941742321552 0 -0.30659897303184058 -0.057135789817405573 0 -0.30728911182784302 -0.064893595009923935 0 -0.30323190850646392 -0.052883144282766713 0 -0.29931176789370939 -0.061629941742321552 0 -0.30659897303184058 -0.057135789817405573 0 -0.30323190850646392 -0.052883144282766713 0 -0.29757341552329353 -0.05219957266967655 0 -0.29931176789370939 -0.061629941742321552 0 -0.30659897303184058 -0.057135789817405573 0 -0.30728911182784302 -0.064893595009923935 0 -0.31405483352543062 -0.056831087900065053 0 -0.30323190850646392 -0.052883144282766713 0 -0.3023660715744253 -0.047018139519123002 0 -0.31025625293594222 -0.050033124508212908 0 -0.30659897303184058 -0.057135789817405573 0 -0.31025625293594222 -0.050033124508212908 0 -0.31405483352543062 -0.056831087900065053 0 -0.30323190850646392 -0.052883144282766713 0 -0.30659897303184058 -0.057135789817405573 0 -0.31025625293594222 -0.050033124508212908 0 -0.3023660715744253 -0.047018139519123002 0 -0.31110423911055801 -0.035316851109560482 0 -0.29943422057661201 -0.032203920876667472 0 -0.3023660715744253 -0.047018139519123002 0 -0.29943422057661201 -0.032203920876667472 0 -0.29166722635019171 -0.038853801873014321 0 -0.29943422057661201 -0.032203920876667472 0 -0.29166722635019171 -0.038853801873014321 0 -0.28378415359151371 -0.031280105512012511 0 -0.3023660715744253 -0.047018139519123002 0 -0.29166722635019171 -0.038853801873014321 0 -0.28390051605192418 -0.042754285685484159 0 -0.29166722635019171 -0.038853801873014321 0 -0.28378415359151371 -0.031280105512012511 0 -0.28390051605192418 -0.042754285685484159 0 -0.3023660715744253 -0.047018139519123002 0 -0.28390051605192418 -0.042754285685484159 0 -0.27356286309663053 -0.053258262401150697 0 -0.3023660715744253 -0.047018139519123002 0 -0.27356286309663053 -0.053258262401150697 0 -0.29757341552329353 -0.05219957266967655 0 -0.27356286309663053 -0.053258262401150697 0 -0.27532891164284878 -0.069285621960536392 0 -0.29757341552329353 -0.05219957266967655 0 -0.27532891164284878 -0.069285621960536392 0 -0.3023660715744253 -0.047018139519123002 0 -0.29757341552329353 -0.05219957266967655 0 -0.27356286309663053 -0.053258262401150697 0 -0.29757341552329353 -0.05219957266967655 0 -0.29931176789370939 -0.061629941742321552 0 -0.27532891164284878 -0.069285621960536392 0 -0.27267419604841259 -0.026924212746328481 0 -0.27375437843427658 -0.039043607324579933 0 -0.25766621977661042 -0.038842414379153638 0 -0.27356286309663053 -0.053258262401150697 0 -0.27375437843427658 -0.039043607324579933 0 -0.25766621977661042 -0.038842414379153638 0 -0.28378415359151371 -0.031280105512012511 0 -0.28390051605192418 -0.042754285685484159 0 -0.27375437843427658 -0.039043607324579933 0 -0.27267419604841259 -0.026924212746328481 0 -0.28378415359151371 -0.031280105512012511 0 -0.27375437843427658 -0.039043607324579933 0 -0.28390051605192418 -0.042754285685484159 0 -0.27356286309663053 -0.053258262401150697 0 -0.27375437843427658 -0.039043607324579933 0 -0.24475965461883589 -0.059498385283178377 0 -0.27356286309663053 -0.053258262401150697 0 -0.2582325144520296 -0.070050845257802419 0 -0.24475965461883589 -0.059498385283178377 0 -0.27356286309663053 -0.053258262401150697 0 -0.24475965461883589 -0.059498385283178377 0 -0.27356286309663053 -0.053258262401150697 0 -0.25766621977661042 -0.038842414379153638 0 -0.2582325144520296 -0.070050845257802419 0 -0.25308440776240432 -0.086371671251396109 0 -0.27532891164284878 -0.069285621960536392 0 -0.25308440776240432 -0.086371671251396109 0 -0.27532891164284878 -0.069285621960536392 0 -0.25308440776240432 -0.086371671251396109 0 -0.27361062541114611 -0.085405998149086934 0 -0.26907394573302829 -0.10103393024372311 0 -0.27361062541114611 -0.085405998149086934 0 -0.26907394573302829 -0.10103393024372311 0 -0.28494676303449051 -0.09097811142482605 0 -0.25308440776240432 -0.086371671251396109 0 -0.27361062541114611 -0.085405998149086934 0 -0.27532891164284878 -0.069285621960536392 0 -0.27356286309663053 -0.053258262401150697 0 -0.2582325144520296 -0.070050845257802419 0 -0.27532891164284878 -0.069285621960536392 0 -0.27361062541114611 -0.085405998149086934 0 -0.27532891164284878 -0.069285621960536392 0 -0.28561909888295839 -0.079360655864953042 0 -0.2432602079730701 -0.13485583854350039 0 -0.2499653418643101 -0.1102460646797562 0 -0.26490928006600228 -0.12397715003998409 0 -0.2499653418643101 -0.1102460646797562 0 -0.26490928006600228 -0.12397715003998409 0 -0.26907394573302829 -0.10103393024372311 0 -0.2499653418643101 -0.1102460646797562 0 -0.25308440776240432 -0.086371671251396109 0 -0.26907394573302829 -0.10103393024372311 0 -0.26907394573302829 -0.10103393024372311 0 -0.28789548083438649 -0.11161882002010511 0 -0.28494676303449051 -0.09097811142482605 0 -0.26490928006600228 -0.12397715003998409 0 -0.28789548083438649 -0.11161882002010511 0 -0.28428672055728371 -0.13281235115180859 0 -0.26490928006600228 -0.12397715003998409 0 -0.26907394573302829 -0.10103393024372311 0 -0.28789548083438649 -0.11161882002010511 0 -0.28789548083438649 -0.11161882002010511 0 -0.28428672055728371 -0.13281235115180859 0 -0.30877835781368662 -0.12931532841693749 0 -0.28789548083438649 -0.11161882002010511 0 -0.29765529442092259 -0.094840601490837839 0 -0.28494676303449051 -0.09097811142482605 0 -0.30761934067920371 -0.1042503242997595 0 -0.29765529442092259 -0.094840601490837839 0 -0.30832877355579341 -0.086934752854072747 0 -0.30761934067920371 -0.1042503242997595 0 -0.30832877355579341 -0.086934752854072747 0 -0.31968159473222052 -0.091584555267719248 0 -0.28789548083438649 -0.11161882002010511 0 -0.30761934067920371 -0.1042503242997595 0 -0.29765529442092259 -0.094840601490837839 0 -0.28789548083438649 -0.11161882002010511 0 -0.30761934067920371 -0.1042503242997595 0 -0.30877835781368662 -0.12931532841693749 0 -0.29931176789370939 -0.061629941742321552 0 -0.27532891164284878 -0.069285621960536392 0 -0.29568251685582603 -0.071589435967753134 0 -0.27532891164284878 -0.069285621960536392 0 -0.29568251685582603 -0.071589435967753134 0 -0.28561909888295839 -0.079360655864953042 0 -0.29568251685582603 -0.071589435967753134 0 -0.28561909888295839 -0.079360655864953042 0 -0.29849490204505058 -0.081938345925378783 0 -0.27361062541114611 -0.085405998149086934 0 -0.28561909888295839 -0.079360655864953042 0 -0.28494676303449051 -0.09097811142482605 0 -0.29765529442092259 -0.094840601490837839 0 -0.28494676303449051 -0.09097811142482605 0 -0.29849490204505058 -0.081938345925378783 0 -0.28561909888295839 -0.079360655864953042 0 -0.28494676303449051 -0.09097811142482605 0 -0.29849490204505058 -0.081938345925378783 0 -0.29849490204505058 -0.081938345925378783 0 -0.30832877355579341 -0.086934752854072747 0 -0.3066986514807607 -0.074546990101646726 0 -0.29765529442092259 -0.094840601490837839 0 -0.29849490204505058 -0.081938345925378783 0 -0.30832877355579341 -0.086934752854072747 0 -0.30832877355579341 -0.086934752854072747 0 -0.3066986514807607 -0.074546990101646726 0 -0.31636087034116728 -0.076704125898778439 0 -0.3066986514807607 -0.074546990101646726 0 -0.31411021802290889 -0.069356746280106005 0 -0.31636087034116728 -0.076704125898778439 0 -0.29568251685582603 -0.071589435967753134 0 -0.29849490204505058 -0.081938345925378783 0 -0.3066986514807607 -0.074546990101646726 0 -0.29568251685582603 -0.071589435967753134 0 -0.3066986514807607 -0.074546990101646726 0 -0.30728911182784302 -0.064893595009923935 0 -0.29931176789370939 -0.061629941742321552 0 -0.29568251685582603 -0.071589435967753134 0 -0.30728911182784302 -0.064893595009923935 0 -0.3066986514807607 -0.074546990101646726 0 -0.30728911182784302 -0.064893595009923935 0 -0.31411021802290889 -0.069356746280106005 0 -0.30728911182784302 -0.064893595009923935 0 -0.31630436981946819 -0.062936971351065629 0 -0.31411021802290889 -0.069356746280106005 0 -0.31630436981946819 -0.062936971351065629 0 -0.31411021802290889 -0.069356746280106005 0 -0.32389808664530562 -0.067702049039115322 0 -0.31630436981946819 -0.062936971351065629 0 -0.32389808664530562 -0.067702049039115322 0 -0.32481687078849097 -0.058022226865728103 0 -0.32389808664530562 -0.067702049039115322 0 -0.3259684841043719 -0.075020057435826168 0 -0.31636087034116728 -0.076704125898778439 0 -0.31411021802290889 -0.069356746280106005 0 -0.32389808664530562 -0.067702049039115322 0 -0.31636087034116728 -0.076704125898778439 0 -0.30832877355579341 -0.086934752854072747 0 -0.32608803180755441 -0.084321365842938284 0 -0.30832877355579341 -0.086934752854072747 0 -0.31968159473222052 -0.091584555267719248 0 -0.32608803180755441 -0.084321365842938284 0 -0.30832877355579341 -0.086934752854072747 0 -0.31636087034116728 -0.076704125898778439 0 -0.32608803180755441 -0.084321365842938284 0 -0.31968159473222052 -0.091584555267719248 0 -0.32608803180755441 -0.084321365842938284 0 -0.3259684841043719 -0.075020057435826168 0 -0.31636087034116728 -0.076704125898778439 0 -0.32608803180755441 -0.084321365842938284 0 -0.31968159473222052 -0.091584555267719248 0 -0.32608803180755441 -0.084321365842938284 0 -0.34030971713070318 -0.087052614945596102 0 -0.32608803180755441 -0.084321365842938284 0 -0.34030971713070318 -0.087052614945596102 0 -0.34745734249292459 -0.081176736816750444 0 -0.32608803180755441 -0.084321365842938284 0 -0.33752694762346008 -0.07135268896247253 0 -0.34745734249292459 -0.081176736816750444 0 -0.32608803180755441 -0.084321365842938284 0 -0.34745734249292459 -0.081176736816750444 0 -0.33752694762346008 -0.07135268896247253 0 -0.3489658634393657 -0.058384012082006782 0 -0.33645864726091979 -0.05858208772264157 0 -0.33752694762346008 -0.07135268896247253 0 -0.3489658634393657 -0.058384012082006782 0 -0.32389808664530562 -0.067702049039115322 0 -0.33752694762346008 -0.07135268896247253 0 -0.33645864726091979 -0.05858208772264157 0 -0.3259684841043719 -0.075020057435826168 0 -0.32608803180755441 -0.084321365842938284 0 -0.33752694762346008 -0.07135268896247253 0 -0.32608803180755441 -0.084321365842938284 0 -0.33752694762346008 -0.07135268896247253 0 -0.32389808664530562 -0.067702049039115322 0 -0.3259684841043719 -0.075020057435826168 0 -0.33752694762346008 -0.07135268896247253 0 -0.32454403747219479 -0.1081839716812668 0 -0.30877835781368662 -0.12931532841693749 0 -0.30761934067920371 -0.1042503242997595 0 -0.32454403747219479 -0.1081839716812668 0 -0.30877835781368662 -0.12931532841693749 0 -0.32454403747219479 -0.1081839716812668 0 -0.33570809008837621 -0.11845594114356341 0 -0.30877835781368662 -0.12931532841693749 0 -0.30761934067920371 -0.1042503242997595 0 -0.31968159473222052 -0.091584555267719248 0 -0.32454403747219479 -0.1081839716812668 0 -0.34030971713070318 -0.087052614945596102 0 -0.32454403747219479 -0.1081839716812668 0 -0.34278855512837281 -0.1049294584887832 0 -0.31968159473222052 -0.091584555267719248 0 -0.34030971713070318 -0.087052614945596102 0 -0.32454403747219479 -0.1081839716812668 0 -0.34030971713070318 -0.087052614945596102 0 -0.32454403747219479 -0.1081839716812668 0 -0.32454403747219479 -0.1081839716812668 0 -0.34278855512837281 -0.1049294584887832 0 -0.33570809008837621 -0.11845594114356341 0 -0.33570809008837621 -0.11845594114356341 0 -0.35404294059136687 -0.1217835462641018 0 -0.33688620478323589 -0.13358080389391511 0 -0.34278855512837281 -0.1049294584887832 0 -0.35404294059136687 -0.1217835462641018 0 -0.35932798989652742 -0.1047455147758234 0 -0.34278855512837281 -0.1049294584887832 0 -0.33570809008837621 -0.11845594114356341 0 -0.35404294059136687 -0.1217835462641018 0 -0.34278855512837281 -0.1049294584887832 0 -0.35932798989652742 -0.1047455147758234 0 -0.35079718399447979 -0.093651592615473511 0 -0.34030971713070318 -0.087052614945596102 0 -0.34278855512837281 -0.1049294584887832 0 -0.35079718399447979 -0.093651592615473511 0 -0.35932798989652742 -0.1047455147758234 0 -0.35079718399447979 -0.093651592615473511 0 -0.36132419909701757 -0.091459041133748031 0 -0.35932798989652742 -0.1047455147758234 0 -0.37367929427193591 -0.1014825750548952 0 -0.37212838853434238 -0.11808059788504249 0 -0.35932798989652742 -0.1047455147758234 0 -0.37367929427193591 -0.1014825750548952 0 -0.36132419909701757 -0.091459041133748031 0 -0.35404294059136687 -0.1217835462641018 0 -0.37212838853434238 -0.11808059788504249 0 -0.37028068739271691 -0.13083580994494901 0 -0.35404294059136687 -0.1217835462641018 0 -0.35932798989652742 -0.1047455147758234 0 -0.37212838853434238 -0.11808059788504249 0 -0.35069420168351129 -0.07223638641294812 0 -0.34745734249292459 -0.081176736816750444 0 -0.36882665317829499 -0.078032107790563188 0 -0.36882665317829499 -0.078032107790563188 0 -0.3489658634393657 -0.058384012082006782 0 -0.35069420168351129 -0.07223638641294812 0 -0.36882665317829499 -0.078032107790563188 0 -0.3489658634393657 -0.058384012082006782 0 -0.33752694762346008 -0.07135268896247253 0 -0.35069420168351129 -0.07223638641294812 0 -0.3489658634393657 -0.058384012082006782 0 -0.33752694762346008 -0.07135268896247253 0 -0.35069420168351129 -0.07223638641294812 0 -0.34745734249292459 -0.081176736816750444 0 -0.34745734249292459 -0.081176736816750444 0 -0.36882665317829499 -0.078032107790563188 0 -0.34745734249292459 -0.081176736816750444 0 -0.36132419909701757 -0.091459041133748031 0 -0.36882665317829499 -0.078032107790563188 0 -0.34030971713070318 -0.087052614945596102 0 -0.34745734249292459 -0.081176736816750444 0 -0.35079718399447979 -0.093651592615473511 0 -0.34745734249292459 -0.081176736816750444 0 -0.35079718399447979 -0.093651592615473511 0 -0.36132419909701757 -0.091459041133748031 0 -0.37367929427193591 -0.1014825750548952 0 -0.36132419909701757 -0.091459041133748031 0 -0.36882665317829499 -0.078032107790563188 0 -0.36882665317829499 -0.078032107790563188 0 -0.36862349457690058 -0.057461967220355487 0 -0.3489658634393657 -0.058384012082006782 0 -0.36882665317829499 -0.078032107790563188 0 -0.36862349457690058 -0.057461967220355487 0 -0.37947166312044489 -0.067272628224985004 0 -0.36862349457690058 -0.057461967220355487 0 -0.3489658634393657 -0.058384012082006782 0 -0.36066681755822472 -0.045118253717945672 0 -0.36862349457690058 -0.057461967220355487 0 -0.37355784227175309 -0.045246792894939887 0 -0.3815482533063424 -0.052412606119804542 0 -0.36862349457690058 -0.057461967220355487 0 -0.36066681755822472 -0.045118253717945672 0 -0.37355784227175309 -0.045246792894939887 0 -0.3489658634393657 -0.058384012082006782 0 -0.36066681755822472 -0.045118253717945672 0 -0.3489658634393657 -0.058384012082006782 0 -0.34511111307690212 -0.046137334811030092 0 -0.36066681755822472 -0.045118253717945672 0 -0.35304062521722218 -0.036039659744318157 0 -0.3553139768507978 -0.023567241021099371 0 -0.33371347875736079 -0.040226824134751989 0 -0.34511111307690212 -0.046137334811030092 0 -0.35304062521722218 -0.036039659744318157 0 -0.33371347875736079 -0.040226824134751989 0 -0.34511111307690212 -0.046137334811030092 0 -0.35304062521722218 -0.036039659744318157 0 -0.36066681755822472 -0.045118253717945672 0 -0.36066681755822472 -0.045118253717945672 0 -0.37236777167708351 -0.031852495353884333 0 -0.35304062521722218 -0.036039659744318157 0 -0.37236777167708351 -0.031852495353884333 0 -0.35304062521722218 -0.036039659744318157 0 -0.36066681755822472 -0.045118253717945672 0 -0.37236777167708351 -0.031852495353884333 0 -0.36066681755822472 -0.045118253717945672 0 -0.37355784227175309 -0.045246792894939887 0 -0.37236777167708351 -0.031852495353884333 0 -0.37236777167708351 -0.031852495353884333 0 -0.3739022591900184 -0.02415390189740213 0 -0.36770044175442279 -0.02036669541201027 0 -0.37236777167708351 -0.031852495353884333 0 -0.36770044175442279 -0.02036669541201027 0 -0.3553139768507978 -0.023567241021099371 0 -0.36770044175442279 -0.02036669541201027 0 -0.35847393927256738 -0.010652033510738681 0 -0.38297625517291389 -0.017448943304264108 0 -0.35304062521722218 -0.036039659744318157 0 -0.37236777167708351 -0.031852495353884333 0 -0.3553139768507978 -0.023567241021099371 0 -0.3739022591900184 -0.02415390189740213 0 -0.36770044175442279 -0.02036669541201027 0 -0.38297625517291389 -0.017448943304264108 0 -0.36770044175442279 -0.02036669541201027 0 -0.35847393927256738 -0.010652033510738681 0 -0.3553139768507978 -0.023567241021099371 0 -0.35847393927256738 -0.010652033510738681 0 -0.38297625517291389 -0.017448943304264108 0 -0.37278444596104371 -0.0079457960458173115 0 -0.35847393927256738 -0.010652033510738681 0 -0.38297625517291389 -0.017448943304264108 0 -0.37474494217865062 -0.0022388935110706832 0 -0.37278444596104371 -0.0079457960458173115 0 -0.36307869926690151 -0.00068504054922277494 0 -0.37278444596104371 -0.0079457960458173115 0 -0.36307869926690151 -0.00068504054922277494 0 -0.35847393927256738 -0.010652033510738681 0 -0.36307869926690151 -0.00068504054922277494 0 -0.34718119132474479 -0.01384164818341615 0 -0.36064890389212972 0.0125435277679194 0 -0.36307869926690151 -0.00068504054922277494 0 -0.35847393927256738 -0.010652033510738681 0 -0.34718119132474479 -0.01384164818341615 0 -0.34718119132474479 -0.01384164818341615 0 -0.36064890389212972 0.0125435277679194 0 -0.34718119132474479 -0.01384164818341615 0 -0.3553139768507978 -0.023567241021099371 0 -0.33371347875736079 -0.040226824134751989 0 -0.35847393927256738 -0.010652033510738681 0 -0.34718119132474479 -0.01384164818341615 0 -0.3553139768507978 -0.023567241021099371 0 -0.34718119132474479 -0.01384164818341615 0 -0.33035884889608558 -0.02420969997450095 0 -0.33371347875736079 -0.040226824134751989 0 -0.34718119132474479 -0.01384164818341615 0 -0.33371347875736079 -0.040226824134751989 0 -0.34718119132474479 -0.01384164818341615 0 -0.32828291010712762 -0.0049346835118845543 0 -0.34055428987364128 0.0059527955302196532 0 -0.34718119132474479 -0.01384164818341615 0 -0.33035884889608558 -0.02420969997450095 0 -0.32828291010712762 -0.0049346835118845543 0 -0.31144738423897378 -0.02126732740536201 0 -0.32828291010712762 -0.0049346835118845543 0 -0.31177688145040278 0.0050359958776742568 0 -0.31144738423897378 -0.02126732740536201 0 -0.33116928005221918 -0.040778016637091109 0 -0.31144738423897378 -0.02126732740536201 0 -0.33035884889608558 -0.02420969997450095 0 -0.32828291010712762 -0.0049346835118845543 0 -0.31144738423897378 -0.02126732740536201 0 -0.33035884889608558 -0.02420969997450095 0 -0.33116928005221918 -0.040778016637091109 0 -0.3023660715744253 -0.047018139519123002 0 -0.31110423911055801 -0.035316851109560482 0 -0.33116928005221918 -0.040778016637091109 0 -0.3023660715744253 -0.047018139519123002 0 -0.31025625293594222 -0.050033124508212908 0 -0.33116928005221918 -0.040778016637091109 0 -0.3023660715744253 -0.047018139519123002 0 -0.33116928005221918 -0.040778016637091109 0 -0.31144738423897378 -0.02126732740536201 0 -0.31110423911055801 -0.035316851109560482 0 -0.33116928005221918 -0.040778016637091109 0 -0.31025625293594222 -0.050033124508212908 0 -0.31770057673851387 -0.05020147555903863 0 -0.33116928005221918 -0.040778016637091109 0 -0.31025625293594222 -0.050033124508212908 0 -0.31770057673851387 -0.05020147555903863 0 -0.31405483352543062 -0.056831087900065053 0 -0.31770057673851387 -0.05020147555903863 0 -0.31405483352543062 -0.056831087900065053 0 -0.31936567051967829 -0.054711673150449433 0 -0.31630436981946819 -0.062936971351065629 0 -0.31936567051967829 -0.054711673150449433 0 -0.32481687078849097 -0.058022226865728103 0 -0.30728911182784302 -0.064893595009923935 0 -0.31630436981946819 -0.062936971351065629 0 -0.31405483352543062 -0.056831087900065053 0 -0.31630436981946819 -0.062936971351065629 0 -0.31405483352543062 -0.056831087900065053 0 -0.31936567051967829 -0.054711673150449433 0 -0.31770057673851387 -0.05020147555903863 0 -0.32448711316898249 -0.050622394842538963 0 -0.33116928005221918 -0.040778016637091109 0 -0.31936567051967829 -0.054711673150449433 0 -0.32481687078849097 -0.058022226865728103 0 -0.32448711316898249 -0.050622394842538963 0 -0.31770057673851387 -0.05020147555903863 0 -0.31936567051967829 -0.054711673150449433 0 -0.32448711316898249 -0.050622394842538963 0 -0.32481687078849097 -0.058022226865728103 0 -0.32770904195502032 -0.053173566283506987 0 -0.32448711316898249 -0.050622394842538963 0 -0.32770904195502032 -0.053173566283506987 0 -0.32448711316898249 -0.050622394842538963 0 -0.32972533979495861 -0.048040159006195682 0 -0.3489658634393657 -0.058384012082006782 0 -0.34511111307690212 -0.046137334811030092 0 -0.3326728772282519 -0.042265511425067279 0 -0.32972533979495861 -0.048040159006195682 0 -0.33645864726091979 -0.05858208772264157 0 -0.3326728772282519 -0.042265511425067279 0 -0.3489658634393657 -0.058384012082006782 0 -0.3326728772282519 -0.042265511425067279 0 -0.32770904195502032 -0.053173566283506987 0 -0.32972533979495861 -0.048040159006195682 0 -0.33645864726091979 -0.05858208772264157 0 -0.3489658634393657 -0.058384012082006782 0 -0.33645864726091979 -0.05858208772264157 0 -0.3326728772282519 -0.042265511425067279 0 -0.32389808664530562 -0.067702049039115322 0 -0.32481687078849097 -0.058022226865728103 0 -0.33645864726091979 -0.05858208772264157 0 -0.32481687078849097 -0.058022226865728103 0 -0.32770904195502032 -0.053173566283506987 0 -0.33645864726091979 -0.05858208772264157 0 -0.34511111307690212 -0.046137334811030092 0 -0.33371347875736079 -0.040226824134751989 0 -0.3326728772282519 -0.042265511425067279 0 -0.33035884889608558 -0.02420969997450095 0 -0.33116928005221918 -0.040778016637091109 0 -0.33371347875736079 -0.040226824134751989 0 -0.35304062521722218 -0.036039659744318157 0 -0.33371347875736079 -0.040226824134751989 0 -0.32448711316898249 -0.050622394842538963 0 -0.32972533979495861 -0.048040159006195682 0 -0.33116928005221918 -0.040778016637091109 0 -0.33116928005221918 -0.040778016637091109 0 -0.3326728772282519 -0.042265511425067279 0 -0.32972533979495861 -0.048040159006195682 0 -0.3326728772282519 -0.042265511425067279 0 -0.32972533979495861 -0.048040159006195682 0 -0.33116928005221918 -0.040778016637091109 0 -0.3326728772282519 -0.042265511425067279 0 -0.33116928005221918 -0.040778016637091109 0 -0.33371347875736079 -0.040226824134751989 0 -0.33116928005221918 -0.040778016637091109 0 -0.33371347875736079 -0.040226824134751989 0 -0.3326728772282519 -0.042265511425067279 0 -0.33371347875736079 -0.040226824134751989 0 -0.3326728772282519 -0.042265511425067279 0 -0.2907170577323625 -0.25177677077710309 0 -0.30853150187083839 -0.25429835417001312 0 -0.30748271917561598 -0.2431056607245809 0 -0.30748271917561598 -0.2431056607245809 0 -0.3004866401015065 -0.2269264896544945 0 -0.32066485276457768 -0.2334308190911655 0 -0.2907170577323625 -0.25177677077710309 0 -0.30748271917561598 -0.2431056607245809 0 -0.3004866401015065 -0.2269264896544945 0 -0.30853150187083839 -0.25429835417001312 0 -0.30748271917561598 -0.2431056607245809 0 -0.32023222063025569 -0.2489608815952247 0 -0.3004866401015065 -0.2269264896544945 0 -0.27575903677895092 -0.22208668823385669 0 -0.3004866401015065 -0.2269264896544945 0 -0.27309361240676189 -0.24179026653703889 0 -0.27575903677895092 -0.22208668823385669 0 -0.3004866401015065 -0.2269264896544945 0 -0.27575903677895092 -0.22208668823385669 0 -0.29482007196541532 -0.2089319155152673 0 -0.2907170577323625 -0.25177677077710309 0 -0.3004866401015065 -0.2269264896544945 0 -0.27309361240676189 -0.24179026653703889 0 -0.27309361240676189 -0.24179026653703889 0 -0.25431856302814809 -0.24833495949118861 0 -0.25103143345639523 -0.21724688681321891 0 -0.27575903677895092 -0.22208668823385669 0 -0.25103143345639523 -0.21724688681321891 0 -0.27309361240676189 -0.24179026653703889 0 -0.27575903677895092 -0.22208668823385669 0 -0.25103143345639523 -0.21724688681321891 0 -0.27575903677895092 -0.22208668823385669 0 -0.25103143345639523 -0.21724688681321891 0 -0.27708552823660842 -0.19790031786117671 0 -0.25103143345639523 -0.21724688681321891 0 -0.25418198431724581 -0.18809916394242601 0 -0.27708552823660842 -0.19790031786117671 0 -0.27708552823660842 -0.19790031786117671 0 -0.29482007196541532 -0.2089319155152673 0 -0.30195969341908391 -0.19078830755985379 0 -0.29482007196541532 -0.2089319155152673 0 -0.30195969341908391 -0.19078830755985379 0 -0.32674672588845421 -0.2120308859258328 0 -0.3004866401015065 -0.2269264896544945 0 -0.29482007196541532 -0.2089319155152673 0 -0.32674672588845421 -0.2120308859258328 0 -0.27575903677895092 -0.22208668823385669 0 -0.27708552823660842 -0.19790031786117671 0 -0.29482007196541532 -0.2089319155152673 0 -0.30195969341908391 -0.19078830755985379 0 -0.30674796742087651 -0.1684647150882764 0 -0.32123008678095788 -0.18729232698745699 0 -0.30674796742087651 -0.1684647150882764 0 -0.2930126781551784 -0.15044668515260809 0 -0.3206808779707625 -0.15110047818677941 0 -0.27724699849667023 -0.17157804188827869 0 -0.2930126781551784 -0.15044668515260809 0 -0.30674796742087651 -0.1684647150882764 0 -0.27724699849667023 -0.17157804188827869 0 -0.2930126781551784 -0.15044668515260809 0 -0.27708552823660842 -0.19790031786117671 0 -0.30195969341908391 -0.19078830755985379 0 -0.27724699849667023 -0.17157804188827869 0 -0.30195969341908391 -0.19078830755985379 0 -0.30674796742087651 -0.1684647150882764 0 -0.27724699849667023 -0.17157804188827869 0 -0.25418198431724581 -0.18809916394242601 0 -0.27708552823660842 -0.19790031786117671 0 -0.27724699849667023 -0.17157804188827869 0 -0.25418198431724581 -0.18809916394242601 0 -0.2565438833259911 -0.1687602707777138 0 -0.27724699849667023 -0.17157804188827869 0 -0.2435592126657353 -0.1561425335328199 0 -0.2565438833259911 -0.1687602707777138 0 -0.26683780591716472 -0.14870377212940841 0 -0.27724699849667023 -0.17157804188827869 0 -0.26683780591716472 -0.14870377212940841 0 -0.2930126781551784 -0.15044668515260809 0 -0.2565438833259911 -0.1687602707777138 0 -0.27724699849667023 -0.17157804188827869 0 -0.26683780591716472 -0.14870377212940841 0 -0.2435592126657353 -0.1561425335328199 0 -0.2432602079730701 -0.13485583854350039 0 -0.26683780591716472 -0.14870377212940841 0 -0.2432602079730701 -0.13485583854350039 0 -0.26490928006600228 -0.12397715003998409 0 -0.26683780591716472 -0.14870377212940841 0 -0.26490928006600228 -0.12397715003998409 0 -0.26683780591716472 -0.14870377212940841 0 -0.28428672055728371 -0.13281235115180859 0 -0.28428672055728371 -0.13281235115180859 0 -0.2930126781551784 -0.15044668515260809 0 -0.30877835781368662 -0.12931532841693749 0 -0.26683780591716472 -0.14870377212940841 0 -0.28428672055728371 -0.13281235115180859 0 -0.2930126781551784 -0.15044668515260809 0 -0.2930126781551784 -0.15044668515260809 0 -0.30877835781368662 -0.12931532841693749 0 -0.3206808779707625 -0.15110047818677941 0 -0.2930126781551784 -0.15044668515260809 0 -0.30877835781368662 -0.12931532841693749 0 -0.33570809008837621 -0.11845594114356341 0 -0.30877835781368662 -0.12931532841693749 0 -0.33688620478323589 -0.13358080389391511 0 -0.30877835781368662 -0.12931532841693749 0 -0.3206808779707625 -0.15110047818677941 0 -0.33688620478323589 -0.13358080389391511 0 -0.3206808779707625 -0.15110047818677941 0 -0.33688620478323589 -0.13358080389391511 0 -0.34399943231138669 -0.15408109000358611 0 -0.33688620478323589 -0.13358080389391511 0 -0.35929992868189681 -0.1386942596847188 0 -0.35404294059136687 -0.1217835462641018 0 -0.33688620478323589 -0.13358080389391511 0 -0.35929992868189681 -0.1386942596847188 0 -0.35404294059136687 -0.1217835462641018 0 -0.35929992868189681 -0.1386942596847188 0 -0.37028068739271691 -0.13083580994494901 0 -0.35929992868189681 -0.1386942596847188 0 -0.37028068739271691 -0.13083580994494901 0 -0.3804539816512269 -0.14482329966991631 0 -0.35929992868189681 -0.1386942596847188 0 -0.3804539816512269 -0.14482329966991631 0 -0.35929992868189681 -0.1386942596847188 0 -0.3655172116091886 -0.15688196674787641 0 -0.3804539816512269 -0.14482329966991631 0 -0.3655172116091886 -0.15688196674787641 0 -0.3804539816512269 -0.14482329966991631 0 -0.3655172116091886 -0.15688196674787641 0 -0.37839901512320262 -0.15996290040625341 0 -0.3804539816512269 -0.14482329966991631 0 -0.33688620478323589 -0.13358080389391511 0 -0.35929992868189681 -0.1386942596847188 0 -0.34399943231138669 -0.15408109000358611 0 -0.35929992868189681 -0.1386942596847188 0 -0.34399943231138669 -0.15408109000358611 0 -0.3655172116091886 -0.15688196674787641 0 -0.34399943231138669 -0.15408109000358611 0 -0.35323542112630057 -0.1671812377988513 0 -0.3655172116091886 -0.15688196674787641 0 -0.3655172116091886 -0.15688196674787641 0 -0.37378547386561772 -0.17392500984250869 0 -0.37839901512320262 -0.15996290040625341 0 -0.35323542112630057 -0.1671812377988513 0 -0.3655172116091886 -0.15688196674787641 0 -0.37378547386561772 -0.17392500984250869 0 -0.37378547386561772 -0.17392500984250869 0 -0.35240556330307887 -0.18479875362473361 0 -0.36895563931783232 -0.19259611207654981 0 -0.35323542112630057 -0.1671812377988513 0 -0.37378547386561772 -0.17392500984250869 0 -0.35240556330307887 -0.18479875362473361 0 -0.35323542112630057 -0.1671812377988513 0 -0.35240556330307887 -0.18479875362473361 0 -0.33400288196205857 -0.17193246321376471 0 -0.35240556330307887 -0.18479875362473361 0 -0.33400288196205857 -0.17193246321376471 0 -0.33669316521431608 -0.19324526314955739 0 -0.33400288196205857 -0.17193246321376471 0 -0.32123008678095788 -0.18729232698745699 0 -0.33669316521431608 -0.19324526314955739 0 -0.3206808779707625 -0.15110047818677941 0 -0.34399943231138669 -0.15408109000358611 0 -0.33400288196205857 -0.17193246321376471 0 -0.34399943231138669 -0.15408109000358611 0 -0.35323542112630057 -0.1671812377988513 0 -0.33400288196205857 -0.17193246321376471 0 -0.30674796742087651 -0.1684647150882764 0 -0.3206808779707625 -0.15110047818677941 0 -0.33400288196205857 -0.17193246321376471 0 -0.30674796742087651 -0.1684647150882764 0 -0.33400288196205857 -0.17193246321376471 0 -0.32123008678095788 -0.18729232698745699 0 -0.30195969341908391 -0.19078830755985379 0 -0.32123008678095788 -0.18729232698745699 0 -0.32674672588845421 -0.2120308859258328 0 -0.32674672588845421 -0.2120308859258328 0 -0.35024140450074381 -0.20994798342056251 0 -0.32674672588845421 -0.2120308859258328 0 -0.33669316521431608 -0.19324526314955739 0 -0.35024140450074381 -0.20994798342056251 0 -0.32674672588845421 -0.2120308859258328 0 -0.35024140450074381 -0.20994798342056251 0 -0.3377174746324717 -0.2284461722996495 0 -0.32123008678095788 -0.18729232698745699 0 -0.32674672588845421 -0.2120308859258328 0 -0.33669316521431608 -0.19324526314955739 0 -0.35240556330307887 -0.18479875362473361 0 -0.36895563931783232 -0.19259611207654981 0 -0.35024140450074381 -0.20994798342056251 0 -0.35240556330307887 -0.18479875362473361 0 -0.33669316521431608 -0.19324526314955739 0 -0.35024140450074381 -0.20994798342056251 0 -0.36895563931783232 -0.19259611207654981 0 -0.37373608311303341 -0.20786508091529229 0 -0.35024140450074381 -0.20994798342056251 0 -0.37373608311303341 -0.20786508091529229 0 -0.35024140450074381 -0.20994798342056251 0 -0.37373608311303341 -0.20786508091529229 0 -0.35024140450074381 -0.20994798342056251 0 -0.36602803805366552 -0.21914337572849349 0 -0.37373608311303341 -0.20786508091529229 0 -0.36602803805366552 -0.21914337572849349 0 -0.37785639846487218 -0.21906994256996459 0 -0.35024140450074381 -0.20994798342056251 0 -0.357966965356528 -0.23170644806675769 0 -0.3377174746324717 -0.2284461722996495 0 -0.35024140450074381 -0.20994798342056251 0 -0.357966965356528 -0.23170644806675769 0 -0.36602803805366552 -0.21914337572849349 0 -0.357966965356528 -0.23170644806675769 0 -0.36602803805366552 -0.21914337572849349 0 -0.36983275924353248 -0.22875232439276311 0 -0.36602803805366552 -0.21914337572849349 0 -0.36983275924353248 -0.22875232439276311 0 -0.37785639846487218 -0.21906994256996459 0 -0.357966965356528 -0.23170644806675769 0 -0.36983275924353248 -0.22875232439276311 0 -0.37747963509906429 -0.24508953120583671 0 -0.35872453044413888 -0.25078889886649508 0 -0.357966965356528 -0.23170644806675769 0 -0.37747963509906429 -0.24508953120583671 0 -0.357966965356528 -0.23170644806675769 0 -0.34395992200845399 -0.24382677409400949 0 -0.3377174746324717 -0.2284461722996495 0 -0.35872453044413888 -0.25078889886649508 0 -0.357966965356528 -0.23170644806675769 0 -0.34395992200845399 -0.24382677409400949 0 -0.33345250408021371 -0.25331871279766999 0 -0.34395992200845399 -0.24382677409400949 0 -0.33132333615916232 -0.2411148243472106 0 -0.33345250408021371 -0.25331871279766999 0 -0.33132333615916232 -0.2411148243472106 0 -0.32023222063025569 -0.2489608815952247 0 -0.34395992200845399 -0.24382677409400949 0 -0.33132333615916232 -0.2411148243472106 0 -0.3377174746324717 -0.2284461722996495 0 -0.32674672588845421 -0.2120308859258328 0 -0.3377174746324717 -0.2284461722996495 0 -0.32066485276457768 -0.2334308190911655 0 -0.33132333615916232 -0.2411148243472106 0 -0.3377174746324717 -0.2284461722996495 0 -0.32066485276457768 -0.2334308190911655 0 -0.3004866401015065 -0.2269264896544945 0 -0.32674672588845421 -0.2120308859258328 0 -0.32066485276457768 -0.2334308190911655 0 -0.30748271917561598 -0.2431056607245809 0 -0.32066485276457768 -0.2334308190911655 0 -0.32023222063025569 -0.2489608815952247 0 -0.33132333615916232 -0.2411148243472106 0 -0.32066485276457768 -0.2334308190911655 0 -0.32023222063025569 -0.2489608815952247 0 -0.43445882011373449 -0.25478651907497341 0 -0.43806130733353449 -0.23541812032183559 0 -0.43445882011373449 -0.25478651907497341 0 -0.4258852610480256 -0.24284815888716721 0 -0.43806130733353449 -0.23541812032183559 0 -0.4258852610480256 -0.24284815888716721 0 -0.42538833238501789 -0.2333934851751748 0 -0.41698539980062188 -0.23875950084572559 0 -0.43445882011373449 -0.25478651907497341 0 -0.4258852610480256 -0.24284815888716721 0 -0.42335340856967768 -0.24893549408922019 0 -0.4258852610480256 -0.24284815888716721 0 -0.42538833238501789 -0.2333934851751748 0 -0.43806130733353449 -0.23541812032183559 0 -0.43091611572645672 -0.22699763907763329 0 -0.42538833238501789 -0.2333934851751748 0 -0.43806130733353449 -0.23541812032183559 0 -0.43091611572645672 -0.22699763907763329 0 -0.44166379455333399 -0.21604972156869759 0 -0.43806130733353449 -0.23541812032183559 0 -0.43091611572645672 -0.22699763907763329 0 -0.43133498143110582 -0.21921018883561361 0 -0.44166379455333399 -0.21604972156869759 0 -0.43133498143110582 -0.21921018883561361 0 -0.4232485836513401 -0.22477446532261011 0 -0.4232102070061276 -0.21869015764887889 0 -0.43091611572645672 -0.22699763907763329 0 -0.43133498143110582 -0.21921018883561361 0 -0.4232485836513401 -0.22477446532261011 0 -0.43091611572645672 -0.22699763907763329 0 -0.4232485836513401 -0.22477446532261011 0 -0.42538833238501789 -0.2333934851751748 0 -0.4232485836513401 -0.22477446532261011 0 -0.42538833238501789 -0.2333934851751748 0 -0.41731365953457839 -0.2310953018814938 0 -0.4232485836513401 -0.22477446532261011 0 -0.41731365953457839 -0.2310953018814938 0 -0.4121948509493269 -0.2247325638453028 0 -0.41731365953457839 -0.2310953018814938 0 -0.4080561583250083 -0.23272886934204159 0 -0.41698539980062188 -0.23875950084572559 0 -0.4232485836513401 -0.22477446532261011 0 -0.4121948509493269 -0.2247325638453028 0 -0.41685681033243982 -0.21746512418924929 0 -0.4232485836513401 -0.22477446532261011 0 -0.41685681033243982 -0.21746512418924929 0 -0.4232102070061276 -0.21869015764887889 0 -0.4121948509493269 -0.2247325638453028 0 -0.4080561583250083 -0.23272886934204159 0 -0.39971520205611372 -0.2221352637332015 0 -0.4121948509493269 -0.2247325638453028 0 -0.40807454407470489 -0.21592977391801271 0 -0.41685681033243982 -0.21746512418924929 0 -0.4121948509493269 -0.2247325638453028 0 -0.39971520205611372 -0.2221352637332015 0 -0.40807454407470489 -0.21592977391801271 0 -0.41731365953457839 -0.2310953018814938 0 -0.4121948509493269 -0.2247325638453028 0 -0.4080561583250083 -0.23272886934204159 0 -0.4080561583250083 -0.23272886934204159 0 -0.40983148527785651 -0.24118391776602099 0 -0.41698539980062188 -0.23875950084572559 0 -0.42538833238501789 -0.2333934851751748 0 -0.41731365953457839 -0.2310953018814938 0 -0.41698539980062188 -0.23875950084572559 0 -0.40983148527785651 -0.24118391776602099 0 -0.41698539980062188 -0.23875950084572559 0 -0.41627810448972868 -0.24641300060905449 0 -0.4258852610480256 -0.24284815888716721 0 -0.42335340856967768 -0.24893549408922019 0 -0.41627810448972868 -0.24641300060905449 0 -0.4258852610480256 -0.24284815888716721 0 -0.41698539980062188 -0.23875950084572559 0 -0.41627810448972868 -0.24641300060905449 0 -0.41679144862722167 -0.25169429778568547 0 -0.42335340856967768 -0.24893549408922019 0 -0.41627810448972868 -0.24641300060905449 0 -0.41385673751816382 -0.25312989710486528 0 -0.41627810448972868 -0.24641300060905449 0 -0.4086566941719203 -0.24778871483445111 0 -0.40983148527785651 -0.24118391776602099 0 -0.41627810448972868 -0.24641300060905449 0 -0.4086566941719203 -0.24778871483445111 0 -0.40282532782868952 -0.25224285689579767 0 -0.4086566941719203 -0.24778871483445111 0 -0.40022281387448849 -0.24084313907701979 0 -0.40983148527785651 -0.24118391776602099 0 -0.4086566941719203 -0.24778871483445111 0 -0.40022281387448849 -0.24084313907701979 0 -0.4080561583250083 -0.23272886934204159 0 -0.40983148527785651 -0.24118391776602099 0 -0.40022281387448849 -0.24084313907701979 0 -0.40022281387448849 -0.24084313907701979 0 -0.3903832871219331 -0.2411545733314838 0 -0.38772777019650018 -0.2315142496456449 0 -0.3938256931015453 -0.25037754026629511 0 -0.40022281387448849 -0.24084313907701979 0 -0.3903832871219331 -0.2411545733314838 0 -0.3938256931015453 -0.25037754026629511 0 -0.3903832871219331 -0.2411545733314838 0 -0.37747963509906429 -0.24508953120583671 0 -0.3903832871219331 -0.2411545733314838 0 -0.37747963509906429 -0.24508953120583671 0 -0.38772777019650018 -0.2315142496456449 0 -0.37747963509906429 -0.24508953120583671 0 -0.37785639846487218 -0.21906994256996459 0 -0.37747963509906429 -0.24508953120583671 0 -0.37785639846487218 -0.21906994256996459 0 -0.38772777019650018 -0.2315142496456449 0 -0.36983275924353248 -0.22875232439276311 0 -0.37747963509906429 -0.24508953120583671 0 -0.37785639846487218 -0.21906994256996459 0 -0.37785639846487218 -0.21906994256996459 0 -0.38772777019650018 -0.2315142496456449 0 -0.38790285805175961 -0.2167146319195192 0 -0.4080561583250083 -0.23272886934204159 0 -0.40022281387448849 -0.24084313907701979 0 -0.39971520205611372 -0.2221352637332015 0 -0.40022281387448849 -0.24084313907701979 0 -0.39971520205611372 -0.2221352637332015 0 -0.38772777019650018 -0.2315142496456449 0 -0.39971520205611372 -0.2221352637332015 0 -0.38790285805175961 -0.2167146319195192 0 -0.40022281387448849 -0.24084313907701979 0 -0.38772777019650018 -0.2315142496456449 0 -0.39971520205611372 -0.2221352637332015 0 -0.39971520205611372 -0.2221352637332015 0 -0.39723076172532301 -0.205782178410022 0 -0.40807454407470489 -0.21592977391801271 0 -0.39971520205611372 -0.2221352637332015 0 -0.39723076172532301 -0.205782178410022 0 -0.38790285805175961 -0.2167146319195192 0 -0.39723076172532301 -0.205782178410022 0 -0.41303892827123678 -0.21093405469715851 0 -0.40807454407470489 -0.21592977391801271 0 -0.37373608311303341 -0.20786508091529229 0 -0.39723076172532301 -0.205782178410022 0 -0.38370630256805799 -0.1971119561512929 0 -0.37373608311303341 -0.20786508091529229 0 -0.39723076172532301 -0.205782178410022 0 -0.38790285805175961 -0.2167146319195192 0 -0.37373608311303341 -0.20786508091529229 0 -0.39723076172532301 -0.205782178410022 0 -0.37373608311303341 -0.20786508091529229 0 -0.37785639846487218 -0.21906994256996459 0 -0.38790285805175961 -0.2167146319195192 0 -0.36895563931783232 -0.19259611207654981 0 -0.38370630256805799 -0.1971119561512929 0 -0.3831693110633177 -0.1873742460103984 0 -0.36895563931783232 -0.19259611207654981 0 -0.37373608311303341 -0.20786508091529229 0 -0.38370630256805799 -0.1971119561512929 0 -0.38370630256805799 -0.1971119561512929 0 -0.39543971762078378 -0.19194216334420211 0 -0.3831693110633177 -0.1873742460103984 0 -0.39723076172532301 -0.205782178410022 0 -0.38370630256805799 -0.1971119561512929 0 -0.39543971762078378 -0.19194216334420211 0 -0.39723076172532301 -0.205782178410022 0 -0.39543971762078378 -0.19194216334420211 0 -0.40534117689708921 -0.19634387975323889 0 -0.39543971762078378 -0.19194216334420211 0 -0.40534117689708921 -0.19634387975323889 0 -0.40730162077548249 -0.18407395049314179 0 -0.39723076172532301 -0.205782178410022 0 -0.40534117689708921 -0.19634387975323889 0 -0.42072544033761272 -0.20369927590475301 0 -0.42032122747045741 -0.1927313373696285 0 -0.42072544033761272 -0.20369927590475301 0 -0.40730162077548249 -0.18407395049314179 0 -0.42072544033761272 -0.20369927590475301 0 -0.40730162077548249 -0.18407395049314179 0 -0.40534117689708921 -0.19634387975323889 0 -0.42072544033761272 -0.20369927590475301 0 -0.40730162077548249 -0.18407395049314179 0 -0.39723076172532301 -0.205782178410022 0 -0.41303892827123678 -0.21093405469715851 0 -0.42072544033761272 -0.20369927590475301 0 -0.39723076172532301 -0.205782178410022 0 -0.42072544033761272 -0.20369927590475301 0 -0.41303892827123678 -0.21093405469715851 0 -0.40807454407470489 -0.21592977391801271 0 -0.41685681033243982 -0.21746512418924929 0 -0.41303892827123678 -0.21093405469715851 0 -0.41685681033243982 -0.21746512418924929 0 -0.42140045260962489 -0.21331085224804261 0 -0.41685681033243982 -0.21746512418924929 0 -0.42140045260962489 -0.21331085224804261 0 -0.4232102070061276 -0.21869015764887889 0 -0.41303892827123678 -0.21093405469715851 0 -0.42140045260962489 -0.21331085224804261 0 -0.42072544033761272 -0.20369927590475301 0 -0.42512182626149492 -0.2033095177213731 0 -0.43378961613155448 -0.20908682079381441 0 -0.44184138868315109 -0.20247798044170351 0 -0.42072544033761272 -0.20369927590475301 0 -0.42512182626149492 -0.2033095177213731 0 -0.43133498143110582 -0.21921018883561361 0 -0.42072544033761272 -0.20369927590475301 0 -0.42512182626149492 -0.2033095177213731 0 -0.43133498143110582 -0.21921018883561361 0 -0.42512182626149492 -0.2033095177213731 0 -0.43378961613155448 -0.20908682079381441 0 -0.43133498143110582 -0.21921018883561361 0 -0.42140045260962489 -0.21331085224804261 0 -0.4232102070061276 -0.21869015764887889 0 -0.43133498143110582 -0.21921018883561361 0 -0.42072544033761272 -0.20369927590475301 0 -0.43133498143110582 -0.21921018883561361 0 -0.42140045260962489 -0.21331085224804261 0 -0.42072544033761272 -0.20369927590475301 0 -0.43133498143110582 -0.21921018883561361 0 -0.43378961613155448 -0.20908682079381441 0 -0.44166379455333399 -0.21604972156869759 0 -0.42032122747045741 -0.1927313373696285 0 -0.44184138868315109 -0.20247798044170351 0 -0.42032122747045741 -0.1927313373696285 0 -0.43099962817645188 -0.18319011649723049 0 -0.43833565968517207 -0.19112957676178299 0 -0.42032122747045741 -0.1927313373696285 0 -0.42512182626149492 -0.2033095177213731 0 -0.44184138868315109 -0.20247798044170351 0 -0.42032122747045741 -0.1927313373696285 0 -0.43833565968517207 -0.19112957676178299 0 -0.44184138868315109 -0.20247798044170351 0 -0.42032122747045741 -0.1927313373696285 0 -0.42072544033761272 -0.20369927590475301 0 -0.42512182626149492 -0.2033095177213731 0 -0.42549584187692119 -0.17333418479170171 0 -0.43099962817645188 -0.18319011649723049 0 -0.41834400919125792 -0.18158621355319651 0 -0.42032122747045741 -0.1927313373696285 0 -0.43099962817645188 -0.18319011649723049 0 -0.41834400919125792 -0.18158621355319651 0 -0.43099962817645188 -0.18319011649723049 0 -0.43495901877196291 -0.17485617288990979 0 -0.44455133712372419 -0.18300714728765441 0 -0.42549584187692119 -0.17333418479170171 0 -0.43099962817645188 -0.18319011649723049 0 -0.43495901877196291 -0.17485617288990979 0 -0.42549584187692119 -0.17333418479170171 0 -0.43495901877196291 -0.17485617288990979 0 -0.43155613508544272 -0.1669321437644439 0 -0.43495901877196291 -0.17485617288990979 0 -0.43155613508544272 -0.1669321437644439 0 -0.44219215159727421 -0.16781727210851849 0 -0.43155613508544272 -0.1669321437644439 0 -0.43166640735559808 -0.1552039120346444 0 -0.44219215159727421 -0.16781727210851849 0 -0.43155613508544272 -0.1669321437644439 0 -0.4214232379976206 -0.16216052115063159 0 -0.43166640735559808 -0.1552039120346444 0 -0.42549584187692119 -0.17333418479170171 0 -0.43155613508544272 -0.1669321437644439 0 -0.4214232379976206 -0.16216052115063159 0 -0.42549584187692119 -0.17333418479170171 0 -0.4214232379976206 -0.16216052115063159 0 -0.41110577652129249 -0.1670682470007229 0 -0.4214232379976206 -0.16216052115063159 0 -0.41110577652129249 -0.1670682470007229 0 -0.40669002996807779 -0.1495058137550834 0 -0.41110577652129249 -0.1670682470007229 0 -0.41834400919125792 -0.18158621355319651 0 -0.40730162077548249 -0.18407395049314179 0 -0.42549584187692119 -0.17333418479170171 0 -0.41110577652129249 -0.1670682470007229 0 -0.41834400919125792 -0.18158621355319651 0 -0.42032122747045741 -0.1927313373696285 0 -0.41834400919125792 -0.18158621355319651 0 -0.40730162077548249 -0.18407395049314179 0 -0.39543971762078378 -0.19194216334420211 0 -0.40730162077548249 -0.18407395049314179 0 -0.39267839793348491 -0.17927693187167279 0 -0.40730162077548249 -0.18407395049314179 0 -0.39267839793348491 -0.17927693187167279 0 -0.39387780121335469 -0.16444862508152899 0 -0.40730162077548249 -0.18407395049314179 0 -0.39387780121335469 -0.16444862508152899 0 -0.37378547386561772 -0.17392500984250869 0 -0.36895563931783232 -0.19259611207654981 0 -0.3831693110633177 -0.1873742460103984 0 -0.37378547386561772 -0.17392500984250869 0 -0.39267839793348491 -0.17927693187167279 0 -0.3831693110633177 -0.1873742460103984 0 -0.37378547386561772 -0.17392500984250869 0 -0.39267839793348491 -0.17927693187167279 0 -0.39387780121335469 -0.16444862508152899 0 -0.39543971762078378 -0.19194216334420211 0 -0.39267839793348491 -0.17927693187167279 0 -0.3831693110633177 -0.1873742460103984 0 -0.37378547386561772 -0.17392500984250869 0 -0.37839901512320262 -0.15996290040625341 0 -0.39387780121335469 -0.16444862508152899 0 -0.37839901512320262 -0.15996290040625341 0 -0.39387780121335469 -0.16444862508152899 0 -0.3804539816512269 -0.14482329966991631 0 -0.41110577652129249 -0.1670682470007229 0 -0.39387780121335469 -0.16444862508152899 0 -0.40669002996807779 -0.1495058137550834 0 -0.41110577652129249 -0.1670682470007229 0 -0.40730162077548249 -0.18407395049314179 0 -0.39387780121335469 -0.16444862508152899 0 -0.39387780121335469 -0.16444862508152899 0 -0.3804539816512269 -0.14482329966991631 0 -0.40669002996807779 -0.1495058137550834 0 -0.3804539816512269 -0.14482329966991631 0 -0.39647179587780151 -0.13189450107720049 0 -0.40669002996807779 -0.1495058137550834 0 -0.3804539816512269 -0.14482329966991631 0 -0.40669002996807779 -0.1495058137550834 0 -0.39387780121335469 -0.16444862508152899 0 -0.3804539816512269 -0.14482329966991631 0 -0.3804539816512269 -0.14482329966991631 0 -0.38278168804071749 -0.12940228238898679 0 -0.39647179587780151 -0.13189450107720049 0 -0.3804539816512269 -0.14482329966991631 0 -0.39647179587780151 -0.13189450107720049 0 -0.37212838853434238 -0.11808059788504249 0 -0.37028068739271691 -0.13083580994494901 0 -0.38278168804071749 -0.12940228238898679 0 -0.37028068739271691 -0.13083580994494901 0 -0.3804539816512269 -0.14482329966991631 0 -0.38278168804071749 -0.12940228238898679 0 -0.38278168804071749 -0.12940228238898679 0 -0.39647179587780151 -0.13189450107720049 0 -0.39044023874876249 -0.11757149150947201 0 -0.39647179587780151 -0.13189450107720049 0 -0.40828286160401828 -0.1310364195873514 0 -0.40669002996807779 -0.1495058137550834 0 -0.39647179587780151 -0.13189450107720049 0 -0.40828286160401828 -0.1310364195873514 0 -0.41122993917504558 -0.1199812866788818 0 -0.39647179587780151 -0.13189450107720049 0 -0.41122993917504558 -0.1199812866788818 0 -0.40828286160401828 -0.1310364195873514 0 -0.41930562378398423 -0.12797048681614909 0 -0.41122993917504558 -0.1199812866788818 0 -0.41930562378398423 -0.12797048681614909 0 -0.41533589961201212 -0.13938201891822019 0 -0.4273858072007774 -0.14414008567558009 0 -0.40828286160401828 -0.1310364195873514 0 -0.41533589961201212 -0.13938201891822019 0 -0.40669002996807779 -0.1495058137550834 0 -0.40828286160401828 -0.1310364195873514 0 -0.41930562378398423 -0.12797048681614909 0 -0.41533589961201212 -0.13938201891822019 0 -0.40669002996807779 -0.1495058137550834 0 -0.43166640735559808 -0.1552039120346444 0 -0.4214232379976206 -0.16216052115063159 0 -0.40669002996807779 -0.1495058137550834 0 -0.43166640735559808 -0.1552039120346444 0 -0.41533589961201212 -0.13938201891822019 0 -0.40669002996807779 -0.1495058137550834 0 -0.4273858072007774 -0.14414008567558009 0 -0.40669002996807779 -0.1495058137550834 0 -0.4273858072007774 -0.14414008567558009 0 -0.43166640735559808 -0.1552039120346444 0 -0.43166640735559808 -0.1552039120346444 0 -0.43525592456887258 -0.14374997194848471 0 -0.44410307239699631 -0.15282998285397989 0 -0.4273858072007774 -0.14414008567558009 0 -0.43166640735559808 -0.1552039120346444 0 -0.43525592456887258 -0.14374997194848471 0 -0.41930562378398423 -0.12797048681614909 0 -0.43525592456887258 -0.14374997194848471 0 -0.41930562378398423 -0.12797048681614909 0 -0.4273858072007774 -0.14414008567558009 0 -0.43525592456887258 -0.14374997194848471 0 -0.41930562378398423 -0.12797048681614909 0 -0.4273858072007774 -0.14414008567558009 0 -0.41930562378398423 -0.12797048681614909 0 -0.43525592456887258 -0.14374997194848471 0 -0.43389101300267191 -0.13422730327376839 0 -0.41930562378398423 -0.12797048681614909 0 -0.43389101300267191 -0.13422730327376839 0 -0.4149348530849476 -0.1169905694289516 0 -0.43389101300267191 -0.13422730327376839 0 -0.4149348530849476 -0.1169905694289516 0 -0.43389101300267191 -0.13422730327376839 0 -0.43160182387889101 -0.1187955019330571 0 -0.44085253015216358 -0.1237950587173612 0 -0.43389101300267191 -0.13422730327376839 0 -0.44872577578551592 -0.13320174295465559 0 -0.452847172920396 -0.1514640371185853 0 -0.44872577578551592 -0.13320174295465559 0 -0.45896755277767909 -0.12575633132281341 0 -0.45000974795797011 -0.119430952696417 0 -0.44872577578551592 -0.13320174295465559 0 -0.45000974795797011 -0.119430952696417 0 -0.44085253015216358 -0.1237950587173612 0 -0.43389101300267191 -0.13422730327376839 0 -0.44872577578551592 -0.13320174295465559 0 -0.44085253015216358 -0.1237950587173612 0 -0.43525592456887258 -0.14374997194848471 0 -0.43389101300267191 -0.13422730327376839 0 -0.452847172920396 -0.1514640371185853 0 -0.43525592456887258 -0.14374997194848471 0 -0.44410307239699631 -0.15282998285397989 0 -0.452847172920396 -0.1514640371185853 0 -0.44872577578551592 -0.13320174295465559 0 -0.452847172920396 -0.1514640371185853 0 -0.456386085566235 -0.14096643446963419 0 -0.43389101300267191 -0.13422730327376839 0 -0.452847172920396 -0.1514640371185853 0 -0.44410307239699631 -0.15282998285397989 0 -0.452847172920396 -0.1514640371185853 0 -0.45664278474311831 -0.16090201031420531 0 -0.452847172920396 -0.1514640371185853 0 -0.456386085566235 -0.14096643446963419 0 -0.46738274896045578 -0.15003021006820461 0 -0.452847172920396 -0.1514640371185853 0 -0.46738274896045578 -0.15003021006820461 0 -0.45664278474311831 -0.16090201031420531 0 -0.456386085566235 -0.14096643446963419 0 -0.46738274896045578 -0.15003021006820461 0 -0.47200539146090159 -0.13839174763128981 0 -0.456386085566235 -0.14096643446963419 0 -0.47200539146090159 -0.13839174763128981 0 -0.47750202174635031 -0.1215216316744509 0 -0.456386085566235 -0.14096643446963419 0 -0.45896755277767909 -0.12575633132281341 0 -0.47750202174635031 -0.1215216316744509 0 -0.456386085566235 -0.14096643446963419 0 -0.47750202174635031 -0.1215216316744509 0 -0.44872577578551592 -0.13320174295465559 0 -0.456386085566235 -0.14096643446963419 0 -0.45896755277767909 -0.12575633132281341 0 -0.47200539146090159 -0.13839174763128981 0 -0.48675070957056549 -0.14104871431286931 0 -0.47750202174635031 -0.1215216316744509 0 -0.50000000000000011 -0.12648838757554831 0 -0.48675070957056549 -0.14104871431286931 0 -0.5 -0.15043640832747529 0 -0.50000000000000011 -0.12648838757554831 0 -0.48675070957056549 -0.14104871431286931 0 -0.47750202174635031 -0.1215216316744509 0 -0.48675070957056549 -0.14104871431286931 0 -0.5 -0.15043640832747529 0 -0.48062174440056549 -0.15969986187448909 0 -0.46738274896045578 -0.15003021006820461 0 -0.47200539146090159 -0.13839174763128981 0 -0.48675070957056549 -0.14104871431286931 0 -0.48675070957056549 -0.14104871431286931 0 -0.48062174440056549 -0.15969986187448909 0 -0.46738274896045578 -0.15003021006820461 0 -0.48675070957056549 -0.14104871431286931 0 -0.48062174440056549 -0.15969986187448909 0 -0.48062174440056549 -0.15969986187448909 0 -0.46548313673471758 -0.16971310035941381 0 -0.46753260370971428 -0.1600862956540782 0 -0.46738274896045578 -0.15003021006820461 0 -0.48062174440056549 -0.15969986187448909 0 -0.46753260370971428 -0.1600862956540782 0 -0.48062174440056549 -0.15969986187448909 0 -0.47449277923056221 -0.17835100943610771 0 -0.46548313673471758 -0.16971310035941381 0 -0.48062174440056549 -0.15969986187448909 0 -0.47449277923056221 -0.17835100943610771 0 -0.5 -0.15043640832747529 0 -0.48062174440056549 -0.15969986187448909 0 -0.49999999999999828 -0.17438442907940241 0 -0.48062174440056549 -0.15969986187448909 0 -0.49999999999999828 -0.17438442907940241 0 -0.47449277923056221 -0.17835100943610771 0 -0.49999999999999828 -0.17438442907940241 0 -0.47449277923056221 -0.17835100943610771 0 -0.49999999999999828 -0.17438442907940241 0 -0.47449277923056221 -0.17835100943610771 0 -0.48549376880548989 -0.19132810400505559 0 -0.47449277923056221 -0.17835100943610771 0 -0.46892716456320649 -0.19528781647494389 0 -0.47449277923056221 -0.17835100943610771 0 -0.45952205817714309 -0.18067907836188021 0 -0.46892716456320649 -0.19528781647494389 0 -0.45952205817714309 -0.18067907836188021 0 -0.46548313673471758 -0.16971310035941381 0 -0.45289664290439807 -0.17180374819378549 0 -0.47449277923056221 -0.17835100943610771 0 -0.45952205817714309 -0.18067907836188021 0 -0.47449277923056221 -0.17835100943610771 0 -0.45952205817714309 -0.18067907836188021 0 -0.46548313673471758 -0.16971310035941381 0 -0.46548313673471758 -0.16971310035941381 0 -0.46753260370971428 -0.1600862956540782 0 -0.45664278474311831 -0.16090201031420531 0 -0.46738274896045578 -0.15003021006820461 0 -0.46753260370971428 -0.1600862956540782 0 -0.45664278474311831 -0.16090201031420531 0 -0.46548313673471758 -0.16971310035941381 0 -0.45664278474311831 -0.16090201031420531 0 -0.45289664290439807 -0.17180374819378549 0 -0.45664278474311831 -0.16090201031420531 0 -0.45289664290439807 -0.17180374819378549 0 -0.44219215159727421 -0.16781727210851849 0 -0.43166640735559808 -0.1552039120346444 0 -0.45664278474311831 -0.16090201031420531 0 -0.44219215159727421 -0.16781727210851849 0 -0.43166640735559808 -0.1552039120346444 0 -0.45664278474311831 -0.16090201031420531 0 -0.43166640735559808 -0.1552039120346444 0 -0.44410307239699631 -0.15282998285397989 0 -0.45664278474311831 -0.16090201031420531 0 -0.43495901877196291 -0.17485617288990979 0 -0.44219215159727421 -0.16781727210851849 0 -0.44455133712372419 -0.18300714728765441 0 -0.43099962817645188 -0.18319011649723049 0 -0.44455133712372419 -0.18300714728765441 0 -0.43833565968517207 -0.19112957676178299 0 -0.45952205817714309 -0.18067907836188021 0 -0.44455133712372419 -0.18300714728765441 0 -0.45396471697207569 -0.194241302212698 0 -0.45952205817714309 -0.18067907836188021 0 -0.44455133712372419 -0.18300714728765441 0 -0.45952205817714309 -0.18067907836188021 0 -0.45289664290439807 -0.17180374819378549 0 -0.44455133712372419 -0.18300714728765441 0 -0.45289664290439807 -0.17180374819378549 0 -0.44219215159727421 -0.16781727210851849 0 -0.44455133712372419 -0.18300714728765441 0 -0.44455133712372419 -0.18300714728765441 0 -0.43833565968517207 -0.19112957676178299 0 -0.45396471697207569 -0.194241302212698 0 -0.43833565968517207 -0.19112957676178299 0 -0.44184138868315109 -0.20247798044170351 0 -0.45396471697207569 -0.194241302212698 0 -0.44184138868315109 -0.20247798044170351 0 -0.46336154989584488 -0.2122246235137781 0 -0.45396471697207569 -0.194241302212698 0 -0.44184138868315109 -0.20247798044170351 0 -0.46336154989584488 -0.2122246235137781 0 -0.45338394269579491 -0.2190794284651259 0 -0.43378961613155448 -0.20908682079381441 0 -0.44184138868315109 -0.20247798044170351 0 -0.44166379455333399 -0.21604972156869759 0 -0.44184138868315109 -0.20247798044170351 0 -0.44166379455333399 -0.21604972156869759 0 -0.45338394269579491 -0.2190794284651259 0 -0.44184138868315109 -0.20247798044170351 0 -0.46336154989584488 -0.2122246235137781 0 -0.46336154989584488 -0.2122246235137781 0 -0.46892716456320649 -0.19528781647494389 0 -0.46336154989584488 -0.2122246235137781 0 -0.45396471697207569 -0.194241302212698 0 -0.46892716456320649 -0.19528781647494389 0 -0.45952205817714309 -0.18067907836188021 0 -0.45396471697207569 -0.194241302212698 0 -0.46892716456320649 -0.19528781647494389 0 -0.47449277923056221 -0.17835100943610771 0 -0.46892716456320649 -0.19528781647494389 0 -0.48549376880548989 -0.19132810400505559 0 -0.46892716456320649 -0.19528781647494389 0 -0.48549376880548989 -0.19132810400505559 0 -0.47978640147694102 -0.20418872613165631 0 -0.5 -0.20182215567114031 0 -0.48549376880548989 -0.19132810400505559 0 -0.47978640147694102 -0.20418872613165631 0 -0.49999999999999828 -0.17438442907940241 0 -0.5 -0.20182215567114031 0 -0.48549376880548989 -0.19132810400505559 0 -0.5 -0.20182215567114031 0 -0.48114952412016337 -0.22028093099336349 0 -0.49893749834448198 -0.22833723847294871 0 -0.5 -0.20182215567114031 0 -0.47978640147694102 -0.20418872613165631 0 -0.48114952412016337 -0.22028093099336349 0 -0.46336154989584488 -0.2122246235137781 0 -0.48114952412016337 -0.22028093099336349 0 -0.46336154989584488 -0.2122246235137781 0 -0.47978640147694102 -0.20418872613165631 0 -0.48114952412016337 -0.22028093099336349 0 -0.46336154989584488 -0.2122246235137781 0 -0.46892716456320649 -0.19528781647494389 0 -0.47978640147694102 -0.20418872613165631 0 -0.46336154989584488 -0.2122246235137781 0 -0.48114952412016337 -0.22028093099336349 0 -0.46857810181099829 -0.22486784275082261 0 -0.48114952412016337 -0.22028093099336349 0 -0.48798868478634799 -0.231470988200419 0 -0.47142395938804471 -0.23802335247430181 0 -0.48114952412016337 -0.22028093099336349 0 -0.47142395938804471 -0.23802335247430181 0 -0.46857810181099829 -0.22486784275082261 0 -0.48114952412016337 -0.22028093099336349 0 -0.48798868478634799 -0.231470988200419 0 -0.49893749834448198 -0.22833723847294871 0 -0.48114952412016337 -0.22028093099336349 0 -0.49893749834448198 -0.22833723847294871 0 -0.48798868478634799 -0.231470988200419 0 -0.49893749834448198 -0.22833723847294871 0 -0.4875835208682564 -0.24248539692068891 0 -0.5 -0.25669760885461612 0 -0.49893749834448198 -0.22833723847294871 0 -0.4875835208682564 -0.24248539692068891 0 -0.48798868478634799 -0.231470988200419 0 -0.4875835208682564 -0.24248539692068891 0 -0.47142395938804471 -0.23802335247430181 0 -0.47878778985378329 -0.25835102983948688 0 -0.4875835208682564 -0.24248539692068891 0 -0.47142395938804471 -0.23802335247430181 0 -0.45662330498375908 -0.25656877445722759 0 -0.47142395938804471 -0.23802335247430181 0 -0.45034617445999431 -0.24335722649563979 0 -0.47142395938804471 -0.23802335247430181 0 -0.45735065046854989 -0.23051648340969341 0 -0.45034617445999431 -0.24335722649563979 0 -0.46336154989584488 -0.2122246235137781 0 -0.46857810181099829 -0.22486784275082261 0 -0.45735065046854989 -0.23051648340969341 0 -0.46336154989584488 -0.2122246235137781 0 -0.45735065046854989 -0.23051648340969341 0 -0.47142395938804471 -0.23802335247430181 0 -0.46857810181099829 -0.22486784275082261 0 -0.45735065046854989 -0.23051648340969341 0 -0.46336154989584488 -0.2122246235137781 0 -0.45338394269579491 -0.2190794284651259 0 -0.45735065046854989 -0.23051648340969341 0 -0.45338394269579491 -0.2190794284651259 0 -0.45735065046854989 -0.23051648340969341 0 -0.43806130733353449 -0.23541812032183559 0 -0.44166379455333399 -0.21604972156869759 0 -0.43806130733353449 -0.23541812032183559 0 -0.44166379455333399 -0.21604972156869759 0 -0.45338394269579491 -0.2190794284651259 0 -0.43806130733353449 -0.23541812032183559 0 -0.45735065046854989 -0.23051648340969341 0 -0.45034617445999431 -0.24335722649563979 0 -0.43806130733353449 -0.23541812032183559 0 -0.43445882011373449 -0.25478651907497341 0 -0.45034617445999431 -0.24335722649563979 0 -0.43806130733353449 -0.23541812032183559 0 -0.41324955929443102 -0.038374170610562031 0 -0.41005136228565903 -0.05540387285823338 0 -0.42435348212729052 -0.04457483879584373 0 -0.41324955929443102 -0.038374170610562031 0 -0.41005136228565903 -0.05540387285823338 0 -0.39900851660089293 -0.046429079601448257 0 -0.41324955929443102 -0.038374170610562031 0 -0.40747857107326091 -0.02424585309778798 0 -0.40045416304880688 -0.034240371911693122 0 -0.41005136228565903 -0.05540387285823338 0 -0.4246600563061857 -0.059067830999859447 0 -0.41422906440869389 -0.068128229862373102 0 -0.41005136228565903 -0.05540387285823338 0 -0.4246600563061857 -0.059067830999859447 0 -0.42435348212729052 -0.04457483879584373 0 -0.4246600563061857 -0.059067830999859447 0 -0.42435348212729052 -0.04457483879584373 0 -0.43957367317472601 -0.045089571971719818 0 -0.4246600563061857 -0.059067830999859447 0 -0.43957367317472601 -0.045089571971719818 0 -0.44544580640037118 -0.056213229689383748 0 -0.41324955929443102 -0.038374170610562031 0 -0.42435348212729052 -0.04457483879584373 0 -0.42981912379901888 -0.030443092666165631 0 -0.42435348212729052 -0.04457483879584373 0 -0.42981912379901888 -0.030443092666165631 0 -0.43957367317472601 -0.045089571971719818 0 -0.41302196833726168 -0.01226972299954816 0 -0.4392085005598273 -0.024676348383282701 0 -0.42659341977192161 -0.010103830507352861 0 -0.41302196833726168 -0.01226972299954816 0 -0.4392085005598273 -0.024676348383282701 0 -0.42981912379901888 -0.030443092666165631 0 -0.41673372021425997 -0.022240754673565791 0 -0.4392085005598273 -0.024676348383282701 0 -0.41302196833726168 -0.01226972299954816 0 -0.41673372021425997 -0.022240754673565791 0 -0.4392085005598273 -0.024676348383282701 0 -0.43741768347029059 -0.01288367903972009 0 -0.42659341977192161 -0.010103830507352861 0 -0.4392085005598273 -0.024676348383282701 0 -0.4441818909265971 -0.00998157505946092 0 -0.42578104856505677 0.0031949168855625672 0 -0.43741768347029059 -0.01288367903972009 0 -0.4441818909265971 -0.00998157505946092 0 -0.42578104856505677 0.0031949168855625672 0 -0.43741768347029059 -0.01288367903972009 0 -0.42659341977192161 -0.010103830507352861 0 -0.42578104856505677 0.0031949168855625672 0 -0.43741768347029059 -0.01288367903972009 0 -0.42578104856505677 0.0031949168855625672 0 -0.42659341977192161 -0.010103830507352861 0 -0.41753789792717189 -0.0038843189997757009 0 -0.42578104856505677 0.0031949168855625672 0 -0.42659341977192161 -0.010103830507352861 0 -0.41753789792717189 -0.0038843189997757009 0 -0.41302196833726168 -0.01226972299954816 0 -0.41753789792717189 -0.0038843189997757009 0 -0.41302196833726168 -0.01226972299954816 0 -0.40771050441737638 -0.0035262849216432719 0 -0.41753789792717189 -0.0038843189997757009 0 -0.40771050441737638 -0.0035262849216432719 0 -0.41105156913745711 0.0034129409419674369 0 -0.42981912379901888 -0.030443092666165631 0 -0.40747857107326091 -0.02424585309778798 0 -0.41324955929443102 -0.038374170610562031 0 -0.42981912379901888 -0.030443092666165631 0 -0.40747857107326091 -0.02424585309778798 0 -0.42981912379901888 -0.030443092666165631 0 -0.41673372021425997 -0.022240754673565791 0 -0.40747857107326091 -0.02424585309778798 0 -0.41302196833726168 -0.01226972299954816 0 -0.41673372021425997 -0.022240754673565791 0 -0.40747857107326091 -0.02424585309778798 0 -0.41673372021425997 -0.022240754673565791 0 -0.40747857107326091 -0.02424585309778798 0 -0.40747857107326091 -0.02424585309778798 0 -0.38992317137517202 -0.02804917422583518 0 -0.40747857107326091 -0.02424585309778798 0 -0.38992317137517202 -0.02804917422583518 0 -0.38297625517291389 -0.017448943304264108 0 -0.40747857107326091 -0.02424585309778798 0 -0.38992317137517202 -0.02804917422583518 0 -0.40045416304880688 -0.034240371911693122 0 -0.40747857107326091 -0.02424585309778798 0 -0.39567459441968961 -0.012635194689989219 0 -0.38297625517291389 -0.017448943304264108 0 -0.40747857107326091 -0.02424585309778798 0 -0.38297625517291389 -0.017448943304264108 0 -0.41302196833726168 -0.01226972299954816 0 -0.40747857107326091 -0.02424585309778798 0 -0.39567459441968961 -0.012635194689989219 0 -0.41302196833726168 -0.01226972299954816 0 -0.40771050441737638 -0.0035262849216432719 0 -0.38683543611469601 0.0001369023841863784 0 -0.41302196833726168 -0.01226972299954816 0 -0.39567459441968961 -0.012635194689989219 0 -0.38683543611469601 0.0001369023841863784 0 -0.41302196833726168 -0.01226972299954816 0 -0.38683543611469601 0.0001369023841863784 0 -0.40771050441737638 -0.0035262849216432719 0 -0.38683543611469601 0.0001369023841863784 0 -0.40226596945639398 0.0014711925349297271 0 -0.39567459441968961 -0.012635194689989219 0 -0.38502252263107412 -0.0084426060797158468 0 -0.38683543611469601 0.0001369023841863784 0 -0.39567459441968961 -0.012635194689989219 0 -0.38502252263107412 -0.0084426060797158468 0 -0.38297625517291389 -0.017448943304264108 0 -0.38502252263107412 -0.0084426060797158468 0 -0.38009964520605882 -0.0090403485437739461 0 -0.38297625517291389 -0.017448943304264108 0 -0.37278444596104371 -0.0079457960458173115 0 -0.38009964520605882 -0.0090403485437739461 0 -0.38297625517291389 -0.017448943304264108 0 -0.37474494217865062 -0.0022388935110706832 0 -0.38502252263107412 -0.0084426060797158468 0 -0.38683543611469601 0.0001369023841863784 0 -0.37474494217865062 -0.0022388935110706832 0 -0.38502252263107412 -0.0084426060797158468 0 -0.38009964520605882 -0.0090403485437739461 0 -0.37474494217865062 -0.0022388935110706832 0 -0.37278444596104371 -0.0079457960458173115 0 -0.38009964520605882 -0.0090403485437739461 0 -0.37236777167708351 -0.031852495353884333 0 -0.38992317137517202 -0.02804917422583518 0 -0.37990921189048049 -0.023302515363219579 0 -0.37236777167708351 -0.031852495353884333 0 -0.38992317137517202 -0.02804917422583518 0 -0.38992317137517202 -0.02804917422583518 0 -0.38297625517291389 -0.017448943304264108 0 -0.37990921189048049 -0.023302515363219579 0 -0.3739022591900184 -0.02415390189740213 0 -0.38297625517291389 -0.017448943304264108 0 -0.37990921189048049 -0.023302515363219579 0 -0.37236777167708351 -0.031852495353884333 0 -0.3739022591900184 -0.02415390189740213 0 -0.37990921189048049 -0.023302515363219579 0 -0.37236777167708351 -0.031852495353884333 0 -0.37990921189048049 -0.023302515363219579 0 -0.38458287424021398 -0.039388642062709187 0 -0.39900851660089293 -0.046429079601448257 0 -0.3815482533063424 -0.052412606119804542 0 -0.37355784227175309 -0.045246792894939887 0 -0.37236777167708351 -0.031852495353884333 0 -0.38458287424021398 -0.039388642062709187 0 -0.37236777167708351 -0.031852495353884333 0 -0.38992317137517202 -0.02804917422583518 0 -0.38458287424021398 -0.039388642062709187 0 -0.37355784227175309 -0.045246792894939887 0 -0.38458287424021398 -0.039388642062709187 0 -0.3815482533063424 -0.052412606119804542 0 -0.38458287424021398 -0.039388642062709187 0 -0.39900851660089293 -0.046429079601448257 0 -0.40045416304880688 -0.034240371911693122 0 -0.38992317137517202 -0.02804917422583518 0 -0.38458287424021398 -0.039388642062709187 0 -0.40045416304880688 -0.034240371911693122 0 -0.41324955929443102 -0.038374170610562031 0 -0.39900851660089293 -0.046429079601448257 0 -0.40045416304880688 -0.034240371911693122 0 -0.39900851660089293 -0.046429079601448257 0 -0.39626447370361728 -0.06091275685647668 0 -0.3815482533063424 -0.052412606119804542 0 -0.41005136228565903 -0.05540387285823338 0 -0.39626447370361728 -0.06091275685647668 0 -0.40517181862379281 -0.066558370858305557 0 -0.41005136228565903 -0.05540387285823338 0 -0.39900851660089293 -0.046429079601448257 0 -0.39626447370361728 -0.06091275685647668 0 -0.36862349457690058 -0.057461967220355487 0 -0.3815482533063424 -0.052412606119804542 0 -0.37947166312044489 -0.067272628224985004 0 -0.3815482533063424 -0.052412606119804542 0 -0.37947166312044489 -0.067272628224985004 0 -0.39260231949431601 -0.074533368335879327 0 -0.36882665317829499 -0.078032107790563188 0 -0.39260231949431601 -0.074533368335879327 0 -0.39626447370361728 -0.06091275685647668 0 -0.3815482533063424 -0.052412606119804542 0 -0.39260231949431601 -0.074533368335879327 0 -0.3815482533063424 -0.052412606119804542 0 -0.39260231949431601 -0.074533368335879327 0 -0.36882665317829499 -0.078032107790563188 0 -0.37947166312044489 -0.067272628224985004 0 -0.39260231949431601 -0.074533368335879327 0 -0.36882665317829499 -0.078032107790563188 0 -0.39260231949431601 -0.074533368335879327 0 -0.39002829617667018 -0.099006697234722524 0 -0.36882665317829499 -0.078032107790563188 0 -0.39002829617667018 -0.099006697234722524 0 -0.37367929427193591 -0.1014825750548952 0 -0.36882665317829499 -0.078032107790563188 0 -0.39002829617667018 -0.099006697234722524 0 -0.39260231949431601 -0.074533368335879327 0 -0.39002829617667018 -0.099006697234722524 0 -0.39510370691593599 -0.098958215311000047 0 -0.39260231949431601 -0.074533368335879327 0 -0.40274583300482147 -0.094831984843681591 0 -0.39260231949431601 -0.074533368335879327 0 -0.39510370691593599 -0.098958215311000047 0 -0.40274583300482147 -0.094831984843681591 0 -0.40361170428446441 -0.083317353290434007 0 -0.39260231949431601 -0.074533368335879327 0 -0.40274583300482147 -0.094831984843681591 0 -0.40361170428446441 -0.083317353290434007 0 -0.39867569396630093 -0.073639632925658519 0 -0.40696916935602839 -0.074517235882718885 0 -0.39867569396630093 -0.073639632925658519 0 -0.40517181862379281 -0.066558370858305557 0 -0.40696916935602839 -0.074517235882718885 0 -0.39626447370361728 -0.06091275685647668 0 -0.39867569396630093 -0.073639632925658519 0 -0.40517181862379281 -0.066558370858305557 0 -0.39626447370361728 -0.06091275685647668 0 -0.39867569396630093 -0.073639632925658519 0 -0.39260231949431601 -0.074533368335879327 0 -0.40361170428446441 -0.083317353290434007 0 -0.39867569396630093 -0.073639632925658519 0 -0.39260231949431601 -0.074533368335879327 0 -0.39867569396630093 -0.073639632925658519 0 -0.39260231949431601 -0.074533368335879327 0 -0.37212838853434238 -0.11808059788504249 0 -0.38278168804071749 -0.12940228238898679 0 -0.39044023874876249 -0.11757149150947201 0 -0.37367929427193591 -0.1014825750548952 0 -0.37212838853434238 -0.11808059788504249 0 -0.39044023874876249 -0.11757149150947201 0 -0.37367929427193591 -0.1014825750548952 0 -0.39044023874876249 -0.11757149150947201 0 -0.39002829617667018 -0.099006697234722524 0 -0.39510370691593599 -0.098958215311000047 0 -0.40274583300482147 -0.094831984843681591 0 -0.41288934651532883 -0.11513060135148299 0 -0.39002829617667018 -0.099006697234722524 0 -0.39510370691593599 -0.098958215311000047 0 -0.41122993917504558 -0.1199812866788818 0 -0.39510370691593599 -0.098958215311000047 0 -0.41288934651532883 -0.11513060135148299 0 -0.39647179587780151 -0.13189450107720049 0 -0.39044023874876249 -0.11757149150947201 0 -0.41122993917504558 -0.1199812866788818 0 -0.39002829617667018 -0.099006697234722524 0 -0.41122993917504558 -0.1199812866788818 0 -0.39044023874876249 -0.11757149150947201 0 -0.39002829617667018 -0.099006697234722524 0 -0.41122993917504558 -0.1199812866788818 0 -0.39510370691593599 -0.098958215311000047 0 -0.41122993917504558 -0.1199812866788818 0 -0.41288934651532883 -0.11513060135148299 0 -0.41930562378398423 -0.12797048681614909 0 -0.41122993917504558 -0.1199812866788818 0 -0.4149348530849476 -0.1169905694289516 0 -0.41930562378398423 -0.12797048681614909 0 -0.41122993917504558 -0.1199812866788818 0 -0.41930562378398423 -0.12797048681614909 0 -0.4149348530849476 -0.1169905694289516 0 -0.41122993917504558 -0.1199812866788818 0 -0.41288934651532883 -0.11513060135148299 0 -0.4149348530849476 -0.1169905694289516 0 -0.41122993917504558 -0.1199812866788818 0 -0.4149348530849476 -0.1169905694289516 0 -0.41288934651532883 -0.11513060135148299 0 -0.4149348530849476 -0.1169905694289516 0 -0.41288934651532883 -0.11513060135148299 0 -0.4149348530849476 -0.1169905694289516 0 -0.41458672172207622 -0.10427776634057311 0 -0.40274583300482147 -0.094831984843681591 0 -0.41288934651532883 -0.11513060135148299 0 -0.4149348530849476 -0.1169905694289516 0 -0.41458672172207622 -0.10427776634057311 0 -0.43059848591229039 -0.1043464168163742 0 -0.40274583300482147 -0.094831984843681591 0 -0.41288934651532883 -0.11513060135148299 0 -0.41458672172207622 -0.10427776634057311 0 -0.41458672172207622 -0.10427776634057311 0 -0.41348552386521947 -0.090840815536544176 0 -0.43025813067654672 -0.08737754853092726 0 -0.40274583300482147 -0.094831984843681591 0 -0.41458672172207622 -0.10427776634057311 0 -0.41348552386521947 -0.090840815536544176 0 -0.43059848591229039 -0.1043464168163742 0 -0.43025813067654672 -0.08737754853092726 0 -0.44626211873963212 -0.091702264203795431 0 -0.41458672172207622 -0.10427776634057311 0 -0.43059848591229039 -0.1043464168163742 0 -0.43025813067654672 -0.08737754853092726 0 -0.41458672172207622 -0.10427776634057311 0 -0.43025813067654672 -0.08737754853092726 0 -0.4149348530849476 -0.1169905694289516 0 -0.43059848591229039 -0.1043464168163742 0 -0.43160182387889101 -0.1187955019330571 0 -0.4149348530849476 -0.1169905694289516 0 -0.43059848591229039 -0.1043464168163742 0 -0.43389101300267191 -0.13422730327376839 0 -0.4149348530849476 -0.1169905694289516 0 -0.43160182387889101 -0.1187955019330571 0 -0.43059848591229039 -0.1043464168163742 0 -0.43160182387889101 -0.1187955019330571 0 -0.44003429013576911 -0.11331979272890801 0 -0.43160182387889101 -0.1187955019330571 0 -0.44085253015216358 -0.1237950587173612 0 -0.44003429013576911 -0.11331979272890801 0 -0.41422906440869389 -0.068128229862373102 0 -0.41539885585273961 -0.080089681603359497 0 -0.42594434486026628 -0.073522222089585226 0 -0.4246600563061857 -0.059067830999859447 0 -0.41422906440869389 -0.068128229862373102 0 -0.42594434486026628 -0.073522222089585226 0 -0.41005136228565903 -0.05540387285823338 0 -0.40517181862379281 -0.066558370858305557 0 -0.41422906440869389 -0.068128229862373102 0 -0.40517181862379281 -0.066558370858305557 0 -0.41422906440869389 -0.068128229862373102 0 -0.40696916935602839 -0.074517235882718885 0 -0.41422906440869389 -0.068128229862373102 0 -0.40696916935602839 -0.074517235882718885 0 -0.41539885585273961 -0.080089681603359497 0 -0.41348552386521947 -0.090840815536544176 0 -0.41539885585273961 -0.080089681603359497 0 -0.43025813067654672 -0.08737754853092726 0 -0.40361170428446441 -0.083317353290434007 0 -0.41348552386521947 -0.090840815536544176 0 -0.41539885585273961 -0.080089681603359497 0 -0.40361170428446441 -0.083317353290434007 0 -0.40696916935602839 -0.074517235882718885 0 -0.41539885585273961 -0.080089681603359497 0 -0.40361170428446441 -0.083317353290434007 0 -0.40274583300482147 -0.094831984843681591 0 -0.41348552386521947 -0.090840815536544176 0 -0.41539885585273961 -0.080089681603359497 0 -0.43025813067654672 -0.08737754853092726 0 -0.42594434486026628 -0.073522222089585226 0 -0.4246600563061857 -0.059067830999859447 0 -0.44592953963101739 -0.07047733072128165 0 -0.43025813067654672 -0.08737754853092726 0 -0.42594434486026628 -0.073522222089585226 0 -0.44592953963101739 -0.07047733072128165 0 -0.4246600563061857 -0.059067830999859447 0 -0.42594434486026628 -0.073522222089585226 0 -0.44592953963101739 -0.07047733072128165 0 -0.44592953963101739 -0.07047733072128165 0 -0.45893666683642192 -0.056450303318209168 0 -0.44592953963101739 -0.07047733072128165 0 -0.44626211873963212 -0.091702264203795431 0 -0.46192575156697407 -0.079058111591217034 0 -0.43025813067654672 -0.08737754853092726 0 -0.44592953963101739 -0.07047733072128165 0 -0.43025813067654672 -0.08737754853092726 0 -0.44592953963101739 -0.07047733072128165 0 -0.44626211873963212 -0.091702264203795431 0 -0.44626211873963212 -0.091702264203795431 0 -0.46631049206888459 -0.091444160656324658 0 -0.46192575156697407 -0.079058111591217034 0 -0.44626211873963212 -0.091702264203795431 0 -0.46192575156697407 -0.079058111591217034 0 -0.46631049206888459 -0.091444160656324658 0 -0.46192575156697407 -0.079058111591217034 0 -0.47702460168979111 -0.087157524427869615 0 -0.44592953963101739 -0.07047733072128165 0 -0.46192575156697407 -0.079058111591217034 0 -0.45893666683642192 -0.056450303318209168 0 -0.46192575156697407 -0.079058111591217034 0 -0.47491389520024407 -0.068573693827893439 0 -0.45893666683642192 -0.056450303318209168 0 -0.46192575156697407 -0.079058111591217034 0 -0.47491389520024407 -0.068573693827893439 0 -0.44592953963101739 -0.07047733072128165 0 -0.46192575156697407 -0.079058111591217034 0 -0.45000974795797011 -0.119430952696417 0 -0.44085253015216358 -0.1237950587173612 0 -0.44003429013576911 -0.11331979272890801 0 -0.45000974795797011 -0.119430952696417 0 -0.44003429013576911 -0.11331979272890801 0 -0.44926481423485548 -0.10476542824413421 0 -0.43059848591229039 -0.1043464168163742 0 -0.44626211873963212 -0.091702264203795431 0 -0.43059848591229039 -0.1043464168163742 0 -0.44626211873963212 -0.091702264203795431 0 -0.44926481423485548 -0.10476542824413421 0 -0.43059848591229039 -0.1043464168163742 0 -0.44003429013576911 -0.11331979272890801 0 -0.44926481423485548 -0.10476542824413421 0 -0.44626211873963212 -0.091702264203795431 0 -0.44926481423485548 -0.10476542824413421 0 -0.46153012095291662 -0.1019472767233552 0 -0.44626211873963212 -0.091702264203795431 0 -0.46631049206888459 -0.091444160656324658 0 -0.46153012095291662 -0.1019472767233552 0 -0.46631049206888459 -0.091444160656324658 0 -0.46153012095291662 -0.1019472767233552 0 -0.4710589232177344 -0.098453604121520433 0 -0.46153012095291662 -0.1019472767233552 0 -0.46221413283232399 -0.11366089481890911 0 -0.47430793409480421 -0.10627177682285049 0 -0.44926481423485548 -0.10476542824413421 0 -0.46153012095291662 -0.1019472767233552 0 -0.46221413283232399 -0.11366089481890911 0 -0.45896755277767909 -0.12575633132281341 0 -0.46221413283232399 -0.11366089481890911 0 -0.47750202174635031 -0.1215216316744509 0 -0.45000974795797011 -0.119430952696417 0 -0.44926481423485548 -0.10476542824413421 0 -0.46221413283232399 -0.11366089481890911 0 -0.45896755277767909 -0.12575633132281341 0 -0.45000974795797011 -0.119430952696417 0 -0.46221413283232399 -0.11366089481890911 0 -0.47750202174635031 -0.1215216316744509 0 -0.47430793409480421 -0.10627177682285049 0 -0.48673501487359588 -0.1010237797652184 0 -0.46221413283232399 -0.11366089481890911 0 -0.47750202174635031 -0.1215216316744509 0 -0.47430793409480421 -0.10627177682285049 0 -0.47430793409480421 -0.10627177682285049 0 -0.47745372589702628 -0.099742000537211661 0 -0.48673501487359588 -0.1010237797652184 0 -0.46153012095291662 -0.1019472767233552 0 -0.47430793409480421 -0.10627177682285049 0 -0.4710589232177344 -0.098453604121520433 0 -0.46631049206888459 -0.091444160656324658 0 -0.4710589232177344 -0.098453604121520433 0 -0.47771303140197108 -0.093218841439257433 0 -0.47430793409480421 -0.10627177682285049 0 -0.4710589232177344 -0.098453604121520433 0 -0.47745372589702628 -0.099742000537211661 0 -0.4710589232177344 -0.098453604121520433 0 -0.47745372589702628 -0.099742000537211661 0 -0.47771303140197108 -0.093218841439257433 0 -0.47745372589702628 -0.099742000537211661 0 -0.48673501487359588 -0.1010237797652184 0 -0.47771303140197108 -0.093218841439257433 0 -0.48673501487359588 -0.1010237797652184 0 -0.47771303140197108 -0.093218841439257433 0 -0.47702460168979111 -0.087157524427869615 0 -0.47750202174635031 -0.1215216316744509 0 -0.48673501487359588 -0.1010237797652184 0 -0.4986179579264654 -0.1020768288792674 0 -0.48673501487359588 -0.1010237797652184 0 -0.49842317329231273 -0.098636270432611556 0 -0.47702460168979111 -0.087157524427869615 0 -0.48673501487359588 -0.1010237797652184 0 -0.49842317329231273 -0.098636270432611556 0 -0.4986179579264654 -0.1020768288792674 0 -0.49999999999999939 -0.099482120969144883 0 -0.49842317329231273 -0.098636270432611556 0 -0.4986179579264654 -0.1020768288792674 0 -0.49842317329231273 -0.098636270432611556 0 -0.4986179579264654 -0.1020768288792674 0 -0.49999999999999939 -0.099482120969144883 0 -0.49842317329231273 -0.098636270432611556 0 -0.50000000000000011 -0.12648838757554831 0 -0.47750202174635031 -0.1215216316744509 0 -0.4986179579264654 -0.1020768288792674 0 -0.47750202174635031 -0.1215216316744509 0 -0.4986179579264654 -0.1020768288792674 0 -0.47491389520024407 -0.068573693827893439 0 -0.47702460168979111 -0.087157524427869615 0 -0.4847984782487687 -0.075944598732494498 0 -0.47491389520024407 -0.068573693827893439 0 -0.47702460168979111 -0.087157524427869615 0 -0.47967839073812912 -0.064727650616396362 0 -0.4847984782487687 -0.075944598732494498 0 -0.48794163871831331 -0.064119883023254248 0 -0.47967839073812912 -0.064727650616396362 0 -0.47491389520024407 -0.068573693827893439 0 -0.4847984782487687 -0.075944598732494498 0 -0.47967839073812912 -0.064727650616396362 0 -0.47491389520024407 -0.068573693827893439 0 -0.46192575156697407 -0.079058111591217034 0 -0.47702460168979111 -0.087157524427869615 0 -0.46192575156697407 -0.079058111591217034 0 -0.47491389520024407 -0.068573693827893439 0 -0.47702460168979111 -0.087157524427869615 0 -0.46631049206888459 -0.091444160656324658 0 -0.47771303140197108 -0.093218841439257433 0 -0.47702460168979111 -0.087157524427869615 0 -0.47771303140197108 -0.093218841439257433 0 -0.47702460168979111 -0.087157524427869615 0 -0.49842317329231273 -0.098636270432611556 0 -0.49712708577170861 -0.075742961183477536 0 -0.4847984782487687 -0.075944598732494498 0 -0.49999999999999939 -0.099482120969144883 0 -0.49842317329231273 -0.098636270432611556 0 -0.5 -0.078030389970551228 0 -0.49842317329231273 -0.098636270432611556 0 -0.49712708577170861 -0.075742961183477536 0 -0.49842317329231273 -0.098636270432611556 0 -0.5 -0.078030389970551228 0 -0.49712708577170861 -0.075742961183477536 0 -0.49842317329231273 -0.098636270432611556 0 -0.47702460168979111 -0.087157524427869615 0 -0.4847984782487687 -0.075944598732494498 0 -0.49842317329231273 -0.098636270432611556 0 -0.47702460168979111 -0.087157524427869615 0 -0.5 -0.078030389970551228 0 -0.49712708577170861 -0.075742961183477536 0 -0.49999999999999928 -0.056578658971957581 0 -0.49712708577170861 -0.075742961183477536 0 -0.49583099825110311 -0.052849651934343489 0 -0.49712708577170861 -0.075742961183477536 0 -0.48794163871831331 -0.064119883023254248 0 -0.49583099825110311 -0.052849651934343489 0 -0.49712708577170861 -0.075742961183477536 0 -0.4847984782487687 -0.075944598732494498 0 -0.48794163871831331 -0.064119883023254248 0 -0.49712708577170861 -0.075742961183477536 0 -0.49999999999999928 -0.056578658971957581 0 -0.49583099825110311 -0.052849651934343489 0 -0.49583099825110311 -0.052849651934343489 0 -0.47748890114140963 -0.036443372127734748 0 -0.48227324058185622 -0.051334552649559453 0 -0.49999999999999928 -0.056578658971957581 0 -0.49583099825110311 -0.052849651934343489 0 -0.49999999999999928 -0.056578658971957581 0 -0.50000000000000144 -0.053559852644015388 0 -0.49583099825110311 -0.052849651934343489 0 -0.48794163871831331 -0.064119883023254248 0 -0.49583099825110311 -0.052849651934343489 0 -0.48227324058185622 -0.051334552649559453 0 -0.50000000000000144 -0.053559852644015388 0 -0.49583099825110311 -0.052849651934343489 0 -0.48598145264485831 -0.02728491224803695 0 -0.49583099825110311 -0.052849651934343489 0 -0.47748890114140963 -0.036443372127734748 0 -0.48598145264485831 -0.02728491224803695 0 -0.50000000000000144 -0.053559852644015388 0 -0.48598145264485831 -0.02728491224803695 0 -0.50000000000000144 -0.053559852644015388 0 -0.48598145264485831 -0.02728491224803695 0 -0.5 -0.025161366008633609 0 -0.49583099825110311 -0.052849651934343489 0 -0.47748890114140963 -0.036443372127734748 0 -0.47748890114140963 -0.036443372127734748 0 -0.48598145264485831 -0.02728491224803695 0 -0.47748890114140963 -0.036443372127734748 0 -0.47194379404182718 -0.042423275915137587 0 -0.48227324058185622 -0.051334552649559453 0 -0.47748890114140963 -0.036443372127734748 0 -0.47194379404182718 -0.042423275915137587 0 -0.47748890114140963 -0.036443372127734748 0 -0.47194379404182718 -0.042423275915137587 0 -0.47056077858213702 -0.03024644074295027 0 -0.47194379404182718 -0.042423275915137587 0 -0.46539503278239303 -0.037082973767017267 0 -0.47056077858213702 -0.03024644074295027 0 -0.47194379404182718 -0.042423275915137587 0 -0.47056077858213702 -0.03024644074295027 0 -0.47748890114140963 -0.036443372127734748 0 -0.47056077858213702 -0.03024644074295027 0 -0.47748890114140963 -0.036443372127734748 0 -0.47056077858213702 -0.03024644074295027 0 -0.47745882259212458 -0.028728106929589409 0 -0.47967839073812912 -0.064727650616396362 0 -0.47491389520024407 -0.068573693827893439 0 -0.47194379404182718 -0.042423275915137587 0 -0.47967839073812912 -0.064727650616396362 0 -0.47194379404182718 -0.042423275915137587 0 -0.48227324058185622 -0.051334552649559453 0 -0.47491389520024407 -0.068573693827893439 0 -0.47194379404182718 -0.042423275915137587 0 -0.47967839073812912 -0.064727650616396362 0 -0.48794163871831331 -0.064119883023254248 0 -0.48227324058185622 -0.051334552649559453 0 -0.47491389520024407 -0.068573693827893439 0 -0.47194379404182718 -0.042423275915137587 0 -0.45893666683642192 -0.056450303318209168 0 -0.45893666683642192 -0.056450303318209168 0 -0.45743491846808387 -0.04563500224908737 0 -0.44544580640037118 -0.056213229689383748 0 -0.47194379404182718 -0.042423275915137587 0 -0.45893666683642192 -0.056450303318209168 0 -0.45743491846808387 -0.04563500224908737 0 -0.47194379404182718 -0.042423275915137587 0 -0.45893666683642192 -0.056450303318209168 0 -0.46539503278239303 -0.037082973767017267 0 -0.44890774518284438 -0.02927164544362729 0 -0.46539503278239303 -0.037082973767017267 0 -0.45215967652477718 -0.036640332234541717 0 -0.44890774518284438 -0.02927164544362729 0 -0.46539503278239303 -0.037082973767017267 0 -0.44890774518284438 -0.02927164544362729 0 -0.46189821575704781 -0.02986243911986371 0 -0.47194379404182718 -0.042423275915137587 0 -0.46539503278239303 -0.037082973767017267 0 -0.45743491846808387 -0.04563500224908737 0 -0.46539503278239303 -0.037082973767017267 0 -0.46189821575704781 -0.02986243911986371 0 -0.47056077858213702 -0.03024644074295027 0 -0.46539503278239303 -0.037082973767017267 0 -0.45743491846808387 -0.04563500224908737 0 -0.45215967652477718 -0.036640332234541717 0 -0.42981912379901888 -0.030443092666165631 0 -0.45215967652477718 -0.036640332234541717 0 -0.45743491846808387 -0.04563500224908737 0 -0.45215967652477718 -0.036640332234541717 0 -0.43957367317472601 -0.045089571971719818 0 -0.42981912379901888 -0.030443092666165631 0 -0.45215967652477718 -0.036640332234541717 0 -0.43957367317472601 -0.045089571971719818 0 -0.45743491846808387 -0.04563500224908737 0 -0.43957367317472601 -0.045089571971719818 0 -0.44544580640037118 -0.056213229689383748 0 -0.4246600563061857 -0.059067830999859447 0 -0.44592953963101739 -0.07047733072128165 0 -0.44544580640037118 -0.056213229689383748 0 -0.44592953963101739 -0.07047733072128165 0 -0.45893666683642192 -0.056450303318209168 0 -0.44544580640037118 -0.056213229689383748 0 -0.4441818909265971 -0.00998157505946092 0 -0.45588653083934588 0.00041698580085632909 0 -0.44737850259376799 0.0077656591989471307 0 -0.4441818909265971 -0.00998157505946092 0 -0.4570262928383732 -0.018140378997512391 0 -0.45633913854906122 -0.0094275687658610888 0 -0.4441818909265971 -0.00998157505946092 0 -0.45633913854906122 -0.0094275687658610888 0 -0.45588653083934588 0.00041698580085632909 0 -0.43741768347029059 -0.01288367903972009 0 -0.4441818909265971 -0.00998157505946092 0 -0.44890774518284438 -0.02927164544362729 0 -0.42981912379901888 -0.030443092666165631 0 -0.45215967652477718 -0.036640332234541717 0 -0.4392085005598273 -0.024676348383282701 0 -0.4441818909265971 -0.00998157505946092 0 -0.44890774518284438 -0.02927164544362729 0 -0.46258273328813732 -0.023158067004484729 0 -0.43741768347029059 -0.01288367903972009 0 -0.44890774518284438 -0.02927164544362729 0 -0.43741768347029059 -0.01288367903972009 0 -0.4392085005598273 -0.024676348383282701 0 -0.44890774518284438 -0.02927164544362729 0 -0.4392085005598273 -0.024676348383282701 0 -0.44890774518284438 -0.02927164544362729 0 -0.45215967652477718 -0.036640332234541717 0 -0.4392085005598273 -0.024676348383282701 0 -0.44890774518284438 -0.02927164544362729 0 -0.4441818909265971 -0.00998157505946092 0 -0.46258273328813732 -0.023158067004484729 0 -0.46258273328813732 -0.023158067004484729 0 -0.46826183959192841 -0.01000530680732737 0 -0.47056077858213702 -0.03024644074295027 0 -0.4441818909265971 -0.00998157505946092 0 -0.4570262928383732 -0.018140378997512391 0 -0.46258273328813732 -0.023158067004484729 0 -0.4570262928383732 -0.018140378997512391 0 -0.46258273328813732 -0.023158067004484729 0 -0.44890774518284438 -0.02927164544362729 0 -0.46189821575704781 -0.02986243911986371 0 -0.46258273328813732 -0.023158067004484729 0 -0.46258273328813732 -0.023158067004484729 0 -0.47056077858213702 -0.03024644074295027 0 -0.46189821575704781 -0.02986243911986371 0 -0.46258273328813732 -0.023158067004484729 0 -0.47056077858213702 -0.03024644074295027 0 -0.4570262928383732 -0.018140378997512391 0 -0.46258273328813732 -0.023158067004484729 0 -0.46826183959192841 -0.01000530680732737 0 -0.4570262928383732 -0.018140378997512391 0 -0.46826183959192841 -0.01000530680732737 0 -0.45633913854906122 -0.0094275687658610888 0 -0.46826183959192841 -0.01000530680732737 0 -0.45633913854906122 -0.0094275687658610888 0 -0.45588653083934588 0.00041698580085632909 0 -0.46826183959192841 -0.01000530680732737 0 -0.47597217662329228 -0.0085245425598697612 0 -0.4659629006017233 0.010235827128295859 0 -0.46826183959192841 -0.01000530680732737 0 -0.47597217662329228 -0.0085245425598697612 0 -0.47580415800009379 -0.02093770259963601 0 -0.47597217662329228 -0.0085245425598697612 0 -0.48922725890134677 -0.010453537226696331 0 -0.48082517856277007 0.001845263919603602 0 -0.47597217662329228 -0.0085245425598697612 0 -0.47580415800009379 -0.02093770259963601 0 -0.48598145264485831 -0.02728491224803695 0 -0.47597217662329228 -0.0085245425598697612 0 -0.48598145264485831 -0.02728491224803695 0 -0.46826183959192841 -0.01000530680732737 0 -0.47056077858213702 -0.03024644074295027 0 -0.47580415800009379 -0.02093770259963601 0 -0.47597217662329228 -0.0085245425598697612 0 -0.48598145264485831 -0.02728491224803695 0 -0.4893389393206713 -0.02366416211133009 0 -0.46826183959192841 -0.01000530680732737 0 -0.47056077858213702 -0.03024644074295027 0 -0.47056077858213702 -0.03024644074295027 0 -0.47580415800009379 -0.02093770259963601 0 -0.47745882259212458 -0.028728106929589409 0 -0.47580415800009379 -0.02093770259963601 0 -0.47745882259212458 -0.028728106929589409 0 -0.48598145264485831 -0.02728491224803695 0 -0.47748890114140963 -0.036443372127734748 0 -0.47745882259212458 -0.028728106929589409 0 -0.48598145264485831 -0.02728491224803695 0 -0.48598145264485831 -0.02728491224803695 0 -0.4893389393206713 -0.02366416211133009 0 -0.5 -0.025161366008633609 0 -0.48598145264485831 -0.02728491224803695 0 -0.4893389393206713 -0.02366416211133009 0 -0.4893389393206713 -0.02366416211133009 0 -0.5 -0.025161366008633609 0 -0.48922725890134677 -0.010453537226696331 0 -0.48922725890134677 -0.010453537226696331 0 -0.5 0.0032371206267481911 0 -0.48082517856277007 0.001845263919603602 0 -0.5 -0.025161366008633609 0 -0.48922725890134677 -0.010453537226696331 0 -0.5 0.0032371206267481911 0 -0.47597217662329228 -0.0085245425598697612 0 -0.4893389393206713 -0.02366416211133009 0 -0.48922725890134677 -0.010453537226696331 0 -0.5 0.0032371206267481911 0 -0.48596576445654982 0.01457961489688041 0 -0.48082517856277007 0.001845263919603602 0 -0.48596576445654982 0.01457961489688041 0 -0.47541999506787802 0.025418180444172121 0 -0.5 0.031635607262129987 0 -0.5 0.0032371206267481911 0 -0.48596576445654982 0.01457961489688041 0 -0.5 0.031635607262129987 0 -0.48596576445654982 0.01457961489688041 0 -0.47541999506787802 0.025418180444172121 0 -0.47401658579892991 0.013489912392399149 0 -0.47541999506787802 0.025418180444172121 0 -0.46963945276383978 0.01793989872667965 0 -0.47401658579892991 0.013489912392399149 0 -0.47597217662329228 -0.0085245425598697612 0 -0.48082517856277007 0.001845263919603602 0 -0.4659629006017233 0.010235827128295859 0 -0.47401658579892991 0.013489912392399149 0 -0.48082517856277007 0.001845263919603602 0 -0.4659629006017233 0.010235827128295859 0 -0.46963945276383978 0.01793989872667965 0 -0.47401658579892991 0.013489912392399149 0 -0.4659629006017233 0.010235827128295859 0 -0.47597217662329228 -0.0085245425598697612 0 -0.4659629006017233 0.010235827128295859 0 -0.48596576445654982 0.01457961489688041 0 -0.47401658579892991 0.013489912392399149 0 -0.48082517856277007 0.001845263919603602 0 -0.5 0.060034093897511798 0 -0.47816362815030861 0.043832779932641487 0 -0.48068047186290208 0.063626500276227002 0 -0.47541999506787802 0.025418180444172121 0 -0.5 0.031635607262129987 0 -0.47816362815030861 0.043832779932641487 0 -0.5 0.060034093897511798 0 -0.5 0.031635607262129987 0 -0.47816362815030861 0.043832779932641487 0 -0.47541999506787802 0.025418180444172121 0 -0.47816362815030861 0.043832779932641487 0 -0.46442391639916691 0.036471327701905212 0 -0.47816362815030861 0.043832779932641487 0 -0.46119618507356652 0.049359273152949731 0 -0.48068047186290208 0.063626500276227002 0 -0.46119618507356652 0.049359273152949731 0 -0.46103932749027238 0.064238871702306077 0 -0.48068047186290208 0.063626500276227002 0 -0.46119618507356652 0.049359273152949731 0 -0.44286953411296898 0.045255716157198693 0 -0.46103932749027238 0.064238871702306077 0 -0.47816362815030861 0.043832779932641487 0 -0.46119618507356652 0.049359273152949731 0 -0.46442391639916691 0.036471327701905212 0 -0.46119618507356652 0.049359273152949731 0 -0.46442391639916691 0.036471327701905212 0 -0.45082509298125129 0.038608595210277222 0 -0.46442391639916691 0.036471327701905212 0 -0.45082509298125129 0.038608595210277222 0 -0.4583939967914884 0.024422211169287101 0 -0.45082509298125129 0.038608595210277222 0 -0.4583939967914884 0.024422211169287101 0 -0.46119618507356652 0.049359273152949731 0 -0.45082509298125129 0.038608595210277222 0 -0.44286953411296898 0.045255716157198693 0 -0.45082509298125129 0.038608595210277222 0 -0.4405409619944019 0.035432846457562263 0 -0.4458839614772655 0.023387518650519249 0 -0.45082509298125129 0.038608595210277222 0 -0.4405409619944019 0.035432846457562263 0 -0.44286953411296898 0.045255716157198693 0 -0.4405409619944019 0.035432846457562263 0 -0.44286953411296898 0.045255716157198693 0 -0.43229092530358848 0.04451632412921195 0 -0.44286953411296898 0.045255716157198693 0 -0.44282721760043869 0.062046251170956107 0 -0.46103932749027238 0.064238871702306077 0 -0.44286953411296898 0.045255716157198693 0 -0.44282721760043869 0.062046251170956107 0 -0.43188097302969042 0.056955122555226501 0 -0.44286953411296898 0.045255716157198693 0 -0.46103932749027238 0.064238871702306077 0 -0.46826183959192841 -0.01000530680732737 0 -0.45588653083934588 0.00041698580085632909 0 -0.4659629006017233 0.010235827128295859 0 -0.46826183959192841 -0.01000530680732737 0 -0.4659629006017233 0.010235827128295859 0 -0.45609316173783881 0.014082317838893479 0 -0.45588653083934588 0.00041698580085632909 0 -0.4659629006017233 0.010235827128295859 0 -0.46963945276383978 0.01793989872667965 0 -0.4659629006017233 0.010235827128295859 0 -0.4583939967914884 0.024422211169287101 0 -0.4659629006017233 0.010235827128295859 0 -0.4583939967914884 0.024422211169287101 0 -0.47541999506787802 0.025418180444172121 0 -0.46963945276383978 0.01793989872667965 0 -0.4583939967914884 0.024422211169287101 0 -0.47541999506787802 0.025418180444172121 0 -0.46442391639916691 0.036471327701905212 0 -0.4583939967914884 0.024422211169287101 0 -0.45609316173783881 0.014082317838893479 0 -0.4659629006017233 0.010235827128295859 0 -0.4583939967914884 0.024422211169287101 0 -0.45609316173783881 0.014082317838893479 0 -0.4583939967914884 0.024422211169287101 0 -0.4458839614772655 0.023387518650519249 0 -0.45082509298125129 0.038608595210277222 0 -0.4583939967914884 0.024422211169287101 0 -0.4458839614772655 0.023387518650519249 0 -0.4405409619944019 0.035432846457562263 0 -0.4458839614772655 0.023387518650519249 0 -0.43566193494816191 0.02574822372494872 0 -0.4458839614772655 0.023387518650519249 0 -0.4359559447540089 0.01018896392150693 0 -0.43566193494816191 0.02574822372494872 0 -0.4441818909265971 -0.00998157505946092 0 -0.44737850259376799 0.0077656591989471307 0 -0.4359559447540089 0.01018896392150693 0 -0.4458839614772655 0.023387518650519249 0 -0.44737850259376799 0.0077656591989471307 0 -0.4359559447540089 0.01018896392150693 0 -0.45609316173783881 0.014082317838893479 0 -0.4458839614772655 0.023387518650519249 0 -0.44737850259376799 0.0077656591989471307 0 -0.45609316173783881 0.014082317838893479 0 -0.45588653083934588 0.00041698580085632909 0 -0.44737850259376799 0.0077656591989471307 0 -0.4441818909265971 -0.00998157505946092 0 -0.4359559447540089 0.01018896392150693 0 -0.42578104856505677 0.0031949168855625672 0 -0.42578104856505677 0.0031949168855625672 0 -0.41622595309658328 0.016397403714119251 0 -0.42870406893849561 0.019163111370922251 0 -0.4359559447540089 0.01018896392150693 0 -0.42578104856505677 0.0031949168855625672 0 -0.42870406893849561 0.019163111370922251 0 -0.41753789792717189 -0.0038843189997757009 0 -0.42578104856505677 0.0031949168855625672 0 -0.41105156913745711 0.0034129409419674369 0 -0.42578104856505677 0.0031949168855625672 0 -0.40852807671777941 0.0155494406680463 0 -0.41622595309658328 0.016397403714119251 0 -0.42578104856505677 0.0031949168855625672 0 -0.40852807671777941 0.0155494406680463 0 -0.41105156913745711 0.0034129409419674369 0 -0.42578104856505677 0.0031949168855625672 0 -0.40852807671777941 0.0155494406680463 0 -0.42578104856505677 0.0031949168855625672 0 -0.41622595309658328 0.016397403714119251 0 -0.40852807671777941 0.0155494406680463 0 -0.41105156913745711 0.0034129409419674369 0 -0.40262572535869262 0.0089097845909437267 0 -0.40771050441737638 -0.0035262849216432719 0 -0.41105156913745711 0.0034129409419674369 0 -0.40226596945639398 0.0014711925349297271 0 -0.40667085762811028 0.029599890542676258 0 -0.41622595309658328 0.016397403714119251 0 -0.42870406893849561 0.019163111370922251 0 -0.40667085762811028 0.029599890542676258 0 -0.42870406893849561 0.019163111370922251 0 -0.40667085762811028 0.029599890542676258 0 -0.41990433555607742 0.03061685230769556 0 -0.42870406893849561 0.019163111370922251 0 -0.40852807671777941 0.0155494406680463 0 -0.40667085762811028 0.029599890542676258 0 -0.41622595309658328 0.016397403714119251 0 -0.40667085762811028 0.029599890542676258 0 -0.41622595309658328 0.016397403714119251 0 -0.41990433555607742 0.03061685230769556 0 -0.4284463216954002 0.029357354603554459 0 -0.42870406893849561 0.019163111370922251 0 -0.4359559447540089 0.01018896392150693 0 -0.42870406893849561 0.019163111370922251 0 -0.43566193494816191 0.02574822372494872 0 -0.4284463216954002 0.029357354603554459 0 -0.42870406893849561 0.019163111370922251 0 -0.43566193494816191 0.02574822372494872 0 -0.4284463216954002 0.029357354603554459 0 -0.43566193494816191 0.02574822372494872 0 -0.43264023121812112 0.033917661463996759 0 -0.4405409619944019 0.035432846457562263 0 -0.43264023121812112 0.033917661463996759 0 -0.43229092530358848 0.04451632412921195 0 -0.43264023121812112 0.033917661463996759 0 -0.43229092530358848 0.04451632412921195 0 -0.42532103781614489 0.037340924150209003 0 -0.4405409619944019 0.035432846457562263 0 -0.43566193494816191 0.02574822372494872 0 -0.43264023121812112 0.033917661463996759 0 -0.43229092530358848 0.04451632412921195 0 -0.42532103781614489 0.037340924150209003 0 -0.42042490988599091 0.046091327469671317 0 -0.4284463216954002 0.029357354603554459 0 -0.43264023121812112 0.033917661463996759 0 -0.42532103781614489 0.037340924150209003 0 -0.41990433555607742 0.03061685230769556 0 -0.4284463216954002 0.029357354603554459 0 -0.42532103781614489 0.037340924150209003 0 -0.43229092530358848 0.04451632412921195 0 -0.43188097302969042 0.056955122555226501 0 -0.42585725303016408 0.051510102087770737 0 -0.44286953411296898 0.045255716157198693 0 -0.43229092530358848 0.04451632412921195 0 -0.43188097302969042 0.056955122555226501 0 -0.43229092530358848 0.04451632412921195 0 -0.42585725303016408 0.051510102087770737 0 -0.42042490988599091 0.046091327469671317 0 -0.43188097302969042 0.056955122555226501 0 -0.41883220390138681 0.058477634196973202 0 -0.43131469147834472 0.070632617455275076 0 -0.43188097302969042 0.056955122555226501 0 -0.42585725303016408 0.051510102087770737 0 -0.41883220390138681 0.058477634196973202 0 -0.41883220390138681 0.058477634196973202 0 -0.40840220717331749 0.048304634434869917 0 -0.39985653820026013 0.060860810446949978 0 -0.42585725303016408 0.051510102087770737 0 -0.41883220390138681 0.058477634196973202 0 -0.42042490988599091 0.046091327469671317 0 -0.41883220390138681 0.058477634196973202 0 -0.40840220717331749 0.048304634434869917 0 -0.42042490988599091 0.046091327469671317 0 -0.41990433555607742 0.03061685230769556 0 -0.42532103781614489 0.037340924150209003 0 -0.4122967326089878 0.037821593301397609 0 -0.42532103781614489 0.037340924150209003 0 -0.42042490988599091 0.046091327469671317 0 -0.4122967326089878 0.037821593301397609 0 -0.40840220717331749 0.048304634434869917 0 -0.4122967326089878 0.037821593301397609 0 -0.40579981868685489 0.041495006097714962 0 -0.40840220717331749 0.048304634434869917 0 -0.42042490988599091 0.046091327469671317 0 -0.4122967326089878 0.037821593301397609 0 -0.4122967326089878 0.037821593301397609 0 -0.40278544391907911 0.034968452634622761 0 -0.40579981868685489 0.041495006097714962 0 -0.40667085762811028 0.029599890542676258 0 -0.4122967326089878 0.037821593301397609 0 -0.40278544391907911 0.034968452634622761 0 -0.40667085762811028 0.029599890542676258 0 -0.41990433555607742 0.03061685230769556 0 -0.4122967326089878 0.037821593301397609 0 -0.40667085762811028 0.029599890542676258 0 -0.40278544391907911 0.034968452634622761 0 -0.40667085762811028 0.029599890542676258 0 -0.38856614517843069 0.038175802748282091 0 -0.40667085762811028 0.029599890542676258 0 -0.38856614517843069 0.038175802748282091 0 -0.39127510487050182 0.027903964450529759 0 -0.40667085762811028 0.029599890542676258 0 -0.40278544391907911 0.034968452634622761 0 -0.38856614517843069 0.038175802748282091 0 -0.40278544391907911 0.034968452634622761 0 -0.40579981868685489 0.041495006097714962 0 -0.3977250587697031 0.045015474274426849 0 -0.40840220717331749 0.048304634434869917 0 -0.40579981868685489 0.041495006097714962 0 -0.3977250587697031 0.045015474274426849 0 -0.40278544391907911 0.034968452634622761 0 -0.3977250587697031 0.045015474274426849 0 -0.38856614517843069 0.038175802748282091 0 -0.40840220717331749 0.048304634434869917 0 -0.3977250587697031 0.045015474274426849 0 -0.39985653820026013 0.060860810446949978 0 -0.3977250587697031 0.045015474274426849 0 -0.39985653820026013 0.060860810446949978 0 -0.38472691017257071 0.052921849058569698 0 -0.39985653820026013 0.060860810446949978 0 -0.38472691017257071 0.052921849058569698 0 -0.38510762700538009 0.066428587654483159 0 -0.38472691017257071 0.052921849058569698 0 -0.37046143272875132 0.04675171495388801 0 -0.37000681959492809 0.05831264468359916 0 -0.38472691017257071 0.052921849058569698 0 -0.38510762700538009 0.066428587654483159 0 -0.37000681959492809 0.05831264468359916 0 -0.38856614517843069 0.038175802748282091 0 -0.37871402691879819 0.03757115751491092 0 -0.37046143272875132 0.04675171495388801 0 -0.38856614517843069 0.038175802748282091 0 -0.37046143272875132 0.04675171495388801 0 -0.38472691017257071 0.052921849058569698 0 -0.38856614517843069 0.038175802748282091 0 -0.37046143272875132 0.04675171495388801 0 -0.38856614517843069 0.038175802748282091 0 -0.38315308642314733 0.033917821982192238 0 -0.39127510487050182 0.027903964450529759 0 -0.38856614517843069 0.038175802748282091 0 -0.38315308642314733 0.033917821982192238 0 -0.37871402691879819 0.03757115751491092 0 -0.3977250587697031 0.045015474274426849 0 -0.38472691017257071 0.052921849058569698 0 -0.38856614517843069 0.038175802748282091 0 -0.37871402691879819 0.03757115751491092 0 -0.3764786745208083 0.032098692741998169 0 -0.37046143272875132 0.04675171495388801 0 -0.38315308642314733 0.033917821982192238 0 -0.3764786745208083 0.032098692741998169 0 -0.38155727091044611 0.028316364585127811 0 -0.38315308642314733 0.033917821982192238 0 -0.37871402691879819 0.03757115751491092 0 -0.3764786745208083 0.032098692741998169 0 -0.3764786745208083 0.032098692741998169 0 -0.38155727091044611 0.028316364585127811 0 -0.37960108001976323 0.022263106047543741 0 -0.37960108001976323 0.022263106047543741 0 -0.37998819155715241 0.0057865511937031933 0 -0.37123175334181557 0.027162262264614271 0 -0.3764786745208083 0.032098692741998169 0 -0.37960108001976323 0.022263106047543741 0 -0.37123175334181557 0.027162262264614271 0 -0.38155727091044611 0.028316364585127811 0 -0.38533699425949169 0.022674384769296389 0 -0.37960108001976323 0.022263106047543741 0 -0.38155727091044611 0.028316364585127811 0 -0.38533699425949169 0.022674384769296389 0 -0.39127510487050182 0.027903964450529759 0 -0.38315308642314733 0.033917821982192238 0 -0.38155727091044611 0.028316364585127811 0 -0.39127510487050182 0.027903964450529759 0 -0.39054146691731162 0.018060194648231769 0 -0.38533699425949169 0.022674384769296389 0 -0.39127510487050182 0.027903964450529759 0 -0.38533699425949169 0.022674384769296389 0 -0.3837100485794358 0.01682829411504885 0 -0.37960108001976323 0.022263106047543741 0 -0.39054146691731162 0.018060194648231769 0 -0.38533699425949169 0.022674384769296389 0 -0.3837100485794358 0.01682829411504885 0 -0.3837100485794358 0.01682829411504885 0 -0.37960108001976323 0.022263106047543741 0 -0.37998819155715241 0.0057865511937031933 0 -0.37998819155715241 0.0057865511937031933 0 -0.38683543611469601 0.0001369023841863784 0 -0.36064890389212972 0.0125435277679194 0 -0.37998819155715241 0.0057865511937031933 0 -0.38683543611469601 0.0001369023841863784 0 -0.38901012294298121 0.0062908016400105649 0 -0.38683543611469601 0.0001369023841863784 0 -0.38901012294298121 0.0062908016400105649 0 -0.39501457079486157 0.0055715078560810288 0 -0.37998819155715241 0.0057865511937031933 0 -0.38901012294298121 0.0062908016400105649 0 -0.38744744785130802 0.01185902438546781 0 -0.3837100485794358 0.01682829411504885 0 -0.37998819155715241 0.0057865511937031933 0 -0.38744744785130802 0.01185902438546781 0 -0.38901012294298121 0.0062908016400105649 0 -0.38744744785130802 0.01185902438546781 0 -0.39422738021243581 0.01127211946813913 0 -0.39054146691731162 0.018060194648231769 0 -0.3837100485794358 0.01682829411504885 0 -0.38744744785130802 0.01185902438546781 0 -0.39054146691731162 0.018060194648231769 0 -0.39422738021243581 0.01127211946813913 0 -0.39743955081534421 0.016339100765178138 0 -0.39054146691731162 0.018060194648231769 0 -0.38744744785130802 0.01185902438546781 0 -0.39422738021243581 0.01127211946813913 0 -0.39422738021243581 0.01127211946813913 0 -0.39501457079486157 0.0055715078560810288 0 -0.40262572535869262 0.0089097845909437267 0 -0.39422738021243581 0.01127211946813913 0 -0.40262572535869262 0.0089097845909437267 0 -0.39743955081534421 0.016339100765178138 0 -0.38683543611469601 0.0001369023841863784 0 -0.39501457079486157 0.0055715078560810288 0 -0.40226596945639398 0.0014711925349297271 0 -0.38901012294298121 0.0062908016400105649 0 -0.39422738021243581 0.01127211946813913 0 -0.39501457079486157 0.0055715078560810288 0 -0.41105156913745711 0.0034129409419674369 0 -0.40226596945639398 0.0014711925349297271 0 -0.40262572535869262 0.0089097845909437267 0 -0.39501457079486157 0.0055715078560810288 0 -0.40226596945639398 0.0014711925349297271 0 -0.40262572535869262 0.0089097845909437267 0 -0.40852807671777941 0.0155494406680463 0 -0.40262572535869262 0.0089097845909437267 0 -0.39743955081534421 0.016339100765178138 0 -0.40852807671777941 0.0155494406680463 0 -0.39127510487050182 0.027903964450529759 0 -0.40852807671777941 0.0155494406680463 0 -0.40667085762811028 0.029599890542676258 0 -0.39127510487050182 0.027903964450529759 0 -0.40852807671777941 0.0155494406680463 0 -0.39127510487050182 0.027903964450529759 0 -0.39743955081534421 0.016339100765178138 0 -0.39054146691731162 0.018060194648231769 0 -0.39127510487050182 0.027903964450529759 0 -0.39743955081534421 0.016339100765178138 0 -0.39792088922733271 0.1160922105611595 0 -0.40104213778508202 0.092866093853817611 0 -0.41467909406405851 0.1139188519362445 0 -0.39792088922733271 0.1160922105611595 0 -0.3782625711058698 0.101617738696854 0 -0.40104213778508202 0.092866093853817611 0 -0.3782625711058698 0.101617738696854 0 -0.38372255811484618 0.13025780258704611 0 -0.3782625711058698 0.101617738696854 0 -0.38372255811484618 0.13025780258704611 0 -0.36747352968705388 0.12273486311700831 0 -0.39792088922733271 0.1160922105611595 0 -0.3782625711058698 0.101617738696854 0 -0.38372255811484618 0.13025780258704611 0 -0.39792088922733271 0.1160922105611595 0 -0.3782625711058698 0.101617738696854 0 -0.3782625711058698 0.101617738696854 0 -0.40104213778508202 0.092866093853817611 0 -0.37470600383380392 0.082961959162170973 0 -0.39520328107527708 0.075997639864115257 0 -0.40104213778508202 0.092866093853817611 0 -0.37470600383380392 0.082961959162170973 0 -0.3782625711058698 0.101617738696854 0 -0.37470600383380392 0.082961959162170973 0 -0.40104213778508202 0.092866093853817611 0 -0.37470600383380392 0.082961959162170973 0 -0.38510762700538009 0.066428587654483159 0 -0.37000681959492809 0.05831264468359916 0 -0.37470600383380392 0.082961959162170973 0 -0.38510762700538009 0.066428587654483159 0 -0.39520328107527708 0.075997639864115257 0 -0.37470600383380392 0.082961959162170973 0 -0.39985653820026013 0.060860810446949978 0 -0.39520328107527708 0.075997639864115257 0 -0.41322693425173768 0.074694678089132868 0 -0.39985653820026013 0.060860810446949978 0 -0.38510762700538009 0.066428587654483159 0 -0.39520328107527708 0.075997639864115257 0 -0.39520328107527708 0.075997639864115257 0 -0.40104213778508202 0.092866093853817611 0 -0.41322693425173768 0.074694678089132868 0 -0.40104213778508202 0.092866093853817611 0 -0.41322693425173768 0.074694678089132868 0 -0.42957324029363853 0.085693113452461764 0 -0.41883220390138681 0.058477634196973202 0 -0.41322693425173768 0.074694678089132868 0 -0.43131469147834472 0.070632617455275076 0 -0.41883220390138681 0.058477634196973202 0 -0.39985653820026013 0.060860810446949978 0 -0.41322693425173768 0.074694678089132868 0 -0.43131469147834472 0.070632617455275076 0 -0.42957324029363853 0.085693113452461764 0 -0.4470315618909167 0.073148927984774167 0 -0.41322693425173768 0.074694678089132868 0 -0.43131469147834472 0.070632617455275076 0 -0.42957324029363853 0.085693113452461764 0 -0.44282721760043869 0.062046251170956107 0 -0.43188097302969042 0.056955122555226501 0 -0.43131469147834472 0.070632617455275076 0 -0.42957324029363853 0.085693113452461764 0 -0.42737827173636012 0.1027702285454639 0 -0.44343173260412461 0.097571970950778963 0 -0.40104213778508202 0.092866093853817611 0 -0.42737827173636012 0.1027702285454639 0 -0.41467909406405851 0.1139188519362445 0 -0.40104213778508202 0.092866093853817611 0 -0.42737827173636012 0.1027702285454639 0 -0.40104213778508202 0.092866093853817611 0 -0.42957324029363853 0.085693113452461764 0 -0.42737827173636012 0.1027702285454639 0 -0.39792088922733271 0.1160922105611595 0 -0.41467909406405851 0.1139188519362445 0 -0.417579207348795 0.13056668242546571 0 -0.39792088922733271 0.1160922105611595 0 -0.417579207348795 0.13056668242546571 0 -0.41467909406405851 0.1139188519362445 0 -0.42608096723388439 0.1205091241492761 0 -0.417579207348795 0.13056668242546571 0 -0.42737827173636012 0.1027702285454639 0 -0.41467909406405851 0.1139188519362445 0 -0.42608096723388439 0.1205091241492761 0 -0.42737827173636012 0.1027702285454639 0 -0.42608096723388439 0.1205091241492761 0 -0.43826405507869293 0.1195835460605416 0 -0.42608096723388439 0.1205091241492761 0 -0.43826405507869293 0.1195835460605416 0 -0.43293323699752101 0.1317554923945817 0 -0.43826405507869293 0.1195835460605416 0 -0.45371440568763749 0.1126743632371118 0 -0.44901593584904892 0.12912088192892021 0 -0.42737827173636012 0.1027702285454639 0 -0.43826405507869293 0.1195835460605416 0 -0.45371440568763749 0.1126743632371118 0 -0.4523882543875366 0.10983005993361 0 -0.45371440568763749 0.1126743632371118 0 -0.42737827173636012 0.1027702285454639 0 -0.4523882543875366 0.10983005993361 0 -0.44343173260412461 0.097571970950778963 0 -0.42737827173636012 0.1027702285454639 0 -0.4523882543875366 0.10983005993361 0 -0.45371440568763749 0.1126743632371118 0 -0.42737827173636012 0.1027702285454639 0 -0.45371440568763749 0.1126743632371118 0 -0.44343173260412461 0.097571970950778963 0 -0.45084974973894648 0.096020795281878568 0 -0.45306155814551219 0.1028275296158008 0 -0.44343173260412461 0.097571970950778963 0 -0.45084974973894648 0.096020795281878568 0 -0.44733932132275389 0.088290098875458828 0 -0.4523882543875366 0.10983005993361 0 -0.44343173260412461 0.097571970950778963 0 -0.45306155814551219 0.1028275296158008 0 -0.4523882543875366 0.10983005993361 0 -0.45306155814551219 0.1028275296158008 0 -0.45661100561120399 0.109540819014999 0 -0.45306155814551219 0.1028275296158008 0 -0.46084618436187341 0.10490351706993729 0 -0.45661100561120399 0.109540819014999 0 -0.45306155814551219 0.1028275296158008 0 -0.46084618436187341 0.10490351706993729 0 -0.45799439118323759 0.099220837031069903 0 -0.46084618436187341 0.10490351706993729 0 -0.4635407771028337 0.1124237257980706 0 -0.45661100561120399 0.109540819014999 0 -0.45799439118323759 0.099220837031069903 0 -0.46723244863383712 0.097971273043108306 0 -0.45594156200913483 0.091684632610025046 0 -0.45084974973894648 0.096020795281878568 0 -0.45799439118323759 0.099220837031069903 0 -0.45594156200913483 0.091684632610025046 0 -0.45084974973894648 0.096020795281878568 0 -0.45306155814551219 0.1028275296158008 0 -0.45799439118323759 0.099220837031069903 0 -0.46084618436187341 0.10490351706993729 0 -0.45799439118323759 0.099220837031069903 0 -0.46723244863383712 0.097971273043108306 0 -0.46084618436187341 0.10490351706993729 0 -0.46723244863383712 0.097971273043108306 0 -0.46686982756835349 0.1074114054382402 0 -0.46084618436187341 0.10490351706993729 0 -0.46686982756835349 0.1074114054382402 0 -0.4635407771028337 0.1124237257980706 0 -0.45371440568763749 0.1126743632371118 0 -0.46425598871103851 0.13528374379222011 0 -0.4635407771028337 0.1124237257980706 0 -0.45674497769142258 0.1138140594952527 0 -0.46958882025875243 0.12035793204680111 0 -0.46686982756835349 0.1074114054382402 0 -0.4635407771028337 0.1124237257980706 0 -0.47044075898603932 0.11380610730348489 0 -0.4635407771028337 0.1124237257980706 0 -0.46958882025875243 0.12035793204680111 0 -0.47044075898603932 0.11380610730348489 0 -0.45674497769142258 0.1138140594952527 0 -0.45371440568763749 0.1126743632371118 0 -0.46425598871103851 0.13528374379222011 0 -0.45674497769142258 0.1138140594952527 0 -0.46958882025875243 0.12035793204680111 0 -0.46425598871103851 0.13528374379222011 0 -0.4523882543875366 0.10983005993361 0 -0.45661100561120399 0.109540819014999 0 -0.45371440568763749 0.1126743632371118 0 -0.45674497769142258 0.1138140594952527 0 -0.45661100561120399 0.109540819014999 0 -0.45371440568763749 0.1126743632371118 0 -0.45674497769142258 0.1138140594952527 0 -0.45371440568763749 0.1126743632371118 0 -0.4635407771028337 0.1124237257980706 0 -0.45674497769142258 0.1138140594952527 0 -0.45661100561120399 0.109540819014999 0 -0.44282721760043869 0.062046251170956107 0 -0.4470315618909167 0.073148927984774167 0 -0.46103932749027238 0.064238871702306077 0 -0.44282721760043869 0.062046251170956107 0 -0.43131469147834472 0.070632617455275076 0 -0.4470315618909167 0.073148927984774167 0 -0.42957324029363853 0.085693113452461764 0 -0.44343173260412461 0.097571970950778963 0 -0.44733932132275389 0.088290098875458828 0 -0.42957324029363853 0.085693113452461764 0 -0.4470315618909167 0.073148927984774167 0 -0.44733932132275389 0.088290098875458828 0 -0.4470315618909167 0.073148927984774167 0 -0.44733932132275389 0.088290098875458828 0 -0.46047789149500767 0.082617330138573752 0 -0.45084974973894648 0.096020795281878568 0 -0.44733932132275389 0.088290098875458828 0 -0.45594156200913483 0.091684632610025046 0 -0.44733932132275389 0.088290098875458828 0 -0.45594156200913483 0.091684632610025046 0 -0.46047789149500767 0.082617330138573752 0 -0.46723244863383712 0.097971273043108306 0 -0.45594156200913483 0.091684632610025046 0 -0.46047789149500767 0.082617330138573752 0 -0.46047789149500767 0.082617330138573752 0 -0.46103932749027238 0.064238871702306077 0 -0.47920912086757578 0.083222027247413538 0 -0.4470315618909167 0.073148927984774167 0 -0.46047789149500767 0.082617330138573752 0 -0.46103932749027238 0.064238871702306077 0 -0.46103932749027238 0.064238871702306077 0 -0.48068047186290208 0.063626500276227002 0 -0.47920912086757578 0.083222027247413538 0 -0.46103932749027238 0.064238871702306077 0 -0.47920912086757578 0.083222027247413538 0 -0.46723244863383712 0.097971273043108306 0 -0.46047789149500767 0.082617330138573752 0 -0.47920912086757578 0.083222027247413538 0 -0.48068047186290208 0.063626500276227002 0 -0.47920912086757578 0.083222027247413538 0 -0.5 0.088432580532893601 0 -0.47920912086757578 0.083222027247413538 0 -0.49737891424487929 0.102205182792521 0 -0.47920912086757578 0.083222027247413538 0 -0.5 0.088432580532893601 0 -0.49737891424487929 0.102205182792521 0 -0.5 0.060034093897511798 0 -0.48068047186290208 0.063626500276227002 0 -0.5 0.088432580532893601 0 -0.47827810320487629 0.116675775998883 0 -0.48837893466537508 0.1117690854599766 0 -0.4842723158563047 0.1301441798928954 0 -0.47827810320487629 0.116675775998883 0 -0.47512549980118862 0.10796659812409699 0 -0.48837893466537508 0.1117690854599766 0 -0.47827810320487629 0.116675775998883 0 -0.46958882025875243 0.12035793204680111 0 -0.4842723158563047 0.1301441798928954 0 -0.47827810320487629 0.116675775998883 0 -0.47044075898603932 0.11380610730348489 0 -0.47512549980118862 0.10796659812409699 0 -0.46686982756835349 0.1074114054382402 0 -0.47044075898603932 0.11380610730348489 0 -0.47512549980118862 0.10796659812409699 0 -0.47827810320487629 0.116675775998883 0 -0.46958882025875243 0.12035793204680111 0 -0.47044075898603932 0.11380610730348489 0 -0.46723244863383712 0.097971273043108306 0 -0.47512549980118862 0.10796659812409699 0 -0.48162445158666772 0.1005823670901454 0 -0.46723244863383712 0.097971273043108306 0 -0.47920912086757578 0.083222027247413538 0 -0.48162445158666772 0.1005823670901454 0 -0.46723244863383712 0.097971273043108306 0 -0.46686982756835349 0.1074114054382402 0 -0.47512549980118862 0.10796659812409699 0 -0.47512549980118862 0.10796659812409699 0 -0.48162445158666772 0.1005823670901454 0 -0.48837893466537508 0.1117690854599766 0 -0.48162445158666772 0.1005823670901454 0 -0.49737891424487929 0.102205182792521 0 -0.48837893466537508 0.1117690854599766 0 -0.47920912086757578 0.083222027247413538 0 -0.48162445158666772 0.1005823670901454 0 -0.49737891424487929 0.102205182792521 0 -0.5 0.088432580532893601 0 -0.49737891424487929 0.102205182792521 0 -0.5 0.1168310671682755 0 -0.49737891424487929 0.102205182792521 0 -0.5 0.1168310671682755 0 -0.48837893466537508 0.1117690854599766 0 -0.5 0.1168310671682755 0 -0.48837893466537508 0.1117690854599766 0 -0.4842723158563047 0.1301441798928954 0 -0.5 0.1168310671682755 0 -0.4842723158563047 0.1301441798928954 0 -0.5 0.14522955380365729 0 -0.46958882025875243 0.12035793204680111 0 -0.4842723158563047 0.1301441798928954 0 -0.46425598871103851 0.13528374379222011 0 -0.4842723158563047 0.1301441798928954 0 -0.47479757173443998 0.15789312434732811 0 -0.46425598871103851 0.13528374379222011 0 -0.47479757173443998 0.15789312434732811 0 -0.46425598871103851 0.13528374379222011 0 -0.4842723158563047 0.1301441798928954 0 -0.5 0.14522955380365729 0 -0.47479757173443998 0.15789312434732811 0 -0.5 0.14522955380365729 0 -0.49999999999999972 0.17362804043903909 0 -0.47479757173443998 0.15789312434732811 0 -0.49999999999999972 0.17362804043903909 0 -0.47479757173443998 0.15789312434732811 0 -0.49999999999999972 0.17362804043903909 0 -0.49200992699072321 0.1743962810239672 0 -0.47479757173443998 0.15789312434732811 0 -0.48341269367675271 0.17637066895233999 0 -0.49170634683837577 0.1941587336203292 0 -0.49368671912131301 0.1828531969182482 0 -0.49999999999999972 0.17362804043903909 0 -0.5 0.19278741936367841 0 -0.49368671912131301 0.1828531969182482 0 -0.48341269367675271 0.17637066895233999 0 -0.49170634683837577 0.1941587336203292 0 -0.49368671912131301 0.1828531969182482 0 -0.49999999999999972 0.17362804043903909 0 -0.49200992699072321 0.1743962810239672 0 -0.49200992699072321 0.1743962810239672 0 -0.48341269367675271 0.17637066895233999 0 -0.49368671912131301 0.1828531969182482 0 -0.49200992699072321 0.1743962810239672 0 -0.48341269367675271 0.17637066895233999 0 -0.48341269367675271 0.17637066895233999 0 -0.45591042926964898 0.18268667049205081 0 -0.47274380268756999 0.19288508587190861 0 -0.48341269367675271 0.17637066895233999 0 -0.45591042926964898 0.18268667049205081 0 -0.49200992699072321 0.1743962810239672 0 -0.48341269367675271 0.17637066895233999 0 -0.47479757173443998 0.15789312434732811 0 -0.48341269367675271 0.17637066895233999 0 -0.47479757173443998 0.15789312434732811 0 -0.48341269367675271 0.17637066895233999 0 -0.47479757173443998 0.15789312434732811 0 -0.45723956394668003 0.16387676974864759 0 -0.48341269367675271 0.17637066895233999 0 -0.45723956394668003 0.16387676974864759 0 -0.45591042926964898 0.18268667049205081 0 -0.45591042926964898 0.18268667049205081 0 -0.43992511097516529 0.17411109905454999 0 -0.4284081648625454 0.1890026720317621 0 -0.45591042926964898 0.18268667049205081 0 -0.4284081648625454 0.1890026720317621 0 -0.45723956394668003 0.16387676974864759 0 -0.45591042926964898 0.18268667049205081 0 -0.43992511097516529 0.17411109905454999 0 -0.45723956394668003 0.16387676974864759 0 -0.43992511097516529 0.17411109905454999 0 -0.43892522612619872 0.15930650560997939 0 -0.43892522612619872 0.15930650560997939 0 -0.43796764784210812 0.14528805014891141 0 -0.45386540436598038 0.14482430837095511 0 -0.45723956394668003 0.16387676974864759 0 -0.43892522612619872 0.15930650560997939 0 -0.45386540436598038 0.14482430837095511 0 -0.45386540436598038 0.14482430837095511 0 -0.43293323699752101 0.1317554923945817 0 -0.43826405507869293 0.1195835460605416 0 -0.44901593584904892 0.12912088192892021 0 -0.43293323699752101 0.1317554923945817 0 -0.43796764784210812 0.14528805014891141 0 -0.45386540436598038 0.14482430837095511 0 -0.43293323699752101 0.1317554923945817 0 -0.44901593584904892 0.12912088192892021 0 -0.45386540436598038 0.14482430837095511 0 -0.43293323699752101 0.1317554923945817 0 -0.45371440568763749 0.1126743632371118 0 -0.44901593584904892 0.12912088192892021 0 -0.46425598871103851 0.13528374379222011 0 -0.44901593584904892 0.12912088192892021 0 -0.46425598871103851 0.13528374379222011 0 -0.45386540436598038 0.14482430837095511 0 -0.47479757173443998 0.15789312434732811 0 -0.45723956394668003 0.16387676974864759 0 -0.45386540436598038 0.14482430837095511 0 -0.47479757173443998 0.15789312434732811 0 -0.46425598871103851 0.13528374379222011 0 -0.45386540436598038 0.14482430837095511 0 -0.47479757173443998 0.15789312434732811 0 -0.45386540436598038 0.14482430837095511 0 -0.48226153920099157 0.23766317590200001 0 -0.47864167104372218 0.246590621409366 0 -0.48932095354102823 0.25454658797793611 0 -0.47315400564016008 0.2364435414805684 0 -0.47864167104372218 0.246590621409366 0 -0.46938038244821267 0.25133041049185839 0 -0.47315400564016008 0.2364435414805684 0 -0.48226153920099157 0.23766317590200001 0 -0.47864167104372218 0.246590621409366 0 -0.49106398183666961 0.22759324404760359 0 -0.48932095354102823 0.25454658797793611 0 -0.5 0.23810140997737081 0 -0.49106398183666961 0.22759324404760359 0 -0.48932095354102823 0.25454658797793611 0 -0.48226153920099157 0.23766317590200001 0 -0.49106398183666961 0.22759324404760359 0 -0.48932095354102823 0.25454658797793611 0 -0.5 0.23810140997737081 0 -0.49106398183666961 0.22759324404760359 0 -0.50000000000000022 0.21194679828831781 0 -0.49106398183666961 0.22759324404760359 0 -0.47912708394337772 0.2231418845945258 0 -0.48726644121087642 0.21298690825741631 0 -0.48226153920099157 0.23766317590200001 0 -0.49106398183666961 0.22759324404760359 0 -0.47912708394337772 0.2231418845945258 0 -0.47315400564016008 0.2364435414805684 0 -0.48226153920099157 0.23766317590200001 0 -0.47912708394337772 0.2231418845945258 0 -0.47315400564016008 0.2364435414805684 0 -0.47912708394337772 0.2231418845945258 0 -0.46764368341616458 0.22415830119077751 0 -0.47912708394337772 0.2231418845945258 0 -0.47360767850491831 0.20951316246361981 0 -0.46764368341616458 0.22415830119077751 0 -0.47360767850491831 0.20951316246361981 0 -0.48726644121087642 0.21298690825741631 0 -0.49170634683837577 0.1941587336203292 0 -0.47912708394337772 0.2231418845945258 0 -0.47360767850491831 0.20951316246361981 0 -0.48726644121087642 0.21298690825741631 0 -0.49106398183666961 0.22759324404760359 0 -0.50000000000000022 0.21194679828831781 0 -0.48726644121087642 0.21298690825741631 0 -0.50000000000000022 0.21194679828831781 0 -0.48726644121087642 0.21298690825741631 0 -0.49170634683837577 0.1941587336203292 0 -0.50000000000000022 0.21194679828831781 0 -0.49170634683837577 0.1941587336203292 0 -0.50000000000000022 0.21194679828831781 0 -0.5 0.19278741936367841 0 -0.49170634683837577 0.1941587336203292 0 -0.49368671912131301 0.1828531969182482 0 -0.5 0.19278741936367841 0 -0.49170634683837577 0.1941587336203292 0 -0.48341269367675271 0.17637066895233999 0 -0.49170634683837577 0.1941587336203292 0 -0.47274380268756999 0.19288508587190861 0 -0.47360767850491831 0.20951316246361981 0 -0.49170634683837577 0.1941587336203292 0 -0.47274380268756999 0.19288508587190861 0 -0.47360767850491831 0.20951316246361981 0 -0.47274380268756999 0.19288508587190861 0 -0.45820261548712909 0.20353130823034371 0 -0.45591042926964898 0.18268667049205081 0 -0.47274380268756999 0.19288508587190861 0 -0.45820261548712909 0.20353130823034371 0 -0.45591042926964898 0.18268667049205081 0 -0.43516662619925378 0.20614333559983469 0 -0.4284081648625454 0.1890026720317621 0 -0.45591042926964898 0.18268667049205081 0 -0.45820261548712909 0.20353130823034371 0 -0.43516662619925378 0.20614333559983469 0 -0.44192508753596349 0.22328399916790689 0 -0.43516662619925378 0.20614333559983469 0 -0.45032248765871591 0.2151961798839368 0 -0.44192508753596349 0.22328399916790689 0 -0.43516662619925378 0.20614333559983469 0 -0.45032248765871591 0.2151961798839368 0 -0.45820261548712909 0.20353130823034371 0 -0.43516662619925378 0.20614333559983469 0 -0.45032248765871591 0.2151961798839368 0 -0.46109406183397039 0.21551848415653921 0 -0.45620465585954723 0.2251951411450015 0 -0.45032248765871591 0.2151961798839368 0 -0.45820261548712909 0.20353130823034371 0 -0.46109406183397039 0.21551848415653921 0 -0.47360767850491831 0.20951316246361981 0 -0.45820261548712909 0.20353130823034371 0 -0.46109406183397039 0.21551848415653921 0 -0.47360767850491831 0.20951316246361981 0 -0.46109406183397039 0.21551848415653921 0 -0.46764368341616458 0.22415830119077751 0 -0.47315400564016008 0.2364435414805684 0 -0.46764368341616458 0.22415830119077751 0 -0.45925329591452863 0.2407771106774913 0 -0.46764368341616458 0.22415830119077751 0 -0.45620465585954723 0.2251951411450015 0 -0.45925329591452863 0.2407771106774913 0 -0.46109406183397039 0.21551848415653921 0 -0.46764368341616458 0.22415830119077751 0 -0.45620465585954723 0.2251951411450015 0 -0.45032248765871591 0.2151961798839368 0 -0.45620465585954723 0.2251951411450015 0 -0.44192508753596349 0.22328399916790689 0 -0.44192508753596349 0.22328399916790689 0 -0.44062222049055039 0.24203477259657111 0 -0.43146145522804691 0.2313120115293863 0 -0.45620465585954723 0.2251951411450015 0 -0.44062222049055039 0.24203477259657111 0 -0.45620465585954723 0.2251951411450015 0 -0.44192508753596349 0.22328399916790689 0 -0.44062222049055039 0.24203477259657111 0 -0.44062222049055039 0.24203477259657111 0 -0.45046339488490522 0.249057113070103 0 -0.44442574262614493 0.25832327296872359 0 -0.44062222049055039 0.24203477259657111 0 -0.45046339488490522 0.249057113070103 0 -0.45925329591452863 0.2407771106774913 0 -0.45620465585954723 0.2251951411450015 0 -0.44062222049055039 0.24203477259657111 0 -0.45925329591452863 0.2407771106774913 0 -0.45046339488490522 0.249057113070103 0 -0.45925329591452863 0.2407771106774913 0 -0.45807104112411212 0.25534721177055669 0 -0.45925329591452863 0.2407771106774913 0 -0.46938038244821267 0.25133041049185839 0 -0.45807104112411212 0.25534721177055669 0 -0.47315400564016008 0.2364435414805684 0 -0.45925329591452863 0.2407771106774913 0 -0.46938038244821267 0.25133041049185839 0 -0.4198454647722451 0.23985190764030939 0 -0.40081965837488509 0.24074316727492401 0 -0.40585136056822319 0.25674789398696107 0 -0.4198454647722451 0.23985190764030939 0 -0.405480724964072 0.22581663549259839 0 -0.40081965837488509 0.24074316727492401 0 -0.44062222049055039 0.24203477259657111 0 -0.4198454647722451 0.23985190764030939 0 -0.42503978512155383 0.25887440404814072 0 -0.44062222049055039 0.24203477259657111 0 -0.4198454647722451 0.23985190764030939 0 -0.43146145522804691 0.2313120115293863 0 -0.4198454647722451 0.23985190764030939 0 -0.43146145522804691 0.2313120115293863 0 -0.42370673975344808 0.22056464269113771 0 -0.44192508753596349 0.22328399916790689 0 -0.43146145522804691 0.2313120115293863 0 -0.42370673975344808 0.22056464269113771 0 -0.4198454647722451 0.23985190764030939 0 -0.42370673975344808 0.22056464269113771 0 -0.405480724964072 0.22581663549259839 0 -0.42370673975344808 0.22056464269113771 0 -0.40708390191205951 0.20882890034131879 0 -0.405480724964072 0.22581663549259839 0 -0.42370673975344808 0.22056464269113771 0 -0.40708390191205951 0.20882890034131879 0 -0.42107335870595469 0.2022269477122331 0 -0.44192508753596349 0.22328399916790689 0 -0.42370673975344808 0.22056464269113771 0 -0.43516662619925378 0.20614333559983469 0 -0.42370673975344808 0.22056464269113771 0 -0.43516662619925378 0.20614333559983469 0 -0.42107335870595469 0.2022269477122331 0 -0.43516662619925378 0.20614333559983469 0 -0.4284081648625454 0.1890026720317621 0 -0.42107335870595469 0.2022269477122331 0 -0.43516662619925378 0.20614333559983469 0 -0.4284081648625454 0.1890026720317621 0 -0.4284081648625454 0.1890026720317621 0 -0.40915969581062839 0.19342315750049971 0 -0.4284081648625454 0.1890026720317621 0 -0.42107335870595469 0.2022269477122331 0 -0.40915969581062839 0.19342315750049971 0 -0.40708390191205951 0.20882890034131879 0 -0.42107335870595469 0.2022269477122331 0 -0.40915969581062839 0.19342315750049971 0 -0.40708390191205951 0.20882890034131879 0 -0.40915969581062839 0.19342315750049971 0 -0.38991122675871148 0.19784364296923759 0 -0.40915969581062839 0.19342315750049971 0 -0.38991122675871148 0.19784364296923759 0 -0.40915969581062839 0.19342315750049971 0 -0.38991122675871148 0.19784364296923759 0 -0.39569501158598158 0.17813944679546001 0 -0.39158905321283283 0.2136173787495643 0 -0.38435338999826391 0.22831720607051781 0 -0.36414166766971379 0.2074649771098355 0 -0.38991122675871148 0.19784364296923759 0 -0.39158905321283283 0.2136173787495643 0 -0.36414166766971379 0.2074649771098355 0 -0.40708390191205951 0.20882890034131879 0 -0.39158905321283283 0.2136173787495643 0 -0.405480724964072 0.22581663549259839 0 -0.40708390191205951 0.20882890034131879 0 -0.38991122675871148 0.19784364296923759 0 -0.39158905321283283 0.2136173787495643 0 -0.405480724964072 0.22581663549259839 0 -0.38435338999826391 0.22831720607051781 0 -0.40081965837488509 0.24074316727492401 0 -0.39158905321283283 0.2136173787495643 0 -0.405480724964072 0.22581663549259839 0 -0.38435338999826391 0.22831720607051781 0 -0.37619177155740557 0.24036243622333081 0 -0.38790582398472923 0.24962922847932231 0 -0.36318679658289171 0.25196182354824148 0 -0.38435338999826391 0.22831720607051781 0 -0.37619177155740557 0.24036243622333081 0 -0.38790582398472923 0.24962922847932231 0 -0.38435338999826391 0.22831720607051781 0 -0.38790582398472923 0.24962922847932231 0 -0.40081965837488509 0.24074316727492401 0 -0.38790582398472923 0.24962922847932231 0 -0.40081965837488509 0.24074316727492401 0 -0.40585136056822319 0.25674789398696107 0 -0.40926453963391513 0.14045102348790381 0 -0.42614672387873248 0.14526589422012931 0 -0.41883635224822963 0.16472684775983329 0 -0.40926453963391513 0.14045102348790381 0 -0.41883635224822963 0.16472684775983329 0 -0.40926453963391513 0.14045102348790381 0 -0.41883635224822963 0.16472684775983329 0 -0.40029434983296169 0.15790366282291429 0 -0.40926453963391513 0.14045102348790381 0 -0.417579207348795 0.13056668242546571 0 -0.40026410281127539 0.13237877311027449 0 -0.40926453963391513 0.14045102348790381 0 -0.417579207348795 0.13056668242546571 0 -0.42614672387873248 0.14526589422012931 0 -0.417579207348795 0.13056668242546571 0 -0.43293323699752101 0.1317554923945817 0 -0.42614672387873248 0.14526589422012931 0 -0.42608096723388439 0.1205091241492761 0 -0.417579207348795 0.13056668242546571 0 -0.43293323699752101 0.1317554923945817 0 -0.43796764784210812 0.14528805014891141 0 -0.43293323699752101 0.1317554923945817 0 -0.42614672387873248 0.14526589422012931 0 -0.43892522612619872 0.15930650560997939 0 -0.43796764784210812 0.14528805014891141 0 -0.42614672387873248 0.14526589422012931 0 -0.43892522612619872 0.15930650560997939 0 -0.42614672387873248 0.14526589422012931 0 -0.41883635224822963 0.16472684775983329 0 -0.43992511097516529 0.17411109905454999 0 -0.43892522612619872 0.15930650560997939 0 -0.41883635224822963 0.16472684775983329 0 -0.4284081648625454 0.1890026720317621 0 -0.41883635224822963 0.16472684775983329 0 -0.43992511097516529 0.17411109905454999 0 -0.4284081648625454 0.1890026720317621 0 -0.41883635224822963 0.16472684775983329 0 -0.40915969581062839 0.19342315750049971 0 -0.41883635224822963 0.16472684775983329 0 -0.39569501158598158 0.17813944679546001 0 -0.4284081648625454 0.1890026720317621 0 -0.40915969581062839 0.19342315750049971 0 -0.41883635224822963 0.16472684775983329 0 -0.40029434983296169 0.15790366282291429 0 -0.39569501158598158 0.17813944679546001 0 -0.38484252596519369 0.16167484958157691 0 -0.41883635224822963 0.16472684775983329 0 -0.40029434983296169 0.15790366282291429 0 -0.39569501158598158 0.17813944679546001 0 -0.39569501158598158 0.17813944679546001 0 -0.38484252596519369 0.16167484958157691 0 -0.36525228834216061 0.17922160577889321 0 -0.38991122675871148 0.19784364296923759 0 -0.39569501158598158 0.17813944679546001 0 -0.36525228834216061 0.17922160577889321 0 -0.39283331973148827 0.14452614648979731 0 -0.38372255811484618 0.13025780258704611 0 -0.36636290901460722 0.1509782344479508 0 -0.38484252596519369 0.16167484958157691 0 -0.39283331973148827 0.14452614648979731 0 -0.36636290901460722 0.1509782344479508 0 -0.40029434983296169 0.15790366282291429 0 -0.38484252596519369 0.16167484958157691 0 -0.39283331973148827 0.14452614648979731 0 -0.40926453963391513 0.14045102348790381 0 -0.40029434983296169 0.15790366282291429 0 -0.39283331973148827 0.14452614648979731 0 -0.39283331973148827 0.14452614648979731 0 -0.40026410281127539 0.13237877311027449 0 -0.38372255811484618 0.13025780258704611 0 -0.39792088922733271 0.1160922105611595 0 -0.417579207348795 0.13056668242546571 0 -0.40026410281127539 0.13237877311027449 0 -0.39792088922733271 0.1160922105611595 0 -0.40026410281127539 0.13237877311027449 0 -0.38372255811484618 0.13025780258704611 0 -0.40926453963391513 0.14045102348790381 0 -0.39283331973148827 0.14452614648979731 0 -0.40026410281127539 0.13237877311027449 0 -0.38372255811484618 0.13025780258704611 0 -0.36636290901460722 0.1509782344479508 0 -0.36747352968705388 0.12273486311700831 0 -0.36636290901460722 0.1509782344479508 0 -0.36747352968705388 0.12273486311700831 0 -0.35528769071996391 0.12689780186549679 0 -0.36636290901460722 0.1509782344479508 0 -0.36747352968705388 0.12273486311700831 0 -0.35528769071996391 0.12689780186549679 0 -0.33512599087492562 0.1447950320020088 0 -0.35528769071996391 0.12689780186549679 0 -0.35168351666373848 0.14314256241625531 0 -0.33512599087492562 0.1447950320020088 0 -0.35528769071996391 0.12689780186549679 0 -0.33512599087492562 0.1447950320020088 0 -0.34115039425197219 0.12498493974687711 0 -0.35528769071996391 0.12689780186549679 0 -0.35168351666373848 0.14314256241625531 0 -0.36636290901460722 0.1509782344479508 0 -0.35168351666373848 0.14314256241625531 0 -0.36636290901460722 0.1509782344479508 0 -0.34333519974196419 0.16612441953572921 0 -0.38484252596519369 0.16167484958157691 0 -0.36636290901460722 0.1509782344479508 0 -0.36525228834216061 0.17922160577889321 0 -0.36636290901460722 0.1509782344479508 0 -0.36525228834216061 0.17922160577889321 0 -0.36525228834216061 0.17922160577889321 0 -0.34333519974196419 0.16612441953572921 0 -0.34654591437965571 0.19533490523866279 0 -0.36636290901460722 0.1509782344479508 0 -0.36525228834216061 0.17922160577889321 0 -0.34333519974196419 0.16612441953572921 0 -0.34333519974196419 0.16612441953572921 0 -0.31496429102988749 0.16269226213852109 0 -0.33512599087492562 0.1447950320020088 0 -0.34333519974196419 0.16612441953572921 0 -0.34654591437965571 0.19533490523866279 0 -0.32412519241006588 0.1878495682783011 0 -0.31496429102988749 0.16269226213852109 0 -0.32412519241006588 0.1878495682783011 0 -0.34333519974196419 0.16612441953572921 0 -0.31496429102988749 0.16269226213852109 0 -0.32412519241006588 0.1878495682783011 0 -0.31303823693556859 0.17707572181323081 0 -0.31496429102988749 0.16269226213852109 0 -0.32412519241006588 0.1878495682783011 0 -0.31303823693556859 0.17707572181323081 0 -0.32412519241006588 0.1878495682783011 0 -0.3108046026399135 0.18379038091696129 0 -0.31496429102988749 0.16269226213852109 0 -0.31353256245119709 0.1587605055712967 0 -0.31354631638020197 0.13395604467094269 0 -0.33512599087492562 0.1447950320020088 0 -0.3122891553291075 0.14635758184588041 0 -0.31353256245119709 0.1587605055712967 0 -0.33512599087492562 0.1447950320020088 0 -0.3122891553291075 0.14635758184588041 0 -0.31496429102988749 0.16269226213852109 0 -0.31353256245119709 0.1587605055712967 0 -0.33512599087492562 0.1447950320020088 0 -0.31496429102988749 0.16269226213852109 0 -0.33512599087492562 0.1447950320020088 0 -0.31354631638020197 0.13395604467094269 0 -0.32917568526667751 0.12578156900391591 0 -0.33512599087492562 0.1447950320020088 0 -0.31354631638020197 0.13395604467094269 0 -0.32917568526667751 0.12578156900391591 0 -0.32114709127587232 0.11611322513389059 0 -0.32917568526667751 0.12578156900391591 0 -0.33512599087492562 0.1447950320020088 0 -0.34115039425197219 0.12498493974687711 0 -0.35168351666373848 0.14314256241625531 0 -0.34333519974196419 0.16612441953572921 0 -0.33512599087492562 0.1447950320020088 0 -0.36303104699726713 0.23570834844077809 0 -0.34244699517042121 0.23816418055786151 0 -0.36318679658289171 0.25196182354824148 0 -0.34244699517042121 0.23816418055786151 0 -0.36318679658289171 0.25196182354824148 0 -0.33952374355129727 0.25899057541505788 0 -0.37619177155740557 0.24036243622333081 0 -0.36303104699726713 0.23570834844077809 0 -0.36318679658289171 0.25196182354824148 0 -0.38435338999826391 0.22831720607051781 0 -0.37619177155740557 0.24036243622333081 0 -0.36303104699726713 0.23570834844077809 0 -0.38435338999826391 0.22831720607051781 0 -0.36303104699726713 0.23570834844077809 0 -0.36414166766971379 0.2074649771098355 0 -0.36303104699726713 0.23570834844077809 0 -0.36414166766971379 0.2074649771098355 0 -0.36303104699726713 0.23570834844077809 0 -0.35084793517488477 0.2210857468323085 0 -0.34244699517042121 0.23816418055786151 0 -0.36303104699726713 0.23570834844077809 0 -0.35084793517488477 0.2210857468323085 0 -0.36414166766971379 0.2074649771098355 0 -0.35084793517488477 0.2210857468323085 0 -0.36414166766971379 0.2074649771098355 0 -0.34654591437965571 0.19533490523866279 0 -0.36525228834216061 0.17922160577889321 0 -0.36414166766971379 0.2074649771098355 0 -0.38991122675871148 0.19784364296923759 0 -0.36525228834216061 0.17922160577889321 0 -0.36414166766971379 0.2074649771098355 0 -0.36525228834216061 0.17922160577889321 0 -0.36414166766971379 0.2074649771098355 0 -0.34654591437965571 0.19533490523866279 0 -0.32412519241006588 0.1878495682783011 0 -0.33328609379024349 0.2130068744180813 0 -0.34654591437965571 0.19533490523866279 0 -0.32412519241006588 0.1878495682783011 0 -0.33328609379024349 0.2130068744180813 0 -0.32412519241006588 0.1878495682783011 0 -0.33328609379024349 0.2130068744180813 0 -0.31080006153106382 0.20197173666100501 0 -0.32412519241006588 0.1878495682783011 0 -0.31080006153106382 0.20197173666100501 0 -0.3108046026399135 0.18379038091696129 0 -0.33328609379024349 0.2130068744180813 0 -0.31873218963182409 0.22654972870499029 0 -0.31080006153106382 0.20197173666100501 0 -0.35084793517488477 0.2210857468323085 0 -0.34654591437965571 0.19533490523866279 0 -0.33328609379024349 0.2130068744180813 0 -0.35084793517488477 0.2210857468323085 0 -0.33328609379024349 0.2130068744180813 0 -0.34244699517042121 0.23816418055786151 0 -0.33328609379024349 0.2130068744180813 0 -0.34244699517042121 0.23816418055786151 0 -0.33328609379024349 0.2130068744180813 0 -0.31873218963182409 0.22654972870499029 0 -0.34244699517042121 0.23816418055786151 0 -0.31873218963182409 0.22654972870499029 0 -0.32200613725511351 0.24850726385495631 0 -0.34244699517042121 0.23816418055786151 0 -0.31873218963182409 0.22654972870499029 0 -0.32200613725511351 0.24850726385495631 0 -0.30672251365844311 0.23743048015470111 0 -0.32200613725511351 0.24850726385495631 0 -0.34244699517042121 0.23816418055786151 0 -0.33952374355129727 0.25899057541505788 0 -0.29125564533142001 0.24067530578368901 0 -0.30672251365844311 0.23743048015470111 0 -0.30640548876467488 0.25787073169030861 0 -0.32200613725511351 0.24850726385495631 0 -0.30672251365844311 0.23743048015470111 0 -0.30640548876467488 0.25787073169030861 0 -0.29125564533142001 0.24067530578368901 0 -0.30672251365844311 0.23743048015470111 0 -0.29521310730918271 0.21354937073956171 0 -0.31873218963182409 0.22654972870499029 0 -0.30672251365844311 0.23743048015470111 0 -0.29521310730918271 0.21354937073956171 0 -0.29125564533142001 0.24067530578368901 0 -0.29521310730918271 0.21354937073956171 0 -0.29125564533142001 0.24067530578368901 0 -0.29521310730918271 0.21354937073956171 0 -0.27258595833473342 0.22149207507906341 0 -0.29521310730918271 0.21354937073956171 0 -0.28878760701375322 0.1984352968903606 0 -0.27490594785389072 0.20112241201531189 0 -0.31873218963182409 0.22654972870499029 0 -0.29521310730918271 0.21354937073956171 0 -0.31080006153106382 0.20197173666100501 0 -0.29521310730918271 0.21354937073956171 0 -0.29917056928694541 0.1864234356954344 0 -0.29521310730918271 0.21354937073956171 0 -0.31080006153106382 0.20197173666100501 0 -0.29917056928694541 0.1864234356954344 0 -0.31080006153106382 0.20197173666100501 0 -0.3108046026399135 0.18379038091696129 0 -0.29917056928694541 0.1864234356954344 0 -0.28878760701375322 0.1984352968903606 0 -0.29917056928694541 0.1864234356954344 0 -0.28955343229492791 0.1852490896997587 0 -0.29521310730918271 0.21354937073956171 0 -0.28878760701375322 0.1984352968903606 0 -0.29917056928694541 0.1864234356954344 0 -0.28878760701375322 0.1984352968903606 0 -0.27938784373491388 0.18917199981814359 0 -0.28955343229492791 0.1852490896997587 0 -0.27938784373491388 0.18917199981814359 0 -0.27490594785389072 0.20112241201531189 0 -0.26439180367967152 0.18225540552070321 0 -0.28878760701375322 0.1984352968903606 0 -0.27938784373491388 0.18917199981814359 0 -0.27490594785389072 0.20112241201531189 0 -0.27490594785389072 0.20112241201531189 0 -0.25370102580463139 0.2052288024824625 0 -0.26439180367967152 0.18225540552070321 0 -0.25370102580463139 0.2052288024824625 0 -0.26439180367967152 0.18225540552070321 0 -0.23359887481107691 0.1809086922627815 0 -0.27490594785389072 0.20112241201531189 0 -0.25370102580463139 0.2052288024824625 0 -0.27258595833473342 0.22149207507906341 0 -0.29521310730918271 0.21354937073956171 0 -0.27490594785389072 0.20112241201531189 0 -0.27258595833473342 0.22149207507906341 0 -0.29125564533142001 0.24067530578368901 0 -0.27258595833473342 0.22149207507906341 0 -0.26834113505385238 0.23837358332174549 0 -0.27258595833473342 0.22149207507906341 0 -0.25272375818517617 0.22994970808158929 0 -0.26834113505385238 0.23837358332174549 0 -0.25370102580463139 0.2052288024824625 0 -0.27258595833473342 0.22149207507906341 0 -0.25272375818517617 0.22994970808158929 0 -0.25272375818517617 0.22994970808158929 0 -0.25621817608628389 0.2460965770837312 0 -0.26834113505385238 0.23837358332174549 0 -0.25621817608628389 0.2460965770837312 0 -0.26834113505385238 0.23837358332174549 0 -0.26892213733164849 0.25365425058065472 0 -0.29125564533142001 0.24067530578368901 0 -0.26834113505385238 0.23837358332174549 0 -0.26892213733164849 0.25365425058065472 0 -0.29370567785695612 0.15770531643225719 0 -0.28412418886142132 0.16518528890623771 0 -0.28065913062351988 0.14575155473079041 0 -0.30159211447790629 0.14759241864651959 0 -0.29370567785695612 0.15770531643225719 0 -0.28065913062351988 0.14575155473079041 0 -0.29682817834931757 0.13068013418198679 0 -0.30159211447790629 0.14759241864651959 0 -0.28065913062351988 0.14575155473079041 0 -0.29682817834931757 0.13068013418198679 0 -0.28065913062351988 0.14575155473079041 0 -0.28285123447775751 0.1183560919224374 0 -0.31354631638020197 0.13395604467094269 0 -0.29682817834931757 0.13068013418198679 0 -0.30159211447790629 0.14759241864651959 0 -0.31354631638020197 0.13395604467094269 0 -0.3122891553291075 0.14635758184588041 0 -0.30159211447790629 0.14759241864651959 0 -0.31353256245119709 0.1587605055712967 0 -0.3122891553291075 0.14635758184588041 0 -0.30159211447790629 0.14759241864651959 0 -0.31496429102988749 0.16269226213852109 0 -0.31353256245119709 0.1587605055712967 0 -0.30488677357152572 0.1641353808659653 0 -0.30159211447790629 0.14759241864651959 0 -0.30488677357152572 0.1641353808659653 0 -0.29370567785695612 0.15770531643225719 0 -0.31353256245119709 0.1587605055712967 0 -0.30159211447790629 0.14759241864651959 0 -0.30488677357152572 0.1641353808659653 0 -0.31496429102988749 0.16269226213852109 0 -0.30225886166240762 0.17397067591913981 0 -0.31303823693556859 0.17707572181323081 0 -0.31496429102988749 0.16269226213852109 0 -0.30225886166240762 0.17397067591913981 0 -0.31496429102988749 0.16269226213852109 0 -0.30488677357152572 0.1641353808659653 0 -0.30225886166240762 0.17397067591913981 0 -0.30488677357152572 0.1641353808659653 0 -0.30225886166240762 0.17397067591913981 0 -0.29597535979189887 0.1670989905046398 0 -0.30488677357152572 0.1641353808659653 0 -0.29370567785695612 0.15770531643225719 0 -0.29597535979189887 0.1670989905046398 0 -0.31303823693556859 0.17707572181323081 0 -0.3108046026399135 0.18379038091696129 0 -0.30225886166240762 0.17397067591913981 0 -0.30225886166240762 0.17397067591913981 0 -0.29917056928694541 0.1864234356954344 0 -0.28955343229492791 0.1852490896997587 0 -0.3108046026399135 0.18379038091696129 0 -0.30225886166240762 0.17397067591913981 0 -0.29917056928694541 0.1864234356954344 0 -0.30225886166240762 0.17397067591913981 0 -0.28955343229492791 0.1852490896997587 0 -0.30225886166240762 0.17397067591913981 0 -0.28955343229492791 0.1852490896997587 0 -0.29024545837739651 0.173916500811098 0 -0.28955343229492791 0.1852490896997587 0 -0.29024545837739651 0.173916500811098 0 -0.27889874324695868 0.17762520371433099 0 -0.29024545837739651 0.173916500811098 0 -0.28412418886142132 0.16518528890623771 0 -0.27889874324695868 0.17762520371433099 0 -0.27938784373491388 0.18917199981814359 0 -0.28955343229492791 0.1852490896997587 0 -0.27889874324695868 0.17762520371433099 0 -0.29370567785695612 0.15770531643225719 0 -0.29597535979189887 0.1670989905046398 0 -0.28412418886142132 0.16518528890623771 0 -0.30225886166240762 0.17397067591913981 0 -0.29024545837739651 0.173916500811098 0 -0.29597535979189887 0.1670989905046398 0 -0.29024545837739651 0.173916500811098 0 -0.29597535979189887 0.1670989905046398 0 -0.28412418886142132 0.16518528890623771 0 -0.28412418886142132 0.16518528890623771 0 -0.26844272787379447 0.16268744982768751 0 -0.27889874324695868 0.17762520371433099 0 -0.28412418886142132 0.16518528890623771 0 -0.26844272787379447 0.16268744982768751 0 -0.28065913062351988 0.14575155473079041 0 -0.26844272787379447 0.16268744982768751 0 -0.27889874324695868 0.17762520371433099 0 -0.26439180367967152 0.18225540552070321 0 -0.27938784373491388 0.18917199981814359 0 -0.27889874324695868 0.17762520371433099 0 -0.26439180367967152 0.18225540552070321 0 -0.26844272787379447 0.16268744982768751 0 -0.26439180367967152 0.18225540552070321 0 -0.247018622616726 0.15992587597476091 0 -0.26844272787379447 0.16268744982768751 0 -0.25846103874104392 0.14702121199507179 0 -0.247018622616726 0.15992587597476091 0 -0.26844272787379447 0.16268744982768751 0 -0.25846103874104392 0.14702121199507179 0 -0.28065913062351988 0.14575155473079041 0 -0.25846103874104392 0.14702121199507179 0 -0.28065913062351988 0.14575155473079041 0 -0.25922316449870308 0.12628093809151891 0 -0.28065913062351988 0.14575155473079041 0 -0.25922316449870308 0.12628093809151891 0 -0.28285123447775751 0.1183560919224374 0 -0.25846103874104392 0.14702121199507179 0 -0.25922316449870308 0.12628093809151891 0 -0.2369615480924761 0.1404602413506009 0 -0.25922316449870308 0.12628093809151891 0 -0.25136603029008331 0.1103208693098497 0 -0.26687835675477128 0.1014348965859585 0 -0.25136603029008331 0.1103208693098497 0 -0.26687835675477128 0.1014348965859585 0 -0.24377998071086901 0.096378574065869249 0 -0.26687835675477128 0.1014348965859585 0 -0.28737892951993471 0.098967158637655914 0 -0.27569457229827071 0.081243623470509244 0 -0.26687835675477128 0.1014348965859585 0 -0.28285123447775751 0.1183560919224374 0 -0.28737892951993471 0.098967158637655914 0 -0.25922316449870308 0.12628093809151891 0 -0.26687835675477128 0.1014348965859585 0 -0.28285123447775751 0.1183560919224374 0 -0.29682817834931757 0.13068013418198679 0 -0.28285123447775751 0.1183560919224374 0 -0.30549209578720232 0.10774456093924389 0 -0.28285123447775751 0.1183560919224374 0 -0.28737892951993471 0.098967158637655914 0 -0.30549209578720232 0.10774456093924389 0 -0.28737892951993471 0.098967158637655914 0 -0.30549209578720232 0.10774456093924389 0 -0.29743787519420251 0.08153307720754506 0 -0.30549209578720232 0.10774456093924389 0 -0.29743787519420251 0.08153307720754506 0 -0.31354631638020197 0.13395604467094269 0 -0.29682817834931757 0.13068013418198679 0 -0.30549209578720232 0.10774456093924389 0 -0.31354631638020197 0.13395604467094269 0 -0.30549209578720232 0.10774456093924389 0 -0.29926204670725021 0.066629363318123747 0 -0.30931237829482389 0.073252958087475881 0 -0.31697319293959142 0.061410437985649477 0 -0.29926204670725021 0.066629363318123747 0 -0.30931237829482389 0.073252958087475881 0 -0.29743787519420251 0.08153307720754506 0 -0.30549209578720232 0.10774456093924389 0 -0.29743787519420251 0.08153307720754506 0 -0.31312795334666071 0.083579729522452809 0 -0.30931237829482389 0.073252958087475881 0 -0.29743787519420251 0.08153307720754506 0 -0.31312795334666071 0.083579729522452809 0 -0.28737892951993471 0.098967158637655914 0 -0.29743787519420251 0.08153307720754506 0 -0.27569457229827071 0.081243623470509244 0 -0.29743787519420251 0.08153307720754506 0 -0.28743776060402371 0.060458689408765323 0 -0.28938365460120269 0.05532159347584624 0 -0.29743787519420251 0.08153307720754506 0 -0.28938365460120269 0.05532159347584624 0 -0.29926204670725021 0.066629363318123747 0 -0.29743787519420251 0.08153307720754506 0 -0.28938365460120269 0.05532159347584624 0 -0.29743787519420251 0.08153307720754506 0 -0.27569457229827071 0.081243623470509244 0 -0.28743776060402371 0.060458689408765323 0 -0.27569457229827071 0.081243623470509244 0 -0.26257114212692878 0.06573449919026883 0 -0.28743776060402371 0.060458689408765323 0 -0.26257114212692878 0.06573449919026883 0 -0.28743776060402371 0.060458689408765323 0 -0.26687835675477128 0.1014348965859585 0 -0.25261226255175379 0.080423606239198905 0 -0.24377998071086901 0.096378574065869249 0 -0.26687835675477128 0.1014348965859585 0 -0.27569457229827071 0.081243623470509244 0 -0.25261226255175379 0.080423606239198905 0 -0.26257114212692878 0.06573449919026883 0 -0.23770452364983391 0.071010308971772351 0 -0.25261226255175379 0.080423606239198905 0 -0.26257114212692878 0.06573449919026883 0 -0.23770452364983391 0.071010308971772351 0 -0.27569457229827071 0.081243623470509244 0 -0.25261226255175379 0.080423606239198905 0 -0.26257114212692878 0.06573449919026883 0 -0.2522816967992324 0.037264740289820159 0 -0.27263172987273521 0.051913181220590639 0 -0.24906194248509719 0.058488871325365822 0 -0.26257114212692878 0.06573449919026883 0 -0.27263172987273521 0.051913181220590639 0 -0.24906194248509719 0.058488871325365822 0 -0.2522816967992324 0.037264740289820159 0 -0.2684979789729644 0.03593820420606865 0 -0.27263172987273521 0.051913181220590639 0 -0.2684979789729644 0.03593820420606865 0 -0.27263172987273521 0.051913181220590639 0 -0.28132943400820298 0.02911010974414751 0 -0.27263172987273521 0.051913181220590639 0 -0.28132943400820298 0.02911010974414751 0 -0.28938365460120269 0.05532159347584624 0 -0.26257114212692878 0.06573449919026883 0 -0.27263172987273521 0.051913181220590639 0 -0.28743776060402371 0.060458689408765323 0 -0.25267499080189931 -0.0034516002120552492 0 -0.26909988492935111 -0.0018655285383734981 0 -0.25157722050270093 0.012682655753942951 0 -0.26909988492935111 -0.0018655285383734981 0 -0.25157722050270093 0.012682655753942951 0 -0.27200359261247947 0.017754051058092819 0 -0.2522816967992324 0.037264740289820159 0 -0.25157722050270093 0.012682655753942951 0 -0.27200359261247947 0.017754051058092819 0 -0.2522816967992324 0.037264740289820159 0 -0.2684979789729644 0.03593820420606865 0 -0.27200359261247947 0.017754051058092819 0 -0.2522816967992324 0.037264740289820159 0 -0.27200359261247947 0.017754051058092819 0 -0.27200359261247947 0.017754051058092819 0 -0.28831373269731447 0.017122983851404761 0 -0.28132943400820298 0.02911010974414751 0 -0.2684979789729644 0.03593820420606865 0 -0.27200359261247947 0.017754051058092819 0 -0.28132943400820298 0.02911010974414751 0 -0.26909988492935111 -0.0018655285383734981 0 -0.2917254884257266 -0.0017566381736345419 0 -0.27200359261247947 0.017754051058092819 0 -0.2917254884257266 -0.0017566381736345419 0 -0.27200359261247947 0.017754051058092819 0 -0.28831373269731447 0.017122983851404761 0 -0.2917254884257266 -0.0017566381736345419 0 -0.28831373269731447 0.017122983851404761 0 -0.29997880334656019 0.01439552450637107 0 -0.2917254884257266 -0.0017566381736345419 0 -0.27200359261247947 0.017754051058092819 0 -0.28831373269731447 0.017122983851404761 0 -0.29656482898857922 0.02610767777843559 0 -0.29997880334656019 0.01439552450637107 0 -0.28831373269731447 0.017122983851404761 0 -0.28132943400820298 0.02911010974414751 0 -0.29656482898857922 0.02610767777843559 0 -0.28132943400820298 0.02911010974414751 0 -0.29656482898857922 0.02610767777843559 0 -0.29344050585463782 0.03493273697686209 0 -0.29656482898857922 0.02610767777843559 0 -0.31039051656375261 0.022327184027059441 0 -0.30541723396373921 0.038711125382435783 0 -0.31039051656375261 0.022327184027059441 0 -0.30541723396373921 0.038711125382435783 0 -0.32038394146944787 0.031620215762440292 0 -0.29656482898857922 0.02610767777843559 0 -0.31039051656375261 0.022327184027059441 0 -0.29997880334656019 0.01439552450637107 0 -0.31039051656375261 0.022327184027059441 0 -0.31177688145040278 0.0050359958776742568 0 -0.29997880334656019 0.01439552450637107 0 -0.2917254884257266 -0.0017566381736345419 0 -0.31177688145040278 0.0050359958776742568 0 -0.29997880334656019 0.01439552450637107 0 -0.27263172987273521 0.051913181220590639 0 -0.28743776060402371 0.060458689408765323 0 -0.28938365460120269 0.05532159347584624 0 -0.28938365460120269 0.05532159347584624 0 -0.29045052645802971 0.045802035002429492 0 -0.29738278035354182 0.050541329601553678 0 -0.28938365460120269 0.05532159347584624 0 -0.29738278035354182 0.050541329601553678 0 -0.29780899910201009 0.056562827273038227 0 -0.29926204670725021 0.066629363318123747 0 -0.28938365460120269 0.05532159347584624 0 -0.29780899910201009 0.056562827273038227 0 -0.28132943400820298 0.02911010974414751 0 -0.28938365460120269 0.05532159347584624 0 -0.29045052645802971 0.045802035002429492 0 -0.28132943400820298 0.02911010974414751 0 -0.28938365460120269 0.05532159347584624 0 -0.28132943400820298 0.02911010974414751 0 -0.29344050585463782 0.03493273697686209 0 -0.29045052645802971 0.045802035002429492 0 -0.29344050585463782 0.03493273697686209 0 -0.29045052645802971 0.045802035002429492 0 -0.30541723396373921 0.038711125382435783 0 -0.29045052645802971 0.045802035002429492 0 -0.30541723396373921 0.038711125382435783 0 -0.29738278035354182 0.050541329601553678 0 -0.29045052645802971 0.045802035002429492 0 -0.30541723396373921 0.038711125382435783 0 -0.29656482898857922 0.02610767777843559 0 -0.29344050585463782 0.03493273697686209 0 -0.30541723396373921 0.038711125382435783 0 -0.30541723396373921 0.038711125382435783 0 -0.30520751474604563 0.05375902269662923 0 -0.31780711793698518 0.045521831715634557 0 -0.29926204670725021 0.066629363318123747 0 -0.30520751474604563 0.05375902269662923 0 -0.31697319293959142 0.061410437985649477 0 -0.30541723396373921 0.038711125382435783 0 -0.30520751474604563 0.05375902269662923 0 -0.29738278035354182 0.050541329601553678 0 -0.30520751474604563 0.05375902269662923 0 -0.29738278035354182 0.050541329601553678 0 -0.29780899910201009 0.056562827273038227 0 -0.29926204670725021 0.066629363318123747 0 -0.30520751474604563 0.05375902269662923 0 -0.29780899910201009 0.056562827273038227 0 -0.32553678940662539 0.052415823907368687 0 -0.31780711793698518 0.045521831715634557 0 -0.33422422494732851 0.04449049745268327 0 -0.31697319293959142 0.061410437985649477 0 -0.32553678940662539 0.052415823907368687 0 -0.31780711793698518 0.045521831715634557 0 -0.30520751474604563 0.05375902269662923 0 -0.31697319293959142 0.061410437985649477 0 -0.31780711793698518 0.045521831715634557 0 -0.31697319293959142 0.061410437985649477 0 -0.32808937753058609 0.059947696530402161 0 -0.32553678940662539 0.052415823907368687 0 -0.31780711793698518 0.045521831715634557 0 -0.32038394146944787 0.031620215762440292 0 -0.33422422494732851 0.04449049745268327 0 -0.30541723396373921 0.038711125382435783 0 -0.31780711793698518 0.045521831715634557 0 -0.32038394146944787 0.031620215762440292 0 -0.30541723396373921 0.038711125382435783 0 -0.32038394146944787 0.031620215762440292 0 -0.32038394146944787 0.031620215762440292 0 -0.33422422494732851 0.04449049745268327 0 -0.33422422494732851 0.04449049745268327 0 -0.34051642268078958 0.02208187176518148 0 -0.34924074101412461 0.03711639968071382 0 -0.32038394146944787 0.031620215762440292 0 -0.33422422494732851 0.04449049745268327 0 -0.34051642268078958 0.02208187176518148 0 -0.33422422494732851 0.04449049745268327 0 -0.34715076893326918 0.04673829876922056 0 -0.34924074101412461 0.03711639968071382 0 -0.33422422494732851 0.04449049745268327 0 -0.34806450842520742 0.057360779142928031 0 -0.34715076893326918 0.04673829876922056 0 -0.33422422494732851 0.04449049745268327 0 -0.34806450842520742 0.057360779142928031 0 -0.33422422494732851 0.04449049745268327 0 -0.33482930480244999 0.055095026294593591 0 -0.34806450842520742 0.057360779142928031 0 -0.3407399656121517 0.06083029771636933 0 -0.33482930480244999 0.055095026294593591 0 -0.33440717105718593 0.063083878638897639 0 -0.3407399656121517 0.06083029771636933 0 -0.33482930480244999 0.055095026294593591 0 -0.34806450842520742 0.057360779142928031 0 -0.32808937753058609 0.059947696530402161 0 -0.33482930480244999 0.055095026294593591 0 -0.33440717105718593 0.063083878638897639 0 -0.32808937753058609 0.059947696530402161 0 -0.32553678940662539 0.052415823907368687 0 -0.33482930480244999 0.055095026294593591 0 -0.32553678940662539 0.052415823907368687 0 -0.33422422494732851 0.04449049745268327 0 -0.33482930480244999 0.055095026294593591 0 -0.31039051656375261 0.022327184027059441 0 -0.31177688145040278 0.0050359958776742568 0 -0.3261420213634148 0.01391490981329808 0 -0.32828291010712762 -0.0049346835118845543 0 -0.31177688145040278 0.0050359958776742568 0 -0.3261420213634148 0.01391490981329808 0 -0.31039051656375261 0.022327184027059441 0 -0.32038394146944787 0.031620215762440292 0 -0.3261420213634148 0.01391490981329808 0 -0.31039051656375261 0.022327184027059441 0 -0.32038394146944787 0.031620215762440292 0 -0.32038394146944787 0.031620215762440292 0 -0.34051642268078958 0.02208187176518148 0 -0.32038394146944787 0.031620215762440292 0 -0.3261420213634148 0.01391490981329808 0 -0.34051642268078958 0.02208187176518148 0 -0.3261420213634148 0.01391490981329808 0 -0.34051642268078958 0.02208187176518148 0 -0.34055428987364128 0.0059527955302196532 0 -0.32828291010712762 -0.0049346835118845543 0 -0.3261420213634148 0.01391490981329808 0 -0.34055428987364128 0.0059527955302196532 0 -0.34051642268078958 0.02208187176518148 0 -0.34055428987364128 0.0059527955302196532 0 -0.36064890389212972 0.0125435277679194 0 -0.34718119132474479 -0.01384164818341615 0 -0.34055428987364128 0.0059527955302196532 0 -0.36064890389212972 0.0125435277679194 0 -0.34051642268078958 0.02208187176518148 0 -0.36064890389212972 0.0125435277679194 0 -0.34051642268078958 0.02208187176518148 0 -0.35699945364537122 0.027147445145089769 0 -0.34924074101412461 0.03711639968071382 0 -0.34051642268078958 0.02208187176518148 0 -0.35699945364537122 0.027147445145089769 0 -0.36064890389212972 0.0125435277679194 0 -0.35699945364537122 0.027147445145089769 0 -0.36163302121541668 0.029781402687577421 0 -0.35940737946489582 0.035374977024224222 0 -0.37998819155715241 0.0057865511937031933 0 -0.36738966121720701 0.029980518529024301 0 -0.37123175334181557 0.027162262264614271 0 -0.37998819155715241 0.0057865511937031933 0 -0.36738966121720701 0.029980518529024301 0 -0.3645477689834325 0.020181962352102071 0 -0.37998819155715241 0.0057865511937031933 0 -0.36738966121720701 0.029980518529024301 0 -0.36273559053419291 0.026622670051971411 0 -0.36738966121720701 0.029980518529024301 0 -0.3645477689834325 0.020181962352102071 0 -0.35699945364537122 0.027147445145089769 0 -0.36163302121541668 0.029781402687577421 0 -0.36273559053419291 0.026622670051971411 0 -0.35699945364537122 0.027147445145089769 0 -0.36273559053419291 0.026622670051971411 0 -0.3645477689834325 0.020181962352102071 0 -0.36163302121541668 0.029781402687577421 0 -0.36273559053419291 0.026622670051971411 0 -0.36738966121720701 0.029980518529024301 0 -0.35699945364537122 0.027147445145089769 0 -0.3645477689834325 0.020181962352102071 0 -0.36064890389212972 0.0125435277679194 0 -0.3645477689834325 0.020181962352102071 0 -0.36064890389212972 0.0125435277679194 0 -0.37998819155715241 0.0057865511937031933 0 -0.3645477689834325 0.020181962352102071 0 -0.36064890389212972 0.0125435277679194 0 -0.38683543611469601 0.0001369023841863784 0 -0.36064890389212972 0.0125435277679194 0 -0.37474494217865062 -0.0022388935110706832 0 -0.38683543611469601 0.0001369023841863784 0 -0.36064890389212972 0.0125435277679194 0 -0.37474494217865062 -0.0022388935110706832 0 -0.36307869926690151 -0.00068504054922277494 0 -0.36064890389212972 0.0125435277679194 0 -0.35479113087726238 0.05417448586434577 0 -0.34715076893326918 0.04673829876922056 0 -0.35593663516940488 0.04278932274017315 0 -0.35479113087726238 0.05417448586434577 0 -0.35147867423579721 0.06053566178096708 0 -0.3622197730044176 0.060127746183944272 0 -0.35479113087726238 0.05417448586434577 0 -0.35147867423579721 0.06053566178096708 0 -0.35479113087726238 0.05417448586434577 0 -0.34806450842520742 0.057360779142928031 0 -0.35147867423579721 0.06053566178096708 0 -0.35479113087726238 0.05417448586434577 0 -0.34806450842520742 0.057360779142928031 0 -0.34806450842520742 0.057360779142928031 0 -0.35147867423579721 0.06053566178096708 0 -0.3447014191436914 0.063951910484466787 0 -0.34806450842520742 0.057360779142928031 0 -0.35147867423579721 0.06053566178096708 0 -0.3407399656121517 0.06083029771636933 0 -0.34806450842520742 0.057360779142928031 0 -0.3407399656121517 0.06083029771636933 0 -0.34806450842520742 0.057360779142928031 0 -0.3447014191436914 0.063951910484466787 0 -0.35479113087726238 0.05417448586434577 0 -0.34806450842520742 0.057360779142928031 0 -0.34715076893326918 0.04673829876922056 0 -0.34715076893326918 0.04673829876922056 0 -0.34924074101412461 0.03711639968071382 0 -0.35593663516940488 0.04278932274017315 0 -0.36738966121720701 0.029980518529024301 0 -0.35479113087726238 0.05417448586434577 0 -0.35593663516940488 0.04278932274017315 0 -0.35699945364537122 0.027147445145089769 0 -0.34924074101412461 0.03711639968071382 0 -0.35940737946489582 0.035374977024224222 0 -0.34924074101412461 0.03711639968071382 0 -0.35593663516940488 0.04278932274017315 0 -0.35940737946489582 0.035374977024224222 0 -0.36738966121720701 0.029980518529024301 0 -0.35479113087726238 0.05417448586434577 0 -0.36677646394688163 0.041367990420506082 0 -0.37123175334181557 0.027162262264614271 0 -0.37046143272875132 0.04675171495388801 0 -0.36738966121720701 0.029980518529024301 0 -0.35479113087726238 0.05417448586434577 0 -0.37123175334181557 0.027162262264614271 0 -0.36677646394688163 0.041367990420506082 0 -0.37046143272875132 0.04675171495388801 0 -0.3764786745208083 0.032098692741998169 0 -0.37123175334181557 0.027162262264614271 0 -0.37046143272875132 0.04675171495388801 0 -0.36163302121541668 0.029781402687577421 0 -0.36738966121720701 0.029980518529024301 0 -0.35940737946489582 0.035374977024224222 0 -0.36738966121720701 0.029980518529024301 0 -0.35593663516940488 0.04278932274017315 0 -0.35940737946489582 0.035374977024224222 0 -0.36738966121720701 0.029980518529024301 0 -0.37123175334181557 0.027162262264614271 0 -0.36677646394688163 0.041367990420506082 0 -0.36677646394688163 0.041367990420506082 0 -0.37046143272875132 0.04675171495388801 0 -0.36802302346639398 0.047906750352184523 0 -0.36677646394688163 0.041367990420506082 0 -0.36802302346639398 0.047906750352184523 0 -0.37046143272875132 0.04675171495388801 0 -0.37000681959492809 0.05831264468359916 0 -0.36802302346639398 0.047906750352184523 0 -0.37000681959492809 0.05831264468359916 0 -0.37046143272875132 0.04675171495388801 0 -0.36802302346639398 0.047906750352184523 0 -0.37000681959492809 0.05831264468359916 0 -0.37046143272875132 0.04675171495388801 0 -0.36802302346639398 0.047906750352184523 0 -0.35479113087726238 0.05417448586434577 0 -0.36802302346639398 0.047906750352184523 0 -0.35479113087726238 0.05417448586434577 0 -0.36802302346639398 0.047906750352184523 0 -0.3622197730044176 0.060127746183944272 0 -0.35479113087726238 0.05417448586434577 0 -0.36677646394688163 0.041367990420506082 0 -0.36802302346639398 0.047906750352184523 0 -0.36802302346639398 0.047906750352184523 0 -0.3622197730044176 0.060127746183944272 0 -0.37000681959492809 0.05831264468359916 0 -0.35147867423579721 0.06053566178096708 0 -0.36926886504626422 0.077079019973005369 0 -0.3622197730044176 0.060127746183944272 0 -0.37000681959492809 0.05831264468359916 0 -0.36926886504626422 0.077079019973005369 0 -0.37000681959492809 0.05831264468359916 0 -0.36926886504626422 0.077079019973005369 0 -0.37079498002478778 0.078498176574577722 0 -0.36926886504626422 0.077079019973005369 0 -0.34551673285671652 0.071984855543133663 0 -0.36912013352382872 0.080861301107253064 0 -0.37000681959492809 0.05831264468359916 0 -0.37079498002478778 0.078498176574577722 0 -0.37470600383380392 0.082961959162170973 0 -0.35147867423579721 0.06053566178096708 0 -0.3622197730044176 0.060127746183944272 0 -0.36926886504626422 0.077079019973005369 0 -0.37000681959492809 0.05831264468359916 0 -0.37470600383380392 0.082961959162170973 0 -0.37000681959492809 0.05831264468359916 0 -0.36926886504626422 0.077079019973005369 0 -0.36926886504626422 0.077079019973005369 0 -0.37079498002478778 0.078498176574577722 0 -0.34551673285671652 0.071984855543133663 0 -0.34763839367566191 0.079069075487607554 0 -0.36912013352382872 0.080861301107253064 0 -0.34551673285671652 0.071984855543133663 0 -0.36912013352382872 0.080861301107253064 0 -0.35147867423579721 0.06053566178096708 0 -0.36926886504626422 0.077079019973005369 0 -0.34551673285671652 0.071984855543133663 0 -0.34408269824063842 0.074738747125954852 0 -0.34763839367566191 0.079069075487607554 0 -0.34179116264722731 0.080399472229040897 0 -0.34408269824063842 0.074738747125954852 0 -0.34551673285671652 0.071984855543133663 0 -0.34763839367566191 0.079069075487607554 0 -0.34408269824063842 0.074738747125954852 0 -0.34551673285671652 0.071984855543133663 0 -0.35147867423579721 0.06053566178096708 0 -0.34551673285671652 0.071984855543133663 0 -0.3447014191436914 0.063951910484466787 0 -0.35147867423579721 0.06053566178096708 0 -0.34551673285671652 0.071984855543133663 0 -0.34763839367566191 0.079069075487607554 0 -0.36858415035949882 0.094491491786065696 0 -0.34763839367566191 0.079069075487607554 0 -0.36858415035949882 0.094491491786065696 0 -0.35198293914272999 0.094145145766245733 0 -0.34456144318064219 0.08667329674911145 0 -0.34763839367566191 0.079069075487607554 0 -0.35198293914272999 0.094145145766245733 0 -0.34456144318064219 0.08667329674911145 0 -0.35198293914272999 0.094145145766245733 0 -0.34431035454597703 0.093789606507308373 0 -0.34456144318064219 0.08667329674911145 0 -0.34763839367566191 0.079069075487607554 0 -0.34179116264722731 0.080399472229040897 0 -0.3782625711058698 0.101617738696854 0 -0.37470600383380392 0.082961959162170973 0 -0.36858415035949882 0.094491491786065696 0 -0.34763839367566191 0.079069075487607554 0 -0.36912013352382872 0.080861301107253064 0 -0.36858415035949882 0.094491491786065696 0 -0.36926886504626422 0.077079019973005369 0 -0.37079498002478778 0.078498176574577722 0 -0.36912013352382872 0.080861301107253064 0 -0.36926886504626422 0.077079019973005369 0 -0.36912013352382872 0.080861301107253064 0 -0.36912013352382872 0.080861301107253064 0 -0.37470600383380392 0.082961959162170973 0 -0.37079498002478778 0.078498176574577722 0 -0.36912013352382872 0.080861301107253064 0 -0.37470600383380392 0.082961959162170973 0 -0.36912013352382872 0.080861301107253064 0 -0.37470600383380392 0.082961959162170973 0 -0.36858415035949882 0.094491491786065696 0 -0.36912013352382872 0.080861301107253064 0 -0.36858415035949882 0.094491491786065696 0 -0.36858415035949882 0.094491491786065696 0 -0.36747352968705388 0.12273486311700831 0 -0.3782625711058698 0.101617738696854 0 -0.36858415035949882 0.094491491786065696 0 -0.36858415035949882 0.094491491786065696 0 -0.36006702585218792 0.10838608290929221 0 -0.35198293914272999 0.094145145766245733 0 -0.36858415035949882 0.094491491786065696 0 -0.36006702585218792 0.10838608290929221 0 -0.36747352968705388 0.12273486311700831 0 -0.3782625711058698 0.101617738696854 0 -0.36858415035949882 0.094491491786065696 0 -0.36747352968705388 0.12273486311700831 0 -0.36006702585218792 0.10838608290929221 0 -0.36747352968705388 0.12273486311700831 0 -0.35832203275528268 0.1183511860346923 0 -0.35528769071996391 0.12689780186549679 0 -0.36747352968705388 0.12273486311700831 0 -0.35832203275528268 0.1183511860346923 0 -0.35528769071996391 0.12689780186549679 0 -0.35832203275528268 0.1183511860346923 0 -0.35045988476192508 0.115385996246972 0 -0.36006702585218792 0.10838608290929221 0 -0.35832203275528268 0.1183511860346923 0 -0.35045988476192508 0.115385996246972 0 -0.35045988476192508 0.115385996246972 0 -0.34547580274860562 0.10394098399483009 0 -0.33570271963636877 0.11206429961599181 0 -0.35528769071996391 0.12689780186549679 0 -0.35045988476192508 0.115385996246972 0 -0.34115039425197219 0.12498493974687711 0 -0.36006702585218792 0.10838608290929221 0 -0.35198293914272999 0.094145145766245733 0 -0.34547580274860562 0.10394098399483009 0 -0.36006702585218792 0.10838608290929221 0 -0.35045988476192508 0.115385996246972 0 -0.34547580274860562 0.10394098399483009 0 -0.35198293914272999 0.094145145766245733 0 -0.34547580274860562 0.10394098399483009 0 -0.34431035454597703 0.093789606507308373 0 -0.34547580274860562 0.10394098399483009 0 -0.34431035454597703 0.093789606507308373 0 -0.335413749579693 0.097286071719103154 0 -0.34547580274860562 0.10394098399483009 0 -0.335413749579693 0.097286071719103154 0 -0.33570271963636877 0.11206429961599181 0 -0.335413749579693 0.097286071719103154 0 -0.33570271963636877 0.11206429961599181 0 -0.32444247844199348 0.1047035033472971 0 -0.35045988476192508 0.115385996246972 0 -0.34115039425197219 0.12498493974687711 0 -0.33570271963636877 0.11206429961599181 0 -0.32917568526667751 0.12578156900391591 0 -0.33570271963636877 0.11206429961599181 0 -0.32114709127587232 0.11611322513389059 0 -0.32917568526667751 0.12578156900391591 0 -0.34115039425197219 0.12498493974687711 0 -0.33570271963636877 0.11206429961599181 0 -0.31354631638020197 0.13395604467094269 0 -0.30549209578720232 0.10774456093924389 0 -0.32114709127587232 0.11611322513389059 0 -0.30549209578720232 0.10774456093924389 0 -0.32114709127587232 0.11611322513389059 0 -0.32444247844199348 0.1047035033472971 0 -0.33570271963636877 0.11206429961599181 0 -0.32114709127587232 0.11611322513389059 0 -0.32444247844199348 0.1047035033472971 0 -0.30549209578720232 0.10774456093924389 0 -0.32444247844199348 0.1047035033472971 0 -0.32445673593083119 0.090309359328255762 0 -0.30549209578720232 0.10774456093924389 0 -0.32445673593083119 0.090309359328255762 0 -0.31312795334666071 0.083579729522452809 0 -0.335413749579693 0.097286071719103154 0 -0.32444247844199348 0.1047035033472971 0 -0.32445673593083119 0.090309359328255762 0 -0.32445673593083119 0.090309359328255762 0 -0.3275606083710243 0.080211281293741998 0 -0.31312795334666071 0.083579729522452809 0 -0.3275606083710243 0.080211281293741998 0 -0.31312795334666071 0.083579729522452809 0 -0.31976082328641481 0.073112182403608325 0 -0.30931237829482389 0.073252958087475881 0 -0.31312795334666071 0.083579729522452809 0 -0.31976082328641481 0.073112182403608325 0 -0.30931237829482389 0.073252958087475881 0 -0.31697319293959142 0.061410437985649477 0 -0.31976082328641481 0.073112182403608325 0 -0.31697319293959142 0.061410437985649477 0 -0.31976082328641481 0.073112182403608325 0 -0.32886731949388731 0.069155273298144179 0 -0.31697319293959142 0.061410437985649477 0 -0.32808937753058609 0.059947696530402161 0 -0.32886731949388731 0.069155273298144179 0 -0.3275606083710243 0.080211281293741998 0 -0.31976082328641481 0.073112182403608325 0 -0.32886731949388731 0.069155273298144179 0 -0.32886731949388731 0.069155273298144179 0 -0.33770721458858299 0.069047958238937293 0 -0.336378655355973 0.076693290193422539 0 -0.3275606083710243 0.080211281293741998 0 -0.32886731949388731 0.069155273298144179 0 -0.336378655355973 0.076693290193422539 0 -0.33440717105718593 0.063083878638897639 0 -0.32886731949388731 0.069155273298144179 0 -0.33770721458858299 0.069047958238937293 0 -0.32808937753058609 0.059947696530402161 0 -0.33440717105718593 0.063083878638897639 0 -0.32886731949388731 0.069155273298144179 0 -0.3407399656121517 0.06083029771636933 0 -0.33440717105718593 0.063083878638897639 0 -0.33770721458858299 0.069047958238937293 0 -0.3407399656121517 0.06083029771636933 0 -0.3447014191436914 0.063951910484466787 0 -0.33770721458858299 0.069047958238937293 0 -0.34551673285671652 0.071984855543133663 0 -0.3447014191436914 0.063951910484466787 0 -0.33770721458858299 0.069047958238937293 0 -0.34408269824063842 0.074738747125954852 0 -0.33770721458858299 0.069047958238937293 0 -0.336378655355973 0.076693290193422539 0 -0.34408269824063842 0.074738747125954852 0 -0.34551673285671652 0.071984855543133663 0 -0.33770721458858299 0.069047958238937293 0 -0.34551673285671652 0.071984855543133663 0 -0.33770721458858299 0.069047958238937293 0 -0.34408269824063842 0.074738747125954852 0 -0.336378655355973 0.076693290193422539 0 -0.34179116264722731 0.080399472229040897 0 -0.336378655355973 0.076693290193422539 0 -0.34179116264722731 0.080399472229040897 0 -0.33708436589161489 0.085963183755354639 0 -0.34456144318064219 0.08667329674911145 0 -0.34179116264722731 0.080399472229040897 0 -0.33708436589161489 0.085963183755354639 0 -0.34456144318064219 0.08667329674911145 0 -0.34431035454597703 0.093789606507308373 0 -0.33708436589161489 0.085963183755354639 0 -0.34431035454597703 0.093789606507308373 0 -0.335413749579693 0.097286071719103154 0 -0.33708436589161489 0.085963183755354639 0 -0.335413749579693 0.097286071719103154 0 -0.32445673593083119 0.090309359328255762 0 -0.33708436589161489 0.085963183755354639 0 -0.32445673593083119 0.090309359328255762 0 -0.3275606083710243 0.080211281293741998 0 -0.33708436589161489 0.085963183755354639 0 -0.3275606083710243 0.080211281293741998 0 -0.336378655355973 0.076693290193422539 0 -0.33708436589161489 0.085963183755354639 0 -0.38891458820749281 0.47713565504117422 0 -0.42172655890518862 0.5 0 -0.3640375775585698 0.5 0 -0.38891458820749281 0.47713565504117422 0 -0.37103467036260362 0.45695891695805302 0 -0.36943712044780219 0.47475959506207249 0 -0.39694697642853649 0.45370639251272787 0 -0.37103467036260362 0.45695891695805302 0 -0.38891458820749281 0.47713565504117422 0 -0.39694697642853649 0.45370639251272787 0 -0.37103467036260362 0.45695891695805302 0 -0.38249991962136642 0.44345487931465249 0 -0.39694697642853649 0.45370639251272787 0 -0.37103467036260362 0.45695891695805302 0 -0.38249991962136642 0.44345487931465249 0 -0.39694697642853649 0.45370639251272787 0 -0.40464661760035381 0.43350824459614162 0 -0.38891458820749281 0.47713565504117422 0 -0.39694697642853649 0.45370639251272787 0 -0.41631826774707797 0.4711213942969617 0 -0.39694697642853649 0.45370639251272787 0 -0.42285928249446952 0.45045386806740279 0 -0.41631826774707797 0.4711213942969617 0 -0.42285928249446952 0.45045386806740279 0 -0.42501824733507809 0.43459816807542118 0 -0.40464661760035381 0.43350824459614162 0 -0.39694697642853649 0.45370639251272787 0 -0.42285928249446952 0.45045386806740279 0 -0.39694697642853649 0.45370639251272787 0 -0.42285928249446952 0.45045386806740279 0 -0.40464661760035381 0.43350824459614162 0 -0.42285928249446952 0.45045386806740279 0 -0.43521244088076849 0.46107148678855758 0 -0.44877158856040261 0.44720134362207808 0 -0.42285928249446952 0.45045386806740279 0 -0.44877158856040261 0.44720134362207808 0 -0.42285928249446952 0.45045386806740279 0 -0.43592409671607729 0.44045812782560079 0 -0.44877158856040261 0.44720134362207808 0 -0.42285928249446952 0.45045386806740279 0 -0.43592409671607729 0.44045812782560079 0 -0.42501824733507809 0.43459816807542118 0 -0.42285928249446952 0.45045386806740279 0 -0.43521244088076849 0.46107148678855758 0 -0.41631826774707797 0.4711213942969617 0 -0.41631826774707797 0.4711213942969617 0 -0.42172655890518862 0.5 0 -0.43935827984199688 0.47473889959161758 0 -0.43521244088076849 0.46107148678855758 0 -0.41631826774707797 0.4711213942969617 0 -0.43935827984199688 0.47473889959161758 0 -0.38891458820749281 0.47713565504117422 0 -0.41631826774707797 0.4711213942969617 0 -0.42172655890518862 0.5 0 -0.42172655890518862 0.5 0 -0.43935827984199688 0.47473889959161758 0 -0.47784082473980471 0.47626967285504462 0 -0.42172655890518862 0.5 0 -0.5 0.5 0 -0.47784082473980471 0.47626967285504462 0 -0.43935827984199688 0.47473889959161758 0 -0.47784082473980471 0.47626967285504462 0 -0.4487547857598953 0.46184192836472759 0 -0.5 0.5 0 -0.47784082473980471 0.47626967285504462 0 -0.49999999999999589 0.44077113011354369 0 -0.47784082473980471 0.47626967285504462 0 -0.47438579428019922 0.44398623686781052 0 -0.4627013265822788 0.4545376326069438 0 -0.47784082473980471 0.47626967285504462 0 -0.49999999999999589 0.44077113011354369 0 -0.47438579428019922 0.44398623686781052 0 -0.49999999999999589 0.44077113011354369 0 -0.47438579428019922 0.44398623686781052 0 -0.48180565015534738 0.42787197640755792 0 -0.49999999999999589 0.44077113011354369 0 -0.47438579428019922 0.44398623686781052 0 -0.47438579428019922 0.44398623686781052 0 -0.4627013265822788 0.4545376326069438 0 -0.44877158856040261 0.44720134362207808 0 -0.47438579428019922 0.44398623686781052 0 -0.44877158856040261 0.44720134362207808 0 -0.47438579428019922 0.44398623686781052 0 -0.44877158856040261 0.44720134362207808 0 -0.46289485375526918 0.43579199928955081 0 -0.44877158856040261 0.44720134362207808 0 -0.44878504691792248 0.43547483269414872 0 -0.46289485375526918 0.43579199928955081 0 -0.47784082473980471 0.47626967285504462 0 -0.4627013265822788 0.4545376326069438 0 -0.4487547857598953 0.46184192836472759 0 -0.4627013265822788 0.4545376326069438 0 -0.4487547857598953 0.46184192836472759 0 -0.44877158856040261 0.44720134362207808 0 -0.4487547857598953 0.46184192836472759 0 -0.44877158856040261 0.44720134362207808 0 -0.43521244088076849 0.46107148678855758 0 -0.4487547857598953 0.46184192836472759 0 -0.44877158856040261 0.44720134362207808 0 -0.43521244088076849 0.46107148678855758 0 -0.43935827984199688 0.47473889959161758 0 -0.4487547857598953 0.46184192836472759 0 -0.44877158856040261 0.44720134362207808 0 -0.44508566455651338 0.43839632914573512 0 -0.44878504691792248 0.43547483269414872 0 -0.44877158856040261 0.44720134362207808 0 -0.44878504691792248 0.43547483269414872 0 -0.43592409671607729 0.44045812782560079 0 -0.44877158856040261 0.44720134362207808 0 -0.44508566455651338 0.43839632914573512 0 -0.44531233658805403 0.42513554986162888 0 -0.44878504691792248 0.43547483269414872 0 -0.44880957839306629 0.41410011360809668 0 -0.44878504691792248 0.43547483269414872 0 -0.44880957839306629 0.41410011360809668 0 -0.43788570063392329 0.43164093021736671 0 -0.44531233658805403 0.42513554986162888 0 -0.44878504691792248 0.43547483269414872 0 -0.43592409671607729 0.44045812782560079 0 -0.44508566455651338 0.43839632914573512 0 -0.43788570063392329 0.43164093021736671 0 -0.44508566455651338 0.43839632914573512 0 -0.43788570063392329 0.43164093021736671 0 -0.44878504691792248 0.43547483269414872 0 -0.44508566455651338 0.43839632914573512 0 -0.44878504691792248 0.43547483269414872 0 -0.44531233658805403 0.42513554986162888 0 -0.44880957839306629 0.41410011360809668 0 -0.42391867717568832 0.41711337076656618 0 -0.44880957839306629 0.41410011360809668 0 -0.46585669794528167 0.42199291516666237 0 -0.4641229039382897 0.40091036417177778 0 -0.44878504691792248 0.43547483269414872 0 -0.46585669794528167 0.42199291516666237 0 -0.44878504691792248 0.43547483269414872 0 -0.44880957839306629 0.41410011360809668 0 -0.46585669794528167 0.42199291516666237 0 -0.44878504691792248 0.43547483269414872 0 -0.46585669794528167 0.42199291516666237 0 -0.46289485375526918 0.43579199928955081 0 -0.47438579428019922 0.44398623686781052 0 -0.46289485375526918 0.43579199928955081 0 -0.48180565015534738 0.42787197640755792 0 -0.46585669794528167 0.42199291516666237 0 -0.46289485375526918 0.43579199928955081 0 -0.48180565015534738 0.42787197640755792 0 -0.46585669794528167 0.42199291516666237 0 -0.48292834897264081 0.4085109976391762 0 -0.4641229039382897 0.40091036417177778 0 -0.46585669794528167 0.42199291516666237 0 -0.48292834897264081 0.4085109976391762 0 -0.46585669794528167 0.42199291516666237 0 -0.48180565015534738 0.42787197640755792 0 -0.48292834897264081 0.4085109976391762 0 -0.48292834897264081 0.4085109976391762 0 -0.5 0.41790010511261683 0 -0.5 0.39502908011169002 0 -0.48180565015534738 0.42787197640755792 0 -0.48292834897264081 0.4085109976391762 0 -0.5 0.41790010511261683 0 -0.49999999999999589 0.44077113011354369 0 -0.48180565015534738 0.42787197640755792 0 -0.5 0.41790010511261683 0 -0.48850556386005051 0.3766603246979251 0 -0.5 0.39502908011169002 0 -0.47832653283541199 0.38608194873200979 0 -0.48850556386005051 0.3766603246979251 0 -0.5 0.39502908011169002 0 -0.5 0.36887446842263683 0 -0.48292834897264081 0.4085109976391762 0 -0.5 0.39502908011169002 0 -0.47832653283541199 0.38608194873200979 0 -0.48292834897264081 0.4085109976391762 0 -0.5 0.39502908011169002 0 -0.48292834897264081 0.4085109976391762 0 -0.47832653283541199 0.38608194873200979 0 -0.4641229039382897 0.40091036417177778 0 -0.48850556386005051 0.3766603246979251 0 -0.47832653283541199 0.38608194873200979 0 -0.48259334700195489 0.36409898273387958 0 -0.47832653283541199 0.38608194873200979 0 -0.46059005399087027 0.38292215568240928 0 -0.4641229039382897 0.40091036417177778 0 -0.47832653283541199 0.38608194873200979 0 -0.46059005399087027 0.38292215568240928 0 -0.46572599417265398 0.36772482908493609 0 -0.44880957839306629 0.41410011360809668 0 -0.4641229039382897 0.40091036417177778 0 -0.44883410986820999 0.3927253945220448 0 -0.46059005399087027 0.38292215568240928 0 -0.4641229039382897 0.40091036417177778 0 -0.44883410986820999 0.3927253945220448 0 -0.44880957839306629 0.41410011360809668 0 -0.44883410986820999 0.3927253945220448 0 -0.43699833754743561 0.40294499431243458 0 -0.44880957839306629 0.41410011360809668 0 -0.44883410986820999 0.3927253945220448 0 -0.44883410986820999 0.3927253945220448 0 -0.43978391516082421 0.3912231797547942 0 -0.43699833754743561 0.40294499431243458 0 -0.44883410986820999 0.3927253945220448 0 -0.43978391516082421 0.3912231797547942 0 -0.44802713623065987 0.37645115623263098 0 -0.44883410986820999 0.3927253945220448 0 -0.44885864134335329 0.37135067543599282 0 -0.44883410986820999 0.3927253945220448 0 -0.44802713623065987 0.37645115623263098 0 -0.44885864134335329 0.37135067543599282 0 -0.43978391516082421 0.3912231797547942 0 -0.44802713623065987 0.37645115623263098 0 -0.42527607699699133 0.39277117395206662 0 -0.46059005399087027 0.38292215568240928 0 -0.44883410986820999 0.3927253945220448 0 -0.44885864134335329 0.37135067543599282 0 -0.44802713623065987 0.37645115623263098 0 -0.4250431626101242 0.37647010748543319 0 -0.42527607699699133 0.39277117395206662 0 -0.44802713623065987 0.37645115623263098 0 -0.42527607699699133 0.39277117395206662 0 -0.4250431626101242 0.37647010748543319 0 -0.4134887672477453 0.38574914578498593 0 -0.40122768387689522 0.38158953953487368 0 -0.4250431626101242 0.37647010748543319 0 -0.40122768387689522 0.38158953953487368 0 -0.4250431626101242 0.37647010748543319 0 -0.4134887672477453 0.38574914578498593 0 -0.42527607699699133 0.39277117395206662 0 -0.4250431626101242 0.37647010748543319 0 -0.40122768387689522 0.38158953953487368 0 -0.40086489287733429 0.37467411733839928 0 -0.4134887672477453 0.38574914578498593 0 -0.40798835104355652 0.39359067917546098 0 -0.40557429982823212 0.38794008425198068 0 -0.4134887672477453 0.38574914578498593 0 -0.40122768387689522 0.38158953953487368 0 -0.40557429982823212 0.38794008425198068 0 -0.40798835104355652 0.39359067917546098 0 -0.42527607699699133 0.39277117395206662 0 -0.40252501776332311 0.40909119167150271 0 -0.42527607699699133 0.39277117395206662 0 -0.40252501776332311 0.40909119167150271 0 -0.4134887672477453 0.38574914578498593 0 -0.40798835104355652 0.39359067917546098 0 -0.42527607699699133 0.39277117395206662 0 -0.42527607699699133 0.39277117395206662 0 -0.43699833754743561 0.40294499431243458 0 -0.42391867717568832 0.41711337076656618 0 -0.43978391516082421 0.3912231797547942 0 -0.42527607699699133 0.39277117395206662 0 -0.43699833754743561 0.40294499431243458 0 -0.44880957839306629 0.41410011360809668 0 -0.43699833754743561 0.40294499431243458 0 -0.42391867717568832 0.41711337076656618 0 -0.44531233658805403 0.42513554986162888 0 -0.42391867717568832 0.41711337076656618 0 -0.43788570063392329 0.43164093021736671 0 -0.44531233658805403 0.42513554986162888 0 -0.42391867717568832 0.41711337076656618 0 -0.43788570063392329 0.43164093021736671 0 -0.42391867717568832 0.41711337076656618 0 -0.42501824733507809 0.43459816807542118 0 -0.43592409671607729 0.44045812782560079 0 -0.43788570063392329 0.43164093021736671 0 -0.42501824733507809 0.43459816807542118 0 -0.42391867717568832 0.41711337076656618 0 -0.42501824733507809 0.43459816807542118 0 -0.40464661760035381 0.43350824459614162 0 -0.42527607699699133 0.39277117395206662 0 -0.42391867717568832 0.41711337076656618 0 -0.40252501776332311 0.40909119167150271 0 -0.42391867717568832 0.41711337076656618 0 -0.40252501776332311 0.40909119167150271 0 -0.40464661760035381 0.43350824459614162 0 -0.42391867717568832 0.41711337076656618 0 -0.40252501776332311 0.40909119167150271 0 -0.40252501776332311 0.40909119167150271 0 -0.37875820238401509 0.42613984176471847 0 -0.40252501776332311 0.40909119167150271 0 -0.40464661760035381 0.43350824459614162 0 -0.37875820238401509 0.42613984176471847 0 -0.38249991962136642 0.44345487931465249 0 -0.40464661760035381 0.43350824459614162 0 -0.37875820238401509 0.42613984176471847 0 -0.40252501776332311 0.40909119167150271 0 -0.37875820238401509 0.42613984176471847 0 -0.37769092578324193 0.39977892163450779 0 -0.37769092578324193 0.39977892163450779 0 -0.38963770449155072 0.39285491215608792 0 -0.37686086334024771 0.38257038446795849 0 -0.40252501776332311 0.40909119167150271 0 -0.37769092578324193 0.39977892163450779 0 -0.38963770449155072 0.39285491215608792 0 -0.40252501776332311 0.40909119167150271 0 -0.37769092578324193 0.39977892163450779 0 -0.37686086334024771 0.38257038446795849 0 -0.39363670834615189 0.38450398520198442 0 -0.40086489287733429 0.37467411733839928 0 -0.38963770449155072 0.39285491215608792 0 -0.37686086334024771 0.38257038446795849 0 -0.39363670834615189 0.38450398520198442 0 -0.37686086334024771 0.38257038446795849 0 -0.40086489287733429 0.37467411733839928 0 -0.37686086334024771 0.38257038446795849 0 -0.40086489287733429 0.37467411733839928 0 -0.39033592763893787 0.37070590072739279 0 -0.39363670834615189 0.38450398520198442 0 -0.40122768387689522 0.38158953953487368 0 -0.39959239714473138 0.39083097251260251 0 -0.38963770449155072 0.39285491215608792 0 -0.39363670834615189 0.38450398520198442 0 -0.39959239714473138 0.39083097251260251 0 -0.39363670834615189 0.38450398520198442 0 -0.40122768387689522 0.38158953953487368 0 -0.40086489287733429 0.37467411733839928 0 -0.40122768387689522 0.38158953953487368 0 -0.40557429982823212 0.38794008425198068 0 -0.39959239714473138 0.39083097251260251 0 -0.40798835104355652 0.39359067917546098 0 -0.40557429982823212 0.38794008425198068 0 -0.39959239714473138 0.39083097251260251 0 -0.40252501776332311 0.40909119167150271 0 -0.38963770449155072 0.39285491215608792 0 -0.39959239714473138 0.39083097251260251 0 -0.40798835104355652 0.39359067917546098 0 -0.40252501776332311 0.40909119167150271 0 -0.39959239714473138 0.39083097251260251 0 -0.3926828114571661 0.35541775914535301 0 -0.40105078960399698 0.34662517948293931 0 -0.40586906590548888 0.3393029225754271 0 -0.3926828114571661 0.35541775914535301 0 -0.39400561065841477 0.34382680172727831 0 -0.40586906590548888 0.3393029225754271 0 -0.3926828114571661 0.35541775914535301 0 -0.40586906590548888 0.3393029225754271 0 -0.3926828114571661 0.35541775914535301 0 -0.39969836615416421 0.35756427730283669 0 -0.39341808057325789 0.36431669671432632 0 -0.3926828114571661 0.35541775914535301 0 -0.40105078960399698 0.34662517948293931 0 -0.39969836615416421 0.35756427730283669 0 -0.3926828114571661 0.35541775914535301 0 -0.39400561065841477 0.34382680172727831 0 -0.38539473684528258 0.34837828204789067 0 -0.40105078960399698 0.34662517948293931 0 -0.40525205349158999 0.35429039595711992 0 -0.40888688292129022 0.34941903462410451 0 -0.40105078960399698 0.34662517948293931 0 -0.4080564418273247 0.34368885170405422 0 -0.40888688292129022 0.34941903462410451 0 -0.40105078960399698 0.34662517948293931 0 -0.40525205349158999 0.35429039595711992 0 -0.39969836615416421 0.35756427730283669 0 -0.40525205349158999 0.35429039595711992 0 -0.39969836615416421 0.35756427730283669 0 -0.40553625032349627 0.36037170931698131 0 -0.40553625032349627 0.36037170931698131 0 -0.40544017780568847 0.3661562974108753 0 -0.40025021147547779 0.36436392320030081 0 -0.40544017780568847 0.3661562974108753 0 -0.40025021147547779 0.36436392320030081 0 -0.397742957241214 0.36844985128713797 0 -0.39969836615416421 0.35756427730283669 0 -0.40553625032349627 0.36037170931698131 0 -0.40025021147547779 0.36436392320030081 0 -0.40544017780568847 0.3661562974108753 0 -0.40086489287733429 0.37467411733839928 0 -0.397742957241214 0.36844985128713797 0 -0.40086489287733429 0.37467411733839928 0 -0.397742957241214 0.36844985128713797 0 -0.39033592763893787 0.37070590072739279 0 -0.397742957241214 0.36844985128713797 0 -0.39341808057325789 0.36431669671432632 0 -0.39033592763893787 0.37070590072739279 0 -0.39969836615416421 0.35756427730283669 0 -0.40025021147547779 0.36436392320030081 0 -0.39341808057325789 0.36431669671432632 0 -0.40025021147547779 0.36436392320030081 0 -0.397742957241214 0.36844985128713797 0 -0.39341808057325789 0.36431669671432632 0 -0.3926828114571661 0.35541775914535301 0 -0.39341808057325789 0.36431669671432632 0 -0.37949655700884349 0.37153259571527891 0 -0.37949655700884349 0.37153259571527891 0 -0.37823932191431281 0.35548757599615399 0 -0.37024808467873749 0.36543132639488701 0 -0.3926828114571661 0.35541775914535301 0 -0.37949655700884349 0.37153259571527891 0 -0.37823932191431281 0.35548757599615399 0 -0.3926828114571661 0.35541775914535301 0 -0.37949655700884349 0.37153259571527891 0 -0.39341808057325789 0.36431669671432632 0 -0.39033592763893787 0.37070590072739279 0 -0.37949655700884349 0.37153259571527891 0 -0.37686086334024771 0.38257038446795849 0 -0.39033592763893787 0.37070590072739279 0 -0.37949655700884349 0.37153259571527891 0 -0.37823932191431281 0.35548757599615399 0 -0.38539473684528258 0.34837828204789067 0 -0.3787015959315434 0.33902802614693439 0 -0.3926828114571661 0.35541775914535301 0 -0.37823932191431281 0.35548757599615399 0 -0.38539473684528258 0.34837828204789067 0 -0.3787015959315434 0.33902802614693439 0 -0.37816355277066899 0.32985684687273281 0 -0.39158393304450312 0.32769252248945308 0 -0.39400561065841477 0.34382680172727831 0 -0.38539473684528258 0.34837828204789067 0 -0.3787015959315434 0.33902802614693439 0 -0.39158393304450312 0.32769252248945308 0 -0.37442838800096029 0.32044424157556423 0 -0.37816355277066899 0.32985684687273281 0 -0.39158393304450312 0.32769252248945308 0 -0.37442838800096029 0.32044424157556423 0 -0.38613629988198012 0.31665983269396758 0 -0.39158393304450312 0.32769252248945308 0 -0.37442838800096029 0.32044424157556423 0 -0.38613629988198012 0.31665983269396758 0 -0.37442838800096029 0.32044424157556423 0 -0.37415321332832258 0.31386652142517069 0 -0.39158393304450312 0.32769252248945308 0 -0.4039094095666334 0.320812311378052 0 -0.40925887999808552 0.33516025262174892 0 -0.38613629988198012 0.31665983269396758 0 -0.39830358576524327 0.31266849694114901 0 -0.39158393304450312 0.32769252248945308 0 -0.39830358576524327 0.31266849694114901 0 -0.39158393304450312 0.32769252248945308 0 -0.4039094095666334 0.320812311378052 0 -0.39830358576524327 0.31266849694114901 0 -0.4039094095666334 0.320812311378052 0 -0.40826549608127172 0.31275764886218971 0 -0.3787015959315434 0.33902802614693439 0 -0.40777024278950652 0.33697950655941222 0 -0.39158393304450312 0.32769252248945308 0 -0.40925887999808552 0.33516025262174892 0 -0.39158393304450312 0.32769252248945308 0 -0.40777024278950652 0.33697950655941222 0 -0.40925887999808552 0.33516025262174892 0 -0.3787015959315434 0.33902802614693439 0 -0.39158393304450312 0.32769252248945308 0 -0.40777024278950652 0.33697950655941222 0 -0.39400561065841477 0.34382680172727831 0 -0.3787015959315434 0.33902802614693439 0 -0.40777024278950652 0.33697950655941222 0 -0.39400561065841477 0.34382680172727831 0 -0.40586906590548888 0.3393029225754271 0 -0.40777024278950652 0.33697950655941222 0 -0.40105078960399698 0.34662517948293931 0 -0.40586906590548888 0.3393029225754271 0 -0.40105078960399698 0.34662517948293931 0 -0.40586906590548888 0.3393029225754271 0 -0.4080564418273247 0.34368885170405422 0 -0.4080564418273247 0.34368885170405422 0 -0.41125860555200922 0.34134685969384471 0 -0.40895905381070002 0.33957121871677393 0 -0.40586906590548888 0.3393029225754271 0 -0.4080564418273247 0.34368885170405422 0 -0.40895905381070002 0.33957121871677393 0 -0.4080564418273247 0.34368885170405422 0 -0.41125860555200922 0.34134685969384471 0 -0.41366919887348358 0.34576378073699821 0 -0.41125860555200922 0.34134685969384471 0 -0.41273643032526569 0.33662953043248711 0 -0.41433336845197538 0.3415594658204692 0 -0.41125860555200922 0.34134685969384471 0 -0.41433336845197538 0.3415594658204692 0 -0.41366919887348358 0.34576378073699821 0 -0.41125860555200922 0.34134685969384471 0 -0.41273643032526569 0.33662953043248711 0 -0.40895905381070002 0.33957121871677393 0 -0.41273643032526569 0.33662953043248711 0 -0.40777024278950652 0.33697950655941222 0 -0.41273643032526569 0.33662953043248711 0 -0.40895905381070002 0.33957121871677393 0 -0.40777024278950652 0.33697950655941222 0 -0.41273643032526569 0.33662953043248711 0 -0.40777024278950652 0.33697950655941222 0 -0.40925887999808552 0.33516025262174892 0 -0.40777024278950652 0.33697950655941222 0 -0.40925887999808552 0.33516025262174892 0 -0.40586906590548888 0.3393029225754271 0 -0.40895905381070002 0.33957121871677393 0 -0.40777024278950652 0.33697950655941222 0 -0.40586906590548888 0.3393029225754271 0 -0.40777024278950652 0.33697950655941222 0 -0.41273643032526569 0.33662953043248711 0 -0.40925887999808552 0.33516025262174892 0 -0.40925887999808552 0.33516025262174892 0 -0.42024067891477529 0.32173946694831868 0 -0.40925887999808552 0.33516025262174892 0 -0.42071708592719742 0.33131558094746122 0 -0.42024067891477529 0.32173946694831868 0 -0.41273643032526569 0.33662953043248711 0 -0.40925887999808552 0.33516025262174892 0 -0.42071708592719742 0.33131558094746122 0 -0.41273643032526569 0.33662953043248711 0 -0.4199209072431685 0.34318781838679219 0 -0.41433336845197538 0.3415594658204692 0 -0.4199209072431685 0.34318781838679219 0 -0.41433336845197538 0.3415594658204692 0 -0.41366919887348358 0.34576378073699821 0 -0.40925887999808552 0.33516025262174892 0 -0.41892768793075841 0.31754462100172592 0 -0.42141481873501418 0.31567829233095179 0 -0.40925887999808552 0.33516025262174892 0 -0.411263050936583 0.31954773430139438 0 -0.41892768793075841 0.31754462100172592 0 -0.40925887999808552 0.33516025262174892 0 -0.42141481873501418 0.31567829233095179 0 -0.40925887999808552 0.33516025262174892 0 -0.42024067891477529 0.32173946694831868 0 -0.42141481873501418 0.31567829233095179 0 -0.411263050936583 0.31954773430139438 0 -0.40826549608127172 0.31275764886218971 0 -0.41647318301620623 0.31168328686166002 0 -0.4039094095666334 0.320812311378052 0 -0.411263050936583 0.31954773430139438 0 -0.40826549608127172 0.31275764886218971 0 -0.4039094095666334 0.320812311378052 0 -0.40925887999808552 0.33516025262174892 0 -0.411263050936583 0.31954773430139438 0 -0.411263050936583 0.31954773430139438 0 -0.41892768793075841 0.31754462100172592 0 -0.41647318301620623 0.31168328686166002 0 -0.41892768793075841 0.31754462100172592 0 -0.42141481873501418 0.31567829233095179 0 -0.41892768793075841 0.31754462100172592 0 -0.42141481873501418 0.31567829233095179 0 -0.41647318301620623 0.31168328686166002 0 -0.42024067891477529 0.32173946694831868 0 -0.43790895006943947 0.32081412042189511 0 -0.43122247783146522 0.30831868127488848 0 -0.42024067891477529 0.32173946694831868 0 -0.42938605365092247 0.3272194948190838 0 -0.43790895006943947 0.32081412042189511 0 -0.42024067891477529 0.32173946694831868 0 -0.42141481873501418 0.31567829233095179 0 -0.43122247783146522 0.30831868127488848 0 -0.42024067891477529 0.32173946694831868 0 -0.43122247783146522 0.30831868127488848 0 -0.42071708592719742 0.33131558094746122 0 -0.42024067891477529 0.32173946694831868 0 -0.42938605365092247 0.3272194948190838 0 -0.42938605365092247 0.3272194948190838 0 -0.43674098495811231 0.33493788649063261 0 -0.43790895006943947 0.32081412042189511 0 -0.43790895006943947 0.32081412042189511 0 -0.4401847358662575 0.3127477530096977 0 -0.43122247783146522 0.30831868127488848 0 -0.41273643032526569 0.33662953043248711 0 -0.43674098495811231 0.33493788649063261 0 -0.42071708592719742 0.33131558094746122 0 -0.42938605365092247 0.3272194948190838 0 -0.43674098495811231 0.33493788649063261 0 -0.41273643032526569 0.33662953043248711 0 -0.4199209072431685 0.34318781838679219 0 -0.43385085243219867 0.34555045147446217 0 -0.41273643032526569 0.33662953043248711 0 -0.42071708592719742 0.33131558094746122 0 -0.43674098495811231 0.33493788649063261 0 -0.41273643032526569 0.33662953043248711 0 -0.43385085243219867 0.34555045147446217 0 -0.41273643032526569 0.33662953043248711 0 -0.43674098495811231 0.33493788649063261 0 -0.43385085243219867 0.34555045147446217 0 -0.43385085243219867 0.34555045147446217 0 -0.4302486007270056 0.35272204188882378 0 -0.42573384958437638 0.34916959158482058 0 -0.43385085243219867 0.34555045147446217 0 -0.43539550265875948 0.35741731211322858 0 -0.44110397924445488 0.35756373905142852 0 -0.43539550265875948 0.35741731211322858 0 -0.4302486007270056 0.35272204188882378 0 -0.42757171946388478 0.35850981688022993 0 -0.43385085243219867 0.34555045147446217 0 -0.43539550265875948 0.35741731211322858 0 -0.4302486007270056 0.35272204188882378 0 -0.4302486007270056 0.35272204188882378 0 -0.42480748600639012 0.35482075793933809 0 -0.42573384958437638 0.34916959158482058 0 -0.4302486007270056 0.35272204188882378 0 -0.42757171946388478 0.35850981688022993 0 -0.42480748600639012 0.35482075793933809 0 -0.42757171946388478 0.35850981688022993 0 -0.42480748600639012 0.35482075793933809 0 -0.42195212413097077 0.36043988011418487 0 -0.4199209072431685 0.34318781838679219 0 -0.43385085243219867 0.34555045147446217 0 -0.42573384958437638 0.34916959158482058 0 -0.42480748600639012 0.35482075793933809 0 -0.42573384958437638 0.34916959158482058 0 -0.41984140151311927 0.3495668882346864 0 -0.4199209072431685 0.34318781838679219 0 -0.42573384958437638 0.34916959158482058 0 -0.41984140151311927 0.3495668882346864 0 -0.4199209072431685 0.34318781838679219 0 -0.41984140151311927 0.3495668882346864 0 -0.41366919887348358 0.34576378073699821 0 -0.41984140151311927 0.3495668882346864 0 -0.41366919887348358 0.34576378073699821 0 -0.41404230344944593 0.35073751764187411 0 -0.42480748600639012 0.35482075793933809 0 -0.41984140151311927 0.3495668882346864 0 -0.41755863725870102 0.35684421707679032 0 -0.42480748600639012 0.35482075793933809 0 -0.41755863725870102 0.35684421707679032 0 -0.42195212413097077 0.36043988011418487 0 -0.41984140151311927 0.3495668882346864 0 -0.41755863725870102 0.35684421707679032 0 -0.41404230344944593 0.35073751764187411 0 -0.41755863725870102 0.35684421707679032 0 -0.41125051028190041 0.35540848222164118 0 -0.41404230344944593 0.35073751764187411 0 -0.41125051028190041 0.35540848222164118 0 -0.40888688292129022 0.34941903462410451 0 -0.41404230344944593 0.35073751764187411 0 -0.41755863725870102 0.35684421707679032 0 -0.41125051028190041 0.35540848222164118 0 -0.41142088061722581 0.36176204086772412 0 -0.40553625032349627 0.36037170931698131 0 -0.41125051028190041 0.35540848222164118 0 -0.41142088061722581 0.36176204086772412 0 -0.40525205349158999 0.35429039595711992 0 -0.40553625032349627 0.36037170931698131 0 -0.41125051028190041 0.35540848222164118 0 -0.40525205349158999 0.35429039595711992 0 -0.41125051028190041 0.35540848222164118 0 -0.40888688292129022 0.34941903462410451 0 -0.4080564418273247 0.34368885170405422 0 -0.40888688292129022 0.34941903462410451 0 -0.41366919887348358 0.34576378073699821 0 -0.40888688292129022 0.34941903462410451 0 -0.41366919887348358 0.34576378073699821 0 -0.41404230344944593 0.35073751764187411 0 -0.4250431626101242 0.37647010748543319 0 -0.40086489287733429 0.37467411733839928 0 -0.42486892241442098 0.36677785020884007 0 -0.40086489287733429 0.37467411733839928 0 -0.42486892241442098 0.36677785020884007 0 -0.40086489287733429 0.37467411733839928 0 -0.41378193274770297 0.36450427419225789 0 -0.42486892241442098 0.36677785020884007 0 -0.40544017780568847 0.3661562974108753 0 -0.40086489287733429 0.37467411733839928 0 -0.41378193274770297 0.36450427419225789 0 -0.40544017780568847 0.3661562974108753 0 -0.41142088061722581 0.36176204086772412 0 -0.41378193274770297 0.36450427419225789 0 -0.40553625032349627 0.36037170931698131 0 -0.40544017780568847 0.3661562974108753 0 -0.41142088061722581 0.36176204086772412 0 -0.41755863725870102 0.35684421707679032 0 -0.41378193274770297 0.36450427419225789 0 -0.42195212413097077 0.36043988011418487 0 -0.41378193274770297 0.36450427419225789 0 -0.42486892241442098 0.36677785020884007 0 -0.42195212413097077 0.36043988011418487 0 -0.41755863725870102 0.35684421707679032 0 -0.41142088061722581 0.36176204086772412 0 -0.41378193274770297 0.36450427419225789 0 -0.4250431626101242 0.37647010748543319 0 -0.44885864134335329 0.37135067543599282 0 -0.4250431626101242 0.37647010748543319 0 -0.42486892241442098 0.36677785020884007 0 -0.44885864134335329 0.37135067543599282 0 -0.42486892241442098 0.36677785020884007 0 -0.448872951951507 0.35888158307927881 0 -0.43539550265875948 0.35741731211322858 0 -0.42486892241442098 0.36677785020884007 0 -0.44110397924445488 0.35756373905142852 0 -0.43539550265875948 0.35741731211322858 0 -0.42757171946388478 0.35850981688022993 0 -0.42486892241442098 0.36677785020884007 0 -0.42757171946388478 0.35850981688022993 0 -0.42486892241442098 0.36677785020884007 0 -0.42195212413097077 0.36043988011418487 0 -0.42486892241442098 0.36677785020884007 0 -0.44885864134335329 0.37135067543599282 0 -0.448872951951507 0.35888158307927881 0 -0.44802713623065987 0.37645115623263098 0 -0.4250431626101242 0.37647010748543319 0 -0.44885864134335329 0.37135067543599282 0 -0.42486892241442098 0.36677785020884007 0 -0.44110397924445488 0.35756373905142852 0 -0.448872951951507 0.35888158307927881 0 -0.44885864134335329 0.37135067543599282 0 -0.448872951951507 0.35888158307927881 0 -0.44885864134335329 0.37135067543599282 0 -0.448872951951507 0.35888158307927881 0 -0.45634368000688869 0.36512471152292858 0 -0.43385085243219867 0.34555045147446217 0 -0.45496527453913199 0.35447137251643651 0 -0.44889299330712729 0.34242966823447613 0 -0.43385085243219867 0.34555045147446217 0 -0.45496527453913199 0.35447137251643651 0 -0.43385085243219867 0.34555045147446217 0 -0.44887533288597797 0.35680703170406669 0 -0.45496527453913199 0.35447137251643651 0 -0.43385085243219867 0.34555045147446217 0 -0.44110397924445488 0.35756373905142852 0 -0.44887533288597797 0.35680703170406669 0 -0.44110397924445488 0.35756373905142852 0 -0.44887533288597797 0.35680703170406669 0 -0.448872951951507 0.35888158307927881 0 -0.44887533288597797 0.35680703170406669 0 -0.448872951951507 0.35888158307927881 0 -0.44887533288597797 0.35680703170406669 0 -0.448872951951507 0.35888158307927881 0 -0.45496527453913199 0.35447137251643651 0 -0.448872951951507 0.35888158307927881 0 -0.45496527453913199 0.35447137251643651 0 -0.47186707529616939 0.3513175305497272 0 -0.448872951951507 0.35888158307927881 0 -0.47186707529616939 0.3513175305497272 0 -0.448872951951507 0.35888158307927881 0 -0.45634368000688869 0.36512471152292858 0 -0.47186707529616939 0.3513175305497272 0 -0.45911772068334677 0.34536620346235469 0 -0.45496527453913199 0.35447137251643651 0 -0.47186707529616939 0.3513175305497272 0 -0.45911772068334677 0.34536620346235469 0 -0.45496527453913199 0.35447137251643651 0 -0.44889299330712729 0.34242966823447613 0 -0.46572599417265398 0.36772482908493609 0 -0.45634368000688869 0.36512471152292858 0 -0.47186707529616939 0.3513175305497272 0 -0.46059005399087027 0.38292215568240928 0 -0.44885864134335329 0.37135067543599282 0 -0.46572599417265398 0.36772482908493609 0 -0.44885864134335329 0.37135067543599282 0 -0.46572599417265398 0.36772482908493609 0 -0.44885864134335329 0.37135067543599282 0 -0.46572599417265398 0.36772482908493609 0 -0.45634368000688869 0.36512471152292858 0 -0.47832653283541199 0.38608194873200979 0 -0.46572599417265398 0.36772482908493609 0 -0.48259334700195489 0.36409898273387958 0 -0.46572599417265398 0.36772482908493609 0 -0.48259334700195489 0.36409898273387958 0 -0.47186707529616939 0.3513175305497272 0 -0.46572599417265398 0.36772482908493609 0 -0.48259334700195489 0.36409898273387958 0 -0.47186707529616939 0.3513175305497272 0 -0.494861198640831 0.34375347802017348 0 -0.47186707529616939 0.3513175305497272 0 -0.48536711719674469 0.35339641184703091 0 -0.494861198640831 0.34375347802017348 0 -0.48259334700195489 0.36409898273387958 0 -0.47186707529616939 0.3513175305497272 0 -0.48536711719674469 0.35339641184703091 0 -0.48259334700195489 0.36409898273387958 0 -0.49214684784802371 0.35441565608434311 0 -0.48536711719674469 0.35339641184703091 0 -0.49214684784802371 0.35441565608434311 0 -0.5 0.36887446842263683 0 -0.5 0.34271985673358363 0 -0.49214684784802371 0.35441565608434311 0 -0.48536711719674469 0.35339641184703091 0 -0.494861198640831 0.34375347802017348 0 -0.49214684784802371 0.35441565608434311 0 -0.494861198640831 0.34375347802017348 0 -0.5 0.34271985673358363 0 -0.48850556386005051 0.3766603246979251 0 -0.48259334700195489 0.36409898273387958 0 -0.5 0.36887446842263683 0 -0.48259334700195489 0.36409898273387958 0 -0.49214684784802371 0.35441565608434311 0 -0.5 0.36887446842263683 0 -0.485708092488497 0.3189911195031831 0 -0.5 0.31656524504453032 0 -0.48475009422380527 0.3315545986069256 0 -0.485708092488497 0.3189911195031831 0 -0.5 0.31656524504453032 0 -0.48583489694974541 0.30845327583860088 0 -0.5 0.31656524504453032 0 -0.5 0.34271985673358363 0 -0.48475009422380527 0.3315545986069256 0 -0.494861198640831 0.34375347802017348 0 -0.5 0.34271985673358363 0 -0.48475009422380527 0.3315545986069256 0 -0.48475009422380527 0.3315545986069256 0 -0.46074553959095882 0.3332462425487791 0 -0.47186707529616939 0.3513175305497272 0 -0.494861198640831 0.34375347802017348 0 -0.48475009422380527 0.3315545986069256 0 -0.47186707529616939 0.3513175305497272 0 -0.48475009422380527 0.3315545986069256 0 -0.46074553959095882 0.3332462425487791 0 -0.48475009422380527 0.3315545986069256 0 -0.47224737878043732 0.31939135852267558 0 -0.46074553959095882 0.3332462425487791 0 -0.485708092488497 0.3189911195031831 0 -0.48475009422380527 0.3315545986069256 0 -0.47224737878043732 0.31939135852267558 0 -0.485708092488497 0.3189911195031831 0 -0.47224737878043732 0.31939135852267558 0 -0.48583489694974541 0.30845327583860088 0 -0.47224737878043732 0.31939135852267558 0 -0.46258830912673421 0.31343425170936878 0 -0.46074553959095882 0.3332462425487791 0 -0.46258830912673421 0.31343425170936878 0 -0.46074553959095882 0.3332462425487791 0 -0.45107709460752138 0.31557533431346357 0 -0.45911772068334677 0.34536620346235469 0 -0.47186707529616939 0.3513175305497272 0 -0.46074553959095882 0.3332462425487791 0 -0.45911772068334677 0.34536620346235469 0 -0.46074553959095882 0.3332462425487791 0 -0.44889299330712729 0.34242966823447613 0 -0.43674098495811231 0.33493788649063261 0 -0.46074553959095882 0.3332462425487791 0 -0.43674098495811231 0.33493788649063261 0 -0.46074553959095882 0.3332462425487791 0 -0.44889299330712729 0.34242966823447613 0 -0.43674098495811231 0.33493788649063261 0 -0.46074553959095882 0.3332462425487791 0 -0.43790895006943947 0.32081412042189511 0 -0.43674098495811231 0.33493788649063261 0 -0.43385085243219867 0.34555045147446217 0 -0.44889299330712729 0.34242966823447613 0 -0.46074553959095882 0.3332462425487791 0 -0.45107709460752138 0.31557533431346357 0 -0.43790895006943947 0.32081412042189511 0 -0.45107709460752138 0.31557533431346357 0 -0.43790895006943947 0.32081412042189511 0 -0.4401847358662575 0.3127477530096977 0 -0.44444415583193408 0.29216055381020578 0 -0.43122247783146522 0.30831868127488848 0 -0.44810052680614793 0.29565349026271098 0 -0.43122247783146522 0.30831868127488848 0 -0.44368336155109173 0.30649675881006838 0 -0.44810052680614793 0.29565349026271098 0 -0.43122247783146522 0.30831868127488848 0 -0.4401847358662575 0.3127477530096977 0 -0.44368336155109173 0.30649675881006838 0 -0.43122247783146522 0.30831868127488848 0 -0.44444415583193408 0.29216055381020578 0 -0.44810052680614793 0.29565349026271098 0 -0.43122247783146522 0.30831868127488848 0 -0.45107709460752138 0.31557533431346357 0 -0.4401847358662575 0.3127477530096977 0 -0.44368336155109173 0.30649675881006838 0 -0.44368336155109173 0.30649675881006838 0 -0.44996115485610377 0.3015940899144034 0 -0.4551770389262465 0.30483297142504889 0 -0.44368336155109173 0.30649675881006838 0 -0.44996115485610377 0.3015940899144034 0 -0.44810052680614793 0.29565349026271098 0 -0.45288369214092922 0.29939313915978533 0 -0.44996115485610377 0.3015940899144034 0 -0.44810052680614793 0.29565349026271098 0 -0.45288369214092922 0.29939313915978533 0 -0.44996115485610377 0.3015940899144034 0 -0.4551770389262465 0.30483297142504889 0 -0.45107709460752138 0.31557533431346357 0 -0.44368336155109173 0.30649675881006838 0 -0.4551770389262465 0.30483297142504889 0 -0.44702735364695217 0.27675533545947301 0 -0.43422108619098299 0.29621681389521232 0 -0.44444415583193408 0.29216055381020578 0 -0.44702735364695217 0.27675533545947301 0 -0.43422108619098299 0.29621681389521232 0 -0.44702735364695217 0.27675533545947301 0 -0.43274811138672559 0.28469846643612018 0 -0.43422108619098299 0.29621681389521232 0 -0.44810052680614793 0.29565349026271098 0 -0.4493542421043164 0.28919027156790111 0 -0.45395006383388498 0.28587005882998617 0 -0.44444415583193408 0.29216055381020578 0 -0.44810052680614793 0.29565349026271098 0 -0.4493542421043164 0.28919027156790111 0 -0.44444415583193408 0.29216055381020578 0 -0.4493542421043164 0.28919027156790111 0 -0.44702735364695217 0.27675533545947301 0 -0.4493542421043164 0.28919027156790111 0 -0.45395006383388498 0.28587005882998617 0 -0.44702735364695217 0.27675533545947301 0 -0.44810052680614793 0.29565349026271098 0 -0.45395006383388498 0.28587005882998617 0 -0.46497857578083068 0.28298829925053381 0 -0.44810052680614793 0.29565349026271098 0 -0.4593999708052337 0.29480301670676529 0 -0.46497857578083068 0.28298829925053381 0 -0.44810052680614793 0.29565349026271098 0 -0.46497857578083068 0.28298829925053381 0 -0.45288369214092922 0.29939313915978533 0 -0.44810052680614793 0.29565349026271098 0 -0.4593999708052337 0.29480301670676529 0 -0.4593999708052337 0.29480301670676529 0 -0.46827174088950307 0.29409138505043392 0 -0.46497857578083068 0.28298829925053381 0 -0.46258830912673421 0.31343425170936878 0 -0.45107709460752138 0.31557533431346357 0 -0.4551770389262465 0.30483297142504889 0 -0.45288369214092922 0.29939313915978533 0 -0.4593999708052337 0.29480301670676529 0 -0.4551770389262465 0.30483297142504889 0 -0.4593999708052337 0.29480301670676529 0 -0.4551770389262465 0.30483297142504889 0 -0.46625021185001803 0.30380681263807602 0 -0.4593999708052337 0.29480301670676529 0 -0.46827174088950307 0.29409138505043392 0 -0.46625021185001803 0.30380681263807602 0 -0.47224737878043732 0.31939135852267558 0 -0.46258830912673421 0.31343425170936878 0 -0.46625021185001803 0.30380681263807602 0 -0.46258830912673421 0.31343425170936878 0 -0.4551770389262465 0.30483297142504889 0 -0.46625021185001803 0.30380681263807602 0 -0.47551717359816043 0.30301602212345602 0 -0.4769183937012712 0.29196404103452073 0 -0.48583489694974541 0.30845327583860088 0 -0.47224737878043732 0.31939135852267558 0 -0.46625021185001803 0.30380681263807602 0 -0.47551717359816043 0.30301602212345602 0 -0.47224737878043732 0.31939135852267558 0 -0.47551717359816043 0.30301602212345602 0 -0.48583489694974541 0.30845327583860088 0 -0.46827174088950307 0.29409138505043392 0 -0.46625021185001803 0.30380681263807602 0 -0.47551717359816043 0.30301602212345602 0 -0.46827174088950307 0.29409138505043392 0 -0.46497857578083068 0.28298829925053381 0 -0.4769183937012712 0.29196404103452073 0 -0.4769183937012712 0.29196404103452073 0 -0.48757792524538679 0.2814999319082685 0 -0.48583489694974541 0.30845327583860088 0 -0.46827174088950307 0.29409138505043392 0 -0.47551717359816043 0.30301602212345602 0 -0.4769183937012712 0.29196404103452073 0 -0.46497857578083068 0.28298829925053381 0 -0.47783287987075052 0.28169384510791978 0 -0.4769183937012712 0.29196404103452073 0 -0.47783287987075052 0.28169384510791978 0 -0.4769183937012712 0.29196404103452073 0 -0.48757792524538679 0.2814999319082685 0 -0.5 0.29041063335547701 0 -0.48757792524538679 0.2814999319082685 0 -0.48583489694974541 0.30845327583860088 0 -0.48757792524538679 0.2814999319082685 0 -0.48583489694974541 0.30845327583860088 0 -0.5 0.31656524504453032 0 -0.5 0.29041063335547701 0 -0.48583489694974541 0.30845327583860088 0 -0.5 0.23810140997737081 0 -0.5 0.26425602166642381 0 -0.48932095354102823 0.25454658797793611 0 -0.48757792524538679 0.2814999319082685 0 -0.48932095354102823 0.25454658797793611 0 -0.48366697684514259 0.26703881783025729 0 -0.48757792524538679 0.2814999319082685 0 -0.5 0.26425602166642381 0 -0.48932095354102823 0.25454658797793611 0 -0.48757792524538679 0.2814999319082685 0 -0.48932095354102823 0.25454658797793611 0 -0.5 0.29041063335547701 0 -0.48757792524538679 0.2814999319082685 0 -0.5 0.26425602166642381 0 -0.46497857578083068 0.28298829925053381 0 -0.48185662475551339 0.27032310823835648 0 -0.46497857578083068 0.28298829925053381 0 -0.47783287987075052 0.28169384510791978 0 -0.48185662475551339 0.27032310823835648 0 -0.48366697684514259 0.26703881783025729 0 -0.45893043448094739 0.2699305570534084 0 -0.48757792524538679 0.2814999319082685 0 -0.48366697684514259 0.26703881783025729 0 -0.48185662475551339 0.27032310823835648 0 -0.48366697684514259 0.26703881783025729 0 -0.48185662475551339 0.27032310823835648 0 -0.47235815296560851 0.27257019559313889 0 -0.46497857578083068 0.28298829925053381 0 -0.48185662475551339 0.27032310823835648 0 -0.47235815296560851 0.27257019559313889 0 -0.48366697684514259 0.26703881783025729 0 -0.46959483388743167 0.25994315597580908 0 -0.45893043448094739 0.2699305570534084 0 -0.48366697684514259 0.26703881783025729 0 -0.47235815296560851 0.27257019559313889 0 -0.45893043448094739 0.2699305570534084 0 -0.47783287987075052 0.28169384510791978 0 -0.48757792524538679 0.2814999319082685 0 -0.48185662475551339 0.27032310823835648 0 -0.48932095354102823 0.25454658797793611 0 -0.48366697684514259 0.26703881783025729 0 -0.47792533453874358 0.25606878273296479 0 -0.48366697684514259 0.26703881783025729 0 -0.46959483388743167 0.25994315597580908 0 -0.47792533453874358 0.25606878273296479 0 -0.47864167104372218 0.246590621409366 0 -0.48932095354102823 0.25454658797793611 0 -0.47792533453874358 0.25606878273296479 0 -0.47864167104372218 0.246590621409366 0 -0.47792533453874358 0.25606878273296479 0 -0.46938038244821267 0.25133041049185839 0 -0.46959483388743167 0.25994315597580908 0 -0.47792533453874358 0.25606878273296479 0 -0.46938038244821267 0.25133041049185839 0 -0.46959483388743167 0.25994315597580908 0 -0.46938038244821267 0.25133041049185839 0 -0.45807104112411212 0.25534721177055669 0 -0.46959483388743167 0.25994315597580908 0 -0.45807104112411212 0.25534721177055669 0 -0.45893043448094739 0.2699305570534084 0 -0.45807104112411212 0.25534721177055669 0 -0.45893043448094739 0.2699305570534084 0 -0.44442574262614493 0.25832327296872359 0 -0.45395006383388498 0.28587005882998617 0 -0.46497857578083068 0.28298829925053381 0 -0.45893043448094739 0.2699305570534084 0 -0.45395006383388498 0.28587005882998617 0 -0.45893043448094739 0.2699305570534084 0 -0.44702735364695217 0.27675533545947301 0 -0.46497857578083068 0.28298829925053381 0 -0.47235815296560851 0.27257019559313889 0 -0.45893043448094739 0.2699305570534084 0 -0.45893043448094739 0.2699305570534084 0 -0.43419389211675241 0.27282229627655952 0 -0.45893043448094739 0.2699305570534084 0 -0.44442574262614493 0.25832327296872359 0 -0.43419389211675241 0.27282229627655952 0 -0.45893043448094739 0.2699305570534084 0 -0.44702735364695217 0.27675533545947301 0 -0.43419389211675241 0.27282229627655952 0 -0.44702735364695217 0.27675533545947301 0 -0.43419389211675241 0.27282229627655952 0 -0.43274811138672559 0.28469846643612018 0 -0.45046339488490522 0.249057113070103 0 -0.45807104112411212 0.25534721177055669 0 -0.44442574262614493 0.25832327296872359 0 -0.44062222049055039 0.24203477259657111 0 -0.44442574262614493 0.25832327296872359 0 -0.42503978512155383 0.25887440404814072 0 -0.44062222049055039 0.24203477259657111 0 -0.42503978512155383 0.25887440404814072 0 -0.44442574262614493 0.25832327296872359 0 -0.42503978512155383 0.25887440404814072 0 -0.43419389211675241 0.27282229627655952 0 -0.42503978512155383 0.25887440404814072 0 -0.40945734975255721 0.27571403549971041 0 -0.40585136056822319 0.25674789398696107 0 -0.4198454647722451 0.23985190764030939 0 -0.42503978512155383 0.25887440404814072 0 -0.40585136056822319 0.25674789398696107 0 -0.40945734975255721 0.27571403549971041 0 -0.43419389211675241 0.27282229627655952 0 -0.42503978512155383 0.25887440404814072 0 -0.40945734975255721 0.27571403549971041 0 -0.42503978512155383 0.25887440404814072 0 -0.40945734975255721 0.27571403549971041 0 -0.43419389211675241 0.27282229627655952 0 -0.40945734975255721 0.27571403549971041 0 -0.43419389211675241 0.27282229627655952 0 -0.4229835889384117 0.28415291652507912 0 -0.43419389211675241 0.27282229627655952 0 -0.43274811138672559 0.28469846643612018 0 -0.4229835889384117 0.28415291652507912 0 -0.43274811138672559 0.28469846643612018 0 -0.43422108619098299 0.29621681389521232 0 -0.42519236151645012 0.29288975242762622 0 -0.43274811138672559 0.28469846643612018 0 -0.42519236151645012 0.29288975242762622 0 -0.4229835889384117 0.28415291652507912 0 -0.42141481873501418 0.31567829233095179 0 -0.43422108619098299 0.29621681389521232 0 -0.42141481873501418 0.31567829233095179 0 -0.43422108619098299 0.29621681389521232 0 -0.42237726971740519 0.30236741203524931 0 -0.44444415583193408 0.29216055381020578 0 -0.43422108619098299 0.29621681389521232 0 -0.43122247783146522 0.30831868127488848 0 -0.42141481873501418 0.31567829233095179 0 -0.43422108619098299 0.29621681389521232 0 -0.43122247783146522 0.30831868127488848 0 -0.43422108619098299 0.29621681389521232 0 -0.42519236151645012 0.29288975242762622 0 -0.42237726971740519 0.30236741203524931 0 -0.42141481873501418 0.31567829233095179 0 -0.43122247783146522 0.30831868127488848 0 -0.42237726971740519 0.30236741203524931 0 -0.41647318301620623 0.31168328686166002 0 -0.40812109447663159 0.30329838776079099 0 -0.42141481873501418 0.31567829233095179 0 -0.42237726971740519 0.30236741203524931 0 -0.41647318301620623 0.31168328686166002 0 -0.42237726971740519 0.30236741203524931 0 -0.40812109447663159 0.30329838776079099 0 -0.41256551749876041 0.29129965580367562 0 -0.40826549608127172 0.31275764886218971 0 -0.41647318301620623 0.31168328686166002 0 -0.40812109447663159 0.30329838776079099 0 -0.40945734975255721 0.27571403549971041 0 -0.4229835889384117 0.28415291652507912 0 -0.41256551749876041 0.29129965580367562 0 -0.42519236151645012 0.29288975242762622 0 -0.4229835889384117 0.28415291652507912 0 -0.41256551749876041 0.29129965580367562 0 -0.42519236151645012 0.29288975242762622 0 -0.42237726971740519 0.30236741203524931 0 -0.41256551749876041 0.29129965580367562 0 -0.40945734975255721 0.27571403549971041 0 -0.39180528154043992 0.29479027846244049 0 -0.39350738277932218 0.27757861076756318 0 -0.40945734975255721 0.27571403549971041 0 -0.39180528154043992 0.29479027846244049 0 -0.40812109447663159 0.30329838776079099 0 -0.41256551749876041 0.29129965580367562 0 -0.39180528154043992 0.29479027846244049 0 -0.40945734975255721 0.27571403549971041 0 -0.41256551749876041 0.29129965580367562 0 -0.39180528154043992 0.29479027846244049 0 -0.38613629988198012 0.31665983269396758 0 -0.39830358576524327 0.31266849694114901 0 -0.39180528154043992 0.29479027846244049 0 -0.39830358576524327 0.31266849694114901 0 -0.40812109447663159 0.30329838776079099 0 -0.39180528154043992 0.29479027846244049 0 -0.39830358576524327 0.31266849694114901 0 -0.40826549608127172 0.31275764886218971 0 -0.40812109447663159 0.30329838776079099 0 -0.39180528154043992 0.29479027846244049 0 -0.37819889022761238 0.29924868842846319 0 -0.37415321332832258 0.31386652142517069 0 -0.38613629988198012 0.31665983269396758 0 -0.39180528154043992 0.29479027846244049 0 -0.37415321332832258 0.31386652142517069 0 -0.39180528154043992 0.29479027846244049 0 -0.37415321332832258 0.31386652142517069 0 -0.39180528154043992 0.29479027846244049 0 -0.37819889022761238 0.29924868842846319 0 -0.37870614451813112 0.28175948497688769 0 -0.39180528154043992 0.29479027846244049 0 -0.37870614451813112 0.28175948497688769 0 -0.39350738277932218 0.27757861076756318 0 -0.37870614451813112 0.28175948497688769 0 -0.37647038179830861 0.26645711442365799 0 -0.39350738277932218 0.27757861076756318 0 -0.37647038179830861 0.26645711442365799 0 -0.39336972403141229 0.26369738761855421 0 -0.39350738277932218 0.27757861076756318 0 -0.38790582398472923 0.24962922847932231 0 -0.37647038179830861 0.26645711442365799 0 -0.39336972403141229 0.26369738761855421 0 -0.38790582398472923 0.24962922847932231 0 -0.37647038179830861 0.26645711442365799 0 -0.36318679658289171 0.25196182354824148 0 -0.40945734975255721 0.27571403549971041 0 -0.40585136056822319 0.25674789398696107 0 -0.39336972403141229 0.26369738761855421 0 -0.38790582398472923 0.24962922847932231 0 -0.40585136056822319 0.25674789398696107 0 -0.39336972403141229 0.26369738761855421 0 -0.40945734975255721 0.27571403549971041 0 -0.39336972403141229 0.26369738761855421 0 -0.39350738277932218 0.27757861076756318 0 -0.40945734975255721 0.27571403549971041 0 -0.39350738277932218 0.27757861076756318 0 -0.35583614606747688 0.27501819518035592 0 -0.36318679658289171 0.25196182354824148 0 -0.33952374355129727 0.25899057541505788 0 -0.37647038179830861 0.26645711442365799 0 -0.35583614606747688 0.27501819518035592 0 -0.36318679658289171 0.25196182354824148 0 -0.37870614451813112 0.28175948497688769 0 -0.37647038179830861 0.26645711442365799 0 -0.35583614606747688 0.27501819518035592 0 -0.37819889022761238 0.29924868842846319 0 -0.37870614451813112 0.28175948497688769 0 -0.36775571630023218 0.2927315942663431 0 -0.37870614451813112 0.28175948497688769 0 -0.35583614606747688 0.27501819518035592 0 -0.36775571630023218 0.2927315942663431 0 -0.37819889022761238 0.29924868842846319 0 -0.36899777432263853 0.30469822459034263 0 -0.37415321332832258 0.31386652142517069 0 -0.36899777432263853 0.30469822459034263 0 -0.36272901898995358 0.31473918551029578 0 -0.37415321332832258 0.31386652142517069 0 -0.37819889022761238 0.29924868842846319 0 -0.36775571630023218 0.2927315942663431 0 -0.36899777432263853 0.30469822459034263 0 -0.36775571630023218 0.2927315942663431 0 -0.36899777432263853 0.30469822459034263 0 -0.35931620367806588 0.30475084950198522 0 -0.36775571630023218 0.2927315942663431 0 -0.35931620367806588 0.30475084950198522 0 -0.35261706249820868 0.29381533636168528 0 -0.36899777432263853 0.30469822459034263 0 -0.35931620367806588 0.30475084950198522 0 -0.36272901898995358 0.31473918551029578 0 -0.35931620367806588 0.30475084950198522 0 -0.35261706249820868 0.29381533636168528 0 -0.34344143829887858 0.30736403781452232 0 -0.35931620367806588 0.30475084950198522 0 -0.34344143829887858 0.30736403781452232 0 -0.35467675850453528 0.31743756764607989 0 -0.35931620367806588 0.30475084950198522 0 -0.35467675850453528 0.31743756764607989 0 -0.36272901898995358 0.31473918551029578 0 -0.35583614606747688 0.27501819518035592 0 -0.36775571630023218 0.2927315942663431 0 -0.35261706249820868 0.29381533636168528 0 -0.35583614606747688 0.27501819518035592 0 -0.35261706249820868 0.29381533636168528 0 -0.33673580814638959 0.28921200504521999 0 -0.35261706249820868 0.29381533636168528 0 -0.33673580814638959 0.28921200504521999 0 -0.34344143829887858 0.30736403781452232 0 -0.33673580814638959 0.28921200504521999 0 -0.32075162894010661 0.28280614760534989 0 -0.33379142081270979 0.2734424933293601 0 -0.34344143829887858 0.30736403781452232 0 -0.31699951866320542 0.30755322334125379 0 -0.34344143829887858 0.30736403781452232 0 -0.31699951866320542 0.30755322334125379 0 -0.33459812393413729 0.32207732583041709 0 -0.33673580814638959 0.28921200504521999 0 -0.34344143829887858 0.30736403781452232 0 -0.31699951866320542 0.30755322334125379 0 -0.33673580814638959 0.28921200504521999 0 -0.31699951866320542 0.30755322334125379 0 -0.32075162894010661 0.28280614760534989 0 -0.31699951866320542 0.30755322334125379 0 -0.32075162894010661 0.28280614760534989 0 -0.30493521127791462 0.28695781074044469 0 -0.32075162894010661 0.28280614760534989 0 -0.31931282352829687 0.26617321261290411 0 -0.33379142081270979 0.2734424933293601 0 -0.32075162894010661 0.28280614760534989 0 -0.31931282352829687 0.26617321261290411 0 -0.30493521127791462 0.28695781074044469 0 -0.35583614606747688 0.27501819518035592 0 -0.33673580814638959 0.28921200504521999 0 -0.33379142081270979 0.2734424933293601 0 -0.35583614606747688 0.27501819518035592 0 -0.33379142081270979 0.2734424933293601 0 -0.33952374355129727 0.25899057541505788 0 -0.31931282352829687 0.26617321261290411 0 -0.33379142081270979 0.2734424933293601 0 -0.33952374355129727 0.25899057541505788 0 -0.32200613725511351 0.24850726385495631 0 -0.31931282352829687 0.26617321261290411 0 -0.33952374355129727 0.25899057541505788 0 -0.32200613725511351 0.24850726385495631 0 -0.31931282352829687 0.26617321261290411 0 -0.30640548876467488 0.25787073169030861 0 -0.31931282352829687 0.26617321261290411 0 -0.30640548876467488 0.25787073169030861 0 -0.3010630097917536 0.27273037638764702 0 -0.31931282352829687 0.26617321261290411 0 -0.3010630097917536 0.27273037638764702 0 -0.30493521127791462 0.28695781074044469 0 -0.31931282352829687 0.26617321261290411 0 -0.30493521127791462 0.28695781074044469 0 -0.3010630097917536 0.27273037638764702 0 -0.29309283898050847 0.28048055459605348 0 -0.30493521127791462 0.28695781074044469 0 -0.3010630097917536 0.27273037638764702 0 -0.29309283898050847 0.28048055459605348 0 -0.28156868640737281 0.27216957229852412 0 -0.30640548876467488 0.25787073169030861 0 -0.3010630097917536 0.27273037638764702 0 -0.28156868640737281 0.27216957229852412 0 -0.30640548876467488 0.25787073169030861 0 -0.28156868640737281 0.27216957229852412 0 -0.28729818335365731 0.26780124082781631 0 -0.28156868640737281 0.27216957229852412 0 -0.28729818335365731 0.26780124082781631 0 -0.27880962639343299 0.26078065685839158 0 -0.29309283898050847 0.28048055459605348 0 -0.28156868640737281 0.27216957229852412 0 -0.28401529333418091 0.28255904946725641 0 -0.30640548876467488 0.25787073169030861 0 -0.28156868640737281 0.27216957229852412 0 -0.29125564533142001 0.24067530578368901 0 -0.30640548876467488 0.25787073169030861 0 -0.28729818335365731 0.26780124082781631 0 -0.29125564533142001 0.24067530578368901 0 -0.28729818335365731 0.26780124082781631 0 -0.27880962639343299 0.26078065685839158 0 -0.29125564533142001 0.24067530578368901 0 -0.28729818335365731 0.26780124082781631 0 -0.29125564533142001 0.24067530578368901 0 -0.26892213733164849 0.25365425058065472 0 -0.27880962639343299 0.26078065685839158 0 -0.26892213733164849 0.25365425058065472 0 -0.27880962639343299 0.26078065685839158 0 -0.26500347954306669 0.26960291480127369 0 -0.28156868640737281 0.27216957229852412 0 -0.25673188405007052 0.28646841290673969 0 -0.28156868640737281 0.27216957229852412 0 -0.26500347954306669 0.26960291480127369 0 -0.25673188405007052 0.28646841290673969 0 -0.28156868640737281 0.27216957229852412 0 -0.27880962639343299 0.26078065685839158 0 -0.26500347954306669 0.26960291480127369 0 -0.28156868640737281 0.27216957229852412 0 -0.27479408276187339 0.28687287199942368 0 -0.28401529333418091 0.28255904946725641 0 -0.26500347954306669 0.26960291480127369 0 -0.25265925142613249 0.26128234508680298 0 -0.25673188405007052 0.28646841290673969 0 -0.26892213733164849 0.25365425058065472 0 -0.26500347954306669 0.26960291480127369 0 -0.25265925142613249 0.26128234508680298 0 -0.25621817608628389 0.2460965770837312 0 -0.26892213733164849 0.25365425058065472 0 -0.25265925142613249 0.26128234508680298 0 -0.25505401324638421 0.30366623925853881 0 -0.26661761067819428 0.2958317928062858 0 -0.26721257633701828 0.30790943684761429 0 -0.25505401324638421 0.30366623925853881 0 -0.26721257633701828 0.30790943684761429 0 -0.25901197930261888 0.31383205914145501 0 -0.26721257633701828 0.30790943684761429 0 -0.25901197930261888 0.31383205914145501 0 -0.26528599585519008 0.31471464054907522 0 -0.25505401324638421 0.30366623925853881 0 -0.25901197930261888 0.31383205914145501 0 -0.24885494741763489 0.31718848033418301 0 -0.25505401324638421 0.30366623925853881 0 -0.25673188405007052 0.28646841290673969 0 -0.26661761067819428 0.2958317928062858 0 -0.26661761067819428 0.2958317928062858 0 -0.27573637841232751 0.29432500902679382 0 -0.27326763327687947 0.30016750757533939 0 -0.28156868640737281 0.27216957229852412 0 -0.25673188405007052 0.28646841290673969 0 -0.27479408276187339 0.28687287199942368 0 -0.26661761067819428 0.2958317928062858 0 -0.27479408276187339 0.28687287199942368 0 -0.27573637841232751 0.29432500902679382 0 -0.25673188405007052 0.28646841290673969 0 -0.26661761067819428 0.2958317928062858 0 -0.27479408276187339 0.28687287199942368 0 -0.27479408276187339 0.28687287199942368 0 -0.28401529333418091 0.28255904946725641 0 -0.28313816676434478 0.29069510378855717 0 -0.27479408276187339 0.28687287199942368 0 -0.27573637841232751 0.29432500902679382 0 -0.28313816676434478 0.29069510378855717 0 -0.27573637841232751 0.29432500902679382 0 -0.28086439858034518 0.29805776896436298 0 -0.28313816676434478 0.29069510378855717 0 -0.28086439858034518 0.29805776896436298 0 -0.27753065875984329 0.30327410754998058 0 -0.28274061889410179 0.30278083970340541 0 -0.27753065875984329 0.30327410754998058 0 -0.27514776209796898 0.30785266251660498 0 -0.28274061889410179 0.30278083970340541 0 -0.27753065875984329 0.30327410754998058 0 -0.27326763327687947 0.30016750757533939 0 -0.27348155140824082 0.30658246875079598 0 -0.28086439858034518 0.29805776896436298 0 -0.27753065875984329 0.30327410754998058 0 -0.27326763327687947 0.30016750757533939 0 -0.27573637841232751 0.29432500902679382 0 -0.28086439858034518 0.29805776896436298 0 -0.27326763327687947 0.30016750757533939 0 -0.26661761067819428 0.2958317928062858 0 -0.27326763327687947 0.30016750757533939 0 -0.26721257633701828 0.30790943684761429 0 -0.26721257633701828 0.30790943684761429 0 -0.27514776209796898 0.30785266251660498 0 -0.27123720609067609 0.3158529302113221 0 -0.26721257633701828 0.30790943684761429 0 -0.27348155140824082 0.30658246875079598 0 -0.27514776209796898 0.30785266251660498 0 -0.26721257633701828 0.30790943684761429 0 -0.27514776209796898 0.30785266251660498 0 -0.27326763327687947 0.30016750757533939 0 -0.26721257633701828 0.30790943684761429 0 -0.27348155140824082 0.30658246875079598 0 -0.27514776209796898 0.30785266251660498 0 -0.2851872012256097 0.31550597615259851 0 -0.27753065875984329 0.30327410754998058 0 -0.27348155140824082 0.30658246875079598 0 -0.27514776209796898 0.30785266251660498 0 -0.27348155140824082 0.30658246875079598 0 -0.27514776209796898 0.30785266251660498 0 -0.27514776209796898 0.30785266251660498 0 -0.2905575990275322 0.30774240886798532 0 -0.27514776209796898 0.30785266251660498 0 -0.2905575990275322 0.30774240886798532 0 -0.2851872012256097 0.31550597615259851 0 -0.2896026760048197 0.2969772506180926 0 -0.2905575990275322 0.30774240886798532 0 -0.30493521127791462 0.28695781074044469 0 -0.27514776209796898 0.30785266251660498 0 -0.28274061889410179 0.30278083970340541 0 -0.2905575990275322 0.30774240886798532 0 -0.2905575990275322 0.30774240886798532 0 -0.2851872012256097 0.31550597615259851 0 -0.28274061889410179 0.30278083970340541 0 -0.2896026760048197 0.2969772506180926 0 -0.2905575990275322 0.30774240886798532 0 -0.28086439858034518 0.29805776896436298 0 -0.28274061889410179 0.30278083970340541 0 -0.2896026760048197 0.2969772506180926 0 -0.28401529333418091 0.28255904946725641 0 -0.28313816676434478 0.29069510378855717 0 -0.29095683727235372 0.28753395384208091 0 -0.28086439858034518 0.29805776896436298 0 -0.2896026760048197 0.2969772506180926 0 -0.28313816676434478 0.29069510378855717 0 -0.2896026760048197 0.2969772506180926 0 -0.28313816676434478 0.29069510378855717 0 -0.29095683727235372 0.28753395384208091 0 -0.2896026760048197 0.2969772506180926 0 -0.29095683727235372 0.28753395384208091 0 -0.30493521127791462 0.28695781074044469 0 -0.29309283898050847 0.28048055459605348 0 -0.29095683727235372 0.28753395384208091 0 -0.30493521127791462 0.28695781074044469 0 -0.29309283898050847 0.28048055459605348 0 -0.28401529333418091 0.28255904946725641 0 -0.29095683727235372 0.28753395384208091 0 -0.31699951866320542 0.30755322334125379 0 -0.2905575990275322 0.30774240886798532 0 -0.30563014257680821 0.31779627416788381 0 -0.31699951866320542 0.30755322334125379 0 -0.2905575990275322 0.30774240886798532 0 -0.2905575990275322 0.30774240886798532 0 -0.30493521127791462 0.28695781074044469 0 -0.31699951866320542 0.30755322334125379 0 -0.2905575990275322 0.30774240886798532 0 -0.30493521127791462 0.28695781074044469 0 -0.30538608464820588 0.33090408634228141 0 -0.28942706780696309 0.31873813168532672 0 -0.30563014257680821 0.31779627416788381 0 -0.30538608464820588 0.33090408634228141 0 -0.31811651498789978 0.32488887006413791 0 -0.30563014257680821 0.31779627416788381 0 -0.30538608464820588 0.33090408634228141 0 -0.2937791937433501 0.31637108240395312 0 -0.30538608464820588 0.33090408634228141 0 -0.3017933608705089 0.344447887165377 0 -0.32134510148944728 0.34307004099923799 0 -0.30538608464820588 0.33090408634228141 0 -0.29093013722955491 0.33661105704622479 0 -0.3017933608705089 0.344447887165377 0 -0.30538608464820588 0.33090408634228141 0 -0.29093013722955491 0.33661105704622479 0 -0.2885751077852815 0.32830696870384862 0 -0.29093013722955491 0.33661105704622479 0 -0.28224162025157051 0.34582573333151501 0 -0.3017933608705089 0.344447887165377 0 -0.2885751077852815 0.32830696870384862 0 -0.28146834572906437 0.33465123959114113 0 -0.2790455690922089 0.3243844570517187 0 -0.29093013722955491 0.33661105704622479 0 -0.2885751077852815 0.32830696870384862 0 -0.28146834572906437 0.33465123959114113 0 -0.29093013722955491 0.33661105704622479 0 -0.28146834572906437 0.33465123959114113 0 -0.28224162025157051 0.34582573333151501 0 -0.30538608464820588 0.33090408634228141 0 -0.2885751077852815 0.32830696870384862 0 -0.28942706780696309 0.31873813168532672 0 -0.30538608464820588 0.33090408634228141 0 -0.28942706780696309 0.31873813168532672 0 -0.2937791937433501 0.31637108240395312 0 -0.28942706780696309 0.31873813168532672 0 -0.2937791937433501 0.31637108240395312 0 -0.2851872012256097 0.31550597615259851 0 -0.2905575990275322 0.30774240886798532 0 -0.30563014257680821 0.31779627416788381 0 -0.2937791937433501 0.31637108240395312 0 -0.2905575990275322 0.30774240886798532 0 -0.2937791937433501 0.31637108240395312 0 -0.2851872012256097 0.31550597615259851 0 -0.28942706780696309 0.31873813168532672 0 -0.2937791937433501 0.31637108240395312 0 -0.2885751077852815 0.32830696870384862 0 -0.28942706780696309 0.31873813168532672 0 -0.2790455690922089 0.3243844570517187 0 -0.28942706780696309 0.31873813168532672 0 -0.2790455690922089 0.3243844570517187 0 -0.2851872012256097 0.31550597615259851 0 -0.2790455690922089 0.3243844570517187 0 -0.28942706780696309 0.31873813168532672 0 -0.2851872012256097 0.31550597615259851 0 -0.2790455690922089 0.3243844570517187 0 -0.28942706780696309 0.31873813168532672 0 -0.2851872012256097 0.31550597615259851 0 -0.27514776209796898 0.30785266251660498 0 -0.2851872012256097 0.31550597615259851 0 -0.27699557949655113 0.31645322234696882 0 -0.2851872012256097 0.31550597615259851 0 -0.27699557949655113 0.31645322234696882 0 -0.2790455690922089 0.3243844570517187 0 -0.27514776209796898 0.30785266251660498 0 -0.27699557949655113 0.31645322234696882 0 -0.27123720609067609 0.3158529302113221 0 -0.27001263578126711 0.32263717043347712 0 -0.2790455690922089 0.3243844570517187 0 -0.25910260253645218 0.33523110656146687 0 -0.26721257633701828 0.30790943684761429 0 -0.27123720609067609 0.3158529302113221 0 -0.26528599585519008 0.31471464054907522 0 -0.27699557949655113 0.31645322234696882 0 -0.27123720609067609 0.3158529302113221 0 -0.27001263578126711 0.32263717043347712 0 -0.27123720609067609 0.3158529302113221 0 -0.26528599585519008 0.31471464054907522 0 -0.26368222169044719 0.32126413599590953 0 -0.27123720609067609 0.3158529302113221 0 -0.27001263578126711 0.32263717043347712 0 -0.26368222169044719 0.32126413599590953 0 -0.27699557949655113 0.31645322234696882 0 -0.27001263578126711 0.32263717043347712 0 -0.2790455690922089 0.3243844570517187 0 -0.2790455690922089 0.3243844570517187 0 -0.25910260253645218 0.33523110656146687 0 -0.2790455690922089 0.3243844570517187 0 -0.26824012707650141 0.34000504592112352 0 -0.28146834572906437 0.33465123959114113 0 -0.2790455690922089 0.3243844570517187 0 -0.26824012707650141 0.34000504592112352 0 -0.2790455690922089 0.3243844570517187 0 -0.26824012707650141 0.34000504592112352 0 -0.25910260253645218 0.33523110656146687 0 -0.28146834572906437 0.33465123959114113 0 -0.26824012707650141 0.34000504592112352 0 -0.28224162025157051 0.34582573333151501 0 -0.25910260253645218 0.33523110656146687 0 -0.25407523553642281 0.3497448278934856 0 -0.23915963598069589 0.34607775607121571 0 -0.25910260253645218 0.33523110656146687 0 -0.25407523553642281 0.3497448278934856 0 -0.26309588156361569 0.34576168367824162 0 -0.26824012707650141 0.34000504592112352 0 -0.25910260253645218 0.33523110656146687 0 -0.26309588156361569 0.34576168367824162 0 -0.25910260253645218 0.33523110656146687 0 -0.25451497659773847 0.32559442806853028 0 -0.24843663428782739 0.33758714710907461 0 -0.25451497659773847 0.32559442806853028 0 -0.25901197930261888 0.31383205914145501 0 -0.24885494741763489 0.31718848033418301 0 -0.25451497659773847 0.32559442806853028 0 -0.25901197930261888 0.31383205914145501 0 -0.26368222169044719 0.32126413599590953 0 -0.25901197930261888 0.31383205914145501 0 -0.26528599585519008 0.31471464054907522 0 -0.26368222169044719 0.32126413599590953 0 -0.27001263578126711 0.32263717043347712 0 -0.25910260253645218 0.33523110656146687 0 -0.26368222169044719 0.32126413599590953 0 -0.25910260253645218 0.33523110656146687 0 -0.25451497659773847 0.32559442806853028 0 -0.26368222169044719 0.32126413599590953 0 -0.26470209097228098 0.37140351159401941 0 -0.25562758441007077 0.36194187249828802 0 -0.266880351992417 0.3582272519812631 0 -0.26470209097228098 0.37140351159401941 0 -0.25213085833087667 0.37355178257669552 0 -0.25562758441007077 0.36194187249828802 0 -0.25213085833087667 0.37355178257669552 0 -0.25562758441007077 0.36194187249828802 0 -0.24329038266145239 0.36134909741814653 0 -0.25562758441007077 0.36194187249828802 0 -0.25407523553642281 0.3497448278934856 0 -0.24329038266145239 0.36134909741814653 0 -0.25407523553642281 0.3497448278934856 0 -0.26309588156361569 0.34576168367824162 0 -0.266880351992417 0.3582272519812631 0 -0.25562758441007077 0.36194187249828802 0 -0.25407523553642281 0.3497448278934856 0 -0.266880351992417 0.3582272519812631 0 -0.266880351992417 0.3582272519812631 0 -0.27640009279511962 0.35155878343443242 0 -0.28837447244510311 0.36628710188532532 0 -0.26309588156361569 0.34576168367824162 0 -0.266880351992417 0.3582272519812631 0 -0.27640009279511962 0.35155878343443242 0 -0.26824012707650141 0.34000504592112352 0 -0.26309588156361569 0.34576168367824162 0 -0.27640009279511962 0.35155878343443242 0 -0.26824012707650141 0.34000504592112352 0 -0.27640009279511962 0.35155878343443242 0 -0.28224162025157051 0.34582573333151501 0 -0.266880351992417 0.3582272519812631 0 -0.28837447244510311 0.36628710188532532 0 -0.266880351992417 0.3582272519812631 0 -0.28837447244510311 0.36628710188532532 0 -0.27747916353329311 0.37529003384729942 0 -0.26470209097228098 0.37140351159401941 0 -0.266880351992417 0.3582272519812631 0 -0.27747916353329311 0.37529003384729942 0 -0.28837447244510311 0.36628710188532532 0 -0.28714059247178902 0.37543321948423419 0 -0.27747916353329311 0.37529003384729942 0 -0.28837447244510311 0.36628710188532532 0 -0.28956810344150979 0.35324588380912608 0 -0.30292150033679799 0.36018321991941088 0 -0.28837447244510311 0.36628710188532532 0 -0.29874239202075642 0.37528196759933868 0 -0.28714059247178902 0.37543321948423419 0 -0.28224162025157051 0.34582573333151501 0 -0.3017933608705089 0.344447887165377 0 -0.28224162025157051 0.34582573333151501 0 -0.28956810344150979 0.35324588380912608 0 -0.3017933608705089 0.344447887165377 0 -0.27640009279511962 0.35155878343443242 0 -0.28224162025157051 0.34582573333151501 0 -0.28956810344150979 0.35324588380912608 0 -0.27640009279511962 0.35155878343443242 0 -0.28837447244510311 0.36628710188532532 0 -0.28956810344150979 0.35324588380912608 0 -0.3017933608705089 0.344447887165377 0 -0.31193410579265052 0.3536039280541286 0 -0.30292150033679799 0.36018321991941088 0 -0.28956810344150979 0.35324588380912608 0 -0.3017933608705089 0.344447887165377 0 -0.30292150033679799 0.36018321991941088 0 -0.3017933608705089 0.344447887165377 0 -0.32134510148944728 0.34307004099923799 0 -0.3017933608705089 0.344447887165377 0 -0.31193410579265052 0.3536039280541286 0 -0.32134510148944728 0.34307004099923799 0 -0.31193410579265052 0.3536039280541286 0 -0.30292150033679799 0.36018321991941088 0 -0.31340485972314069 0.36375751913665871 0 -0.28837447244510311 0.36628710188532532 0 -0.30292150033679799 0.36018321991941088 0 -0.30986859289778912 0.37434695178938759 0 -0.28837447244510311 0.36628710188532532 0 -0.30986859289778912 0.37434695178938759 0 -0.28837447244510311 0.36628710188532532 0 -0.30986859289778912 0.37434695178938759 0 -0.29874239202075642 0.37528196759933868 0 -0.30292150033679799 0.36018321991941088 0 -0.30986859289778912 0.37434695178938759 0 -0.31340485972314069 0.36375751913665871 0 -0.30986859289778912 0.37434695178938759 0 -0.31340485972314069 0.36375751913665871 0 -0.32167824364597858 0.36970754211250728 0 -0.31340485972314069 0.36375751913665871 0 -0.32243327870136801 0.35950699838777223 0 -0.32167824364597858 0.36970754211250728 0 -0.32243327870136801 0.35950699838777223 0 -0.32167824364597858 0.36970754211250728 0 -0.33132177355711989 0.36851943955526861 0 -0.32167824364597858 0.36970754211250728 0 -0.33132177355711989 0.36851943955526861 0 -0.33136271335047512 0.38240680169344993 0 -0.32243327870136801 0.35950699838777223 0 -0.33132177355711989 0.36851943955526861 0 -0.33989838930305449 0.35721367281084643 0 -0.33132177355711989 0.36851943955526861 0 -0.34304766554360439 0.37232322735168022 0 -0.33136271335047512 0.38240680169344993 0 -0.33132177355711989 0.36851943955526861 0 -0.34304766554360439 0.37232322735168022 0 -0.33989838930305449 0.35721367281084643 0 -0.33989838930305449 0.35721367281084643 0 -0.32134510148944728 0.34307004099923799 0 -0.33989838930305449 0.35721367281084643 0 -0.32134510148944728 0.34307004099923799 0 -0.3500233487104954 0.34104903357308669 0 -0.32243327870136801 0.35950699838777223 0 -0.33989838930305449 0.35721367281084643 0 -0.32134510148944728 0.34307004099923799 0 -0.31193410579265052 0.3536039280541286 0 -0.32243327870136801 0.35950699838777223 0 -0.32134510148944728 0.34307004099923799 0 -0.31193410579265052 0.3536039280541286 0 -0.31340485972314069 0.36375751913665871 0 -0.32243327870136801 0.35950699838777223 0 -0.30538608464820588 0.33090408634228141 0 -0.32134510148944728 0.34307004099923799 0 -0.30538608464820588 0.33090408634228141 0 -0.32134510148944728 0.34307004099923799 0 -0.31811651498789978 0.32488887006413791 0 -0.32134510148944728 0.34307004099923799 0 -0.31811651498789978 0.32488887006413791 0 -0.33459812393413729 0.32207732583041709 0 -0.31699951866320542 0.30755322334125379 0 -0.30563014257680821 0.31779627416788381 0 -0.31811651498789978 0.32488887006413791 0 -0.31699951866320542 0.30755322334125379 0 -0.31811651498789978 0.32488887006413791 0 -0.33459812393413729 0.32207732583041709 0 -0.32134510148944728 0.34307004099923799 0 -0.34342889555096417 0.33131534648734451 0 -0.3500233487104954 0.34104903357308669 0 -0.32134510148944728 0.34307004099923799 0 -0.33459812393413729 0.32207732583041709 0 -0.34342889555096417 0.33131534648734451 0 -0.32134510148944728 0.34307004099923799 0 -0.3500233487104954 0.34104903357308669 0 -0.3500233487104954 0.34104903357308669 0 -0.35650114511620551 0.33294276438790088 0 -0.36794029410566942 0.33226259727897972 0 -0.34342889555096417 0.33131534648734451 0 -0.3500233487104954 0.34104903357308669 0 -0.35650114511620551 0.33294276438790088 0 -0.33459812393413729 0.32207732583041709 0 -0.34342889555096417 0.33131534648734451 0 -0.35467675850453528 0.31743756764607989 0 -0.34344143829887858 0.30736403781452232 0 -0.33459812393413729 0.32207732583041709 0 -0.35467675850453528 0.31743756764607989 0 -0.35650114511620551 0.33294276438790088 0 -0.35467675850453528 0.31743756764607989 0 -0.36272901898995358 0.31473918551029578 0 -0.34342889555096417 0.33131534648734451 0 -0.35650114511620551 0.33294276438790088 0 -0.35467675850453528 0.31743756764607989 0 -0.35650114511620551 0.33294276438790088 0 -0.36272901898995358 0.31473918551029578 0 -0.37415321332832258 0.31386652142517069 0 -0.35650114511620551 0.33294276438790088 0 -0.37415321332832258 0.31386652142517069 0 -0.35650114511620551 0.33294276438790088 0 -0.37442838800096029 0.32044424157556423 0 -0.37415321332832258 0.31386652142517069 0 -0.37816355277066899 0.32985684687273281 0 -0.37442838800096029 0.32044424157556423 0 -0.36794029410566942 0.33226259727897972 0 -0.3787015959315434 0.33902802614693439 0 -0.3500233487104954 0.34104903357308669 0 -0.36794029410566942 0.33226259727897972 0 -0.35650114511620551 0.33294276438790088 0 -0.37442838800096029 0.32044424157556423 0 -0.36794029410566942 0.33226259727897972 0 -0.3787015959315434 0.33902802614693439 0 -0.3500233487104954 0.34104903357308669 0 -0.3787015959315434 0.33902802614693439 0 -0.37816355277066899 0.32985684687273281 0 -0.36794029410566942 0.33226259727897972 0 -0.3787015959315434 0.33902802614693439 0 -0.3500233487104954 0.34104903357308669 0 -0.36501658974902518 0.35367198233662939 0 -0.37823932191431281 0.35548757599615399 0 -0.3787015959315434 0.33902802614693439 0 -0.36501658974902518 0.35367198233662939 0 -0.37823932191431281 0.35548757599615399 0 -0.36501658974902518 0.35367198233662939 0 -0.37024808467873749 0.36543132639488701 0 -0.36501658974902518 0.35367198233662939 0 -0.37024808467873749 0.36543132639488701 0 -0.35845167711666143 0.37135730462245548 0 -0.37949655700884349 0.37153259571527891 0 -0.37024808467873749 0.36543132639488701 0 -0.36758280318953013 0.37627165255961892 0 -0.37024808467873749 0.36543132639488701 0 -0.35845167711666143 0.37135730462245548 0 -0.36758280318953013 0.37627165255961892 0 -0.36501658974902518 0.35367198233662939 0 -0.35845167711666143 0.37135730462245548 0 -0.35334750121980912 0.35582299833575448 0 -0.34304766554360439 0.37232322735168022 0 -0.33989838930305449 0.35721367281084643 0 -0.35845167711666143 0.37135730462245548 0 -0.33989838930305449 0.35721367281084643 0 -0.35845167711666143 0.37135730462245548 0 -0.35334750121980912 0.35582299833575448 0 -0.33989838930305449 0.35721367281084643 0 -0.35845167711666143 0.37135730462245548 0 -0.33989838930305449 0.35721367281084643 0 -0.3500233487104954 0.34104903357308669 0 -0.35334750121980912 0.35582299833575448 0 -0.3500233487104954 0.34104903357308669 0 -0.36501658974902518 0.35367198233662939 0 -0.35334750121980912 0.35582299833575448 0 -0.35285683380316007 0.39046665159751448 0 -0.36027192889352422 0.40897543894708011 0 -0.34270265381785459 0.40768080501023862 0 -0.34304766554360439 0.37232322735168022 0 -0.35845167711666143 0.37135730462245548 0 -0.35285683380316007 0.39046665159751448 0 -0.37686086334024771 0.38257038446795849 0 -0.35285683380316007 0.39046665159751448 0 -0.37686086334024771 0.38257038446795849 0 -0.35285683380316007 0.39046665159751448 0 -0.36758280318953013 0.37627165255961892 0 -0.35845167711666143 0.37135730462245548 0 -0.35285683380316007 0.39046665159751448 0 -0.36758280318953013 0.37627165255961892 0 -0.37686086334024771 0.38257038446795849 0 -0.37949655700884349 0.37153259571527891 0 -0.36758280318953013 0.37627165255961892 0 -0.37769092578324193 0.39977892163450779 0 -0.35285683380316007 0.39046665159751448 0 -0.37769092578324193 0.39977892163450779 0 -0.37686086334024771 0.38257038446795849 0 -0.35285683380316007 0.39046665159751448 0 -0.37769092578324193 0.39977892163450779 0 -0.35285683380316007 0.39046665159751448 0 -0.36027192889352422 0.40897543894708011 0 -0.37875820238401509 0.42613984176471847 0 -0.37769092578324193 0.39977892163450779 0 -0.36027192889352422 0.40897543894708011 0 -0.37875820238401509 0.42613984176471847 0 -0.36027192889352422 0.40897543894708011 0 -0.36048507512927641 0.42545129427310208 0 -0.37875820238401509 0.42613984176471847 0 -0.36048507512927641 0.42545129427310208 0 -0.35499138700470761 0.44318849185793469 0 -0.37875820238401509 0.42613984176471847 0 -0.35499138700470761 0.44318849185793469 0 -0.34691622899781399 0.42161541908905831 0 -0.33223168701086447 0.43660936806356893 0 -0.35499138700470761 0.44318849185793469 0 -0.36048507512927641 0.42545129427310208 0 -0.34691622899781399 0.42161541908905831 0 -0.35499138700470761 0.44318849185793469 0 -0.36027192889352422 0.40897543894708011 0 -0.34691622899781399 0.42161541908905831 0 -0.34270265381785459 0.40768080501023862 0 -0.36027192889352422 0.40897543894708011 0 -0.36048507512927641 0.42545129427310208 0 -0.34691622899781399 0.42161541908905831 0 -0.34270265381785459 0.40768080501023862 0 -0.32841174735063311 0.41773478988879181 0 -0.32505653004414181 0.39961172552874852 0 -0.34691622899781399 0.42161541908905831 0 -0.34270265381785459 0.40768080501023862 0 -0.32841174735063311 0.41773478988879181 0 -0.34691622899781399 0.42161541908905831 0 -0.32841174735063311 0.41773478988879181 0 -0.33223168701086447 0.43660936806356893 0 -0.32841174735063311 0.41773478988879181 0 -0.33223168701086447 0.43660936806356893 0 -0.31148998866141242 0.43181261152586448 0 -0.32841174735063311 0.41773478988879181 0 -0.31441363705571701 0.41408607272300291 0 -0.32505653004414181 0.39961172552874852 0 -0.32841174735063311 0.41773478988879181 0 -0.31441363705571701 0.41408607272300291 0 -0.31148998866141242 0.43181261152586448 0 -0.32505653004414181 0.39961172552874852 0 -0.31219235154091651 0.39185403334122892 0 -0.30619500853749271 0.39725637532293351 0 -0.32505653004414181 0.39961172552874852 0 -0.31778050989885959 0.38527433798844479 0 -0.31219235154091651 0.39185403334122892 0 -0.35285683380316007 0.39046665159751448 0 -0.32505653004414181 0.39961172552874852 0 -0.33136271335047512 0.38240680169344993 0 -0.35285683380316007 0.39046665159751448 0 -0.34270265381785459 0.40768080501023862 0 -0.32505653004414181 0.39961172552874852 0 -0.35285683380316007 0.39046665159751448 0 -0.32505653004414181 0.39961172552874852 0 -0.35285683380316007 0.39046665159751448 0 -0.33136271335047512 0.38240680169344993 0 -0.34304766554360439 0.37232322735168022 0 -0.35285683380316007 0.39046665159751448 0 -0.33136271335047512 0.38240680169344993 0 -0.30986859289778912 0.37434695178938759 0 -0.32167824364597858 0.36970754211250728 0 -0.33136271335047512 0.38240680169344993 0 -0.30986859289778912 0.37434695178938759 0 -0.33136271335047512 0.38240680169344993 0 -0.32505653004414181 0.39961172552874852 0 -0.33136271335047512 0.38240680169344993 0 -0.31778050989885959 0.38527433798844479 0 -0.30986859289778912 0.37434695178938759 0 -0.33136271335047512 0.38240680169344993 0 -0.31778050989885959 0.38527433798844479 0 -0.30986859289778912 0.37434695178938759 0 -0.31778050989885959 0.38527433798844479 0 -0.30574515252343709 0.38648905476423068 0 -0.30986859289778912 0.37434695178938759 0 -0.30574515252343709 0.38648905476423068 0 -0.29874239202075642 0.37528196759933868 0 -0.30574515252343709 0.38648905476423068 0 -0.29874239202075642 0.37528196759933868 0 -0.29146244090030071 0.40289140707507309 0 -0.31778050989885959 0.38527433798844479 0 -0.30574515252343709 0.38648905476423068 0 -0.31219235154091651 0.39185403334122892 0 -0.32505653004414181 0.39961172552874852 0 -0.30619500853749271 0.39725637532293351 0 -0.29725622628512233 0.40875679945997928 0 -0.32505653004414181 0.39961172552874852 0 -0.29725622628512233 0.40875679945997928 0 -0.30574515252343709 0.38648905476423068 0 -0.30619500853749271 0.39725637532293351 0 -0.29146244090030071 0.40289140707507309 0 -0.30574515252343709 0.38648905476423068 0 -0.31219235154091651 0.39185403334122892 0 -0.30619500853749271 0.39725637532293351 0 -0.30619500853749271 0.39725637532293351 0 -0.29146244090030071 0.40289140707507309 0 -0.29725622628512233 0.40875679945997928 0 -0.29146244090030071 0.40289140707507309 0 -0.2882496590958894 0.39023794275143442 0 -0.278827461574497 0.39790462172635238 0 -0.28396634188800352 0.38487377460497352 0 -0.2882496590958894 0.39023794275143442 0 -0.278827461574497 0.39790462172635238 0 -0.29146244090030071 0.40289140707507309 0 -0.278827461574497 0.39790462172635238 0 -0.27940045790464241 0.41220012044695847 0 -0.29874239202075642 0.37528196759933868 0 -0.29146244090030071 0.40289140707507309 0 -0.29874239202075642 0.37528196759933868 0 -0.29146244090030071 0.40289140707507309 0 -0.2882496590958894 0.39023794275143442 0 -0.29874239202075642 0.37528196759933868 0 -0.28396634188800352 0.38487377460497352 0 -0.28714059247178902 0.37543321948423419 0 -0.29874239202075642 0.37528196759933868 0 -0.28396634188800352 0.38487377460497352 0 -0.2882496590958894 0.39023794275143442 0 -0.28396634188800352 0.38487377460497352 0 -0.28714059247178902 0.37543321948423419 0 -0.27747916353329311 0.37529003384729942 0 -0.28396634188800352 0.38487377460497352 0 -0.27747916353329311 0.37529003384729942 0 -0.26775424033426293 0.38456849691175748 0 -0.28396634188800352 0.38487377460497352 0 -0.26775424033426293 0.38456849691175748 0 -0.278827461574497 0.39790462172635238 0 -0.26470209097228098 0.37140351159401941 0 -0.27747916353329311 0.37529003384729942 0 -0.26775424033426293 0.38456849691175748 0 -0.278827461574497 0.39790462172635238 0 -0.26298604578065232 0.3973558675440883 0 -0.2677584473194361 0.40899541659639099 0 -0.26775424033426293 0.38456849691175748 0 -0.278827461574497 0.39790462172635238 0 -0.26298604578065232 0.3973558675440883 0 -0.26298604578065232 0.3973558675440883 0 -0.25152819264859128 0.38883491631829081 0 -0.2490618870264745 0.40647588616764979 0 -0.26298604578065232 0.3973558675440883 0 -0.2677584473194361 0.40899541659639099 0 -0.2490618870264745 0.40647588616764979 0 -0.25213085833087667 0.37355178257669552 0 -0.26775424033426293 0.38456849691175748 0 -0.25152819264859128 0.38883491631829081 0 -0.26775424033426293 0.38456849691175748 0 -0.26298604578065232 0.3973558675440883 0 -0.25152819264859128 0.38883491631829081 0 -0.26470209097228098 0.37140351159401941 0 -0.25213085833087667 0.37355178257669552 0 -0.26775424033426293 0.38456849691175748 0 -0.2572482915111563 0.42152384209731297 0 -0.26330490497154813 0.43976041958731371 0 -0.24092688658692171 0.43286849171069308 0 -0.2572482915111563 0.42152384209731297 0 -0.27163392734069919 0.42205675226444578 0 -0.26330490497154813 0.43976041958731371 0 -0.2572482915111563 0.42152384209731297 0 -0.2677584473194361 0.40899541659639099 0 -0.2490618870264745 0.40647588616764979 0 -0.2572482915111563 0.42152384209731297 0 -0.2677584473194361 0.40899541659639099 0 -0.27163392734069919 0.42205675226444578 0 -0.27940045790464241 0.41220012044695847 0 -0.27163392734069919 0.42205675226444578 0 -0.28418248977984512 0.43050084655080739 0 -0.2677584473194361 0.40899541659639099 0 -0.27940045790464241 0.41220012044695847 0 -0.27163392734069919 0.42205675226444578 0 -0.278827461574497 0.39790462172635238 0 -0.2677584473194361 0.40899541659639099 0 -0.27940045790464241 0.41220012044695847 0 -0.27163392734069919 0.42205675226444578 0 -0.28418248977984512 0.43050084655080739 0 -0.26330490497154813 0.43976041958731371 0 -0.28418248977984512 0.43050084655080739 0 -0.29943060469912958 0.42576946359573847 0 -0.28981068171355151 0.44369098771903792 0 -0.29146244090030071 0.40289140707507309 0 -0.28418248977984512 0.43050084655080739 0 -0.29146244090030071 0.40289140707507309 0 -0.27940045790464241 0.41220012044695847 0 -0.28418248977984512 0.43050084655080739 0 -0.28418248977984512 0.43050084655080739 0 -0.29725622628512233 0.40875679945997928 0 -0.29943060469912958 0.42576946359573847 0 -0.29146244090030071 0.40289140707507309 0 -0.28418248977984512 0.43050084655080739 0 -0.29725622628512233 0.40875679945997928 0 -0.31441363705571701 0.41408607272300291 0 -0.32505653004414181 0.39961172552874852 0 -0.29725622628512233 0.40875679945997928 0 -0.31441363705571701 0.41408607272300291 0 -0.29725622628512233 0.40875679945997928 0 -0.29943060469912958 0.42576946359573847 0 -0.31441363705571701 0.41408607272300291 0 -0.29943060469912958 0.42576946359573847 0 -0.31148998866141242 0.43181261152586448 0 -0.29943060469912958 0.42576946359573847 0 -0.31148998866141242 0.43181261152586448 0 -0.28981068171355151 0.44369098771903792 0 -0.31148998866141242 0.43181261152586448 0 -0.30120616623050861 0.45239726712555162 0 -0.31718999816658727 0.45065056632578487 0 -0.31148998866141242 0.43181261152586448 0 -0.30120616623050861 0.45239726712555162 0 -0.31148998866141242 0.43181261152586448 0 -0.30120616623050861 0.45239726712555162 0 -0.28981068171355151 0.44369098771903792 0 -0.30120616623050861 0.45239726712555162 0 -0.29092234379960469 0.47298192272523881 0 -0.30745775624609217 0.47728579204436761 0 -0.30120616623050861 0.45239726712555162 0 -0.30745775624609217 0.47728579204436761 0 -0.31718999816658727 0.45065056632578487 0 -0.2852957606144535 0.45730244818253718 0 -0.28186649269177161 0.46567885888970018 0 -0.29092234379960469 0.47298192272523881 0 -0.30120616623050861 0.45239726712555162 0 -0.29092234379960469 0.47298192272523881 0 -0.30120616623050861 0.45239726712555162 0 -0.2852957606144535 0.45730244818253718 0 -0.29092234379960469 0.47298192272523881 0 -0.2852957606144535 0.45730244818253718 0 -0.28186649269177161 0.46567885888970018 0 -0.27690253865938408 0.45811028602654041 0 -0.28418248977984512 0.43050084655080739 0 -0.28981068171355151 0.44369098771903792 0 -0.27690253865938408 0.45811028602654041 0 -0.30120616623050861 0.45239726712555162 0 -0.2852957606144535 0.45730244818253718 0 -0.28981068171355151 0.44369098771903792 0 -0.2852957606144535 0.45730244818253718 0 -0.28981068171355151 0.44369098771903792 0 -0.27690253865938408 0.45811028602654041 0 -0.28418248977984512 0.43050084655080739 0 -0.27690253865938408 0.45811028602654041 0 -0.28418248977984512 0.43050084655080739 0 -0.27690253865938408 0.45811028602654041 0 -0.26330490497154813 0.43976041958731371 0 -0.2852957606144535 0.45730244818253718 0 -0.27690253865938408 0.45811028602654041 0 -0.28186649269177161 0.46567885888970018 0 -0.27690253865938408 0.45811028602654041 0 -0.27835780074514338 0.47366975871288508 0 -0.27690253865938408 0.45811028602654041 0 -0.25345677561811758 0.46036691342989022 0 -0.27690253865938408 0.45811028602654041 0 -0.25345677561811758 0.46036691342989022 0 -0.26590293397843329 0.47057525233348851 0 -0.25345677561811758 0.46036691342989022 0 -0.25315469521642581 0.4750486889203015 0 -0.26590293397843329 0.47057525233348851 0 -0.25345677561811758 0.46036691342989022 0 -0.26330490497154813 0.43976041958731371 0 -0.24129970279445639 0.44943490890582899 0 -0.27690253865938408 0.45811028602654041 0 -0.25345677561811758 0.46036691342989022 0 -0.26330490497154813 0.43976041958731371 0 -0.26169037092037989 0.4910190989046625 0 -0.25397816739109252 0.5 0 -0.27113802145370669 0.49283981386083792 0 -0.26169037092037989 0.4910190989046625 0 -0.25474868654415728 0.48692894813519849 0 -0.26689660829256312 0.48430763362261348 0 -0.26169037092037989 0.4910190989046625 0 -0.25397816739109252 0.5 0 -0.25474868654415728 0.48692894813519849 0 -0.25315469521642581 0.4750486889203015 0 -0.26689660829256312 0.48430763362261348 0 -0.25315469521642581 0.4750486889203015 0 -0.26689660829256312 0.48430763362261348 0 -0.26590293397843329 0.47057525233348851 0 -0.25474868654415728 0.48692894813519849 0 -0.25315469521642581 0.4750486889203015 0 -0.26689660829256312 0.48430763362261348 0 -0.27690253865938408 0.45811028602654041 0 -0.26590293397843329 0.47057525233348851 0 -0.26946370716205509 0.4860372782758946 0 -0.27690253865938408 0.45811028602654041 0 -0.26946370716205509 0.4860372782758946 0 -0.27690253865938408 0.45811028602654041 0 -0.27835780074514338 0.47366975871288508 0 -0.26946370716205509 0.4860372782758946 0 -0.26689660829256312 0.48430763362261348 0 -0.26590293397843329 0.47057525233348851 0 -0.26946370716205509 0.4860372782758946 0 -0.28186649269177161 0.46567885888970018 0 -0.27835780074514338 0.47366975871288508 0 -0.28298297564177088 0.4743823417855309 0 -0.27835780074514338 0.47366975871288508 0 -0.2798907507987049 0.48286402398659151 0 -0.28298297564177088 0.4743823417855309 0 -0.27835780074514338 0.47366975871288508 0 -0.2798907507987049 0.48286402398659151 0 -0.26946370716205509 0.4860372782758946 0 -0.26946370716205509 0.4860372782758946 0 -0.28063852136870049 0.49356657832492562 0 -0.26946370716205509 0.4860372782758946 0 -0.27113802145370669 0.49283981386083792 0 -0.28063852136870049 0.49356657832492562 0 -0.2798907507987049 0.48286402398659151 0 -0.26946370716205509 0.4860372782758946 0 -0.28063852136870049 0.49356657832492562 0 -0.25397816739109252 0.5 0 -0.27113802145370669 0.49283981386083792 0 -0.27742446875513049 0.50000000000000155 0 -0.26689660829256312 0.48430763362261348 0 -0.26946370716205509 0.4860372782758946 0 -0.27113802145370669 0.49283981386083792 0 -0.26169037092037989 0.4910190989046625 0 -0.26689660829256312 0.48430763362261348 0 -0.27113802145370669 0.49283981386083792 0 -0.26689660829256312 0.48430763362261348 0 -0.26946370716205509 0.4860372782758946 0 -0.27113802145370669 0.49283981386083792 0 -0.28063852136870049 0.49356657832492562 0 -0.27742446875513049 0.50000000000000155 0 -0.28063852136870049 0.49356657832492562 0 -0.27742446875513049 0.50000000000000155 0 -0.28063852136870049 0.49356657832492562 0 -0.27742446875513049 0.50000000000000155 0 -0.29018685806186229 0.50000000000000122 0 -0.28063852136870049 0.49356657832492562 0 -0.29018685806186229 0.50000000000000122 0 -0.29092234379960469 0.47298192272523881 0 -0.28063852136870049 0.49356657832492562 0 -0.29018685806186229 0.50000000000000122 0 -0.29018685806186229 0.50000000000000122 0 -0.29092234379960469 0.47298192272523881 0 -0.30745775624609217 0.47728579204436761 0 -0.28063852136870049 0.49356657832492562 0 -0.29092234379960469 0.47298192272523881 0 -0.2798907507987049 0.48286402398659151 0 -0.28063852136870049 0.49356657832492562 0 -0.29092234379960469 0.47298192272523881 0 -0.28186649269177161 0.46567885888970018 0 -0.28298297564177088 0.4743823417855309 0 -0.29092234379960469 0.47298192272523881 0 -0.2798907507987049 0.48286402398659151 0 -0.28298297564177088 0.4743823417855309 0 -0.29092234379960469 0.47298192272523881 0 -0.29018685806186229 0.50000000000000122 0 -0.30745775624609217 0.47728579204436761 0 -0.3640375775585698 0.5 0 -0.30745775624609217 0.47728579204436761 0 -0.33122457162539992 0.46023714195115112 0 -0.3640375775585698 0.5 0 -0.30745775624609217 0.47728579204436761 0 -0.33122457162539992 0.46023714195115112 0 -0.30745775624609217 0.47728579204436761 0 -0.31718999816658727 0.45065056632578487 0 -0.33122457162539992 0.46023714195115112 0 -0.33223168701086447 0.43660936806356893 0 -0.31148998866141242 0.43181261152586448 0 -0.31718999816658727 0.45065056632578487 0 -0.33223168701086447 0.43660936806356893 0 -0.31718999816658727 0.45065056632578487 0 -0.33122457162539992 0.46023714195115112 0 -0.33122457162539992 0.46023714195115112 0 -0.35499138700470761 0.44318849185793469 0 -0.33223168701086447 0.43660936806356893 0 -0.33122457162539992 0.46023714195115112 0 -0.35499138700470761 0.44318849185793469 0 -0.33122457162539992 0.46023714195115112 0 -0.35376164566254242 0.46494380824906301 0 -0.35499138700470761 0.44318849185793469 0 -0.38249991962136642 0.44345487931465249 0 -0.35499138700470761 0.44318849185793469 0 -0.37103467036260362 0.45695891695805302 0 -0.38249991962136642 0.44345487931465249 0 -0.37875820238401509 0.42613984176471847 0 -0.35499138700470761 0.44318849185793469 0 -0.35376164566254242 0.46494380824906301 0 -0.35499138700470761 0.44318849185793469 0 -0.37103467036260362 0.45695891695805302 0 -0.35376164566254242 0.46494380824906301 0 -0.37103467036260362 0.45695891695805302 0 -0.36943712044780219 0.47475959506207249 0 -0.33122457162539992 0.46023714195115112 0 -0.35376164566254242 0.46494380824906301 0 -0.3640375775585698 0.5 0 -0.38891458820749281 0.47713565504117422 0 -0.36943712044780219 0.47475959506207249 0 -0.3640375775585698 0.5 0 -0.35376164566254242 0.46494380824906301 0 -0.36943712044780219 0.47475959506207249 0 -0.3640375775585698 0.5 0 -0.1410608215807003 0.47118489318428192 0 -0.1506389915883973 0.47451242435581331 0 -0.15779819732271971 0.4695739402503486 0 -0.1410608215807003 0.47118489318428192 0 -0.15779819732271971 0.4695739402503486 0 -0.1455325599989582 0.47665965757352818 0 -0.14983465253105441 0.48099067897208148 0 -0.1405957742956809 0.47995063378193648 0 -0.14983465253105441 0.48099067897208148 0 -0.14427471349546869 0.48965289008050411 0 -0.1405957742956809 0.47995063378193648 0 -0.1455325599989582 0.47665965757352818 0 -0.1410608215807003 0.47118489318428192 0 -0.1506389915883973 0.47451242435581331 0 -0.1455325599989582 0.47665965757352818 0 -0.1410608215807003 0.47118489318428192 0 -0.1405957742956809 0.47995063378193648 0 -0.1506389915883973 0.47451242435581331 0 -0.15682389603308189 0.47748605108520858 0 -0.15779819732271971 0.4695739402503486 0 -0.1506389915883973 0.47451242435581331 0 -0.14983465253105441 0.48099067897208148 0 -0.15682389603308189 0.47748605108520858 0 -0.1455325599989582 0.47665965757352818 0 -0.1506389915883973 0.47451242435581331 0 -0.14983465253105441 0.48099067897208148 0 -0.14983465253105441 0.48099067897208148 0 -0.1558122254133027 0.48316327461493752 0 -0.15682389603308189 0.47748605108520858 0 -0.14983465253105441 0.48099067897208148 0 -0.1558122254133027 0.48316327461493752 0 -0.15140604362779489 0.486968875654338 0 -0.1558122254133027 0.48316327461493752 0 -0.15140604362779489 0.486968875654338 0 -0.15545271364459581 0.49281799385228547 0 -0.14983465253105441 0.48099067897208148 0 -0.15140604362779489 0.486968875654338 0 -0.14427471349546869 0.48965289008050411 0 -0.15140604362779489 0.486968875654338 0 -0.15545271364459581 0.49281799385228547 0 -0.14427471349546869 0.48965289008050411 0 -0.15453849507163009 0.5 0 -0.14427471349546869 0.48965289008050411 0 -0.12543772684428189 0.5 0 -0.15453849507163009 0.5 0 -0.15545271364459581 0.49281799385228547 0 -0.14427471349546869 0.48965289008050411 0 -0.14427471349546869 0.48965289008050411 0 -0.12543772684428189 0.5 0 -0.13178312884530541 0.48627570230508688 0 -0.14427471349546869 0.48965289008050411 0 -0.13178312884530541 0.48627570230508688 0 -0.1405957742956809 0.47995063378193648 0 -0.13178312884530541 0.48627570230508688 0 -0.1317912103042716 0.47600940211286807 0 -0.11642361318749669 0.48420448820259387 0 -0.1317912103042716 0.47600940211286807 0 -0.14083201439797821 0.46516349611765162 0 -0.12052644250191399 0.4682622397032008 0 -0.13178312884530541 0.48627570230508688 0 -0.1405957742956809 0.47995063378193648 0 -0.1317912103042716 0.47600940211286807 0 -0.1410608215807003 0.47118489318428192 0 -0.1405957742956809 0.47995063378193648 0 -0.1317912103042716 0.47600940211286807 0 -0.1410608215807003 0.47118489318428192 0 -0.1317912103042716 0.47600940211286807 0 -0.14083201439797821 0.46516349611765162 0 -0.12618187852634369 0.45882241462805679 0 -0.14083201439797821 0.46516349611765162 0 -0.12052644250191399 0.4682622397032008 0 -0.14083201439797821 0.46516349611765162 0 -0.12052644250191399 0.4682622397032008 0 -0.12618187852634369 0.45882241462805679 0 -0.13621980461969219 0.45775649261309698 0 -0.13482926781972801 0.45201676164804122 0 -0.13621980461969219 0.45775649261309698 0 -0.13482926781972801 0.45201676164804122 0 -0.1430360577347192 0.45502329805863873 0 -0.13621980461969219 0.45775649261309698 0 -0.14083201439797821 0.46516349611765162 0 -0.1430360577347192 0.45502329805863873 0 -0.12618187852634369 0.45882241462805679 0 -0.13621980461969219 0.45775649261309698 0 -0.14083201439797821 0.46516349611765162 0 -0.12618187852634369 0.45882241462805679 0 -0.13482926781972801 0.45201676164804122 0 -0.1248743097581413 0.44162978393037222 0 -0.13482926781972801 0.45201676164804122 0 -0.13973201497409549 0.44099892737807922 0 -0.1415241139788854 0.4488412036993919 0 -0.13482926781972801 0.45201676164804122 0 -0.1415241139788854 0.4488412036993919 0 -0.1430360577347192 0.45502329805863873 0 -0.13973201497409549 0.44099892737807922 0 -0.13491063247587859 0.43073185275000708 0 -0.1248743097581413 0.44162978393037222 0 -0.13482926781972801 0.45201676164804122 0 -0.13973201497409549 0.44099892737807922 0 -0.1248743097581413 0.44162978393037222 0 -0.13973201497409549 0.44099892737807922 0 -0.14849911538699881 0.44732582771280882 0 -0.14949031039727409 0.43903968606904947 0 -0.14849911538699881 0.44732582771280882 0 -0.1430360577347192 0.45502329805863873 0 -0.15230793746503779 0.45507497120342549 0 -0.13973201497409549 0.44099892737807922 0 -0.1415241139788854 0.4488412036993919 0 -0.14849911538699881 0.44732582771280882 0 -0.1415241139788854 0.4488412036993919 0 -0.14849911538699881 0.44732582771280882 0 -0.1430360577347192 0.45502329805863873 0 -0.14849911538699881 0.44732582771280882 0 -0.15230793746503779 0.45507497120342549 0 -0.15767924869329919 0.44641741059368378 0 -0.14949031039727409 0.43903968606904947 0 -0.15767924869329919 0.44641741059368378 0 -0.15912083936695831 0.4347249498771325 0 -0.14849911538699881 0.44732582771280882 0 -0.14949031039727409 0.43903968606904947 0 -0.15767924869329919 0.44641741059368378 0 -0.14083201439797821 0.46516349611765162 0 -0.16113758629404229 0.46206475253210239 0 -0.15779819732271971 0.4695739402503486 0 -0.1410608215807003 0.47118489318428192 0 -0.14083201439797821 0.46516349611765162 0 -0.15779819732271971 0.4695739402503486 0 -0.14083201439797821 0.46516349611765162 0 -0.16113758629404229 0.46206475253210239 0 -0.14083201439797821 0.46516349611765162 0 -0.15230793746503779 0.45507497120342549 0 -0.16113758629404229 0.46206475253210239 0 -0.14083201439797821 0.46516349611765162 0 -0.1430360577347192 0.45502329805863873 0 -0.15230793746503779 0.45507497120342549 0 -0.16113758629404229 0.46206475253210239 0 -0.16940388650370539 0.44815354093755089 0 -0.18144315819010631 0.45896600894655282 0 -0.16113758629404229 0.46206475253210239 0 -0.18144315819010631 0.45896600894655282 0 -0.16113758629404229 0.46206475253210239 0 -0.17453557306473899 0.46796298731641428 0 -0.15779819732271971 0.4695739402503486 0 -0.15230793746503779 0.45507497120342549 0 -0.16113758629404229 0.46206475253210239 0 -0.16013216473902109 0.45292766881669072 0 -0.16113758629404229 0.46206475253210239 0 -0.16013216473902109 0.45292766881669072 0 -0.16940388650370539 0.44815354093755089 0 -0.15767924869329919 0.44641741059368378 0 -0.16940388650370539 0.44815354093755089 0 -0.15912083936695831 0.4347249498771325 0 -0.15230793746503779 0.45507497120342549 0 -0.16013216473902109 0.45292766881669072 0 -0.15767924869329919 0.44641741059368378 0 -0.16013216473902109 0.45292766881669072 0 -0.15767924869329919 0.44641741059368378 0 -0.16940388650370539 0.44815354093755089 0 -0.1829590266345629 0.45699162349075462 0 -0.18255950863604661 0.43173185523385532 0 -0.1829590266345629 0.45699162349075462 0 -0.19557533522393281 0.44055915781337712 0 -0.18255950863604661 0.43173185523385532 0 -0.16940388650370539 0.44815354093755089 0 -0.1829590266345629 0.45699162349075462 0 -0.18255950863604661 0.43173185523385532 0 -0.16113758629404229 0.46206475253210239 0 -0.17453557306473899 0.46796298731641428 0 -0.18144315819010631 0.45896600894655282 0 -0.17453557306473899 0.46796298731641428 0 -0.18144315819010631 0.45896600894655282 0 -0.17453557306473899 0.46796298731641428 0 -0.18311948649431831 0.46713679563994498 0 -0.16940388650370539 0.44815354093755089 0 -0.18144315819010631 0.45896600894655282 0 -0.1829590266345629 0.45699162349075462 0 -0.18144315819010631 0.45896600894655282 0 -0.1829590266345629 0.45699162349075462 0 -0.18144315819010631 0.45896600894655282 0 -0.1829865290739871 0.45873048193697258 0 -0.1829590266345629 0.45699162349075462 0 -0.18144315819010631 0.45896600894655282 0 -0.1829865290739871 0.45873048193697258 0 -0.1829865290739871 0.45873048193697258 0 -0.1829590266345629 0.45699162349075462 0 -0.17453557306473899 0.46796298731641428 0 -0.18144315819010631 0.45896600894655282 0 -0.18311948649431831 0.46713679563994498 0 -0.1829865290739871 0.45873048193697258 0 -0.18311948649431831 0.46713679563994498 0 -0.18144315819010631 0.45896600894655282 0 -0.1829865290739871 0.45873048193697258 0 -0.18311948649431831 0.46713679563994498 0 -0.18311948649431831 0.46713679563994498 0 -0.18337937489664821 0.48356839781997168 0 -0.19511197543601369 0.47606725323690458 0 -0.18311948649431831 0.46713679563994498 0 -0.18337937489664821 0.48356839781997168 0 -0.18311948649431831 0.46713679563994498 0 -0.18337937489664821 0.48356839781997168 0 -0.17485937494801759 0.47808814193434568 0 -0.17453557306473899 0.46796298731641428 0 -0.18311948649431831 0.46713679563994498 0 -0.17485937494801759 0.47808814193434568 0 -0.17453557306473899 0.46796298731641428 0 -0.15779819732271971 0.4695739402503486 0 -0.17453557306473899 0.46796298731641428 0 -0.16499414335466689 0.48039049058434952 0 -0.17453557306473899 0.46796298731641428 0 -0.16499414335466689 0.48039049058434952 0 -0.15779819732271971 0.4695739402503486 0 -0.17453557306473899 0.46796298731641428 0 -0.17485937494801759 0.47808814193434568 0 -0.16499414335466689 0.48039049058434952 0 -0.17485937494801759 0.47808814193434568 0 -0.16499414335466689 0.48039049058434952 0 -0.1699453859209171 0.49288017845899518 0 -0.1558122254133027 0.48316327461493752 0 -0.16499414335466689 0.48039049058434952 0 -0.15682389603308189 0.47748605108520858 0 -0.16499414335466689 0.48039049058434952 0 -0.15682389603308189 0.47748605108520858 0 -0.15779819732271971 0.4695739402503486 0 -0.15453849507163009 0.5 0 -0.1699453859209171 0.49288017845899518 0 -0.18363926329897839 0.49999999999999828 0 -0.15453849507163009 0.5 0 -0.15545271364459581 0.49281799385228547 0 -0.1699453859209171 0.49288017845899518 0 -0.15545271364459581 0.49281799385228547 0 -0.16499414335466689 0.48039049058434952 0 -0.1699453859209171 0.49288017845899518 0 -0.15545271364459581 0.49281799385228547 0 -0.16499414335466689 0.48039049058434952 0 -0.1558122254133027 0.48316327461493752 0 -0.15545271364459581 0.49281799385228547 0 -0.16499414335466689 0.48039049058434952 0 -0.18337937489664821 0.48356839781997168 0 -0.18363926329897839 0.49999999999999828 0 -0.18337937489664821 0.48356839781997168 0 -0.1699453859209171 0.49288017845899518 0 -0.18363926329897839 0.49999999999999828 0 -0.18337937489664821 0.48356839781997168 0 -0.17485937494801759 0.47808814193434568 0 -0.1699453859209171 0.49288017845899518 0 -0.18337937489664821 0.48356839781997168 0 -0.18363926329897839 0.49999999999999828 0 -0.19848883175809501 0.48685236178056529 0 -0.18363926329897839 0.49999999999999828 0 -0.19848883175809501 0.48685236178056529 0 -0.20708556466301639 0.5 0 -0.18311948649431831 0.46713679563994498 0 -0.19511197543601369 0.47606725323690458 0 -0.20656524953558469 0.46488016823659339 0 -0.18337937489664821 0.48356839781997168 0 -0.19848883175809501 0.48685236178056529 0 -0.19511197543601369 0.47606725323690458 0 -0.19848883175809501 0.48685236178056529 0 -0.19511197543601369 0.47606725323690458 0 -0.206747867840962 0.47700509082497228 0 -0.19511197543601369 0.47606725323690458 0 -0.206747867840962 0.47700509082497228 0 -0.20656524953558469 0.46488016823659339 0 -0.19848883175809501 0.48685236178056529 0 -0.206747867840962 0.47700509082497228 0 -0.21585796601610141 0.48648558657266339 0 -0.206747867840962 0.47700509082497228 0 -0.21852396914967101 0.47285401242330122 0 -0.20656524953558469 0.46488016823659339 0 -0.206747867840962 0.47700509082497228 0 -0.21852396914967101 0.47285401242330122 0 -0.21585796601610141 0.48648558657266339 0 -0.20708556466301639 0.5 0 -0.21585796601610141 0.48648558657266339 0 -0.23053186602705439 0.5 0 -0.19848883175809501 0.48685236178056529 0 -0.20708556466301639 0.5 0 -0.21585796601610141 0.48648558657266339 0 -0.21585796601610141 0.48648558657266339 0 -0.23053186602705439 0.5 0 -0.2373192826940049 0.48342253064983348 0 -0.21852396914967101 0.47285401242330122 0 -0.2373192826940049 0.48342253064983348 0 -0.23001101257685119 0.46262354083324181 0 -0.21852396914967101 0.47285401242330122 0 -0.21585796601610141 0.48648558657266339 0 -0.2373192826940049 0.48342253064983348 0 -0.25474868654415728 0.48692894813519849 0 -0.25315469521642581 0.4750486889203015 0 -0.2373192826940049 0.48342253064983348 0 -0.25315469521642581 0.4750486889203015 0 -0.2373192826940049 0.48342253064983348 0 -0.23001101257685119 0.46262354083324181 0 -0.25397816739109252 0.5 0 -0.23053186602705439 0.5 0 -0.2373192826940049 0.48342253064983348 0 -0.25397816739109252 0.5 0 -0.25474868654415728 0.48692894813519849 0 -0.2373192826940049 0.48342253064983348 0 -0.26330490497154813 0.43976041958731371 0 -0.24129970279445639 0.44943490890582899 0 -0.24092688658692171 0.43286849171069308 0 -0.24129970279445639 0.44943490890582899 0 -0.2242493546558077 0.44235471361969553 0 -0.24092688658692171 0.43286849171069308 0 -0.25345677561811758 0.46036691342989022 0 -0.23001101257685119 0.46262354083324181 0 -0.25345677561811758 0.46036691342989022 0 -0.24129970279445639 0.44943490890582899 0 -0.23001101257685119 0.46262354083324181 0 -0.25345677561811758 0.46036691342989022 0 -0.25315469521642581 0.4750486889203015 0 -0.23001101257685119 0.46262354083324181 0 -0.24129970279445639 0.44943490890582899 0 -0.23001101257685119 0.46262354083324181 0 -0.2242493546558077 0.44235471361969553 0 -0.23001101257685119 0.46262354083324181 0 -0.2242493546558077 0.44235471361969553 0 -0.2144914677851314 0.45380351874251162 0 -0.2242493546558077 0.44235471361969553 0 -0.20880164963731279 0.443380440886459 0 -0.2144914677851314 0.45380351874251162 0 -0.20880164963731279 0.443380440886459 0 -0.2144914677851314 0.45380351874251162 0 -0.20415969833182021 0.45549933815243238 0 -0.23001101257685119 0.46262354083324181 0 -0.2144914677851314 0.45380351874251162 0 -0.20656524953558469 0.46488016823659339 0 -0.21852396914967101 0.47285401242330122 0 -0.23001101257685119 0.46262354083324181 0 -0.20656524953558469 0.46488016823659339 0 -0.23001101257685119 0.46262354083324181 0 -0.20656524953558469 0.46488016823659339 0 -0.2144914677851314 0.45380351874251162 0 -0.20415969833182021 0.45549933815243238 0 -0.20656524953558469 0.46488016823659339 0 -0.1829865290739871 0.45873048193697258 0 -0.1829590266345629 0.45699162349075462 0 -0.20415969833182021 0.45549933815243238 0 -0.1829865290739871 0.45873048193697258 0 -0.20415969833182021 0.45549933815243238 0 -0.18311948649431831 0.46713679563994498 0 -0.20415969833182021 0.45549933815243238 0 -0.20656524953558469 0.46488016823659339 0 -0.1829865290739871 0.45873048193697258 0 -0.18311948649431831 0.46713679563994498 0 -0.20415969833182021 0.45549933815243238 0 -0.18311948649431831 0.46713679563994498 0 -0.20656524953558469 0.46488016823659339 0 -0.1829590266345629 0.45699162349075462 0 -0.19557533522393281 0.44055915781337712 0 -0.1829590266345629 0.45699162349075462 0 -0.20415969833182021 0.45549933815243238 0 -0.19557533522393281 0.44055915781337712 0 -0.20880164963731279 0.443380440886459 0 -0.20415969833182021 0.45549933815243238 0 -0.19557533522393281 0.44055915781337712 0 -0.19557533522393281 0.44055915781337712 0 -0.20819164381331129 0.42412669213600601 0 -0.19557533522393281 0.44055915781337712 0 -0.19413142888046839 0.4217351031076268 0 -0.18255950863604661 0.43173185523385532 0 -0.19557533522393281 0.44055915781337712 0 -0.19413142888046839 0.4217351031076268 0 -0.20819164381331129 0.42412669213600601 0 -0.19413142888046839 0.4217351031076268 0 -0.20819164381331129 0.42412669213600601 0 -0.2021706660915297 0.40578572337793972 0 -0.19413142888046839 0.4217351031076268 0 -0.2021706660915297 0.40578572337793972 0 -0.18215999063752189 0.40647208697695608 0 -0.20819164381331129 0.42412669213600601 0 -0.22405449890785839 0.40643558214578251 0 -0.2021706660915297 0.40578572337793972 0 -0.20880164963731279 0.443380440886459 0 -0.19557533522393281 0.44055915781337712 0 -0.20819164381331129 0.42412669213600601 0 -0.2242493546558077 0.44235471361969553 0 -0.20880164963731279 0.443380440886459 0 -0.20819164381331129 0.42412669213600601 0 -0.2242493546558077 0.44235471361969553 0 -0.20819164381331129 0.42412669213600601 0 -0.22600929792909111 0.42518400498706249 0 -0.2242493546558077 0.44235471361969553 0 -0.22600929792909111 0.42518400498706249 0 -0.24092688658692171 0.43286849171069308 0 -0.20819164381331129 0.42412669213600601 0 -0.22600929792909111 0.42518400498706249 0 -0.22405449890785839 0.40643558214578251 0 -0.22600929792909111 0.42518400498706249 0 -0.22405449890785839 0.40643558214578251 0 -0.2382988550227183 0.41778448946306668 0 -0.2572482915111563 0.42152384209731297 0 -0.2382988550227183 0.41778448946306668 0 -0.2490618870264745 0.40647588616764979 0 -0.22405449890785839 0.40643558214578251 0 -0.2382988550227183 0.41778448946306668 0 -0.2490618870264745 0.40647588616764979 0 -0.2572482915111563 0.42152384209731297 0 -0.2382988550227183 0.41778448946306668 0 -0.24092688658692171 0.43286849171069308 0 -0.22600929792909111 0.42518400498706249 0 -0.2382988550227183 0.41778448946306668 0 -0.24092688658692171 0.43286849171069308 0 -0.24000210142933509 0.37809552861286783 0 -0.23801773827758249 0.39392053259368742 0 -0.22567210936962789 0.38582584627882549 0 -0.25152819264859128 0.38883491631829081 0 -0.24000210142933509 0.37809552861286783 0 -0.23801773827758249 0.39392053259368742 0 -0.25213085833087667 0.37355178257669552 0 -0.25152819264859128 0.38883491631829081 0 -0.24000210142933509 0.37809552861286783 0 -0.25152819264859128 0.38883491631829081 0 -0.2490618870264745 0.40647588616764979 0 -0.23801773827758249 0.39392053259368742 0 -0.22405449890785839 0.40643558214578251 0 -0.2490618870264745 0.40647588616764979 0 -0.23801773827758249 0.39392053259368742 0 -0.22405449890785839 0.40643558214578251 0 -0.22567210936962789 0.38582584627882549 0 -0.2099895612515065 0.38861519238670661 0 -0.22405449890785839 0.40643558214578251 0 -0.23801773827758249 0.39392053259368742 0 -0.22567210936962789 0.38582584627882549 0 -0.22567210936962789 0.38582584627882549 0 -0.21752164111765379 0.37637519474985792 0 -0.23054114355980421 0.3681661286558337 0 -0.24000210142933509 0.37809552861286783 0 -0.22567210936962789 0.38582584627882549 0 -0.23054114355980421 0.3681661286558337 0 -0.22567210936962789 0.38582584627882549 0 -0.21752164111765379 0.37637519474985792 0 -0.2099895612515065 0.38861519238670661 0 -0.21752164111765379 0.37637519474985792 0 -0.2099895612515065 0.38861519238670661 0 -0.20825127389149589 0.37038948781896619 0 -0.2099895612515065 0.38861519238670661 0 -0.1956253707180633 0.37355818799515828 0 -0.20825127389149589 0.37038948781896619 0 -0.22405449890785839 0.40643558214578251 0 -0.2099895612515065 0.38861519238670661 0 -0.2021706660915297 0.40578572337793972 0 -0.2021706660915297 0.40578572337793972 0 -0.19434121226752371 0.39112870189136351 0 -0.18215999063752189 0.40647208697695608 0 -0.2099895612515065 0.38861519238670661 0 -0.2021706660915297 0.40578572337793972 0 -0.19434121226752371 0.39112870189136351 0 -0.2099895612515065 0.38861519238670661 0 -0.19434121226752371 0.39112870189136351 0 -0.1956253707180633 0.37355818799515828 0 -0.19434121226752371 0.39112870189136351 0 -0.18176047263899719 0.38121231872005679 0 -0.1956253707180633 0.37355818799515828 0 -0.18176047263899719 0.38121231872005679 0 -0.16585623702428451 0.39107516703040651 0 -0.16689278400863089 0.37048631692620287 0 -0.16585623702428451 0.39107516703040651 0 -0.1532541744773912 0.375434017343177 0 -0.15169756500005979 0.38990146883471011 0 -0.16585623702428451 0.39107516703040651 0 -0.1532541744773912 0.375434017343177 0 -0.16689278400863089 0.37048631692620287 0 -0.16585623702428451 0.39107516703040651 0 -0.1665369108918931 0.40914444316194981 0 -0.1556916669008335 0.40278409093046019 0 -0.16585623702428451 0.39107516703040651 0 -0.18215999063752189 0.40647208697695608 0 -0.1665369108918931 0.40914444316194981 0 -0.16585623702428451 0.39107516703040651 0 -0.15169756500005979 0.38990146883471011 0 -0.1556916669008335 0.40278409093046019 0 -0.18176047263899719 0.38121231872005679 0 -0.16585623702428451 0.39107516703040651 0 -0.18215999063752189 0.40647208697695608 0 -0.18176047263899719 0.38121231872005679 0 -0.18215999063752189 0.40647208697695608 0 -0.19434121226752371 0.39112870189136351 0 -0.18176047263899719 0.38121231872005679 0 -0.18215999063752189 0.40647208697695608 0 -0.18215999063752189 0.40647208697695608 0 -0.18255950863604661 0.43173185523385532 0 -0.18215999063752189 0.40647208697695608 0 -0.16958367679162159 0.42493542776846188 0 -0.1665369108918931 0.40914444316194981 0 -0.19413142888046839 0.4217351031076268 0 -0.18215999063752189 0.40647208697695608 0 -0.18255950863604661 0.43173185523385532 0 -0.18215999063752189 0.40647208697695608 0 -0.18255950863604661 0.43173185523385532 0 -0.16958367679162159 0.42493542776846188 0 -0.16940388650370539 0.44815354093755089 0 -0.18255950863604661 0.43173185523385532 0 -0.16958367679162159 0.42493542776846188 0 -0.16940388650370539 0.44815354093755089 0 -0.16958367679162159 0.42493542776846188 0 -0.15912083936695831 0.4347249498771325 0 -0.16958367679162159 0.42493542776846188 0 -0.15912083936695831 0.4347249498771325 0 -0.15604886632200479 0.41831593774319042 0 -0.16958367679162159 0.42493542776846188 0 -0.1665369108918931 0.40914444316194981 0 -0.15604886632200479 0.41831593774319042 0 -0.1665369108918931 0.40914444316194981 0 -0.15604886632200479 0.41831593774319042 0 -0.1556916669008335 0.40278409093046019 0 -0.15604886632200479 0.41831593774319042 0 -0.14768726638806501 0.40958107086639878 0 -0.1556916669008335 0.40278409093046019 0 -0.15604886632200479 0.41831593774319042 0 -0.1455440964649429 0.41771164433310332 0 -0.14575226394851429 0.42876386523653243 0 -0.15604886632200479 0.41831593774319042 0 -0.1455440964649429 0.41771164433310332 0 -0.14768726638806501 0.40958107086639878 0 -0.1455440964649429 0.41771164433310332 0 -0.14768726638806501 0.40958107086639878 0 -0.13820848934052041 0.41088683445876423 0 -0.15912083936695831 0.4347249498771325 0 -0.15604886632200479 0.41831593774319042 0 -0.14575226394851429 0.42876386523653243 0 -0.14949031039727409 0.43903968606904947 0 -0.15912083936695831 0.4347249498771325 0 -0.14575226394851429 0.42876386523653243 0 -0.1455440964649429 0.41771164433310332 0 -0.14575226394851429 0.42876386523653243 0 -0.13557398954387551 0.42076075412316039 0 -0.13973201497409549 0.44099892737807922 0 -0.14949031039727409 0.43903968606904947 0 -0.14575226394851429 0.42876386523653243 0 -0.13491063247587859 0.43073185275000708 0 -0.1242188050129694 0.42501783294758849 0 -0.1248743097581413 0.44162978393037222 0 -0.13973201497409549 0.44099892737807922 0 -0.14575226394851429 0.42876386523653243 0 -0.13491063247587859 0.43073185275000708 0 -0.14575226394851429 0.42876386523653243 0 -0.13491063247587859 0.43073185275000708 0 -0.13557398954387551 0.42076075412316039 0 -0.13491063247587859 0.43073185275000708 0 -0.13557398954387551 0.42076075412316039 0 -0.1242188050129694 0.42501783294758849 0 -0.13820848934052041 0.41088683445876423 0 -0.13557398954387551 0.42076075412316039 0 -0.12623023605756489 0.41143854881348008 0 -0.1455440964649429 0.41771164433310332 0 -0.13820848934052041 0.41088683445876423 0 -0.13557398954387551 0.42076075412316039 0 -0.13557398954387551 0.42076075412316039 0 -0.12623023605756489 0.41143854881348008 0 -0.1242188050129694 0.42501783294758849 0 -0.13820848934052041 0.41088683445876423 0 -0.12623023605756489 0.41143854881348008 0 -0.13398515235888339 0.40371564514020769 0 -0.12997925716256209 0.39431640422262348 0 -0.14074253368576661 0.38200722200303072 0 -0.1429432129120235 0.39820684686647628 0 -0.12623023605756489 0.41143854881348008 0 -0.13398515235888339 0.40371564514020769 0 -0.12997925716256209 0.39431640422262348 0 -0.13398515235888339 0.40371564514020769 0 -0.12997925716256209 0.39431640422262348 0 -0.1429432129120235 0.39820684686647628 0 -0.13820848934052041 0.41088683445876423 0 -0.13398515235888339 0.40371564514020769 0 -0.1429432129120235 0.39820684686647628 0 -0.12997925716256209 0.39431640422262348 0 -0.14074253368576661 0.38200722200303072 0 -0.12523428666698541 0.37069662222368049 0 -0.12997925716256209 0.39431640422262348 0 -0.12523428666698541 0.37069662222368049 0 -0.12103247972044499 0.39311621374447298 0 -0.14074253368576661 0.38200722200303072 0 -0.15169756500005979 0.38990146883471011 0 -0.1429432129120235 0.39820684686647628 0 -0.14074253368576661 0.38200722200303072 0 -0.1532541744773912 0.375434017343177 0 -0.15169756500005979 0.38990146883471011 0 -0.15169756500005979 0.38990146883471011 0 -0.1556916669008335 0.40278409093046019 0 -0.1429432129120235 0.39820684686647628 0 -0.14768726638806501 0.40958107086639878 0 -0.1556916669008335 0.40278409093046019 0 -0.1429432129120235 0.39820684686647628 0 -0.14768726638806501 0.40958107086639878 0 -0.13820848934052041 0.41088683445876423 0 -0.1429432129120235 0.39820684686647628 0 -0.14407255521749979 0.34403263722221961 0 -0.15504053286571459 0.3545366000593369 0 -0.14129669608781389 0.36249735492572199 0 -0.14407255521749979 0.34403263722221961 0 -0.15504053286571459 0.3545366000593369 0 -0.1549481930100888 0.34056708499864929 0 -0.14074253368576661 0.38200722200303072 0 -0.1532541744773912 0.375434017343177 0 -0.14129669608781389 0.36249735492572199 0 -0.1532541744773912 0.375434017343177 0 -0.15504053286571459 0.3545366000593369 0 -0.14129669608781389 0.36249735492572199 0 -0.14129669608781389 0.36249735492572199 0 -0.12523428666698541 0.37069662222368049 0 -0.1294360936135257 0.3482770307028879 0 -0.12523428666698541 0.37069662222368049 0 -0.1294360936135257 0.3482770307028879 0 -0.14074253368576661 0.38200722200303072 0 -0.14129669608781389 0.36249735492572199 0 -0.12523428666698541 0.37069662222368049 0 -0.14407255521749979 0.34403263722221961 0 -0.14129669608781389 0.36249735492572199 0 -0.1294360936135257 0.3482770307028879 0 -0.1294360936135257 0.3482770307028879 0 -0.13363790056006589 0.32585743918209531 0 -0.14407255521749979 0.34403263722221961 0 -0.1294360936135257 0.3482770307028879 0 -0.13363790056006589 0.32585743918209531 0 -0.1294360936135257 0.3482770307028879 0 -0.13363790056006589 0.32585743918209531 0 -0.1154499742120704 0.34086754873962172 0 -0.12722248981549561 0.3181430308760943 0 -0.13363790056006589 0.32585743918209531 0 -0.1360408951285694 0.3130357752318072 0 -0.12722248981549561 0.3181430308760943 0 -0.1360408951285694 0.3130357752318072 0 -0.12136448477009221 0.30951812845445109 0 -0.12722248981549561 0.3181430308760943 0 -0.13363790056006589 0.32585743918209531 0 -0.12142985306419619 0.32461006626398298 0 -0.13363790056006589 0.32585743918209531 0 -0.12142985306419619 0.32461006626398298 0 -0.13363790056006589 0.32585743918209531 0 -0.1360408951285694 0.3130357752318072 0 -0.14290423209994971 0.32095809222069871 0 -0.13363790056006589 0.32585743918209531 0 -0.1360408951285694 0.3130357752318072 0 -0.14290423209994971 0.32095809222069871 0 -0.1532404752523272 0.32269894785805692 0 -0.1464174014568787 0.29836992735667278 0 -0.13363790056006589 0.32585743918209531 0 -0.14290423209994971 0.32095809222069871 0 -0.15729966860100811 0.32827511069417059 0 -0.13363790056006589 0.32585743918209531 0 -0.15729966860100811 0.32827511069417059 0 -0.14290423209994971 0.32095809222069871 0 -0.1532404752523272 0.32269894785805692 0 -0.15729966860100811 0.32827511069417059 0 -0.1532404752523272 0.32269894785805692 0 -0.15943794807189979 0.31595908059817063 0 -0.1547819877644892 0.3091453549012102 0 -0.14407255521749979 0.34403263722221961 0 -0.13363790056006589 0.32585743918209531 0 -0.14748957934716561 0.33468306802428371 0 -0.13363790056006589 0.32585743918209531 0 -0.14748957934716561 0.33468306802428371 0 -0.15729966860100811 0.32827511069417059 0 -0.14748957934716561 0.33468306802428371 0 -0.1549481930100888 0.34056708499864929 0 -0.15729966860100811 0.32827511069417059 0 -0.14407255521749979 0.34403263722221961 0 -0.14748957934716561 0.33468306802428371 0 -0.1549481930100888 0.34056708499864929 0 -0.15729966860100811 0.32827511069417059 0 -0.18096143664194889 0.33069278220625808 0 -0.1549481930100888 0.34056708499864929 0 -0.15729966860100811 0.32827511069417059 0 -0.16781010436956259 0.34240718275037813 0 -0.15729966860100811 0.32827511069417059 0 -0.16781010436956259 0.34240718275037813 0 -0.18096143664194889 0.33069278220625808 0 -0.15729966860100811 0.32827511069417059 0 -0.17028988351433311 0.32233995817617028 0 -0.18096143664194889 0.33069278220625808 0 -0.15943794807189979 0.31595908059817063 0 -0.16495134068588049 0.31685297469802859 0 -0.1638395481514221 0.30983277085387728 0 -0.1532404752523272 0.32269894785805692 0 -0.15943794807189979 0.31595908059817063 0 -0.16037638850537991 0.32126535467967993 0 -0.15943794807189979 0.31595908059817063 0 -0.16037638850537991 0.32126535467967993 0 -0.16495134068588049 0.31685297469802859 0 -0.15729966860100811 0.32827511069417059 0 -0.16037638850537991 0.32126535467967993 0 -0.17028988351433311 0.32233995817617028 0 -0.1532404752523272 0.32269894785805692 0 -0.15729966860100811 0.32827511069417059 0 -0.16037638850537991 0.32126535467967993 0 -0.16495134068588049 0.31685297469802859 0 -0.17285953122972289 0.31090601179704258 0 -0.1638395481514221 0.30983277085387728 0 -0.17028988351433311 0.32233995817617028 0 -0.16495134068588049 0.31685297469802859 0 -0.17285953122972289 0.31090601179704258 0 -0.16037638850537991 0.32126535467967993 0 -0.17028988351433311 0.32233995817617028 0 -0.16495134068588049 0.31685297469802859 0 -0.18077272512400111 0.31876138179813301 0 -0.17285953122972289 0.31090601179704258 0 -0.17028988351433311 0.32233995817617028 0 -0.18077272512400111 0.31876138179813301 0 -0.17285953122972289 0.31090601179704258 0 -0.17028988351433311 0.32233995817617028 0 -0.18077272512400111 0.31876138179813301 0 -0.18096143664194889 0.33069278220625808 0 -0.18077272512400111 0.31876138179813301 0 -0.19386790912735871 0.33176087567547108 0 -0.18077272512400111 0.31876138179813301 0 -0.18096143664194889 0.33069278220625808 0 -0.18077272512400111 0.31876138179813301 0 -0.18096143664194889 0.33069278220625808 0 -0.19386790912735871 0.33176087567547108 0 -0.18096143664194889 0.33069278220625808 0 -0.1813609546404725 0.35595255046315749 0 -0.18096143664194889 0.33069278220625808 0 -0.1813609546404725 0.35595255046315749 0 -0.19258948339875709 0.33633707034479371 0 -0.16781010436956259 0.34240718275037813 0 -0.18096143664194889 0.33069278220625808 0 -0.1813609546404725 0.35595255046315749 0 -0.18096143664194889 0.33069278220625808 0 -0.19386790912735871 0.33176087567547108 0 -0.15504053286571459 0.3545366000593369 0 -0.16781010436956259 0.34240718275037813 0 -0.1813609546404725 0.35595255046315749 0 -0.15504053286571459 0.3545366000593369 0 -0.1549481930100888 0.34056708499864929 0 -0.16781010436956259 0.34240718275037813 0 -0.1532541744773912 0.375434017343177 0 -0.15504053286571459 0.3545366000593369 0 -0.16689278400863089 0.37048631692620287 0 -0.15504053286571459 0.3545366000593369 0 -0.1813609546404725 0.35595255046315749 0 -0.16689278400863089 0.37048631692620287 0 -0.18176047263899719 0.38121231872005679 0 -0.1813609546404725 0.35595255046315749 0 -0.18176047263899719 0.38121231872005679 0 -0.1813609546404725 0.35595255046315749 0 -0.1956253707180633 0.37355818799515828 0 -0.18176047263899719 0.38121231872005679 0 -0.1813609546404725 0.35595255046315749 0 -0.16689278400863089 0.37048631692620287 0 -0.1813609546404725 0.35595255046315749 0 -0.1956253707180633 0.37355818799515828 0 -0.2000380028121157 0.35856944723279938 0 -0.1956253707180633 0.37355818799515828 0 -0.2000380028121157 0.35856944723279938 0 -0.20825127389149589 0.37038948781896619 0 -0.1813609546404725 0.35595255046315749 0 -0.1951678646333711 0.34883535218340811 0 -0.19258948339875709 0.33633707034479371 0 -0.1813609546404725 0.35595255046315749 0 -0.1951678646333711 0.34883535218340811 0 -0.2000380028121157 0.35856944723279938 0 -0.1951678646333711 0.34883535218340811 0 -0.2000380028121157 0.35856944723279938 0 -0.20668301768213909 0.34448234069288158 0 -0.20668301768213909 0.34448234069288158 0 -0.2120127789660084 0.36084248239747968 0 -0.21921666942493959 0.3569244055809645 0 -0.2000380028121157 0.35856944723279938 0 -0.20668301768213909 0.34448234069288158 0 -0.2120127789660084 0.36084248239747968 0 -0.2120127789660084 0.36084248239747968 0 -0.21921666942493959 0.3569244055809645 0 -0.20668301768213909 0.34448234069288158 0 -0.21921666942493959 0.3569244055809645 0 -0.22158808080033929 0.34557455345049992 0 -0.20668301768213909 0.34448234069288158 0 -0.21921666942493959 0.3569244055809645 0 -0.2000380028121157 0.35856944723279938 0 -0.20825127389149589 0.37038948781896619 0 -0.2120127789660084 0.36084248239747968 0 -0.2120127789660084 0.36084248239747968 0 -0.2199937556016836 0.36693485901855288 0 -0.21921666942493959 0.3569244055809645 0 -0.20825127389149589 0.37038948781896619 0 -0.2120127789660084 0.36084248239747968 0 -0.2199937556016836 0.36693485901855288 0 -0.21752164111765379 0.37637519474985792 0 -0.20825127389149589 0.37038948781896619 0 -0.2199937556016836 0.36693485901855288 0 -0.21752164111765379 0.37637519474985792 0 -0.23054114355980421 0.3681661286558337 0 -0.2199937556016836 0.36693485901855288 0 -0.23054114355980421 0.3681661286558337 0 -0.21921666942493959 0.3569244055809645 0 -0.23305195790672301 0.35812934693154008 0 -0.23054114355980421 0.3681661286558337 0 -0.2199937556016836 0.36693485901855288 0 -0.21921666942493959 0.3569244055809645 0 -0.23054114355980421 0.3681661286558337 0 -0.21921666942493959 0.3569244055809645 0 -0.21921666942493959 0.3569244055809645 0 -0.22158808080033929 0.34557455345049992 0 -0.23915963598069589 0.34607775607121571 0 -0.21921666942493959 0.3569244055809645 0 -0.23915963598069589 0.34607775607121571 0 -0.21921666942493959 0.3569244055809645 0 -0.23305195790672301 0.35812934693154008 0 -0.23915963598069589 0.34607775607121571 0 -0.23305195790672301 0.35812934693154008 0 -0.23915963598069589 0.34607775607121571 0 -0.24329038266145239 0.36134909741814653 0 -0.25407523553642281 0.3497448278934856 0 -0.23915963598069589 0.34607775607121571 0 -0.24329038266145239 0.36134909741814653 0 -0.25213085833087667 0.37355178257669552 0 -0.24000210142933509 0.37809552861286783 0 -0.24329038266145239 0.36134909741814653 0 -0.24000210142933509 0.37809552861286783 0 -0.23054114355980421 0.3681661286558337 0 -0.24329038266145239 0.36134909741814653 0 -0.23054114355980421 0.3681661286558337 0 -0.23305195790672301 0.35812934693154008 0 -0.24329038266145239 0.36134909741814653 0 -0.23582541811145999 0.32679902143390172 0 -0.24885494741763489 0.31718848033418301 0 -0.23189508169276829 0.30076725351495531 0 -0.23582541811145999 0.32679902143390172 0 -0.24885494741763489 0.31718848033418301 0 -0.24633099797708269 0.32737693631841108 0 -0.25451497659773847 0.32559442806853028 0 -0.24885494741763489 0.31718848033418301 0 -0.24633099797708269 0.32737693631841108 0 -0.24843663428782739 0.33758714710907461 0 -0.22129300011358269 0.33481371145693772 0 -0.25451497659773847 0.32559442806853028 0 -0.24633099797708269 0.32737693631841108 0 -0.24843663428782739 0.33758714710907461 0 -0.25910260253645218 0.33523110656146687 0 -0.23915963598069589 0.34607775607121571 0 -0.23582541811145999 0.32679902143390172 0 -0.24633099797708269 0.32737693631841108 0 -0.24843663428782739 0.33758714710907461 0 -0.25910260253645218 0.33523110656146687 0 -0.23915963598069589 0.34607775607121571 0 -0.24843663428782739 0.33758714710907461 0 -0.23582541811145999 0.32679902143390172 0 -0.24843663428782739 0.33758714710907461 0 -0.22129300011358269 0.33481371145693772 0 -0.23915963598069589 0.34607775607121571 0 -0.24843663428782739 0.33758714710907461 0 -0.22129300011358269 0.33481371145693772 0 -0.22158808080033929 0.34557455345049992 0 -0.23915963598069589 0.34607775607121571 0 -0.22129300011358269 0.33481371145693772 0 -0.23582541811145999 0.32679902143390172 0 -0.21954464392232159 0.31820766509236142 0 -0.23189508169276829 0.30076725351495531 0 -0.23582541811145999 0.32679902143390172 0 -0.22129300011358269 0.33481371145693772 0 -0.21954464392232159 0.31820766509236142 0 -0.21954464392232159 0.31820766509236142 0 -0.20492818889453221 0.32276220977772679 0 -0.20060783596013981 0.3076349397264902 0 -0.22129300011358269 0.33481371145693772 0 -0.21954464392232159 0.31820766509236142 0 -0.20492818889453221 0.32276220977772679 0 -0.22129300011358269 0.33481371145693772 0 -0.20492818889453221 0.32276220977772679 0 -0.19386790912735871 0.33176087567547108 0 -0.22129300011358269 0.33481371145693772 0 -0.19386790912735871 0.33176087567547108 0 -0.20668301768213909 0.34448234069288158 0 -0.22129300011358269 0.33481371145693772 0 -0.19386790912735871 0.33176087567547108 0 -0.20668301768213909 0.34448234069288158 0 -0.22158808080033929 0.34557455345049992 0 -0.22129300011358269 0.33481371145693772 0 -0.20668301768213909 0.34448234069288158 0 -0.19386790912735871 0.33176087567547108 0 -0.19258948339875709 0.33633707034479371 0 -0.20668301768213909 0.34448234069288158 0 -0.19386790912735871 0.33176087567547108 0 -0.1951678646333711 0.34883535218340811 0 -0.20668301768213909 0.34448234069288158 0 -0.19258948339875709 0.33633707034479371 0 -0.18096143664194889 0.33069278220625808 0 -0.19386790912735871 0.33176087567547108 0 -0.19258948339875709 0.33633707034479371 0 -0.19386790912735871 0.33176087567547108 0 -0.19258948339875709 0.33633707034479371 0 -0.18077272512400111 0.31876138179813301 0 -0.19386790912735871 0.33176087567547108 0 -0.20060783596013981 0.3076349397264902 0 -0.20492818889453221 0.32276220977772679 0 -0.19386790912735871 0.33176087567547108 0 -0.20060783596013981 0.3076349397264902 0 -0.19386790912735871 0.33176087567547108 0 -0.20060783596013981 0.3076349397264902 0 -0.20060783596013981 0.3076349397264902 0 -0.20734776279292019 0.28350900377750898 0 -0.23189508169276829 0.30076725351495531 0 -0.21954464392232159 0.31820766509236142 0 -0.20060783596013981 0.3076349397264902 0 -0.23189508169276829 0.30076725351495531 0 -0.20060783596013981 0.3076349397264902 0 -0.20734776279292019 0.28350900377750898 0 -0.18034630435624241 0.29180066960649809 0 -0.20734776279292019 0.28350900377750898 0 -0.19375927737912041 0.2730469699042487 0 -0.18034630435624241 0.29180066960649809 0 -0.20060783596013981 0.3076349397264902 0 -0.20734776279292019 0.28350900377750898 0 -0.20734776279292019 0.28350900377750898 0 -0.23189508169276829 0.30076725351495531 0 -0.22396762922540969 0.27514125130055722 0 -0.23189508169276829 0.30076725351495531 0 -0.2378434694439332 0.28391349183279069 0 -0.22396762922540969 0.27514125130055722 0 -0.25673188405007052 0.28646841290673969 0 -0.23189508169276829 0.30076725351495531 0 -0.2378434694439332 0.28391349183279069 0 -0.25673188405007052 0.28646841290673969 0 -0.23189508169276829 0.30076725351495531 0 -0.25505401324638421 0.30366623925853881 0 -0.25673188405007052 0.28646841290673969 0 -0.23189508169276829 0.30076725351495531 0 -0.25505401324638421 0.30366623925853881 0 -0.24885494741763489 0.31718848033418301 0 -0.23189508169276829 0.30076725351495531 0 -0.25265925142613249 0.26128234508680298 0 -0.23885305679183191 0.2684477152547543 0 -0.23951274761537589 0.2474853768326048 0 -0.23885305679183191 0.2684477152547543 0 -0.22811192938500721 0.25829645972706228 0 -0.23951274761537589 0.2474853768326048 0 -0.25621817608628389 0.2460965770837312 0 -0.25265925142613249 0.26128234508680298 0 -0.23951274761537589 0.2474853768326048 0 -0.25673188405007052 0.28646841290673969 0 -0.2378434694439332 0.28391349183279069 0 -0.23885305679183191 0.2684477152547543 0 -0.25265925142613249 0.26128234508680298 0 -0.25673188405007052 0.28646841290673969 0 -0.23885305679183191 0.2684477152547543 0 -0.23885305679183191 0.2684477152547543 0 -0.22396762922540969 0.27514125130055722 0 -0.22811192938500721 0.25829645972706228 0 -0.2378434694439332 0.28391349183279069 0 -0.23885305679183191 0.2684477152547543 0 -0.22396762922540969 0.27514125130055722 0 -0.22811192938500721 0.25829645972706228 0 -0.22371849106378741 0.2462845034026982 0 -0.23951274761537589 0.2474853768326048 0 -0.22396762922540969 0.27514125130055722 0 -0.22811192938500721 0.25829645972706228 0 -0.21408768962570049 0.25938306782852782 0 -0.22811192938500721 0.25829645972706228 0 -0.21408768962570049 0.25938306782852782 0 -0.22371849106378741 0.2462845034026982 0 -0.21408768962570049 0.25938306782852782 0 -0.19928355658839081 0.25766712263582692 0 -0.2066863838603582 0.24242880758937649 0 -0.21408768962570049 0.25938306782852782 0 -0.20163280817849061 0.26608937016207479 0 -0.19928355658839081 0.25766712263582692 0 -0.20734776279292019 0.28350900377750898 0 -0.21408768962570049 0.25938306782852782 0 -0.20734776279292019 0.28350900377750898 0 -0.22396762922540969 0.27514125130055722 0 -0.21408768962570049 0.25938306782852782 0 -0.20734776279292019 0.28350900377750898 0 -0.21408768962570049 0.25938306782852782 0 -0.20163280817849061 0.26608937016207479 0 -0.20734776279292019 0.28350900377750898 0 -0.20163280817849061 0.26608937016207479 0 -0.19375927737912041 0.2730469699042487 0 -0.20163280817849061 0.26608937016207479 0 -0.19375927737912041 0.2730469699042487 0 -0.19160269433399771 0.26436194023610149 0 -0.19375927737912041 0.2730469699042487 0 -0.19160269433399771 0.26436194023610149 0 -0.17991988358848049 0.26483995741486333 0 -0.19928355658839081 0.25766712263582692 0 -0.18259587964237009 0.2606558300825601 0 -0.2066863838603582 0.24242880758937649 0 -0.18259587964237009 0.2606558300825601 0 -0.19333963139412971 0.24385714112684301 0 -0.19928355658839081 0.25766712263582692 0 -0.19160269433399771 0.26436194023610149 0 -0.18259587964237009 0.2606558300825601 0 -0.18259587964237009 0.2606558300825601 0 -0.2066863838603582 0.24242880758937649 0 -0.20163280817849061 0.26608937016207479 0 -0.19928355658839081 0.25766712263582692 0 -0.19160269433399771 0.26436194023610149 0 -0.17991988358848049 0.26483995741486333 0 -0.17951502337729761 0.2392424245160312 0 -0.17991988358848049 0.26483995741486333 0 -0.17042143569771079 0.26099360542817968 0 -0.17951502337729761 0.2392424245160312 0 -0.18259587964237009 0.2606558300825601 0 -0.17991988358848049 0.26483995741486333 0 -0.17951502337729761 0.2392424245160312 0 -0.19160269433399771 0.26436194023610149 0 -0.18259587964237009 0.2606558300825601 0 -0.17991988358848049 0.26483995741486333 0 -0.18259587964237009 0.2606558300825601 0 -0.17991988358848049 0.26483995741486333 0 -0.17991988358848049 0.26483995741486333 0 -0.17042143569771079 0.26099360542817968 0 -0.17716480609589361 0.26914773470870201 0 -0.17042143569771079 0.26099360542817968 0 -0.1627301728603629 0.26968240911070368 0 -0.1532221513837192 0.25419418888983192 0 -0.17042143569771079 0.26099360542817968 0 -0.1532221513837192 0.25419418888983192 0 -0.17951502337729761 0.2392424245160312 0 -0.1627301728603629 0.26968240911070368 0 -0.1620479085915319 0.28265904931380531 0 -0.15271877240598841 0.27446820953958367 0 -0.17042143569771079 0.26099360542817968 0 -0.1627301728603629 0.26968240911070368 0 -0.1699765768805111 0.26885491792894611 0 -0.1627301728603629 0.26968240911070368 0 -0.1699765768805111 0.26885491792894611 0 -0.16860704672851359 0.27535934789532951 0 -0.1627301728603629 0.26968240911070368 0 -0.16860704672851359 0.27535934789532951 0 -0.1620479085915319 0.28265904931380531 0 -0.16860704672851359 0.27535934789532951 0 -0.17077339862397739 0.28423195702734899 0 -0.1620479085915319 0.28265904931380531 0 -0.17991988358848049 0.26483995741486333 0 -0.18034630435624241 0.29180066960649809 0 -0.17991988358848049 0.26483995741486333 0 -0.17716480609589361 0.26914773470870201 0 -0.18034630435624241 0.29180066960649809 0 -0.16860704672851359 0.27535934789532951 0 -0.17716480609589361 0.26914773470870201 0 -0.17077339862397739 0.28423195702734899 0 -0.19375927737912041 0.2730469699042487 0 -0.17991988358848049 0.26483995741486333 0 -0.18034630435624241 0.29180066960649809 0 -0.17042143569771079 0.26099360542817968 0 -0.1699765768805111 0.26885491792894611 0 -0.17716480609589361 0.26914773470870201 0 -0.1699765768805111 0.26885491792894611 0 -0.16860704672851359 0.27535934789532951 0 -0.17716480609589361 0.26914773470870201 0 -0.17991988358848049 0.26483995741486333 0 -0.17716480609589361 0.26914773470870201 0 -0.17716480609589361 0.26914773470870201 0 -0.18034630435624241 0.29180066960649809 0 -0.17077339862397739 0.28423195702734899 0 -0.18034630435624241 0.29180066960649809 0 -0.16501618616712291 0.29775164083812761 0 -0.17077339862397739 0.28423195702734899 0 -0.18077272512400111 0.31876138179813301 0 -0.18034630435624241 0.29180066960649809 0 -0.18077272512400111 0.31876138179813301 0 -0.18034630435624241 0.29180066960649809 0 -0.17285953122972289 0.31090601179704258 0 -0.18034630435624241 0.29180066960649809 0 -0.17285953122972289 0.31090601179704258 0 -0.16501618616712291 0.29775164083812761 0 -0.18077272512400111 0.31876138179813301 0 -0.20060783596013981 0.3076349397264902 0 -0.18034630435624241 0.29180066960649809 0 -0.16501618616712291 0.29775164083812761 0 -0.15329008091572741 0.28945008379417048 0 -0.1547819877644892 0.3091453549012102 0 -0.17285953122972289 0.31090601179704258 0 -0.16501618616712291 0.29775164083812761 0 -0.1638395481514221 0.30983277085387728 0 -0.16501618616712291 0.29775164083812761 0 -0.1638395481514221 0.30983277085387728 0 -0.1547819877644892 0.3091453549012102 0 -0.15943794807189979 0.31595908059817063 0 -0.1638395481514221 0.30983277085387728 0 -0.1547819877644892 0.3091453549012102 0 -0.16501618616712291 0.29775164083812761 0 -0.17077339862397739 0.28423195702734899 0 -0.1620479085915319 0.28265904931380531 0 -0.16501618616712291 0.29775164083812761 0 -0.1620479085915319 0.28265904931380531 0 -0.15329008091572741 0.28945008379417048 0 -0.1464174014568787 0.29836992735667278 0 -0.13959432766143021 0.2740409068552887 0 -0.1620479085915319 0.28265904931380531 0 -0.15329008091572741 0.28945008379417048 0 -0.15271877240598841 0.27446820953958367 0 -0.15329008091572741 0.28945008379417048 0 -0.1464174014568787 0.29836992735667278 0 -0.13959432766143021 0.2740409068552887 0 -0.15329008091572741 0.28945008379417048 0 -0.1464174014568787 0.29836992735667278 0 -0.1547819877644892 0.3091453549012102 0 -0.1532404752523272 0.32269894785805692 0 -0.1464174014568787 0.29836992735667278 0 -0.1360408951285694 0.3130357752318072 0 -0.14290423209994971 0.32095809222069871 0 -0.1464174014568787 0.29836992735667278 0 -0.1532404752523272 0.32269894785805692 0 -0.1464174014568787 0.29836992735667278 0 -0.1547819877644892 0.3091453549012102 0 -0.1360408951285694 0.3130357752318072 0 -0.1264253840414637 0.29528772621663357 0 -0.12136448477009221 0.30951812845445109 0 -0.1360408951285694 0.3130357752318072 0 -0.1464174014568787 0.29836992735667278 0 -0.1264253840414637 0.29528772621663357 0 -0.1464174014568787 0.29836992735667278 0 -0.1264253840414637 0.29528772621663357 0 -0.13959432766143021 0.2740409068552887 0 -0.1264253840414637 0.29528772621663357 0 -0.13959432766143021 0.2740409068552887 0 -0.1185373796182298 0.27837978510360878 0 -0.13959432766143021 0.2740409068552887 0 -0.1327712538659816 0.24971188635390451 0 -0.13959432766143021 0.2740409068552887 0 -0.116744543106582 0.25728181003509248 0 -0.1327712538659816 0.24971188635390451 0 -0.13959432766143021 0.2740409068552887 0 -0.1532221513837192 0.25419418888983192 0 -0.1327712538659816 0.24971188635390451 0 -0.1627301728603629 0.26968240911070368 0 -0.1532221513837192 0.25419418888983192 0 -0.15271877240598841 0.27446820953958367 0 -0.13959432766143021 0.2740409068552887 0 -0.1532221513837192 0.25419418888983192 0 -0.15271877240598841 0.27446820953958367 0 -0.15329008091572741 0.28945008379417048 0 -0.13959432766143021 0.2740409068552887 0 -0.15271877240598841 0.27446820953958367 0 -0.1061606963602142 0.26761343855331338 0 -0.1001789302111205 0.27974269320078388 0 -0.1185373796182298 0.27837978510360878 0 -0.1061606963602142 0.26761343855331338 0 -0.1001789302111205 0.27974269320078388 0 -0.092613028744971265 0.26767711662392979 0 -0.1061606963602142 0.26761343855331338 0 -0.10005120432924321 0.25626016583208688 0 -0.116744543106582 0.25728181003509248 0 -0.1061606963602142 0.26761343855331338 0 -0.10005120432924321 0.25626016583208688 0 -0.092613028744971265 0.26767711662392979 0 -0.10005120432924321 0.25626016583208688 0 -0.116744543106582 0.25728181003509248 0 -0.1045487088169635 0.24438495162540061 0 -0.13959432766143021 0.2740409068552887 0 -0.116744543106582 0.25728181003509248 0 -0.1185373796182298 0.27837978510360878 0 -0.1061606963602142 0.26761343855331338 0 -0.116744543106582 0.25728181003509248 0 -0.1185373796182298 0.27837978510360878 0 -0.1264253840414637 0.29528772621663357 0 -0.1127724140037699 0.30190213115774378 0 -0.1091517300735869 0.29135078386346752 0 -0.1264253840414637 0.29528772621663357 0 -0.1185373796182298 0.27837978510360878 0 -0.1091517300735869 0.29135078386346752 0 -0.1264253840414637 0.29528772621663357 0 -0.12136448477009221 0.30951812845445109 0 -0.1127724140037699 0.30190213115774378 0 -0.12136448477009221 0.30951812845445109 0 -0.1127724140037699 0.30190213115774378 0 -0.1061991548417472 0.31213959050036899 0 -0.1127724140037699 0.30190213115774378 0 -0.1061991548417472 0.31213959050036899 0 -0.1005146973405663 0.30141191014932889 0 -0.1127724140037699 0.30190213115774378 0 -0.1005146973405663 0.30141191014932889 0 -0.1091517300735869 0.29135078386346752 0 -0.1005146973405663 0.30141191014932889 0 -0.094430836728355921 0.29177030977787999 0 -0.089068024122243669 0.30112896568664949 0 -0.1061991548417472 0.31213959050036899 0 -0.1005146973405663 0.30141191014932889 0 -0.090928135519314904 0.31087631578889069 0 -0.1001789302111205 0.27974269320078388 0 -0.1185373796182298 0.27837978510360878 0 -0.1091517300735869 0.29135078386346752 0 -0.1005146973405663 0.30141191014932889 0 -0.1091517300735869 0.29135078386346752 0 -0.094430836728355921 0.29177030977787999 0 -0.1001789302111205 0.27974269320078388 0 -0.1091517300735869 0.29135078386346752 0 -0.094430836728355921 0.29177030977787999 0 -0.1001789302111205 0.27974269320078388 0 -0.094430836728355921 0.29177030977787999 0 -0.086145563619835275 0.2816538088019015 0 -0.094430836728355921 0.29177030977787999 0 -0.086145563619835275 0.2816538088019015 0 -0.081526075002782958 0.29533369696514911 0 -0.094430836728355921 0.29177030977787999 0 -0.081526075002782958 0.29533369696514911 0 -0.089068024122243669 0.30112896568664949 0 -0.086145563619835275 0.2816538088019015 0 -0.081526075002782958 0.29533369696514911 0 -0.070830210313899522 0.29195808219782299 0 -0.090928135519314904 0.31087631578889069 0 -0.079482369404140468 0.30560554845979909 0 -0.074915307566508993 0.31649039264194578 0 -0.090928135519314904 0.31087631578889069 0 -0.089068024122243669 0.30112896568664949 0 -0.079482369404140468 0.30560554845979909 0 -0.1005146973405663 0.30141191014932889 0 -0.090928135519314904 0.31087631578889069 0 -0.089068024122243669 0.30112896568664949 0 -0.081526075002782958 0.29533369696514911 0 -0.089068024122243669 0.30112896568664949 0 -0.079482369404140468 0.30560554845979909 0 -0.054647974243728172 0.30430181459310768 0 -0.074915307566508993 0.31649039264194578 0 -0.079482369404140468 0.30560554845979909 0 -0.068661557073843291 0.3005821027458685 0 -0.074915307566508993 0.31649039264194578 0 -0.068661557073843291 0.3005821027458685 0 -0.054647974243728172 0.30430181459310768 0 -0.074915307566508993 0.31649039264194578 0 -0.081526075002782958 0.29533369696514911 0 -0.079482369404140468 0.30560554845979909 0 -0.068661557073843291 0.3005821027458685 0 -0.070830210313899522 0.29195808219782299 0 -0.067453711470644842 0.27023673344429472 0 -0.052574645638654917 0.28480468584225688 0 -0.081526075002782958 0.29533369696514911 0 -0.068661557073843291 0.3005821027458685 0 -0.070830210313899522 0.29195808219782299 0 -0.068661557073843291 0.3005821027458685 0 -0.070830210313899522 0.29195808219782299 0 -0.068661557073843291 0.3005821027458685 0 -0.070830210313899522 0.29195808219782299 0 -0.059610011597539182 0.29372125904316332 0 -0.086145563619835275 0.2816538088019015 0 -0.070830210313899522 0.29195808219782299 0 -0.077256670317037021 0.26667642926106078 0 -0.070830210313899522 0.29195808219782299 0 -0.067453711470644842 0.27023673344429472 0 -0.070830210313899522 0.29195808219782299 0 -0.077256670317037021 0.26667642926106078 0 -0.070830210313899522 0.29195808219782299 0 -0.067453711470644842 0.27023673344429472 0 -0.077256670317037021 0.26667642926106078 0 -0.086145563619835275 0.2816538088019015 0 -0.077256670317037021 0.26667642926106078 0 -0.092613028744971265 0.26767711662392979 0 -0.1001789302111205 0.27974269320078388 0 -0.086145563619835275 0.2816538088019015 0 -0.092613028744971265 0.26767711662392979 0 -0.077256670317037021 0.26667642926106078 0 -0.086302411784292182 0.25447467192259482 0 -0.083666647235009842 0.24139059785004849 0 -0.077256670317037021 0.26667642926106078 0 -0.083666647235009842 0.24139059785004849 0 -0.10005120432924321 0.25626016583208688 0 -0.086302411784292182 0.25447467192259482 0 -0.094679029848152713 0.24609146959404629 0 -0.10005120432924321 0.25626016583208688 0 -0.092613028744971265 0.26767711662392979 0 -0.086302411784292182 0.25447467192259482 0 -0.077256670317037021 0.26667642926106078 0 -0.092613028744971265 0.26767711662392979 0 -0.086302411784292182 0.25447467192259482 0 -0.077256670317037021 0.26667642926106078 0 -0.064077212627390134 0.24851538469076631 0 -0.083666647235009842 0.24139059785004849 0 -0.067453711470644842 0.27023673344429472 0 -0.077256670317037021 0.26667642926106078 0 -0.064077212627390134 0.24851538469076631 0 -0.067453711470644842 0.27023673344429472 0 -0.064077212627390134 0.24851538469076631 0 -0.067453711470644842 0.27023673344429472 0 -0.04634179854296408 0.26632715615711849 0 -0.064077212627390134 0.24851538469076631 0 -0.04634179854296408 0.26632715615711849 0 -0.064077212627390134 0.24851538469076631 0 -0.046578861792199937 0.24361118962503389 0 -0.067453711470644842 0.27023673344429472 0 -0.04634179854296408 0.26632715615711849 0 -0.052574645638654917 0.28480468584225688 0 -0.04634179854296408 0.26632715615711849 0 -0.034380640920947357 0.29211323654426968 0 -0.052574645638654917 0.28480468584225688 0 -0.04634179854296408 0.26632715615711849 0 -0.022607631921228569 0.27169805167723737 0 -0.034380640920947357 0.29211323654426968 0 -0.04634179854296408 0.26632715615711849 0 -0.03068766995985707 0.25286978792993342 0 -0.022607631921228569 0.27169805167723737 0 -0.04634179854296408 0.26632715615711849 0 -0.03068766995985707 0.25286978792993342 0 -0.046578861792199937 0.24361118962503389 0 -0.03068766995985707 0.25286978792993342 0 -0.022607631921228569 0.27169805167723737 0 -0.0098044441781452579 0.25473951632571468 0 -0.022607631921228569 0.27169805167723737 0 -0.015153941911089409 0.29208252597919021 0 3.3590645499582607e-05 0.27236849017123349 0 -0.022607631921228569 0.27169805167723737 0 -0.0098044441781452579 0.25473951632571468 0 3.3590645499582607e-05 0.27236849017123349 0 -0.0098044441781452579 0.25473951632571468 0 0.0073806355134042019 0.25529449578482938 0 3.3590645499582607e-05 0.27236849017123349 0 -0.0088759444352828343 0.31092800175718183 0 -0.015153941911089409 0.29208252597919021 0 0.0083336089875100904 0.29343585490586271 0 -0.015153941911089409 0.29208252597919021 0 0.0083336089875100904 0.29343585490586271 0 3.3590645499582607e-05 0.27236849017123349 0 -0.022607631921228569 0.27169805167723737 0 -0.015153941911089409 0.29208252597919021 0 -0.034380640920947357 0.29211323654426968 0 -0.0088759444352828343 0.31092800175718183 0 -0.015153941911089409 0.29208252597919021 0 -0.03508050583840458 0.3127012881250415 0 -0.015153941911089409 0.29208252597919021 0 -0.034380640920947357 0.29211323654426968 0 -0.03508050583840458 0.3127012881250415 0 -0.034380640920947357 0.29211323654426968 0 -0.054647974243728172 0.30430181459310768 0 -0.034380640920947357 0.29211323654426968 0 -0.054647974243728172 0.30430181459310768 0 -0.03508050583840458 0.3127012881250415 0 -0.034380640920947357 0.29211323654426968 0 -0.052574645638654917 0.28480468584225688 0 -0.054647974243728172 0.30430181459310768 0 -0.052574645638654917 0.28480468584225688 0 -0.059610011597539182 0.29372125904316332 0 -0.054647974243728172 0.30430181459310768 0 -0.070830210313899522 0.29195808219782299 0 -0.052574645638654917 0.28480468584225688 0 -0.059610011597539182 0.29372125904316332 0 -0.068661557073843291 0.3005821027458685 0 -0.059610011597539182 0.29372125904316332 0 -0.054647974243728172 0.30430181459310768 0 -0.058679851530075752 0.32054224196392622 0 -0.045885169747561752 0.33132665820789581 0 -0.073191842414501496 0.33174208285196288 0 -0.054647974243728172 0.30430181459310768 0 -0.058679851530075752 0.32054224196392622 0 -0.03508050583840458 0.3127012881250415 0 -0.045885169747561752 0.33132665820789581 0 -0.067541502003893042 0.3482616942848048 0 -0.073191842414501496 0.33174208285196288 0 -0.045885169747561752 0.33132665820789581 0 -0.073191842414501496 0.33174208285196288 0 -0.045885169747561752 0.33132665820789581 0 -0.018578497080621779 0.33091123356382868 0 -0.045885169747561752 0.33132665820789581 0 -0.03508050583840458 0.3127012881250415 0 -0.018578497080621779 0.33091123356382868 0 -0.058679851530075752 0.32054224196392622 0 -0.045885169747561752 0.33132665820789581 0 -0.03508050583840458 0.3127012881250415 0 -0.0088759444352828343 0.31092800175718183 0 -0.03508050583840458 0.3127012881250415 0 -0.018578497080621779 0.33091123356382868 0 -0.018578497080621779 0.33091123356382868 0 -0.0050552824635438226 0.34569829691311771 0 -0.02749858990914332 0.35301881799134821 0 -0.045885169747561752 0.33132665820789581 0 -0.018578497080621779 0.33091123356382868 0 -0.02749858990914332 0.35301881799134821 0 -0.018578497080621779 0.33091123356382868 0 -0.0050552824635438226 0.34569829691311771 0 0.0064742168078369342 0.3347740657525386 0 -0.018578497080621779 0.33091123356382868 0 0.0087281755863181168 0.33049580891976171 0 -0.018578497080621779 0.33091123356382868 0 0.0064742168078369342 0.3347740657525386 0 0.0087281755863181168 0.33049580891976171 0 -0.018578497080621779 0.33091123356382868 0 -0.003280447873963227 0.32161399115684158 0 0.0087281755863181168 0.33049580891976171 0 -0.0088759444352828343 0.31092800175718183 0 -0.018578497080621779 0.33091123356382868 0 -0.003280447873963227 0.32161399115684158 0 -0.0088759444352828343 0.31092800175718183 0 -0.003280447873963227 0.32161399115684158 0 0.0056044744337335906 0.31412092038659428 0 -0.0052616759920083916 0.36132776784546622 0 -0.0045342830833226501 0.3863935686212247 0 -0.0052616759920083916 0.36132776784546622 0 -0.024169526760701381 0.37267007813580277 0 -0.0045342830833226501 0.3863935686212247 0 -0.0052616759920083916 0.36132776784546622 0 -0.0045342830833226501 0.3863935686212247 0 0.0079023355216259559 0.37348921158265391 0 -0.0052616759920083916 0.36132776784546622 0 -0.0050552824635438226 0.34569829691311771 0 0.0061318462344260851 0.35417601161121459 0 -0.0052616759920083916 0.36132776784546622 0 -0.0050552824635438226 0.34569829691311771 0 -0.02749858990914332 0.35301881799134821 0 -0.02749858990914332 0.35301881799134821 0 -0.024169526760701381 0.37267007813580277 0 -0.04149310004589906 0.37124785083274592 0 -0.0052616759920083916 0.36132776784546622 0 -0.02749858990914332 0.35301881799134821 0 -0.024169526760701381 0.37267007813580277 0 -0.02749858990914332 0.35301881799134821 0 -0.04149310004589906 0.37124785083274592 0 -0.051818441616049399 0.35735321764765782 0 -0.045885169747561752 0.33132665820789581 0 -0.02749858990914332 0.35301881799134821 0 -0.051818441616049399 0.35735321764765782 0 -0.045885169747561752 0.33132665820789581 0 -0.051818441616049399 0.35735321764765782 0 -0.067541502003893042 0.3482616942848048 0 -0.04149310004589906 0.37124785083274592 0 -0.051818441616049399 0.35735321764765782 0 -0.056875823715872062 0.37631267096962301 0 -0.051818441616049399 0.35735321764765782 0 -0.069616273344600341 0.3650636543096733 0 -0.056875823715872062 0.37631267096962301 0 -0.069616273344600341 0.3650636543096733 0 -0.085055645225370236 0.37193713089684588 0 -0.071788917171084016 0.3809272333041443 0 -0.069616273344600341 0.3650636543096733 0 -0.071788917171084016 0.3809272333041443 0 -0.056875823715872062 0.37631267096962301 0 -0.069616273344600341 0.3650636543096733 0 -0.085055645225370236 0.37193713089684588 0 -0.084100884505446297 0.3554636863979832 0 -0.085055645225370236 0.37193713089684588 0 -0.084100884505446297 0.3554636863979832 0 -0.1008292236537022 0.36036332390371462 0 -0.084100884505446297 0.3554636863979832 0 -0.067541502003893042 0.3482616942848048 0 -0.085709514220790303 0.34113927750747819 0 -0.084100884505446297 0.3554636863979832 0 -0.085709514220790303 0.34113927750747819 0 -0.099722393067727538 0.34687368244968458 0 -0.069616273344600341 0.3650636543096733 0 -0.084100884505446297 0.3554636863979832 0 -0.067541502003893042 0.3482616942848048 0 -0.051818441616049399 0.35735321764765782 0 -0.069616273344600341 0.3650636543096733 0 -0.067541502003893042 0.3482616942848048 0 -0.067541502003893042 0.3482616942848048 0 -0.073191842414501496 0.33174208285196288 0 -0.085709514220790303 0.34113927750747819 0 -0.058679851530075752 0.32054224196392622 0 -0.073191842414501496 0.33174208285196288 0 -0.074915307566508993 0.31649039264194578 0 -0.054647974243728172 0.30430181459310768 0 -0.058679851530075752 0.32054224196392622 0 -0.074915307566508993 0.31649039264194578 0 -0.073191842414501496 0.33174208285196288 0 -0.074915307566508993 0.31649039264194578 0 -0.095182640889289766 0.32867897069078372 0 -0.090928135519314904 0.31087631578889069 0 -0.074915307566508993 0.31649039264194578 0 -0.095182640889289766 0.32867897069078372 0 -0.074915307566508993 0.31649039264194578 0 -0.095182640889289766 0.32867897069078372 0 -0.073191842414501496 0.33174208285196288 0 -0.085709514220790303 0.34113927750747819 0 -0.095182640889289766 0.32867897069078372 0 -0.085709514220790303 0.34113927750747819 0 -0.095182640889289766 0.32867897069078372 0 -0.099722393067727538 0.34687368244968458 0 -0.095182640889289766 0.32867897069078372 0 -0.1154499742120704 0.34086754873962172 0 -0.095182640889289766 0.32867897069078372 0 -0.1098512680755149 0.32470257897991811 0 -0.1154499742120704 0.34086754873962172 0 -0.095182640889289766 0.32867897069078372 0 -0.1154499742120704 0.34086754873962172 0 -0.099722393067727538 0.34687368244968458 0 -0.1061991548417472 0.31213959050036899 0 -0.090928135519314904 0.31087631578889069 0 -0.095182640889289766 0.32867897069078372 0 -0.1061991548417472 0.31213959050036899 0 -0.095182640889289766 0.32867897069078372 0 -0.1098512680755149 0.32470257897991811 0 -0.1061991548417472 0.31213959050036899 0 -0.115330384384618 0.31728312261503783 0 -0.1098512680755149 0.32470257897991811 0 -0.12136448477009221 0.30951812845445109 0 -0.1061991548417472 0.31213959050036899 0 -0.115330384384618 0.31728312261503783 0 -0.115330384384618 0.31728312261503783 0 -0.1098512680755149 0.32470257897991811 0 -0.12142985306419619 0.32461006626398298 0 -0.12722248981549561 0.3181430308760943 0 -0.115330384384618 0.31728312261503783 0 -0.12142985306419619 0.32461006626398298 0 -0.12722248981549561 0.3181430308760943 0 -0.12136448477009221 0.30951812845445109 0 -0.115330384384618 0.31728312261503783 0 -0.1098512680755149 0.32470257897991811 0 -0.12142985306419619 0.32461006626398298 0 -0.1154499742120704 0.34086754873962172 0 -0.13363790056006589 0.32585743918209531 0 -0.12142985306419619 0.32461006626398298 0 -0.1154499742120704 0.34086754873962172 0 -0.12523428666698541 0.37069662222368049 0 -0.1294360936135257 0.3482770307028879 0 -0.1154159689866658 0.35521970897278921 0 -0.1154499742120704 0.34086754873962172 0 -0.1154159689866658 0.35521970897278921 0 -0.099722393067727538 0.34687368244968458 0 -0.1294360936135257 0.3482770307028879 0 -0.1154499742120704 0.34086754873962172 0 -0.1154159689866658 0.35521970897278921 0 -0.12523428666698541 0.37069662222368049 0 -0.1154159689866658 0.35521970897278921 0 -0.11117961403065831 0.36839673047223442 0 -0.12523428666698541 0.37069662222368049 0 -0.11117961403065831 0.36839673047223442 0 -0.1123930043347208 0.38073562172137532 0 -0.11117961403065831 0.36839673047223442 0 -0.1008292236537022 0.36036332390371462 0 -0.09970079949094271 0.37763208900548878 0 -0.1154159689866658 0.35521970897278921 0 -0.11117961403065831 0.36839673047223442 0 -0.1008292236537022 0.36036332390371462 0 -0.085055645225370236 0.37193713089684588 0 -0.1008292236537022 0.36036332390371462 0 -0.09970079949094271 0.37763208900548878 0 -0.084100884505446297 0.3554636863979832 0 -0.1008292236537022 0.36036332390371462 0 -0.099722393067727538 0.34687368244968458 0 -0.1154159689866658 0.35521970897278921 0 -0.1008292236537022 0.36036332390371462 0 -0.099722393067727538 0.34687368244968458 0 -0.1036554482544351 0.39516830989393792 0 -0.1102807352191843 0.41378788895710661 0 -0.09259379641793411 0.40948313349934218 0 -0.1036554482544351 0.39516830989393792 0 -0.09970079949094271 0.37763208900548878 0 -0.1123930043347208 0.38073562172137532 0 -0.1036554482544351 0.39516830989393792 0 -0.09970079949094271 0.37763208900548878 0 -0.084297773186445962 0.39217279846007119 0 -0.11117961403065831 0.36839673047223442 0 -0.09970079949094271 0.37763208900548878 0 -0.1123930043347208 0.38073562172137532 0 -0.12523428666698541 0.37069662222368049 0 -0.1123930043347208 0.38073562172137532 0 -0.12103247972044499 0.39311621374447298 0 -0.1036554482544351 0.39516830989393792 0 -0.1123930043347208 0.38073562172137532 0 -0.12103247972044499 0.39311621374447298 0 -0.12523428666698541 0.37069662222368049 0 -0.12103247972044499 0.39311621374447298 0 -0.1036554482544351 0.39516830989393792 0 -0.12103247972044499 0.39311621374447298 0 -0.1102807352191843 0.41378788895710661 0 -0.12997925716256209 0.39431640422262348 0 -0.1102807352191843 0.41378788895710661 0 -0.12997925716256209 0.39431640422262348 0 -0.12103247972044499 0.39311621374447298 0 -0.1102807352191843 0.41378788895710661 0 -0.12623023605756489 0.41143854881348008 0 -0.1102807352191843 0.41378788895710661 0 -0.1242188050129694 0.42501783294758849 0 -0.12623023605756489 0.41143854881348008 0 -0.12997925716256209 0.39431640422262348 0 -0.1102807352191843 0.41378788895710661 0 -0.1102807352191843 0.41378788895710661 0 -0.1104760497445479 0.43296770510105842 0 -0.1242188050129694 0.42501783294758849 0 -0.1104760497445479 0.43296770510105842 0 -0.1242188050129694 0.42501783294758849 0 -0.1248743097581413 0.44162978393037222 0 -0.1102807352191843 0.41378788895710661 0 -0.090582213275806372 0.43325937369158968 0 -0.1102807352191843 0.41378788895710661 0 -0.1104760497445479 0.43296770510105842 0 -0.090582213275806372 0.43325937369158968 0 -0.1102807352191843 0.41378788895710661 0 -0.09259379641793411 0.40948313349934218 0 -0.090582213275806372 0.43325937369158968 0 -0.09259379641793411 0.40948313349934218 0 -0.090582213275806372 0.43325937369158968 0 -0.074152812153798875 0.41302729649400538 0 -0.090582213275806372 0.43325937369158968 0 -0.066022972602334681 0.42956105407568013 0 -0.074152812153798875 0.41302729649400538 0 -0.066022972602334681 0.42956105407568013 0 -0.074152812153798875 0.41302729649400538 0 -0.049329429094603867 0.41198700835812702 0 -0.074152812153798875 0.41302729649400538 0 -0.063154715464804681 0.39516467689365731 0 -0.084297773186445962 0.39217279846007119 0 -0.09259379641793411 0.40948313349934218 0 -0.074152812153798875 0.41302729649400538 0 -0.084297773186445962 0.39217279846007119 0 -0.1036554482544351 0.39516830989393792 0 -0.09259379641793411 0.40948313349934218 0 -0.084297773186445962 0.39217279846007119 0 -0.085055645225370236 0.37193713089684588 0 -0.09970079949094271 0.37763208900548878 0 -0.084297773186445962 0.39217279846007119 0 -0.085055645225370236 0.37193713089684588 0 -0.084297773186445962 0.39217279846007119 0 -0.071788917171084016 0.3809272333041443 0 -0.063154715464804681 0.39516467689365731 0 -0.084297773186445962 0.39217279846007119 0 -0.071788917171084016 0.3809272333041443 0 -0.063154715464804681 0.39516467689365731 0 -0.071788917171084016 0.3809272333041443 0 -0.056875823715872062 0.37631267096962301 0 -0.04149310004589906 0.37124785083274592 0 -0.056875823715872062 0.37631267096962301 0 -0.04338349465279491 0.38811939282985902 0 -0.063154715464804681 0.39516467689365731 0 -0.056875823715872062 0.37631267096962301 0 -0.04338349465279491 0.38811939282985902 0 -0.063154715464804681 0.39516467689365731 0 -0.04338349465279491 0.38811939282985902 0 -0.049329429094603867 0.41198700835812702 0 -0.04338349465279491 0.38811939282985902 0 -0.024844401122877391 0.39948633252540261 0 -0.049329429094603867 0.41198700835812702 0 -0.024169526760701381 0.37267007813580277 0 -0.04149310004589906 0.37124785083274592 0 -0.04338349465279491 0.38811939282985902 0 -0.024169526760701381 0.37267007813580277 0 -0.04338349465279491 0.38811939282985902 0 -0.024844401122877391 0.39948633252540261 0 -0.024169526760701381 0.37267007813580277 0 -0.024844401122877391 0.39948633252540261 0 -0.0045342830833226501 0.3863935686212247 0 -0.024844401122877391 0.39948633252540261 0 -0.0045342830833226501 0.3863935686212247 0 -0.0038092142255275289 0.41137928311071797 0 -0.0045342830833226501 0.3863935686212247 0 -0.0038092142255275289 0.41137928311071797 0 -0.024169526760701381 0.37267007813580277 0 -0.0045342830833226501 0.3863935686212247 0 -0.0030841453677343121 0.43636499760021141 0 -0.0038092142255275289 0.41137928311071797 0 -0.026324668085478481 0.42779129271708288 0 -0.0030841453677343121 0.43636499760021141 0 -0.0038092142255275289 0.41137928311071797 0 -0.024844401122877391 0.39948633252540261 0 -0.0038092142255275289 0.41137928311071797 0 -0.026324668085478481 0.42779129271708288 0 -0.026324668085478481 0.42779129271708288 0 -0.049329429094603867 0.41198700835812702 0 -0.049413859365407042 0.43472239834070731 0 -0.024844401122877391 0.39948633252540261 0 -0.026324668085478481 0.42779129271708288 0 -0.049329429094603867 0.41198700835812702 0 -0.074152812153798875 0.41302729649400538 0 -0.063154715464804681 0.39516467689365731 0 -0.049329429094603867 0.41198700835812702 0 -0.066022972602334681 0.42956105407568013 0 -0.049329429094603867 0.41198700835812702 0 -0.049413859365407042 0.43472239834070731 0 -0.066022972602334681 0.42956105407568013 0 -0.049413859365407042 0.43472239834070731 0 -0.0708836913324285 0.45273085842607269 0 -0.0393713920190637 0.45112048084748302 0 -0.052402143273794041 0.47435943831340011 0 -0.0708836913324285 0.45273085842607269 0 -0.049413859365407042 0.43472239834070731 0 -0.0393713920190637 0.45112048084748302 0 -0.0708836913324285 0.45273085842607269 0 -0.0393713920190637 0.45112048084748302 0 -0.02876560419008364 0.47203163756026523 0 -0.052402143273794041 0.47435943831340011 0 -0.026324668085478481 0.42779129271708288 0 -0.049413859365407042 0.43472239834070731 0 -0.0393713920190637 0.45112048084748302 0 -0.0030841453677343121 0.43636499760021141 0 -0.026324668085478481 0.42779129271708288 0 -0.01888650882967766 0.45329231687868837 0 -0.026324668085478481 0.42779129271708288 0 -0.0393713920190637 0.45112048084748302 0 -0.01888650882967766 0.45329231687868837 0 -0.0393713920190637 0.45112048084748302 0 -0.01888650882967766 0.45329231687868837 0 -0.02876560419008364 0.47203163756026523 0 -0.01888650882967766 0.45329231687868837 0 -0.01341416680576474 0.47109478045738301 0 -0.02876560419008364 0.47203163756026523 0 -0.01888650882967766 0.45329231687868837 0 -0.002359076509941094 0.46135071208970457 0 -0.01341416680576474 0.47109478045738301 0 -0.0030841453677343121 0.43636499760021141 0 -0.01888650882967766 0.45329231687868837 0 -0.002359076509941094 0.46135071208970457 0 -0.0030841453677343121 0.43636499760021141 0 -0.002359076509941094 0.46135071208970457 0 -0.0090346539348886701 0.5 0 -0.0016340076521478781 0.48633642657919801 0 -0.017460482120078509 0.48648722646036041 0 -0.0016340076521478781 0.48633642657919801 0 -0.01341416680576474 0.47109478045738301 0 -0.017460482120078509 0.48648722646036041 0 -0.002359076509941094 0.46135071208970457 0 -0.0016340076521478781 0.48633642657919801 0 -0.01341416680576474 0.47109478045738301 0 -0.002359076509941094 0.46135071208970457 0 -0.0016340076521478781 0.48633642657919801 0 -0.002359076509941094 0.46135071208970457 0 -0.0016340076521478781 0.48633642657919801 0 0.0036787250480955699 0.47408322248379448 0 -0.01341416680576474 0.47109478045738301 0 -0.02876560419008364 0.47203163756026523 0 -0.017460482120078509 0.48648722646036041 0 -0.02876560419008364 0.47203163756026523 0 -0.017460482120078509 0.48648722646036041 0 -0.038135422162237087 0.5 0 -0.0090346539348886701 0.5 0 -0.017460482120078509 0.48648722646036041 0 -0.038135422162237087 0.5 0 -0.02876560419008364 0.47203163756026523 0 -0.038135422162237087 0.5 0 -0.052402143273794041 0.47435943831340011 0 -0.038135422162237087 0.5 0 -0.052402143273794041 0.47435943831340011 0 -0.067236190389585393 0.5 0 -0.052402143273794041 0.47435943831340011 0 -0.067236190389585393 0.5 0 -0.073349005429332273 0.47921852398434828 0 -0.067236190389585393 0.5 0 -0.073349005429332273 0.47921852398434828 0 -0.096336958616933588 0.5 0 -0.073349005429332273 0.47921852398434828 0 -0.096336958616933588 0.5 0 -0.093805091172543903 0.47224368257650851 0 -0.052402143273794041 0.47435943831340011 0 -0.073349005429332273 0.47921852398434828 0 -0.0708836913324285 0.45273085842607269 0 -0.0708836913324285 0.45273085842607269 0 -0.1043361340672995 0.45358667135048331 0 -0.093805091172543903 0.47224368257650851 0 -0.090582213275806372 0.43325937369158968 0 -0.0708836913324285 0.45273085842607269 0 -0.1043361340672995 0.45358667135048331 0 -0.090582213275806372 0.43325937369158968 0 -0.066022972602334681 0.42956105407568013 0 -0.0708836913324285 0.45273085842607269 0 -0.090582213275806372 0.43325937369158968 0 -0.0708836913324285 0.45273085842607269 0 -0.073349005429332273 0.47921852398434828 0 -0.0708836913324285 0.45273085842607269 0 -0.093805091172543903 0.47224368257650851 0 -0.1043361340672995 0.45358667135048331 0 -0.12052644250191399 0.4682622397032008 0 -0.093805091172543903 0.47224368257650851 0 -0.1104760497445479 0.43296770510105842 0 -0.090582213275806372 0.43325937369158968 0 -0.1043361340672995 0.45358667135048331 0 -0.12618187852634369 0.45882241462805679 0 -0.1043361340672995 0.45358667135048331 0 -0.1248743097581413 0.44162978393037222 0 -0.1104760497445479 0.43296770510105842 0 -0.1043361340672995 0.45358667135048331 0 -0.1248743097581413 0.44162978393037222 0 -0.12618187852634369 0.45882241462805679 0 -0.1043361340672995 0.45358667135048331 0 -0.12052644250191399 0.4682622397032008 0 -0.1317912103042716 0.47600940211286807 0 -0.12052644250191399 0.4682622397032008 0 -0.11642361318749669 0.48420448820259387 0 -0.12052644250191399 0.4682622397032008 0 -0.11642361318749669 0.48420448820259387 0 -0.093805091172543903 0.47224368257650851 0 -0.12543772684428189 0.5 0 -0.11642361318749669 0.48420448820259387 0 -0.096336958616933588 0.5 0 -0.12543772684428189 0.5 0 -0.13178312884530541 0.48627570230508688 0 -0.11642361318749669 0.48420448820259387 0 -0.11642361318749669 0.48420448820259387 0 -0.096336958616933588 0.5 0 -0.093805091172543903 0.47224368257650851 0 -0.1693268494853358 0.079538523923443544 0 -0.16945340910355561 0.089496265134995978 0 -0.1618062267740645 0.07958177760614682 0 -0.16945340910355561 0.089496265134995978 0 -0.1618062267740645 0.07958177760614682 0 -0.1616157516695074 0.095139316102685473 0 -0.1618062267740645 0.07958177760614682 0 -0.1616157516695074 0.095139316102685473 0 -0.14767322655010931 0.084806545451415583 0 -0.1618062267740645 0.07958177760614682 0 -0.16640070467345031 0.07104807823334372 0 -0.15517576509654349 0.068304766057398533 0 -0.16640070467345031 0.07104807823334372 0 -0.15517576509654349 0.068304766057398533 0 -0.16451238623864939 0.061110077383343737 0 -0.16640070467345031 0.07104807823334372 0 -0.17354141001077031 0.063798093567348918 0 -0.16451238623864939 0.061110077383343737 0 -0.17157411485926041 0.074087910936242465 0 -0.16640070467345031 0.07104807823334372 0 -0.17354141001077031 0.063798093567348918 0 -0.1693268494853358 0.079538523923443544 0 -0.17157411485926041 0.074087910936242465 0 -0.16640070467345031 0.07104807823334372 0 -0.1693268494853358 0.079538523923443544 0 -0.1618062267740645 0.07958177760614682 0 -0.16640070467345031 0.07104807823334372 0 -0.17354141001077031 0.063798093567348918 0 -0.17702749526748529 0.081966948020833708 0 -0.17656426821359539 0.052679136019797047 0 -0.18185637422210199 0.067243003367259677 0 -0.17702749526748529 0.081966948020833708 0 -0.17656426821359539 0.052679136019797047 0 -0.17702749526748529 0.081966948020833708 0 -0.17656426821359539 0.052679136019797047 0 -0.17157411485926041 0.074087910936242465 0 -0.17354141001077031 0.063798093567348918 0 -0.17702749526748529 0.081966948020833708 0 -0.18185637422210199 0.067243003367259677 0 -0.1853153676200878 0.058850167416455039 0 -0.18892740292417859 0.064703221589215376 0 -0.18185637422210199 0.067243003367259677 0 -0.19050021368002351 0.072419239531055349 0 -0.18892740292417859 0.064703221589215376 0 -0.18185637422210199 0.067243003367259677 0 -0.18141962227324601 0.075216957450553817 0 -0.17702749526748529 0.081966948020833708 0 -0.18185637422210199 0.067243003367259677 0 -0.18141962227324601 0.075216957450553817 0 -0.19050021368002351 0.072419239531055349 0 -0.18141962227324601 0.075216957450553817 0 -0.1867192510276118 0.077748512173410014 0 -0.19050021368002351 0.072419239531055349 0 -0.18141962227324601 0.075216957450553817 0 -0.1867192510276118 0.077748512173410014 0 -0.1819129998543452 0.079414551687582866 0 -0.18248563084903771 0.082725789105533951 0 -0.17702749526748529 0.081966948020833708 0 -0.17749072232138041 0.1112547600218704 0 -0.1867192510276118 0.077748512173410014 0 -0.18248563084903771 0.082725789105533951 0 -0.1819129998543452 0.079414551687582866 0 -0.18141962227324601 0.075216957450553817 0 -0.1819129998543452 0.079414551687582866 0 -0.17702749526748529 0.081966948020833708 0 -0.18248563084903771 0.082725789105533951 0 -0.1819129998543452 0.079414551687582866 0 -0.17702749526748529 0.081966948020833708 0 -0.1693268494853358 0.079538523923443544 0 -0.16945340910355561 0.089496265134995978 0 -0.17702749526748529 0.081966948020833708 0 -0.1693268494853358 0.079538523923443544 0 -0.17157411485926041 0.074087910936242465 0 -0.17702749526748529 0.081966948020833708 0 -0.17702749526748529 0.081966948020833708 0 -0.17749072232138041 0.1112547600218704 0 -0.16945340910355561 0.089496265134995978 0 -0.17702749526748529 0.081966948020833708 0 -0.17749072232138041 0.1112547600218704 0 -0.17749072232138041 0.1112547600218704 0 -0.1951643137470572 0.093770439387570487 0 -0.18248563084903771 0.082725789105533951 0 -0.17749072232138041 0.1112547600218704 0 -0.1951643137470572 0.093770439387570487 0 -0.17749072232138041 0.1112547600218704 0 -0.19150979458678249 0.1243728737611647 0 -0.17789558253256721 0.1368522929207025 0 -0.17749072232138041 0.1112547600218704 0 -0.17789558253256721 0.1368522929207025 0 -0.17749072232138041 0.1112547600218704 0 -0.16113979031376621 0.12743058591966341 0 -0.17749072232138041 0.1112547600218704 0 -0.15084139672814201 0.110160429760413 0 -0.16113979031376621 0.12743058591966341 0 -0.17749072232138041 0.1112547600218704 0 -0.1616157516695074 0.095139316102685473 0 -0.15084139672814201 0.110160429760413 0 -0.16945340910355561 0.089496265134995978 0 -0.17749072232138041 0.1112547600218704 0 -0.1616157516695074 0.095139316102685473 0 -0.1616157516695074 0.095139316102685473 0 -0.15084139672814201 0.110160429760413 0 -0.14767322655010931 0.084806545451415583 0 -0.15084139672814201 0.110160429760413 0 -0.1348328660863515 0.097215266237156234 0 -0.14767322655010931 0.084806545451415583 0 -0.15084139672814201 0.110160429760413 0 -0.13137241316615089 0.11357835761918721 0 -0.14300315410871919 0.1253406317882016 0 -0.15084139672814201 0.110160429760413 0 -0.16113979031376621 0.12743058591966341 0 -0.14300315410871919 0.1253406317882016 0 -0.13137241316615089 0.11357835761918721 0 -0.14300315410871919 0.1253406317882016 0 -0.12687331202938101 0.13192737382428379 0 -0.13137241316615089 0.11357835761918721 0 -0.1348328660863515 0.097215266237156234 0 -0.1198812247159142 0.095002477965890675 0 -0.15084139672814201 0.110160429760413 0 -0.13137241316615089 0.11357835761918721 0 -0.1348328660863515 0.097215266237156234 0 -0.1348328660863515 0.097215266237156234 0 -0.12533951967512769 0.078274991835817334 0 -0.1198812247159142 0.095002477965890675 0 -0.1348328660863515 0.097215266237156234 0 -0.12533951967512769 0.078274991835817334 0 -0.14767322655010931 0.084806545451415583 0 -0.1618062267740645 0.07958177760614682 0 -0.14767322655010931 0.084806545451415583 0 -0.15517576509654349 0.068304766057398533 0 -0.14767322655010931 0.084806545451415583 0 -0.15517576509654349 0.068304766057398533 0 -0.14001017723872511 0.063978020277280875 0 -0.12533951967512769 0.078274991835817334 0 -0.14767322655010931 0.084806545451415583 0 -0.14001017723872511 0.063978020277280875 0 -0.12533951967512769 0.078274991835817334 0 -0.14001017723872511 0.063978020277280875 0 -0.1248745965026067 0.059896082918310993 0 -0.14001017723872511 0.063978020277280875 0 -0.13626681081840961 0.042829268155062397 0 -0.1248745965026067 0.059896082918310993 0 -0.13626681081840961 0.042829268155062397 0 -0.1339340902388827 0.022300844741854581 0 -0.1180188049733784 0.030804183747700629 0 -0.13626681081840961 0.042829268155062397 0 -0.1339340902388827 0.022300844741854581 0 -0.15968783393996419 0.037567277286728401 0 -0.13626681081840961 0.042829268155062397 0 -0.15351002702878311 0.053877414325468623 0 -0.15968783393996419 0.037567277286728401 0 -0.13626681081840961 0.042829268155062397 0 -0.15968783393996419 0.037567277286728401 0 -0.14001017723872511 0.063978020277280875 0 -0.13626681081840961 0.042829268155062397 0 -0.15351002702878311 0.053877414325468623 0 -0.15517576509654349 0.068304766057398533 0 -0.14001017723872511 0.063978020277280875 0 -0.15351002702878311 0.053877414325468623 0 -0.12735709500343681 0.004015926865657337 0 -0.15177498865293759 0.016606981474429749 0 -0.12735709500343681 0.004015926865657337 0 -0.1339340902388827 0.022300844741854581 0 -0.15177498865293759 0.016606981474429749 0 -0.12735709500343681 0.004015926865657337 0 -0.1339340902388827 0.022300844741854581 0 -0.11835839359799651 0.016938700943610479 0 -0.1339340902388827 0.022300844741854581 0 -0.15177498865293759 0.016606981474429749 0 -0.15968783393996419 0.037567277286728401 0 -0.1339340902388827 0.022300844741854581 0 -0.15968783393996419 0.037567277286728401 0 -0.12735709500343681 0.004015926865657337 0 -0.15177498865293759 0.016606981474429749 0 -0.14801408494475049 0.0031182785745780331 0 -0.15177498865293759 0.016606981474429749 0 -0.14801408494475049 0.0031182785745780331 0 -0.1619193683370386 0.0066468078375689294 0 -0.15773416148281841 -0.0035868741371463562 0 -0.14801408494475049 0.0031182785745780331 0 -0.1619193683370386 0.0066468078375689294 0 -0.15177498865293759 0.016606981474429749 0 -0.1619193683370386 0.0066468078375689294 0 -0.16760309597538539 0.015861310899326669 0 -0.16716832075785379 -0.0032078365625175 0 -0.1619193683370386 0.0066468078375689294 0 -0.17584419881677341 0.0071523107965592754 0 -0.1619193683370386 0.0066468078375689294 0 -0.16760309597538539 0.015861310899326669 0 -0.17584419881677341 0.0071523107965592754 0 -0.15177498865293759 0.016606981474429749 0 -0.17619288230243149 0.029198036083215671 0 -0.15177498865293759 0.016606981474429749 0 -0.17619288230243149 0.029198036083215671 0 -0.15968783393996419 0.037567277286728401 0 -0.15177498865293759 0.016606981474429749 0 -0.16760309597538539 0.015861310899326669 0 -0.17619288230243149 0.029198036083215671 0 -0.17619288230243149 0.029198036083215671 0 -0.1852069371874478 0.015311100034367831 0 -0.17584419881677341 0.0071523107965592754 0 -0.17619288230243149 0.029198036083215671 0 -0.17584419881677341 0.0071523107965592754 0 -0.16760309597538539 0.015861310899326669 0 -0.17619288230243149 0.029198036083215671 0 -0.17584419881677341 0.0071523107965592754 0 -0.17619288230243149 0.029198036083215671 0 -0.19572946351785711 0.039272048382664133 0 -0.19029700863621521 0.024089069561314659 0 -0.17619288230243149 0.029198036083215671 0 -0.1852069371874478 0.015311100034367831 0 -0.19029700863621521 0.024089069561314659 0 -0.1852069371874478 0.015311100034367831 0 -0.18717715497560061 0.0062623078557712403 0 -0.17584419881677341 0.0071523107965592754 0 -0.18154179604087481 -0.0036104187285780349 0 -0.18717715497560061 0.0062623078557712403 0 -0.17584419881677341 0.0071523107965592754 0 -0.15351002702878311 0.053877414325468623 0 -0.1659033968134131 0.050269055427132232 0 -0.15968783393996419 0.037567277286728401 0 -0.1659033968134131 0.050269055427132232 0 -0.16451238623864939 0.061110077383343737 0 -0.17656426821359539 0.052679136019797047 0 -0.17354141001077031 0.063798093567348918 0 -0.16451238623864939 0.061110077383343737 0 -0.17656426821359539 0.052679136019797047 0 -0.16451238623864939 0.061110077383343737 0 -0.17656426821359539 0.052679136019797047 0 -0.15351002702878311 0.053877414325468623 0 -0.1659033968134131 0.050269055427132232 0 -0.16451238623864939 0.061110077383343737 0 -0.15517576509654349 0.068304766057398533 0 -0.15351002702878311 0.053877414325468623 0 -0.16451238623864939 0.061110077383343737 0 -0.15968783393996419 0.037567277286728401 0 -0.1762663423330757 0.033842591165095401 0 -0.1659033968134131 0.050269055427132232 0 -0.15968783393996419 0.037567277286728401 0 -0.1764827173319595 0.047523031967639129 0 -0.17619288230243149 0.029198036083215671 0 -0.15968783393996419 0.037567277286728401 0 -0.1762663423330757 0.033842591165095401 0 -0.15968783393996419 0.037567277286728401 0 -0.1764827173319595 0.047523031967639129 0 -0.15968783393996419 0.037567277286728401 0 -0.1762663423330757 0.033842591165095401 0 -0.1764827173319595 0.047523031967639129 0 -0.17619288230243149 0.029198036083215671 0 -0.19572946351785711 0.039272048382664133 0 -0.181281627628781 0.040827380692469641 0 -0.18051660755046151 0.049914261515807259 0 -0.1764827173319595 0.047523031967639129 0 -0.17619288230243149 0.029198036083215671 0 -0.1762663423330757 0.033842591165095401 0 -0.19572946351785711 0.039272048382664133 0 -0.1762663423330757 0.033842591165095401 0 -0.181281627628781 0.040827380692469641 0 -0.19572946351785711 0.039272048382664133 0 -0.1762663423330757 0.033842591165095401 0 -0.181281627628781 0.040827380692469641 0 -0.1764827173319595 0.047523031967639129 0 -0.1762663423330757 0.033842591165095401 0 -0.1764827173319595 0.047523031967639129 0 -0.17619288230243149 0.029198036083215671 0 -0.1762663423330757 0.033842591165095401 0 -0.181281627628781 0.040827380692469641 0 -0.18051660755046151 0.049914261515807259 0 -0.19572946351785711 0.039272048382664133 0 -0.18051660755046151 0.049914261515807259 0 -0.17656426821359539 0.052679136019797047 0 -0.1853153676200878 0.058850167416455039 0 -0.18051660755046151 0.049914261515807259 0 -0.1764827173319595 0.047523031967639129 0 -0.1764827173319595 0.047523031967639129 0 -0.17656426821359539 0.052679136019797047 0 -0.1659033968134131 0.050269055427132232 0 -0.1764827173319595 0.047523031967639129 0 -0.17656426821359539 0.052679136019797047 0 -0.18051660755046151 0.049914261515807259 0 -0.1764827173319595 0.047523031967639129 0 -0.17656426821359539 0.052679136019797047 0 -0.18051660755046151 0.049914261515807259 0 -0.17656426821359539 0.052679136019797047 0 -0.18185637422210199 0.067243003367259677 0 -0.17656426821359539 0.052679136019797047 0 -0.1853153676200878 0.058850167416455039 0 -0.1853153676200878 0.058850167416455039 0 -0.19803765617450109 0.060300476042091433 0 -0.18892740292417859 0.064703221589215376 0 -0.18051660755046151 0.049914261515807259 0 -0.19803765617450109 0.060300476042091433 0 -0.1977866825790292 0.05007637869738242 0 -0.18051660755046151 0.049914261515807259 0 -0.1853153676200878 0.058850167416455039 0 -0.19803765617450109 0.060300476042091433 0 -0.18051660755046151 0.049914261515807259 0 -0.19803765617450109 0.060300476042091433 0 -0.19803765617450109 0.060300476042091433 0 -0.1977866825790292 0.05007637869738242 0 -0.2066297839190599 0.054855205218219752 0 -0.18051660755046151 0.049914261515807259 0 -0.1977866825790292 0.05007637869738242 0 -0.19572946351785711 0.039272048382664133 0 -0.18051660755046151 0.049914261515807259 0 -0.19572946351785711 0.039272048382664133 0 -0.19572946351785711 0.039272048382664133 0 -0.2098237389609823 0.029412342647955388 0 -0.1977866825790292 0.05007637869738242 0 -0.19572946351785711 0.039272048382664133 0 -0.2073344650466164 0.045256152092875389 0 -0.19572946351785711 0.039272048382664133 0 -0.2073344650466164 0.045256152092875389 0 -0.2073344650466164 0.045256152092875389 0 -0.21702036639386221 0.038769314305699548 0 -0.2098237389609823 0.029412342647955388 0 -0.19572946351785711 0.039272048382664133 0 -0.2073344650466164 0.045256152092875389 0 -0.2098237389609823 0.029412342647955388 0 -0.21702036639386221 0.038769314305699548 0 -0.2098237389609823 0.029412342647955388 0 -0.2284051488343061 0.035137669629428533 0 -0.2073344650466164 0.045256152092875389 0 -0.21702036639386221 0.038769314305699548 0 -0.22251811273354419 0.045271092852538893 0 -0.2073344650466164 0.045256152092875389 0 -0.21769334509658461 0.055951218203848879 0 -0.22251811273354419 0.045271092852538893 0 -0.21769334509658461 0.055951218203848879 0 -0.20947987249717179 0.060448397508133619 0 -0.2066297839190599 0.054855205218219752 0 -0.21769334509658461 0.055951218203848879 0 -0.20947987249717179 0.060448397508133619 0 -0.2155587047985415 0.070686690568374386 0 -0.19803765617450109 0.060300476042091433 0 -0.20947987249717179 0.060448397508133619 0 -0.2066297839190599 0.054855205218219752 0 -0.1977866825790292 0.05007637869738242 0 -0.2073344650466164 0.045256152092875389 0 -0.2066297839190599 0.054855205218219752 0 -0.2073344650466164 0.045256152092875389 0 -0.21769334509658461 0.055951218203848879 0 -0.2066297839190599 0.054855205218219752 0 -0.1989264366345522 -0.0080023544535597537 0 -0.1965234412062255 0.0098537758749781944 0 -0.20713549204565579 6.5395444916274768e-05 0 -0.19066530249761049 -0.0041303576494283751 0 -0.18717715497560061 0.0062623078557712403 0 -0.1965234412062255 0.0098537758749781944 0 -0.1852069371874478 0.015311100034367831 0 -0.18717715497560061 0.0062623078557712403 0 -0.1965234412062255 0.0098537758749781944 0 -0.1965234412062255 0.0098537758749781944 0 -0.20113962024173071 0.02227838771243261 0 -0.2107847094499361 0.011405203725301251 0 -0.19572946351785711 0.039272048382664133 0 -0.20113962024173071 0.02227838771243261 0 -0.2098237389609823 0.029412342647955388 0 -0.19572946351785711 0.039272048382664133 0 -0.20113962024173071 0.02227838771243261 0 -0.19029700863621521 0.024089069561314659 0 -0.1965234412062255 0.0098537758749781944 0 -0.20113962024173071 0.02227838771243261 0 -0.19029700863621521 0.024089069561314659 0 -0.1852069371874478 0.015311100034367831 0 -0.1965234412062255 0.0098537758749781944 0 -0.19029700863621521 0.024089069561314659 0 -0.2098237389609823 0.029412342647955388 0 -0.2107847094499361 0.011405203725301251 0 -0.22391801440410891 0.019552636913248388 0 -0.20113962024173071 0.02227838771243261 0 -0.2098237389609823 0.029412342647955388 0 -0.2107847094499361 0.011405203725301251 0 -0.2098237389609823 0.029412342647955388 0 -0.22391801440410891 0.019552636913248388 0 -0.21702438745170211 -0.0043907958627755336 0 -0.2107847094499361 0.011405203725301251 0 -0.20713549204565579 6.5395444916274768e-05 0 -0.21702438745170211 -0.0043907958627755336 0 -0.2107847094499361 0.011405203725301251 0 -0.22391801440410891 0.019552636913248388 0 -0.1965234412062255 0.0098537758749781944 0 -0.2107847094499361 0.011405203725301251 0 -0.20713549204565579 6.5395444916274768e-05 0 -0.22867745033346079 0.0038692188645070222 0 -0.22391801440410891 0.019552636913248388 0 -0.2344599051246074 0.012178015861532989 0 -0.21702438745170211 -0.0043907958627755336 0 -0.22391801440410891 0.019552636913248388 0 -0.21702438745170211 -0.0043907958627755336 0 -0.22867745033346079 0.0038692188645070222 0 -0.22391801440410891 0.019552636913248388 0 -0.22391801440410891 0.019552636913248388 0 -0.2403792472176362 0.02548084658656756 0 -0.2344599051246074 0.012178015861532989 0 -0.2098237389609823 0.029412342647955388 0 -0.22391801440410891 0.019552636913248388 0 -0.2284051488343061 0.035137669629428533 0 -0.22391801440410891 0.019552636913248388 0 -0.2403792472176362 0.02548084658656756 0 -0.2284051488343061 0.035137669629428533 0 -0.22391801440410891 0.019552636913248388 0 -0.2344599051246074 0.012178015861532989 0 -0.22391801440410891 0.019552636913248388 0 -0.2284051488343061 0.035137669629428533 0 -0.2522816967992324 0.037264740289820159 0 -0.25157722050270093 0.012682655753942951 0 -0.2403792472176362 0.02548084658656756 0 -0.25157722050270093 0.012682655753942951 0 -0.2403792472176362 0.02548084658656756 0 -0.2344599051246074 0.012178015861532989 0 -0.25267499080189931 -0.0034516002120552492 0 -0.25157722050270093 0.012682655753942951 0 -0.2401015516947359 0.00075261550232862703 0 -0.25157722050270093 0.012682655753942951 0 -0.2344599051246074 0.012178015861532989 0 -0.2401015516947359 0.00075261550232862703 0 -0.22867745033346079 0.0038692188645070222 0 -0.2344599051246074 0.012178015861532989 0 -0.2401015516947359 0.00075261550232862703 0 -0.21769334509658461 0.055951218203848879 0 -0.23255980098598539 0.056775429521547523 0 -0.2155587047985415 0.070686690568374386 0 -0.23289228326450309 0.050722702345608793 0 -0.22641588552015429 0.052180110730886013 0 -0.22251811273354419 0.045271092852538893 0 -0.23289228326450309 0.050722702345608793 0 -0.23255980098598539 0.056775429521547523 0 -0.22641588552015429 0.052180110730886013 0 -0.21769334509658461 0.055951218203848879 0 -0.23255980098598539 0.056775429521547523 0 -0.22641588552015429 0.052180110730886013 0 -0.21769334509658461 0.055951218203848879 0 -0.22641588552015429 0.052180110730886013 0 -0.22251811273354419 0.045271092852538893 0 -0.21702036639386221 0.038769314305699548 0 -0.22251811273354419 0.045271092852538893 0 -0.2284051488343061 0.035137669629428533 0 -0.23289228326450309 0.050722702345608793 0 -0.22251811273354419 0.045271092852538893 0 -0.2284051488343061 0.035137669629428533 0 -0.23289228326450309 0.050722702345608793 0 -0.2284051488343061 0.035137669629428533 0 -0.2522816967992324 0.037264740289820159 0 -0.2403792472176362 0.02548084658656756 0 -0.2284051488343061 0.035137669629428533 0 -0.2522816967992324 0.037264740289820159 0 -0.23289228326450309 0.050722702345608793 0 -0.2284051488343061 0.035137669629428533 0 -0.2522816967992324 0.037264740289820159 0 -0.23289228326450309 0.050722702345608793 0 -0.23255980098598539 0.056775429521547523 0 -0.2522816967992324 0.037264740289820159 0 -0.23255980098598539 0.056775429521547523 0 -0.2522816967992324 0.037264740289820159 0 -0.23255980098598539 0.056775429521547523 0 -0.24906194248509719 0.058488871325365822 0 -0.23255980098598539 0.056775429521547523 0 -0.24906194248509719 0.058488871325365822 0 -0.23770452364983391 0.071010308971772351 0 -0.26257114212692878 0.06573449919026883 0 -0.24906194248509719 0.058488871325365822 0 -0.23770452364983391 0.071010308971772351 0 -0.25261226255175379 0.080423606239198905 0 -0.23770452364983391 0.071010308971772351 0 -0.23158356521460469 0.085326977986282804 0 -0.25261226255175379 0.080423606239198905 0 -0.23158356521460469 0.085326977986282804 0 -0.24377998071086901 0.096378574065869249 0 -0.23158356521460469 0.085326977986282804 0 -0.21283790517273879 0.076286118753275345 0 -0.22135706029896429 0.097751395037259853 0 -0.23158356521460469 0.085326977986282804 0 -0.22135706029896429 0.097751395037259853 0 -0.24377998071086901 0.096378574065869249 0 -0.23255980098598539 0.056775429521547523 0 -0.21283790517273879 0.076286118753275345 0 -0.23770452364983391 0.071010308971772351 0 -0.23158356521460469 0.085326977986282804 0 -0.21283790517273879 0.076286118753275345 0 -0.23255980098598539 0.056775429521547523 0 -0.23770452364983391 0.071010308971772351 0 -0.21283790517273879 0.076286118753275345 0 -0.23255980098598539 0.056775429521547523 0 -0.21283790517273879 0.076286118753275345 0 -0.2155587047985415 0.070686690568374386 0 -0.23770452364983391 0.071010308971772351 0 -0.21283790517273879 0.076286118753275345 0 -0.19803765617450109 0.060300476042091433 0 -0.20947987249717179 0.060448397508133619 0 -0.2155587047985415 0.070686690568374386 0 -0.19803765617450109 0.060300476042091433 0 -0.20333782300263301 0.070680183335342567 0 -0.2155587047985415 0.070686690568374386 0 -0.19803765617450109 0.060300476042091433 0 -0.2155587047985415 0.070686690568374386 0 -0.21283790517273879 0.076286118753275345 0 -0.19766176801088831 0.079505953929404904 0 -0.20333782300263301 0.070680183335342567 0 -0.21283790517273879 0.076286118753275345 0 -0.19766176801088831 0.079505953929404904 0 -0.20333782300263301 0.070680183335342567 0 -0.21283790517273879 0.076286118753275345 0 -0.2155587047985415 0.070686690568374386 0 -0.21283790517273879 0.076286118753275345 0 -0.1951643137470572 0.093770439387570487 0 -0.22135706029896429 0.097751395037259853 0 -0.21283790517273879 0.076286118753275345 0 -0.1951643137470572 0.093770439387570487 0 -0.21283790517273879 0.076286118753275345 0 -0.19766176801088831 0.079505953929404904 0 -0.1951643137470572 0.093770439387570487 0 -0.18248563084903771 0.082725789105533951 0 -0.19766176801088831 0.079505953929404904 0 -0.1951643137470572 0.093770439387570487 0 -0.1867192510276118 0.077748512173410014 0 -0.18248563084903771 0.082725789105533951 0 -0.19766176801088831 0.079505953929404904 0 -0.18248563084903771 0.082725789105533951 0 -0.19766176801088831 0.079505953929404904 0 -0.1867192510276118 0.077748512173410014 0 -0.19766176801088831 0.079505953929404904 0 -0.19050021368002351 0.072419239531055349 0 -0.19803765617450109 0.060300476042091433 0 -0.19050021368002351 0.072419239531055349 0 -0.18892740292417859 0.064703221589215376 0 -0.19803765617450109 0.060300476042091433 0 -0.20333782300263301 0.070680183335342567 0 -0.19050021368002351 0.072419239531055349 0 -0.20333782300263301 0.070680183335342567 0 -0.19766176801088831 0.079505953929404904 0 -0.19050021368002351 0.072419239531055349 0 -0.17749072232138041 0.1112547600218704 0 -0.19150979458678249 0.1243728737611647 0 -0.1951643137470572 0.093770439387570487 0 -0.19150979458678249 0.1243728737611647 0 -0.1951643137470572 0.093770439387570487 0 -0.20994497012605751 0.11823125198409511 0 -0.1951643137470572 0.093770439387570487 0 -0.20994497012605751 0.11823125198409511 0 -0.22135706029896429 0.097751395037259853 0 -0.20994497012605751 0.11823125198409511 0 -0.2348316268224595 0.11651500804646669 0 -0.2235388627286797 0.12965651036182041 0 -0.20994497012605751 0.11823125198409511 0 -0.22135706029896429 0.097751395037259853 0 -0.2348316268224595 0.11651500804646669 0 -0.22135706029896429 0.097751395037259853 0 -0.24377998071086901 0.096378574065869249 0 -0.2348316268224595 0.11651500804646669 0 -0.25136603029008331 0.1103208693098497 0 -0.24377998071086901 0.096378574065869249 0 -0.2348316268224595 0.11651500804646669 0 -0.25922316449870308 0.12628093809151891 0 -0.25136603029008331 0.1103208693098497 0 -0.2348316268224595 0.11651500804646669 0 -0.25922316449870308 0.12628093809151891 0 -0.2348316268224595 0.11651500804646669 0 -0.2369615480924761 0.1404602413506009 0 -0.2369615480924761 0.1404602413506009 0 -0.2235388627286797 0.12965651036182041 0 -0.2124173058737257 0.14341954006611901 0 -0.2348316268224595 0.11651500804646669 0 -0.2369615480924761 0.1404602413506009 0 -0.2235388627286797 0.12965651036182041 0 -0.2369615480924761 0.1404602413506009 0 -0.22679867445049531 0.16064067306310431 0 -0.2124173058737257 0.14341954006611901 0 -0.2369615480924761 0.1404602413506009 0 -0.247018622616726 0.15992587597476091 0 -0.22679867445049531 0.16064067306310431 0 -0.25846103874104392 0.14702121199507179 0 -0.2369615480924761 0.1404602413506009 0 -0.247018622616726 0.15992587597476091 0 -0.247018622616726 0.15992587597476091 0 -0.23359887481107691 0.1809086922627815 0 -0.247018622616726 0.15992587597476091 0 -0.23359887481107691 0.1809086922627815 0 -0.22679867445049531 0.16064067306310431 0 -0.26439180367967152 0.18225540552070321 0 -0.247018622616726 0.15992587597476091 0 -0.23359887481107691 0.1809086922627815 0 -0.23359887481107691 0.1809086922627815 0 -0.20517995294037331 0.17379218369948349 0 -0.2201791270054278 0.2018915085508021 0 -0.23359887481107691 0.1809086922627815 0 -0.22679867445049531 0.16064067306310431 0 -0.20517995294037331 0.17379218369948349 0 -0.22679867445049531 0.16064067306310431 0 -0.20517995294037331 0.17379218369948349 0 -0.2124173058737257 0.14341954006611901 0 -0.20517995294037331 0.17379218369948349 0 -0.19274338499996449 0.14807478539393409 0 -0.17830044274374979 0.16244982581953471 0 -0.19150979458678249 0.1243728737611647 0 -0.19274338499996449 0.14807478539393409 0 -0.2124173058737257 0.14341954006611901 0 -0.20994497012605751 0.11823125198409511 0 -0.2235388627286797 0.12965651036182041 0 -0.2124173058737257 0.14341954006611901 0 -0.19150979458678249 0.1243728737611647 0 -0.20994497012605751 0.11823125198409511 0 -0.2124173058737257 0.14341954006611901 0 -0.20517995294037331 0.17379218369948349 0 -0.19274338499996449 0.14807478539393409 0 -0.2124173058737257 0.14341954006611901 0 -0.22371849106378741 0.2462845034026982 0 -0.23019370483249479 0.22382880503591951 0 -0.2066863838603582 0.24242880758937649 0 -0.22371849106378741 0.2462845034026982 0 -0.23951274761537589 0.2474853768326048 0 -0.23019370483249479 0.22382880503591951 0 -0.25272375818517617 0.22994970808158929 0 -0.25621817608628389 0.2460965770837312 0 -0.23951274761537589 0.2474853768326048 0 -0.25370102580463139 0.2052288024824625 0 -0.25272375818517617 0.22994970808158929 0 -0.23019370483249479 0.22382880503591951 0 -0.25272375818517617 0.22994970808158929 0 -0.23951274761537589 0.2474853768326048 0 -0.23019370483249479 0.22382880503591951 0 -0.25370102580463139 0.2052288024824625 0 -0.23359887481107691 0.1809086922627815 0 -0.2201791270054278 0.2018915085508021 0 -0.25370102580463139 0.2052288024824625 0 -0.23019370483249479 0.22382880503591951 0 -0.2201791270054278 0.2018915085508021 0 -0.23019370483249479 0.22382880503591951 0 -0.2201791270054278 0.2018915085508021 0 -0.20675937919977869 0.22287432483882261 0 -0.25370102580463139 0.2052288024824625 0 -0.23019370483249479 0.22382880503591951 0 -0.23359887481107691 0.1809086922627815 0 -0.2201791270054278 0.2018915085508021 0 -0.20517995294037331 0.17379218369948349 0 -0.2201791270054278 0.2018915085508021 0 -0.19686056424972551 0.20437535499954981 0 -0.20517995294037331 0.17379218369948349 0 -0.19686056424972551 0.20437535499954981 0 -0.17870530295493239 0.18804735871836689 0 -0.19686056424972551 0.20437535499954981 0 -0.20675937919977869 0.22287432483882261 0 -0.19122946023172571 0.22600186257262461 0 -0.19686056424972551 0.20437535499954981 0 -0.19122946023172571 0.22600186257262461 0 -0.179110163166115 0.21364489161719899 0 -0.2201791270054278 0.2018915085508021 0 -0.19686056424972551 0.20437535499954981 0 -0.20675937919977869 0.22287432483882261 0 -0.2201791270054278 0.2018915085508021 0 -0.20675937919977869 0.22287432483882261 0 -0.23019370483249479 0.22382880503591951 0 -0.2066863838603582 0.24242880758937649 0 -0.23019370483249479 0.22382880503591951 0 -0.20675937919977869 0.22287432483882261 0 -0.2066863838603582 0.24242880758937649 0 -0.20675937919977869 0.22287432483882261 0 -0.19333963139412971 0.24385714112684301 0 -0.20675937919977869 0.22287432483882261 0 -0.19122946023172571 0.22600186257262461 0 -0.19333963139412971 0.24385714112684301 0 -0.19122946023172571 0.22600186257262461 0 -0.19333963139412971 0.24385714112684301 0 -0.17951502337729761 0.2392424245160312 0 -0.20675937919977869 0.22287432483882261 0 -0.19333963139412971 0.24385714112684301 0 -0.2066863838603582 0.24242880758937649 0 -0.18259587964237009 0.2606558300825601 0 -0.19333963139412971 0.24385714112684301 0 -0.2066863838603582 0.24242880758937649 0 -0.21408768962570049 0.25938306782852782 0 -0.22371849106378741 0.2462845034026982 0 -0.2066863838603582 0.24242880758937649 0 -0.1532221513837192 0.25419418888983192 0 -0.17951502337729761 0.2392424245160312 0 -0.15110003921584569 0.22881829817408891 0 -0.18259587964237009 0.2606558300825601 0 -0.19333963139412971 0.24385714112684301 0 -0.17951502337729761 0.2392424245160312 0 -0.17951502337729761 0.2392424245160312 0 -0.1619547442009632 0.2162214427956837 0 -0.179110163166115 0.21364489161719899 0 -0.19122946023172571 0.22600186257262461 0 -0.17951502337729761 0.2392424245160312 0 -0.179110163166115 0.21364489161719899 0 -0.17951502337729761 0.2392424245160312 0 -0.179110163166115 0.21364489161719899 0 -0.17951502337729761 0.2392424245160312 0 -0.1619547442009632 0.2162214427956837 0 -0.15110003921584569 0.22881829817408891 0 -0.1619547442009632 0.2162214427956837 0 -0.179110163166115 0.21364489161719899 0 -0.17870530295493239 0.18804735871836689 0 -0.19686056424972551 0.20437535499954981 0 -0.179110163166115 0.21364489161719899 0 -0.17870530295493239 0.18804735871836689 0 -0.179110163166115 0.21364489161719899 0 -0.17870530295493239 0.18804735871836689 0 -0.1619547442009632 0.2162214427956837 0 -0.17870530295493239 0.18804735871836689 0 -0.15775407484820861 0.18727827749961631 0 -0.14804225966403101 0.20585853828705919 0 -0.15775407484820861 0.18727827749961631 0 -0.13876353146598761 0.18223131465273959 0 -0.1619547442009632 0.2162214427956837 0 -0.14804225966403101 0.20585853828705919 0 -0.15775407484820861 0.18727827749961631 0 -0.13876353146598761 0.18223131465273959 0 -0.1245765098090509 0.17966052017845999 0 -0.1190175871807343 0.20067046473278771 0 -0.14804225966403101 0.20585853828705919 0 -0.13876353146598761 0.18223131465273959 0 -0.1190175871807343 0.20067046473278771 0 -0.14804225966403101 0.20585853828705919 0 -0.13479108425045189 0.2189379304695287 0 -0.1190175871807343 0.20067046473278771 0 -0.13479108425045189 0.2189379304695287 0 -0.12594818007053379 0.2253828658525201 0 -0.1190175871807343 0.20067046473278771 0 -0.1619547442009632 0.2162214427956837 0 -0.14804225966403101 0.20585853828705919 0 -0.15110003921584569 0.22881829817408891 0 -0.14804225966403101 0.20585853828705919 0 -0.15110003921584569 0.22881829817408891 0 -0.13479108425045189 0.2189379304695287 0 -0.15110003921584569 0.22881829817408891 0 -0.13479108425045189 0.2189379304695287 0 -0.1378537507735782 0.22769286600650679 0 -0.15110003921584569 0.22881829817408891 0 -0.1378537507735782 0.22769286600650679 0 -0.13827307027013019 0.2362506378269415 0 -0.13479108425045189 0.2189379304695287 0 -0.12594818007053379 0.2253828658525201 0 -0.1378537507735782 0.22769286600650679 0 -0.12594818007053379 0.2253828658525201 0 -0.1378537507735782 0.22769286600650679 0 -0.13827307027013019 0.2362506378269415 0 -0.12594818007053379 0.2253828658525201 0 -0.13827307027013019 0.2362506378269415 0 -0.1327712538659816 0.24971188635390451 0 -0.12594818007053379 0.2253828658525201 0 -0.1327712538659816 0.24971188635390451 0 -0.1532221513837192 0.25419418888983192 0 -0.15110003921584569 0.22881829817408891 0 -0.13827307027013019 0.2362506378269415 0 -0.1532221513837192 0.25419418888983192 0 -0.13827307027013019 0.2362506378269415 0 -0.1327712538659816 0.24971188635390451 0 -0.16317411874061041 0.14897554401654969 0 -0.16113979031376621 0.12743058591966341 0 -0.1447888583061562 0.1436064118174607 0 -0.16317411874061041 0.14897554401654969 0 -0.16113979031376621 0.12743058591966341 0 -0.17789558253256721 0.1368522929207025 0 -0.17749072232138041 0.1112547600218704 0 -0.16113979031376621 0.12743058591966341 0 -0.17789558253256721 0.1368522929207025 0 -0.19150979458678249 0.1243728737611647 0 -0.19274338499996449 0.14807478539393409 0 -0.17789558253256721 0.1368522929207025 0 -0.16317411874061041 0.14897554401654969 0 -0.17789558253256721 0.1368522929207025 0 -0.17830044274374979 0.16244982581953471 0 -0.17789558253256721 0.1368522929207025 0 -0.17830044274374979 0.16244982581953471 0 -0.19274338499996449 0.14807478539393409 0 -0.17789558253256721 0.1368522929207025 0 -0.17830044274374979 0.16244982581953471 0 -0.20517995294037331 0.17379218369948349 0 -0.17870530295493239 0.18804735871836689 0 -0.17830044274374979 0.16244982581953471 0 -0.17870530295493239 0.18804735871836689 0 -0.17830044274374979 0.16244982581953471 0 -0.17870530295493239 0.18804735871836689 0 -0.17830044274374979 0.16244982581953471 0 -0.15775407484820861 0.18727827749961631 0 -0.17830044274374979 0.16244982581953471 0 -0.15775407484820861 0.18727827749961631 0 -0.15245232938168229 0.1648839185887534 0 -0.16317411874061041 0.14897554401654969 0 -0.17830044274374979 0.16244982581953471 0 -0.15245232938168229 0.1648839185887534 0 -0.15775407484820861 0.18727827749961631 0 -0.15245232938168229 0.1648839185887534 0 -0.13876353146598761 0.18223131465273959 0 -0.13876353146598761 0.18223131465273959 0 -0.12843792629854631 0.15978223771525801 0 -0.1245765098090509 0.17966052017845999 0 -0.15245232938168229 0.1648839185887534 0 -0.13876353146598761 0.18223131465273959 0 -0.12843792629854631 0.15978223771525801 0 -0.12843792629854631 0.15978223771525801 0 -0.1447888583061562 0.1436064118174607 0 -0.12843792629854631 0.15978223771525801 0 -0.1447888583061562 0.1436064118174607 0 -0.1204435081575875 0.14623213693654391 0 -0.16317411874061041 0.14897554401654969 0 -0.15245232938168229 0.1648839185887534 0 -0.1447888583061562 0.1436064118174607 0 -0.15245232938168229 0.1648839185887534 0 -0.12843792629854631 0.15978223771525801 0 -0.1447888583061562 0.1436064118174607 0 -0.16113979031376621 0.12743058591966341 0 -0.1447888583061562 0.1436064118174607 0 -0.14300315410871919 0.1253406317882016 0 -0.16113979031376621 0.12743058591966341 0 -0.1447888583061562 0.1436064118174607 0 -0.1447888583061562 0.1436064118174607 0 -0.12687331202938101 0.13192737382428379 0 -0.1204435081575875 0.14623213693654391 0 -0.1447888583061562 0.1436064118174607 0 -0.14300315410871919 0.1253406317882016 0 -0.12687331202938101 0.13192737382428379 0 -0.12687331202938101 0.13192737382428379 0 -0.1130049083687871 0.13722853083192951 0 -0.10667563132183119 0.1260080396076822 0 -0.12687331202938101 0.13192737382428379 0 -0.1130049083687871 0.13722853083192951 0 -0.1204435081575875 0.14623213693654391 0 -0.10667563132183119 0.1260080396076822 0 -0.081978849477511453 0.1384377215961772 0 -0.096577670607123245 0.1239972751083621 0 -0.10667563132183119 0.1260080396076822 0 -0.1008242758955458 0.1385116675773613 0 -0.081978849477511453 0.1384377215961772 0 -0.10667563132183119 0.1260080396076822 0 -0.081978849477511453 0.1384377215961772 0 -0.1130049083687871 0.13722853083192951 0 -0.10667563132183119 0.1260080396076822 0 -0.1008242758955458 0.1385116675773613 0 -0.1130049083687871 0.13722853083192951 0 -0.1008242758955458 0.1385116675773613 0 -0.1078791741402548 0.14587794917826699 0 -0.094422293866394627 0.1556947047027778 0 -0.094582816169344081 0.14500609667275041 0 -0.1078791741402548 0.14587794917826699 0 -0.1008242758955458 0.1385116675773613 0 -0.094582816169344081 0.14500609667275041 0 -0.1078791741402548 0.14587794917826699 0 -0.12843792629854631 0.15978223771525801 0 -0.1204435081575875 0.14623213693654391 0 -0.1073217141416921 0.15896651377475199 0 -0.1078791741402548 0.14587794917826699 0 -0.1204435081575875 0.14623213693654391 0 -0.1073217141416921 0.15896651377475199 0 -0.1130049083687871 0.13722853083192951 0 -0.1078791741402548 0.14587794917826699 0 -0.1204435081575875 0.14623213693654391 0 -0.12843792629854631 0.15978223771525801 0 -0.1245765098090509 0.17966052017845999 0 -0.1120869942909358 0.17595806361305491 0 -0.1120869942909358 0.17595806361305491 0 -0.1073217141416921 0.15896651377475199 0 -0.12843792629854631 0.15978223771525801 0 -0.1120869942909358 0.17595806361305491 0 -0.12843792629854631 0.15978223771525801 0 -0.1120869942909358 0.17595806361305491 0 -0.1073217141416921 0.15896651377475199 0 -0.1245765098090509 0.17966052017845999 0 -0.1120869942909358 0.17595806361305491 0 -0.1190175871807343 0.20067046473278771 0 -0.1120869942909358 0.17595806361305491 0 -0.1020860412129876 0.1687304780430319 0 -0.095149617161195271 0.19271405424946009 0 -0.1020860412129876 0.1687304780430319 0 -0.095149617161195271 0.19271405424946009 0 -0.1120869942909358 0.17595806361305491 0 -0.095149617161195271 0.19271405424946009 0 -0.1020860412129876 0.1687304780430319 0 -0.093279947424905002 0.17994671451597891 0 -0.095149617161195271 0.19271405424946009 0 -0.1020860412129876 0.1687304780430319 0 -0.089956478385260899 0.16811851343374709 0 -0.093279947424905002 0.17994671451597891 0 -0.094422293866394627 0.1556947047027778 0 -0.1078791741402548 0.14587794917826699 0 -0.1020860412129876 0.1687304780430319 0 -0.1078791741402548 0.14587794917826699 0 -0.1073217141416921 0.15896651377475199 0 -0.1020860412129876 0.1687304780430319 0 -0.1120869942909358 0.17595806361305491 0 -0.1073217141416921 0.15896651377475199 0 -0.1020860412129876 0.1687304780430319 0 -0.1078791741402548 0.14587794917826699 0 -0.1020860412129876 0.1687304780430319 0 -0.094422293866394627 0.1556947047027778 0 -0.1020860412129876 0.1687304780430319 0 -0.089956478385260899 0.16811851343374709 0 -0.094422293866394627 0.1556947047027778 0 -0.089956478385260899 0.16811851343374709 0 -0.084742563178951485 0.15922574422532609 0 -0.089956478385260899 0.16811851343374709 0 -0.080023232193096983 0.1657260639694961 0 -0.084742563178951485 0.15922574422532609 0 -0.089956478385260899 0.16811851343374709 0 -0.080023232193096983 0.1657260639694961 0 -0.081293191825158789 0.17801619480298669 0 -0.080023232193096983 0.1657260639694961 0 -0.084742563178951485 0.15922574422532609 0 -0.074930767296401246 0.15918989644816289 0 -0.081293191825158789 0.17801619480298669 0 -0.095149617161195271 0.19271405424946009 0 -0.073474196407973841 0.19079473501472519 0 -0.081293191825158789 0.17801619480298669 0 -0.095149617161195271 0.19271405424946009 0 -0.093279947424905002 0.17994671451597891 0 -0.081293191825158789 0.17801619480298669 0 -0.095149617161195271 0.19271405424946009 0 -0.089956478385260899 0.16811851343374709 0 -0.093279947424905002 0.17994671451597891 0 -0.081293191825158789 0.17801619480298669 0 -0.064604308801312821 0.18244611143699499 0 -0.069549912031587807 0.17131438064227461 0 -0.073474196407973841 0.19079473501472519 0 -0.081293191825158789 0.17801619480298669 0 -0.069549912031587807 0.17131438064227461 0 -0.073474196407973841 0.19079473501472519 0 -0.069549912031587807 0.17131438064227461 0 -0.073474196407973841 0.19079473501472519 0 -0.064604308801312821 0.18244611143699499 0 -0.069549912031587807 0.17131438064227461 0 -0.062041409668937363 0.1723934095439342 0 -0.084742563178951485 0.15922574422532609 0 -0.074930767296401246 0.15918989644816289 0 -0.074588176879671189 0.15080810715310269 0 -0.080023232193096983 0.1657260639694961 0 -0.074930767296401246 0.15918989644816289 0 -0.06743676648912228 0.16331833535651319 0 -0.081293191825158789 0.17801619480298669 0 -0.069549912031587807 0.17131438064227461 0 -0.06743676648912228 0.16331833535651319 0 -0.080023232193096983 0.1657260639694961 0 -0.081293191825158789 0.17801619480298669 0 -0.06743676648912228 0.16331833535651319 0 -0.081293191825158789 0.17801619480298669 0 -0.06743676648912228 0.16331833535651319 0 -0.069549912031587807 0.17131438064227461 0 -0.062031688412593149 0.16441565219234799 0 -0.062041409668937363 0.1723934095439342 0 -0.069549912031587807 0.17131438064227461 0 -0.06743676648912228 0.16331833535651319 0 -0.062031688412593149 0.16441565219234799 0 -0.06743676648912228 0.16331833535651319 0 -0.06725389334219653 0.15771987894696021 0 -0.062031688412593149 0.16441565219234799 0 -0.074930767296401246 0.15918989644816289 0 -0.06743676648912228 0.16331833535651319 0 -0.06725389334219653 0.15771987894696021 0 -0.081978849477511453 0.1384377215961772 0 -0.05728206763319247 0.1508674035846734 0 -0.06725389334219653 0.15771987894696021 0 -0.074588176879671189 0.15080810715310269 0 -0.05728206763319247 0.1508674035846734 0 -0.074588176879671189 0.15080810715310269 0 -0.081978849477511453 0.1384377215961772 0 -0.05728206763319247 0.1508674035846734 0 -0.081978849477511453 0.1384377215961772 0 -0.06070043620975589 0.134524720015781 0 -0.05728206763319247 0.1508674035846734 0 -0.074930767296401246 0.15918989644816289 0 -0.06725389334219653 0.15771987894696021 0 -0.074588176879671189 0.15080810715310269 0 -0.071786582042575819 0.1280585334591178 0 -0.081978849477511453 0.1384377215961772 0 -0.08034823769671974 0.121089655777625 0 -0.071786582042575819 0.1280585334591178 0 -0.081978849477511453 0.1384377215961772 0 -0.06070043620975589 0.134524720015781 0 -0.071786582042575819 0.1280585334591178 0 -0.06070043620975589 0.134524720015781 0 -0.06411880478631618 0.11818203644688791 0 -0.081978849477511453 0.1384377215961772 0 -0.08034823769671974 0.121089655777625 0 -0.096577670607123245 0.1239972751083621 0 -0.1008242758955458 0.1385116675773613 0 -0.094582816169344081 0.14500609667275041 0 -0.081978849477511453 0.1384377215961772 0 -0.094582816169344081 0.14500609667275041 0 -0.081978849477511453 0.1384377215961772 0 -0.0854808471676783 0.14892295327365951 0 -0.094422293866394627 0.1556947047027778 0 -0.084742563178951485 0.15922574422532609 0 -0.0854808471676783 0.14892295327365951 0 -0.094422293866394627 0.1556947047027778 0 -0.094582816169344081 0.14500609667275041 0 -0.0854808471676783 0.14892295327365951 0 -0.084742563178951485 0.15922574422532609 0 -0.074588176879671189 0.15080810715310269 0 -0.0854808471676783 0.14892295327365951 0 -0.074588176879671189 0.15080810715310269 0 -0.081978849477511453 0.1384377215961772 0 -0.0854808471676783 0.14892295327365951 0 -0.1045487088169635 0.24438495162540061 0 -0.11455994162881621 0.23631135170566109 0 -0.098826177075254387 0.23394696074010041 0 -0.10005120432924321 0.25626016583208688 0 -0.094679029848152713 0.24609146959404629 0 -0.1045487088169635 0.24438495162540061 0 -0.094679029848152713 0.24609146959404629 0 -0.1045487088169635 0.24438495162540061 0 -0.098826177075254387 0.23394696074010041 0 -0.116744543106582 0.25728181003509248 0 -0.1045487088169635 0.24438495162540061 0 -0.11455994162881621 0.23631135170566109 0 -0.116744543106582 0.25728181003509248 0 -0.1327712538659816 0.24971188635390451 0 -0.11455994162881621 0.23631135170566109 0 -0.12594818007053379 0.2253828658525201 0 -0.1327712538659816 0.24971188635390451 0 -0.11455994162881621 0.23631135170566109 0 -0.11455994162881621 0.23631135170566109 0 -0.1144435087069731 0.2232582902708152 0 -0.1063794885369051 0.22193246116811141 0 -0.12594818007053379 0.2253828658525201 0 -0.1144435087069731 0.2232582902708152 0 -0.1108864245916369 0.20940648235696879 0 -0.12594818007053379 0.2253828658525201 0 -0.11455994162881621 0.23631135170566109 0 -0.1144435087069731 0.2232582902708152 0 -0.11455994162881621 0.23631135170566109 0 -0.1063794885369051 0.22193246116811141 0 -0.098826177075254387 0.23394696074010041 0 -0.1063794885369051 0.22193246116811141 0 -0.098826177075254387 0.23394696074010041 0 -0.089950704149474564 0.21660149084549701 0 -0.1063794885369051 0.22193246116811141 0 -0.089950704149474564 0.21660149084549701 0 -0.10053720550511509 0.21148400771379949 0 -0.095149617161195271 0.19271405424946009 0 -0.089950704149474564 0.21660149084549701 0 -0.1063794885369051 0.22193246116811141 0 -0.10053720550511509 0.21148400771379949 0 -0.089950704149474564 0.21660149084549701 0 -0.10053720550511509 0.21148400771379949 0 -0.1108864245916369 0.20940648235696879 0 -0.095149617161195271 0.19271405424946009 0 -0.1063794885369051 0.22193246116811141 0 -0.10053720550511509 0.21148400771379949 0 -0.1108864245916369 0.20940648235696879 0 -0.12594818007053379 0.2253828658525201 0 -0.1190175871807343 0.20067046473278771 0 -0.12594818007053379 0.2253828658525201 0 -0.1108864245916369 0.20940648235696879 0 -0.1190175871807343 0.20067046473278771 0 -0.12594818007053379 0.2253828658525201 0 -0.1108864245916369 0.20940648235696879 0 -0.1144435087069731 0.2232582902708152 0 -0.1063794885369051 0.22193246116811141 0 -0.1108864245916369 0.20940648235696879 0 -0.1120869942909358 0.17595806361305491 0 -0.1190175871807343 0.20067046473278771 0 -0.1108864245916369 0.20940648235696879 0 -0.1190175871807343 0.20067046473278771 0 -0.10682171669235439 0.1942096232944058 0 -0.1120869942909358 0.17595806361305491 0 -0.1190175871807343 0.20067046473278771 0 -0.10682171669235439 0.1942096232944058 0 -0.1108864245916369 0.20940648235696879 0 -0.095149617161195271 0.19271405424946009 0 -0.1108864245916369 0.20940648235696879 0 -0.10682171669235439 0.1942096232944058 0 -0.095149617161195271 0.19271405424946009 0 -0.1120869942909358 0.17595806361305491 0 -0.10682171669235439 0.1942096232944058 0 -0.095149617161195271 0.19271405424946009 0 -0.095149617161195271 0.19271405424946009 0 -0.077398480784349299 0.2102750893871779 0 -0.095149617161195271 0.19271405424946009 0 -0.073474196407973841 0.19079473501472519 0 -0.077398480784349299 0.2102750893871779 0 -0.095149617161195271 0.19271405424946009 0 -0.077398480784349299 0.2102750893871779 0 -0.087241526055590657 0.20514135106535239 0 -0.073474196407973841 0.19079473501472519 0 -0.077398480784349299 0.2102750893871779 0 -0.073474196407973841 0.19079473501472519 0 -0.077398480784349299 0.2102750893871779 0 -0.068984895145132993 0.20348567813270921 0 -0.064604308801312821 0.18244611143699499 0 -0.073474196407973841 0.19079473501472519 0 -0.062951628171730722 0.19451437844324071 0 -0.073474196407973841 0.19079473501472519 0 -0.062951628171730722 0.19451437844324071 0 -0.068984895145132993 0.20348567813270921 0 -0.062951628171730722 0.19451437844324071 0 -0.068984895145132993 0.20348567813270921 0 -0.057478398324341332 0.20606456403591589 0 -0.068984895145132993 0.20348567813270921 0 -0.075683327299925024 0.21197187487555791 0 -0.057478398324341332 0.20606456403591589 0 -0.075683327299925024 0.21197187487555791 0 -0.060700713784132942 0.2267940359372384 0 -0.057478398324341332 0.20606456403591589 0 -0.075683327299925024 0.21197187487555791 0 -0.057478398324341332 0.20606456403591589 0 -0.077398480784349299 0.2102750893871779 0 -0.068984895145132993 0.20348567813270921 0 -0.075683327299925024 0.21197187487555791 0 -0.075683327299925024 0.21197187487555791 0 -0.077884159070199604 0.2126860219832131 0 -0.060700713784132942 0.2267940359372384 0 -0.075683327299925024 0.21197187487555791 0 -0.077884159070199604 0.2126860219832131 0 -0.077398480784349299 0.2102750893871779 0 -0.075683327299925024 0.21197187487555791 0 -0.077884159070199604 0.2126860219832131 0 -0.077398480784349299 0.2102750893871779 0 -0.077884159070199604 0.2126860219832131 0 -0.077398480784349299 0.2102750893871779 0 -0.075683327299925024 0.21197187487555791 0 -0.077884159070199604 0.2126860219832131 0 -0.089950704149474564 0.21660149084549701 0 -0.077884159070199604 0.2126860219832131 0 -0.087241526055590657 0.20514135106535239 0 -0.089950704149474564 0.21660149084549701 0 -0.095149617161195271 0.19271405424946009 0 -0.087241526055590657 0.20514135106535239 0 -0.089950704149474564 0.21660149084549701 0 -0.095149617161195271 0.19271405424946009 0 -0.089950704149474564 0.21660149084549701 0 -0.077398480784349299 0.2102750893871779 0 -0.077884159070199604 0.2126860219832131 0 -0.087241526055590657 0.20514135106535239 0 -0.077884159070199604 0.2126860219832131 0 -0.083666647235009842 0.24139059785004849 0 -0.089950704149474564 0.21660149084549701 0 -0.083666647235009842 0.24139059785004849 0 -0.077884159070199604 0.2126860219832131 0 -0.089950704149474564 0.21660149084549701 0 -0.083666647235009842 0.24139059785004849 0 -0.098826177075254387 0.23394696074010041 0 -0.089950704149474564 0.21660149084549701 0 -0.083666647235009842 0.24139059785004849 0 -0.077884159070199604 0.2126860219832131 0 -0.083666647235009842 0.24139059785004849 0 -0.060700713784132942 0.2267940359372384 0 -0.075683327299925024 0.21197187487555791 0 -0.060700713784132942 0.2267940359372384 0 -0.064077212627390134 0.24851538469076631 0 -0.083666647235009842 0.24139059785004849 0 -0.060700713784132942 0.2267940359372384 0 -0.086302411784292182 0.25447467192259482 0 -0.083666647235009842 0.24139059785004849 0 -0.094679029848152713 0.24609146959404629 0 -0.098826177075254387 0.23394696074010041 0 -0.083666647235009842 0.24139059785004849 0 -0.086302411784292182 0.25447467192259482 0 -0.094679029848152713 0.24609146959404629 0 -0.083666647235009842 0.24139059785004849 0 -0.03068766995985707 0.25286978792993342 0 -0.034335222642673788 0.23481172099035691 0 -0.046578861792199937 0.24361118962503389 0 -0.034335222642673788 0.23481172099035691 0 -0.046578861792199937 0.24361118962503389 0 -0.045510089746351297 0.2289623102588538 0 -0.064077212627390134 0.24851538469076631 0 -0.046578861792199937 0.24361118962503389 0 -0.055802081643016588 0.23164020743468811 0 -0.064077212627390134 0.24851538469076631 0 -0.055802081643016588 0.23164020743468811 0 -0.060700713784132942 0.2267940359372384 0 -0.064077212627390134 0.24851538469076631 0 -0.060700713784132942 0.2267940359372384 0 -0.046578861792199937 0.24361118962503389 0 -0.055802081643016588 0.23164020743468811 0 -0.045510089746351297 0.2289623102588538 0 -0.055802081643016588 0.23164020743468811 0 -0.053252725762674542 0.2222055350902031 0 -0.045510089746351297 0.2289623102588538 0 -0.055802081643016588 0.23164020743468811 0 -0.060700713784132942 0.2267940359372384 0 -0.053252725762674542 0.2222055350902031 0 -0.055802081643016588 0.23164020743468811 0 -0.060700713784132942 0.2267940359372384 0 -0.053252725762674542 0.2222055350902031 0 -0.045510089746351297 0.2289623102588538 0 -0.046772345315528908 0.21756655778431969 0 -0.045510089746351297 0.2289623102588538 0 -0.036443083940353373 0.22210497005765251 0 -0.046772345315528908 0.21756655778431969 0 -0.034335222642673788 0.23481172099035691 0 -0.045510089746351297 0.2289623102588538 0 -0.036443083940353373 0.22210497005765251 0 -0.034335222642673788 0.23481172099035691 0 -0.036443083940353373 0.22210497005765251 0 -0.024866254401544021 0.22078734426404351 0 -0.036443083940353373 0.22210497005765251 0 -0.046772345315528908 0.21756655778431969 0 -0.031637039445344017 0.19767931081015269 0 -0.046772345315528908 0.21756655778431969 0 -0.057478398324341332 0.20606456403591589 0 -0.031637039445344017 0.19767931081015269 0 -0.060700713784132942 0.2267940359372384 0 -0.053252725762674542 0.2222055350902031 0 -0.057478398324341332 0.20606456403591589 0 -0.060700713784132942 0.2267940359372384 0 -0.057478398324341332 0.20606456403591589 0 -0.053252725762674542 0.2222055350902031 0 -0.046772345315528908 0.21756655778431969 0 -0.057478398324341332 0.20606456403591589 0 -0.062951628171730722 0.19451437844324071 0 -0.057478398324341332 0.20606456403591589 0 -0.054948738746262903 0.1897910154656581 0 -0.057478398324341332 0.20606456403591589 0 -0.054948738746262903 0.1897910154656581 0 -0.031637039445344017 0.19767931081015269 0 -0.057478398324341332 0.20606456403591589 0 -0.054948738746262903 0.1897910154656581 0 -0.054948738746262903 0.1897910154656581 0 -0.031637039445344017 0.19767931081015269 0 -0.039999697082172873 0.18418677263352329 0 -0.057478398324341332 0.20606456403591589 0 -0.031637039445344017 0.19767931081015269 0 -0.031637039445344017 0.19767931081015269 0 -0.0057956805663459468 0.1892940575843915 0 -0.031637039445344017 0.19767931081015269 0 -0.0057956805663459468 0.1892940575843915 0 -0.024775833668462071 0.17590936267321361 0 -0.031637039445344017 0.19767931081015269 0 -0.0057956805663459468 0.1892940575843915 0 -0.01019634689217482 0.20814994011246479 0 -0.0057956805663459468 0.1892940575843915 0 -0.01019634689217482 0.20814994011246479 0 0.0090806704795409685 0.20996839310177981 0 -0.01019634689217482 0.20814994011246479 0 0.00014186162909880781 0.2338185852574263 0 0.0090806704795409685 0.20996839310177981 0 -0.036443083940353373 0.22210497005765251 0 -0.031637039445344017 0.19767931081015269 0 -0.024866254401544021 0.22078734426404351 0 -0.031637039445344017 0.19767931081015269 0 -0.01019634689217482 0.20814994011246479 0 -0.024866254401544021 0.22078734426404351 0 -0.034335222642673788 0.23481172099035691 0 -0.024866254401544021 0.22078734426404351 0 -0.01991034591062427 0.239405390953495 0 -0.024866254401544021 0.22078734426404351 0 0.00014186162909880781 0.2338185852574263 0 -0.024866254401544021 0.22078734426404351 0 -0.01991034591062427 0.239405390953495 0 0.00014186162909880781 0.2338185852574263 0 -0.01019634689217482 0.20814994011246479 0 -0.024866254401544021 0.22078734426404351 0 0.00014186162909880781 0.2338185852574263 0 -0.0098044441781452579 0.25473951632571468 0 0.00014186162909880781 0.2338185852574263 0 0.0073806355134042019 0.25529449578482938 0 -0.0098044441781452579 0.25473951632571468 0 -0.01991034591062427 0.239405390953495 0 0.00014186162909880781 0.2338185852574263 0 -0.03068766995985707 0.25286978792993342 0 -0.034335222642673788 0.23481172099035691 0 -0.01991034591062427 0.239405390953495 0 -0.03068766995985707 0.25286978792993342 0 -0.0098044441781452579 0.25473951632571468 0 -0.01991034591062427 0.239405390953495 0 -0.045513089216113363 0.1481501368583191 0 -0.039963318838929777 0.1583549670989208 0 -0.028048700007850699 0.14601834090005769 0 -0.045513089216113363 0.1481501368583191 0 -0.037584816749385713 0.12707105787504261 0 -0.028048700007850699 0.14601834090005769 0 -0.037584816749385713 0.12707105787504261 0 -0.028048700007850699 0.14601834090005769 0 -0.045513089216113363 0.1481501368583191 0 -0.037584816749385713 0.12707105787504261 0 -0.045513089216113363 0.1481501368583191 0 -0.037584816749385713 0.12707105787504261 0 -0.049753839012929922 0.13582205838018921 0 -0.037584816749385713 0.12707105787504261 0 -0.049753839012929922 0.13582205838018921 0 -0.051208231868337763 0.1260313133231428 0 -0.049753839012929922 0.13582205838018921 0 -0.06070043620975589 0.134524720015781 0 -0.052276118599972977 0.1457036522838337 0 -0.051208231868337763 0.1260313133231428 0 -0.06070043620975589 0.134524720015781 0 -0.06411880478631618 0.11818203644688791 0 -0.06070043620975589 0.134524720015781 0 -0.06411880478631618 0.11818203644688791 0 -0.049753839012929922 0.13582205838018921 0 -0.051208231868337763 0.1260313133231428 0 -0.06070043620975589 0.134524720015781 0 -0.06070043620975589 0.134524720015781 0 -0.052276118599972977 0.1457036522838337 0 -0.05728206763319247 0.1508674035846734 0 -0.06070043620975589 0.134524720015781 0 -0.05728206763319247 0.1508674035846734 0 -0.045513089216113363 0.1481501368583191 0 -0.049753839012929922 0.13582205838018921 0 -0.052276118599972977 0.1457036522838337 0 -0.045513089216113363 0.1481501368583191 0 -0.052276118599972977 0.1457036522838337 0 -0.053440893212920608 0.15280063427064891 0 -0.052276118599972977 0.1457036522838337 0 -0.053440893212920608 0.15280063427064891 0 -0.05728206763319247 0.1508674035846734 0 -0.053440893212920608 0.15280063427064891 0 -0.05728206763319247 0.1508674035846734 0 -0.05728206763319247 0.1508674035846734 0 -0.062031688412593149 0.16441565219234799 0 -0.053441361682841117 0.16922921584159559 0 -0.053440893212920608 0.15280063427064891 0 -0.05728206763319247 0.1508674035846734 0 -0.053441361682841117 0.16922921584159559 0 -0.045513089216113363 0.1481501368583191 0 -0.053440893212920608 0.15280063427064891 0 -0.053441361682841117 0.16922921584159559 0 -0.045513089216113363 0.1481501368583191 0 -0.053441361682841117 0.16922921584159559 0 -0.05728206763319247 0.1508674035846734 0 -0.053441361682841117 0.16922921584159559 0 -0.06725389334219653 0.15771987894696021 0 -0.05728206763319247 0.1508674035846734 0 -0.062031688412593149 0.16441565219234799 0 -0.062031688412593149 0.16441565219234799 0 -0.053441361682841117 0.16922921584159559 0 -0.062041409668937363 0.1723934095439342 0 -0.053441361682841117 0.16922921584159559 0 -0.047633738945979477 0.17108968717192211 0 -0.039963318838929777 0.1583549670989208 0 -0.052991971448818453 0.17137768000779441 0 -0.053441361682841117 0.16922921584159559 0 -0.047633738945979477 0.17108968717192211 0 -0.052991971448818453 0.17137768000779441 0 -0.053441361682841117 0.16922921584159559 0 -0.054948738746262903 0.1897910154656581 0 -0.052419079168185397 0.17351746689540021 0 -0.046888846475854867 0.17837904804597579 0 -0.062951628171730722 0.19451437844324071 0 -0.054948738746262903 0.1897910154656581 0 -0.052419079168185397 0.17351746689540021 0 -0.062951628171730722 0.19451437844324071 0 -0.052991971448818453 0.17137768000779441 0 -0.052419079168185397 0.17351746689540021 0 -0.064604308801312821 0.18244611143699499 0 -0.062951628171730722 0.19451437844324071 0 -0.053441361682841117 0.16922921584159559 0 -0.062951628171730722 0.19451437844324071 0 -0.052991971448818453 0.17137768000779441 0 -0.053441361682841117 0.16922921584159559 0 -0.054948738746262903 0.1897910154656581 0 -0.052419079168185397 0.17351746689540021 0 -0.062951628171730722 0.19451437844324071 0 -0.053441361682841117 0.16922921584159559 0 -0.064604308801312821 0.18244611143699499 0 -0.053441361682841117 0.16922921584159559 0 -0.062041409668937363 0.1723934095439342 0 -0.052991971448818453 0.17137768000779441 0 -0.047633738945979477 0.17108968717192211 0 -0.052419079168185397 0.17351746689540021 0 -0.047633738945979477 0.17108968717192211 0 -0.052419079168185397 0.17351746689540021 0 -0.046888846475854867 0.17837904804597579 0 -0.054948738746262903 0.1897910154656581 0 -0.046888846475854867 0.17837904804597579 0 -0.039999697082172873 0.18418677263352329 0 -0.031637039445344017 0.19767931081015269 0 -0.039999697082172873 0.18418677263352329 0 -0.024775833668462071 0.17590936267321361 0 -0.046888846475854867 0.17837904804597579 0 -0.039999697082172873 0.18418677263352329 0 -0.039442978436673673 0.17331029806337539 0 -0.047633738945979477 0.17108968717192211 0 -0.046888846475854867 0.17837904804597579 0 -0.039442978436673673 0.17331029806337539 0 -0.039442978436673673 0.17331029806337539 0 -0.032139483942643897 0.16694135859911591 0 -0.024775833668462071 0.17590936267321361 0 -0.039999697082172873 0.18418677263352329 0 -0.039442978436673673 0.17331029806337539 0 -0.024775833668462071 0.17590936267321361 0 -0.045513089216113363 0.1481501368583191 0 -0.053441361682841117 0.16922921584159559 0 -0.039963318838929777 0.1583549670989208 0 -0.039963318838929777 0.1583549670989208 0 -0.032139483942643897 0.16694135859911591 0 -0.02343924065842673 0.15869802647678349 0 -0.047633738945979477 0.17108968717192211 0 -0.039442978436673673 0.17331029806337539 0 -0.039963318838929777 0.1583549670989208 0 -0.039442978436673673 0.17331029806337539 0 -0.039963318838929777 0.1583549670989208 0 -0.032139483942643897 0.16694135859911591 0 -0.032139483942643897 0.16694135859911591 0 -0.02343924065842673 0.15869802647678349 0 -0.024775833668462071 0.17590936267321361 0 -0.02343924065842673 0.15869802647678349 0 -0.024775833668462071 0.17590936267321361 0 -0.0048034666842798916 0.1614245706846468 0 -0.0057956805663459468 0.1892940575843915 0 -0.024775833668462071 0.17590936267321361 0 -0.0048034666842798916 0.1614245706846468 0 -0.0048034666842798916 0.1614245706846468 0 -0.01090464080839405 0.14353955890474629 0 0.011098566836083609 0.13484946890849181 0 -0.02343924065842673 0.15869802647678349 0 -0.0048034666842798916 0.1614245706846468 0 -0.01090464080839405 0.14353955890474629 0 -0.039963318838929777 0.1583549670989208 0 -0.02343924065842673 0.15869802647678349 0 -0.028048700007850699 0.14601834090005769 0 -0.02343924065842673 0.15869802647678349 0 -0.01090464080839405 0.14353955890474629 0 -0.028048700007850699 0.14601834090005769 0 -0.037584816749385713 0.12707105787504261 0 -0.0187932077553963 0.1304023687453105 0 -0.02482114599867602 0.1199028763409456 0 -0.01090464080839405 0.14353955890474629 0 -0.028048700007850699 0.14601834090005769 0 -0.0187932077553963 0.1304023687453105 0 -0.037584816749385713 0.12707105787504261 0 -0.028048700007850699 0.14601834090005769 0 -0.0187932077553963 0.1304023687453105 0 -0.0064436606074630637 0.13109611639504981 0 -0.007175360702145514 0.1155930690216506 0 0.011098566836083609 0.13484946890849181 0 -0.01090464080839405 0.14353955890474629 0 -0.0064436606074630637 0.13109611639504981 0 0.011098566836083609 0.13484946890849181 0 -0.0187932077553963 0.1304023687453105 0 -0.0064436606074630637 0.13109611639504981 0 -0.007175360702145514 0.1155930690216506 0 -0.01090464080839405 0.14353955890474629 0 -0.0187932077553963 0.1304023687453105 0 -0.0064436606074630637 0.13109611639504981 0 -0.007175360702145514 0.1155930690216506 0 -0.0040088977147468936 0.097024336429998151 0 -0.013655752966245171 0.094180689311720855 0 -0.007175360702145514 0.1155930690216506 0 -0.0040088977147468936 0.097024336429998151 0 0.0025937760044158291 0.1064596481343341 0 -0.007175360702145514 0.1155930690216506 0 -0.013655752966245171 0.094180689311720855 0 -0.02544928824037461 0.096336669134809427 0 -0.029459919491476121 0.1011230655410132 0 -0.021580178673492881 0.1105609364200745 0 -0.037915498494119543 0.10215930426450601 0 -0.007175360702145514 0.1155930690216506 0 -0.02544928824037461 0.096336669134809427 0 -0.007175360702145514 0.1155930690216506 0 -0.02544928824037461 0.096336669134809427 0 -0.0241566231860777 0.1021061234229471 0 -0.02544928824037461 0.096336669134809427 0 -0.029459919491476121 0.1011230655410132 0 -0.035034026511796899 0.0954599165668297 0 -0.02544928824037461 0.096336669134809427 0 -0.029459919491476121 0.1011230655410132 0 -0.0241566231860777 0.1021061234229471 0 -0.02544928824037461 0.096336669134809427 0 -0.0241566231860777 0.1021061234229471 0 -0.029459919491476121 0.1011230655410132 0 -0.0241566231860777 0.1021061234229471 0 -0.021580178673492881 0.1105609364200745 0 -0.02482114599867602 0.1199028763409456 0 -0.021580178673492881 0.1105609364200745 0 -0.032585978911933711 0.11378053360982859 0 -0.007175360702145514 0.1155930690216506 0 -0.0241566231860777 0.1021061234229471 0 -0.021580178673492881 0.1105609364200745 0 -0.0187932077553963 0.1304023687453105 0 -0.007175360702145514 0.1155930690216506 0 -0.02482114599867602 0.1199028763409456 0 -0.007175360702145514 0.1155930690216506 0 -0.02482114599867602 0.1199028763409456 0 -0.021580178673492881 0.1105609364200745 0 -0.01109578586274463 0.07592966442077155 0 -0.01963881101933795 0.057650575484614511 0 -0.0089029190745683329 0.062319161291970238 0 -0.0031702267477386531 0.067180855403790804 0 -0.01109578586274463 0.07592966442077155 0 0.0065236609159091173 0.071671444604676282 0 -0.0031702267477386531 0.067180855403790804 0 -0.0089029190745683329 0.062319161291970238 0 0.00079413703044923156 0.058803151297745167 0 -0.0031702267477386531 0.067180855403790804 0 -0.01109578586274463 0.07592966442077155 0 -0.0089029190745683329 0.062319161291970238 0 -0.0040088977147468936 0.097024336429998151 0 -0.01109578586274463 0.07592966442077155 0 0.011643404763696401 0.092949868607662828 0 -0.0040088977147468936 0.097024336429998151 0 -0.013655752966245171 0.094180689311720855 0 -0.01109578586274463 0.07592966442077155 0 -0.013655752966245171 0.094180689311720855 0 -0.01109578586274463 0.07592966442077155 0 -0.02054943231121421 0.086019707551374502 0 -0.02544928824037461 0.096336669134809427 0 -0.02054943231121421 0.086019707551374502 0 -0.029642132364781061 0.077623064684345475 0 -0.02544928824037461 0.096336669134809427 0 -0.029642132364781061 0.077623064684345475 0 -0.036673455980692451 0.084509049595857907 0 -0.01109578586274463 0.07592966442077155 0 -0.02054943231121421 0.086019707551374502 0 -0.029642132364781061 0.077623064684345475 0 -0.02544928824037461 0.096336669134809427 0 -0.029642132364781061 0.077623064684345475 0 -0.013655752966245171 0.094180689311720855 0 -0.02544928824037461 0.096336669134809427 0 -0.02054943231121421 0.086019707551374502 0 -0.02544928824037461 0.096336669134809427 0 -0.036673455980692451 0.084509049595857907 0 -0.01109578586274463 0.07592966442077155 0 -0.033834976489186493 0.058909460233881362 0 -0.01109578586274463 0.07592966442077155 0 -0.029642132364781061 0.077623064684345475 0 -0.033834976489186493 0.058909460233881362 0 -0.01109578586274463 0.07592966442077155 0 -0.033834976489186493 0.058909460233881362 0 -0.01963881101933795 0.057650575484614511 0 -0.029642132364781061 0.077623064684345475 0 -0.033834976489186493 0.058909460233881362 0 -0.029642132364781061 0.077623064684345475 0 -0.036732086871232597 0.066761861307427367 0 -0.033834976489186493 0.058909460233881362 0 -0.042969512877196837 0.063698159366550891 0 -0.036732086871232597 0.066761861307427367 0 -0.038306240480512441 0.072768089837317376 0 -0.042969512877196837 0.063698159366550891 0 -0.038306240480512441 0.072768089837317376 0 -0.046136221960229658 0.070392563092827029 0 -0.042969512877196837 0.063698159366550891 0 -0.036732086871232597 0.066761861307427367 0 -0.038907572144486188 0.060810532415041758 0 -0.029642132364781061 0.077623064684345475 0 -0.036732086871232597 0.066761861307427367 0 -0.038306240480512441 0.072768089837317376 0 -0.038306240480512441 0.072768089837317376 0 -0.046136221960229658 0.070392563092827029 0 -0.043586306971417507 0.077534071189344175 0 -0.038306240480512441 0.072768089837317376 0 -0.043586306971417507 0.077534071189344175 0 -0.036673455980692451 0.084509049595857907 0 -0.043586306971417507 0.077534071189344175 0 -0.036673455980692451 0.084509049595857907 0 -0.046978765451358998 0.084182386091036676 0 -0.029642132364781061 0.077623064684345475 0 -0.038306240480512441 0.072768089837317376 0 -0.036673455980692451 0.084509049595857907 0 -0.02544928824037461 0.096336669134809427 0 -0.036673455980692451 0.084509049595857907 0 -0.035034026511796899 0.0954599165668297 0 -0.036673455980692451 0.084509049595857907 0 -0.044089979176562301 0.093675305350012283 0 -0.035034026511796899 0.0954599165668297 0 -0.036673455980692451 0.084509049595857907 0 -0.044089979176562301 0.093675305350012283 0 -0.046978765451358998 0.084182386091036676 0 -0.044089979176562301 0.093675305350012283 0 -0.057144835734191893 0.088207312209507505 0 -0.046978765451358998 0.084182386091036676 0 -0.057144835734191893 0.088207312209507505 0 -0.046978765451358998 0.084182386091036676 0 -0.053399249393930842 0.076986192110461482 0 -0.043586306971417507 0.077534071189344175 0 -0.046978765451358998 0.084182386091036676 0 -0.053399249393930842 0.076986192110461482 0 -0.053399249393930842 0.076986192110461482 0 -0.070406408885084593 0.061857930521202607 0 -0.059815066152941319 0.061788281472960463 0 -0.057144835734191893 0.088207312209507505 0 -0.053399249393930842 0.076986192110461482 0 -0.070406408885084593 0.061857930521202607 0 -0.046136221960229658 0.070392563092827029 0 -0.043586306971417507 0.077534071189344175 0 -0.053399249393930842 0.076986192110461482 0 -0.046136221960229658 0.070392563092827029 0 -0.053399249393930842 0.076986192110461482 0 -0.05257832837313995 0.068950164376806455 0 -0.053399249393930842 0.076986192110461482 0 -0.05257832837313995 0.068950164376806455 0 -0.059815066152941319 0.061788281472960463 0 -0.05257832837313995 0.068950164376806455 0 -0.052166049838275927 0.062310195238599278 0 -0.059815066152941319 0.061788281472960463 0 -0.046136221960229658 0.070392563092827029 0 -0.05257832837313995 0.068950164376806455 0 -0.052166049838275927 0.062310195238599278 0 -0.042969512877196837 0.063698159366550891 0 -0.046136221960229658 0.070392563092827029 0 -0.052166049838275927 0.062310195238599278 0 -0.021580178673492881 0.1105609364200745 0 -0.043883262583300407 0.11455669389781301 0 -0.021580178673492881 0.1105609364200745 0 -0.043883262583300407 0.11455669389781301 0 -0.032585978911933711 0.11378053360982859 0 -0.037584816749385713 0.12707105787504261 0 -0.051208231868337763 0.1260313133231428 0 -0.043883262583300407 0.11455669389781301 0 -0.037584816749385713 0.12707105787504261 0 -0.043883262583300407 0.11455669389781301 0 -0.037584816749385713 0.12707105787504261 0 -0.032585978911933711 0.11378053360982859 0 -0.037584816749385713 0.12707105787504261 0 -0.043883262583300407 0.11455669389781301 0 -0.032585978911933711 0.11378053360982859 0 -0.037584816749385713 0.12707105787504261 0 -0.02482114599867602 0.1199028763409456 0 -0.032585978911933711 0.11378053360982859 0 -0.021580178673492881 0.1105609364200745 0 -0.043883262583300407 0.11455669389781301 0 -0.037915498494119543 0.10215930426450601 0 -0.044089979176562301 0.093675305350012283 0 -0.043883262583300407 0.11455669389781301 0 -0.037915498494119543 0.10215930426450601 0 -0.044089979176562301 0.093675305350012283 0 -0.037915498494119543 0.10215930426450601 0 -0.035034026511796899 0.0954599165668297 0 -0.029459919491476121 0.1011230655410132 0 -0.037915498494119543 0.10215930426450601 0 -0.035034026511796899 0.0954599165668297 0 -0.044089979176562301 0.093675305350012283 0 -0.057144835734191893 0.088207312209507505 0 -0.043883262583300407 0.11455669389781301 0 -0.057144835734191893 0.088207312209507505 0 -0.043883262583300407 0.11455669389781301 0 -0.057144835734191893 0.088207312209507505 0 -0.043883262583300407 0.11455669389781301 0 -0.056175626513735713 0.104231459755559 0 -0.056175626513735713 0.104231459755559 0 -0.061770267295803899 0.1005995653590098 0 -0.06411880478631618 0.11818203644688791 0 -0.057144835734191893 0.088207312209507505 0 -0.056175626513735713 0.104231459755559 0 -0.061770267295803899 0.1005995653590098 0 -0.043883262583300407 0.11455669389781301 0 -0.06411880478631618 0.11818203644688791 0 -0.051208231868337763 0.1260313133231428 0 -0.043883262583300407 0.11455669389781301 0 -0.06411880478631618 0.11818203644688791 0 -0.043883262583300407 0.11455669389781301 0 -0.056175626513735713 0.104231459755559 0 -0.06411880478631618 0.11818203644688791 0 -0.071786582042575819 0.1280585334591178 0 -0.06411880478631618 0.11818203644688791 0 -0.08034823769671974 0.121089655777625 0 -0.06411880478631618 0.11818203644688791 0 -0.08034823769671974 0.121089655777625 0 -0.075381325115152609 0.106019298300689 0 -0.06411880478631618 0.11818203644688791 0 -0.08034823769671974 0.121089655777625 0 -0.08034823769671974 0.121089655777625 0 -0.096577670607123245 0.1239972751083621 0 -0.08034823769671974 0.121089655777625 0 -0.092569001324263961 0.1124699312803344 0 -0.096577670607123245 0.1239972751083621 0 -0.08034823769671974 0.121089655777625 0 -0.083967771981719092 0.1102844810624737 0 -0.092569001324263961 0.1124699312803344 0 -0.08034823769671974 0.121089655777625 0 -0.083967771981719092 0.1102844810624737 0 -0.075381325115152609 0.106019298300689 0 -0.087572523790740042 0.10155903889124659 0 -0.082071947835387321 0.094412947715560025 0 -0.09233625647768956 0.091651488650119919 0 -0.083967771981719092 0.1102844810624737 0 -0.092569001324263961 0.1124699312803344 0 -0.087572523790740042 0.10155903889124659 0 -0.083967771981719092 0.1102844810624737 0 -0.087572523790740042 0.10155903889124659 0 -0.075381325115152609 0.106019298300689 0 -0.087572523790740042 0.10155903889124659 0 -0.082071947835387321 0.094412947715560025 0 -0.075381325115152609 0.106019298300689 0 -0.06411880478631618 0.11818203644688791 0 -0.06964180214897181 0.091777453024084701 0 -0.082071947835387321 0.094412947715560025 0 -0.075381325115152609 0.106019298300689 0 -0.06964180214897181 0.091777453024084701 0 -0.06411880478631618 0.11818203644688791 0 -0.075381325115152609 0.106019298300689 0 -0.06964180214897181 0.091777453024084701 0 -0.061770267295803899 0.1005995653590098 0 -0.06411880478631618 0.11818203644688791 0 -0.06964180214897181 0.091777453024084701 0 -0.057144835734191893 0.088207312209507505 0 -0.061770267295803899 0.1005995653590098 0 -0.06964180214897181 0.091777453024084701 0 -0.06964180214897181 0.091777453024084701 0 -0.075164799511626648 0.065372869601281192 0 -0.057144835734191893 0.088207312209507505 0 -0.06964180214897181 0.091777453024084701 0 -0.068089461569968729 0.076803891339018993 0 -0.06964180214897181 0.091777453024084701 0 -0.068089461569968729 0.076803891339018993 0 -0.075164799511626648 0.065372869601281192 0 -0.057144835734191893 0.088207312209507505 0 -0.068089461569968729 0.076803891339018993 0 -0.070406408885084593 0.061857930521202607 0 -0.06964180214897181 0.091777453024084701 0 -0.075164799511626648 0.065372869601281192 0 -0.08073347634316104 0.073575546631144614 0 -0.057144835734191893 0.088207312209507505 0 -0.070406408885084593 0.061857930521202607 0 -0.068089461569968729 0.076803891339018993 0 -0.075164799511626648 0.065372869601281192 0 -0.070406408885084593 0.061857930521202607 0 -0.089923560922876636 0.068178037636278263 0 -0.08578586832533959 0.082170087930996366 0 -0.103675070998617 0.083967309240415983 0 -0.08073347634316104 0.073575546631144614 0 -0.089923560922876636 0.068178037636278263 0 -0.083186879645449088 0.059889597987781727 0 -0.075164799511626648 0.065372869601281192 0 -0.08073347634316104 0.073575546631144614 0 -0.083186879645449088 0.059889597987781727 0 -0.08073347634316104 0.073575546631144614 0 -0.089923560922876636 0.068178037636278263 0 -0.08578586832533959 0.082170087930996366 0 -0.06964180214897181 0.091777453024084701 0 -0.08073347634316104 0.073575546631144614 0 -0.08578586832533959 0.082170087930996366 0 -0.082071947835387321 0.094412947715560025 0 -0.06964180214897181 0.091777453024084701 0 -0.08578586832533959 0.082170087930996366 0 -0.082071947835387321 0.094412947715560025 0 -0.08578586832533959 0.082170087930996366 0 -0.09233625647768956 0.091651488650119919 0 -0.09233625647768956 0.091651488650119919 0 -0.103675070998617 0.083967309240415983 0 -0.10429444750695741 0.1014886749251958 0 -0.08578586832533959 0.082170087930996366 0 -0.09233625647768956 0.091651488650119919 0 -0.103675070998617 0.083967309240415983 0 -0.103675070998617 0.083967309240415983 0 -0.1198812247159142 0.095002477965890675 0 -0.10429444750695741 0.1014886749251958 0 -0.089923560922876636 0.068178037636278263 0 -0.103675070998617 0.083967309240415983 0 -0.10785209906359081 0.065371441260914459 0 -0.12533951967512769 0.078274991835817334 0 -0.103675070998617 0.083967309240415983 0 -0.10785209906359081 0.065371441260914459 0 -0.12533951967512769 0.078274991835817334 0 -0.10785209906359081 0.065371441260914459 0 -0.1248745965026067 0.059896082918310993 0 -0.12533951967512769 0.078274991835817334 0 -0.103675070998617 0.083967309240415983 0 -0.1198812247159142 0.095002477965890675 0 -0.13137241316615089 0.11357835761918721 0 -0.1198812247159142 0.095002477965890675 0 -0.10429444750695741 0.1014886749251958 0 -0.13137241316615089 0.11357835761918721 0 -0.12687331202938101 0.13192737382428379 0 -0.10667563132183119 0.1260080396076822 0 -0.13137241316615089 0.11357835761918721 0 -0.10667563132183119 0.1260080396076822 0 -0.1062978327852654 0.11550845570815239 0 -0.13137241316615089 0.11357835761918721 0 -0.1062978327852654 0.11550845570815239 0 -0.10429444750695741 0.1014886749251958 0 -0.13137241316615089 0.11357835761918721 0 -0.10667563132183119 0.1260080396076822 0 -0.10667563132183119 0.1260080396076822 0 -0.1062978327852654 0.11550845570815239 0 -0.096577670607123245 0.1239972751083621 0 -0.092569001324263961 0.1124699312803344 0 -0.1062978327852654 0.11550845570815239 0 -0.096577670607123245 0.1239972751083621 0 -0.092569001324263961 0.1124699312803344 0 -0.1062978327852654 0.11550845570815239 0 -0.10429444750695741 0.1014886749251958 0 -0.092569001324263961 0.1124699312803344 0 -0.087572523790740042 0.10155903889124659 0 -0.10429444750695741 0.1014886749251958 0 -0.087572523790740042 0.10155903889124659 0 -0.09233625647768956 0.091651488650119919 0 -0.10429444750695741 0.1014886749251958 0 -0.10370969952600501 0.019997694726909911 0 -0.098524362227562057 0.035744340183224317 0 -0.08645931971955316 0.02325136753113614 0 -0.10370969952600501 0.019997694726909911 0 -0.08645931971955316 0.02325136753113614 0 -0.091682611010439896 0.0063963380850077774 0 -0.10370969952600501 0.019997694726909911 0 -0.1180188049733784 0.030804183747700629 0 -0.098524362227562057 0.035744340183224317 0 -0.10370969952600501 0.019997694726909911 0 -0.10877227824827949 0.0075748546359299482 0 -0.091682611010439896 0.0063963380850077774 0 -0.1029392013539359 -0.0085751277431150782 0 -0.10877227824827949 0.0075748546359299482 0 -0.091682611010439896 0.0063963380850077774 0 -0.10370969952600501 0.019997694726909911 0 -0.10877227824827949 0.0075748546359299482 0 -0.11835839359799651 0.016938700943610479 0 -0.1029392013539359 -0.0085751277431150782 0 -0.12735709500343681 0.004015926865657337 0 -0.10877227824827949 0.0075748546359299482 0 -0.12735709500343681 0.004015926865657337 0 -0.10877227824827949 0.0075748546359299482 0 -0.11835839359799651 0.016938700943610479 0 -0.1339340902388827 0.022300844741854581 0 -0.11835839359799651 0.016938700943610479 0 -0.1180188049733784 0.030804183747700629 0 -0.10370969952600501 0.019997694726909911 0 -0.11835839359799651 0.016938700943610479 0 -0.1180188049733784 0.030804183747700629 0 -0.1180188049733784 0.030804183747700629 0 -0.1128457876968547 0.048091259023394652 0 -0.098524362227562057 0.035744340183224317 0 -0.13626681081840961 0.042829268155062397 0 -0.1128457876968547 0.048091259023394652 0 -0.13626681081840961 0.042829268155062397 0 -0.1180188049733784 0.030804183747700629 0 -0.1128457876968547 0.048091259023394652 0 -0.13626681081840961 0.042829268155062397 0 -0.1128457876968547 0.048091259023394652 0 -0.1248745965026067 0.059896082918310993 0 -0.10785209906359081 0.065371441260914459 0 -0.1128457876968547 0.048091259023394652 0 -0.1248745965026067 0.059896082918310993 0 -0.1128457876968547 0.048091259023394652 0 -0.089424764575299687 0.053353249891726941 0 -0.089923560922876636 0.068178037636278263 0 -0.10785209906359081 0.065371441260914459 0 -0.089424764575299687 0.053353249891726941 0 -0.10785209906359081 0.065371441260914459 0 -0.1128457876968547 0.048091259023394652 0 -0.089424764575299687 0.053353249891726941 0 -0.1128457876968547 0.048091259023394652 0 -0.098524362227562057 0.035744340183224317 0 -0.089424764575299687 0.053353249891726941 0 -0.098524362227562057 0.035744340183224317 0 -0.080687796874281473 0.038968286178477703 0 -0.08645931971955316 0.02325136753113614 0 -0.098524362227562057 0.035744340183224317 0 -0.080687796874281473 0.038968286178477703 0 -0.089424764575299687 0.053353249891726941 0 -0.080687796874281473 0.038968286178477703 0 -0.089424764575299687 0.053353249891726941 0 -0.083186879645449088 0.059889597987781727 0 -0.075164799511626648 0.065372869601281192 0 -0.080687796874281473 0.038968286178477703 0 -0.083186879645449088 0.059889597987781727 0 -0.089923560922876636 0.068178037636278263 0 -0.089424764575299687 0.053353249891726941 0 -0.083186879645449088 0.059889597987781727 0 -0.075164799511626648 0.065372869601281192 0 -0.080687796874281473 0.038968286178477703 0 -0.071303082845968715 0.053347503409362687 0 -0.075164799511626648 0.065372869601281192 0 -0.080687796874281473 0.038968286178477703 0 -0.075164799511626648 0.065372869601281192 0 -0.070406408885084593 0.061857930521202607 0 -0.071303082845968715 0.053347503409362687 0 -0.071303082845968715 0.053347503409362687 0 -0.064856269609628314 0.055117702274744398 0 -0.065400139349222536 0.045420728471107522 0 -0.070406408885084593 0.061857930521202607 0 -0.071303082845968715 0.053347503409362687 0 -0.064856269609628314 0.055117702274744398 0 -0.070406408885084593 0.061857930521202607 0 -0.064856269609628314 0.055117702274744398 0 -0.059815066152941319 0.061788281472960463 0 -0.080687796874281473 0.038968286178477703 0 -0.065400139349222536 0.045420728471107522 0 -0.063264057366842208 0.031259222641012697 0 -0.080687796874281473 0.038968286178477703 0 -0.063264057366842208 0.031259222641012697 0 -0.073460039823911166 0.024685388153665749 0 -0.080687796874281473 0.038968286178477703 0 -0.071303082845968715 0.053347503409362687 0 -0.065400139349222536 0.045420728471107522 0 -0.063264057366842208 0.031259222641012697 0 -0.073460039823911166 0.024685388153665749 0 -0.061440697951084179 0.017621877449499421 0 -0.073460039823911166 0.024685388153665749 0 -0.076769634387976737 0.01135693610240161 0 -0.061440697951084179 0.017621877449499421 0 -0.080687796874281473 0.038968286178477703 0 -0.073460039823911166 0.024685388153665749 0 -0.08645931971955316 0.02325136753113614 0 -0.073460039823911166 0.024685388153665749 0 -0.08645931971955316 0.02325136753113614 0 -0.076769634387976737 0.01135693610240161 0 -0.08645931971955316 0.02325136753113614 0 -0.091682611010439896 0.0063963380850077774 0 -0.076769634387976737 0.01135693610240161 0 -0.091682611010439896 0.0063963380850077774 0 -0.078933949510919491 0.00072378658541613432 0 -0.076769634387976737 0.01135693610240161 0 -0.086097875964997059 -0.0058870606910941042 0 -0.091682611010439896 0.0063963380850077774 0 -0.078933949510919491 0.00072378658541613432 0 -0.078933949510919491 0.00072378658541613432 0 -0.076769634387976737 0.01135693610240161 0 -0.068462160169621672 0.0025537029525893409 0 -0.068462160169621672 0.0025537029525893409 0 -0.057836245250817257 0.0062936453779614283 0 -0.061440697951084179 0.017621877449499421 0 -0.076769634387976737 0.01135693610240161 0 -0.068462160169621672 0.0025537029525893409 0 -0.061440697951084179 0.017621877449499421 0 -0.057836245250817257 0.0062936453779614283 0 -0.061440697951084179 0.017621877449499421 0 -0.042678209040760022 0.019440128409622049 0 -0.057836245250817257 0.0062936453779614283 0 -0.042678209040760022 0.019440128409622049 0 -0.044352522143416888 0.0050416822031405977 0 -0.063264057366842208 0.031259222641012697 0 -0.042678209040760022 0.019440128409622049 0 -0.05195897498334151 0.039592758420259042 0 -0.063264057366842208 0.031259222641012697 0 -0.061440697951084179 0.017621877449499421 0 -0.042678209040760022 0.019440128409622049 0 -0.042678209040760022 0.019440128409622049 0 -0.038256592764973757 0.039174794321751791 0 -0.042678209040760022 0.019440128409622049 0 -0.038256592764973757 0.039174794321751791 0 -0.027511467414372541 0.03001296694831072 0 -0.042678209040760022 0.019440128409622049 0 -0.028180513839983729 0.018098474401369 0 -0.027511467414372541 0.03001296694831072 0 -0.042678209040760022 0.019440128409622049 0 -0.032770024037711037 0.0084985419153508525 0 -0.028180513839983729 0.018098474401369 0 -0.032770024037711037 0.0084985419153508525 0 -0.03614709390981162 0.0015378833132510439 0 -0.044352522143416888 0.0050416822031405977 0 -0.029539197120254941 -0.00051038393964639519 0 -0.032770024037711037 0.0084985419153508525 0 -0.03614709390981162 0.0015378833132510439 0 -0.042678209040760022 0.019440128409622049 0 -0.032770024037711037 0.0084985419153508525 0 -0.044352522143416888 0.0050416822031405977 0 -0.042969512877196837 0.063698159366550891 0 -0.047980875447113908 0.056604040506729722 0 -0.052166049838275927 0.062310195238599278 0 -0.047980875447113908 0.056604040506729722 0 -0.052166049838275927 0.062310195238599278 0 -0.055804220694704088 0.051985500715961808 0 -0.064856269609628314 0.055117702274744398 0 -0.059815066152941319 0.061788281472960463 0 -0.055804220694704088 0.051985500715961808 0 -0.052166049838275927 0.062310195238599278 0 -0.059815066152941319 0.061788281472960463 0 -0.055804220694704088 0.051985500715961808 0 -0.064856269609628314 0.055117702274744398 0 -0.065400139349222536 0.045420728471107522 0 -0.055804220694704088 0.051985500715961808 0 -0.047980875447113908 0.056604040506729722 0 -0.055804220694704088 0.051985500715961808 0 -0.046350630683546529 0.050276175962098407 0 -0.055804220694704088 0.051985500715961808 0 -0.05195897498334151 0.039592758420259042 0 -0.046350630683546529 0.050276175962098407 0 -0.065400139349222536 0.045420728471107522 0 -0.055804220694704088 0.051985500715961808 0 -0.05195897498334151 0.039592758420259042 0 -0.065400139349222536 0.045420728471107522 0 -0.063264057366842208 0.031259222641012697 0 -0.05195897498334151 0.039592758420259042 0 -0.042678209040760022 0.019440128409622049 0 -0.05195897498334151 0.039592758420259042 0 -0.038256592764973757 0.039174794321751791 0 -0.05195897498334151 0.039592758420259042 0 -0.038256592764973757 0.039174794321751791 0 -0.046350630683546529 0.050276175962098407 0 -0.038256592764973757 0.039174794321751791 0 -0.033834976489186493 0.058909460233881362 0 -0.038256592764973757 0.039174794321751791 0 -0.038513274033404883 0.055407770980391423 0 -0.033834976489186493 0.058909460233881362 0 -0.038256592764973757 0.039174794321751791 0 -0.046350630683546529 0.050276175962098407 0 -0.038513274033404883 0.055407770980391423 0 -0.038256592764973757 0.039174794321751791 0 -0.033834976489186493 0.058909460233881362 0 -0.02879531395286377 0.050132256585483953 0 -0.046350630683546529 0.050276175962098407 0 -0.038513274033404883 0.055407770980391423 0 -0.042914570065583427 0.057802329486214707 0 -0.036732086871232597 0.066761861307427367 0 -0.033834976489186493 0.058909460233881362 0 -0.038907572144486188 0.060810532415041758 0 -0.038513274033404883 0.055407770980391423 0 -0.033834976489186493 0.058909460233881362 0 -0.038513274033404883 0.055407770980391423 0 -0.033834976489186493 0.058909460233881362 0 -0.038907572144486188 0.060810532415041758 0 -0.042969512877196837 0.063698159366550891 0 -0.038907572144486188 0.060810532415041758 0 -0.042914570065583427 0.057802329486214707 0 -0.038513274033404883 0.055407770980391423 0 -0.038907572144486188 0.060810532415041758 0 -0.042914570065583427 0.057802329486214707 0 -0.047980875447113908 0.056604040506729722 0 -0.046350630683546529 0.050276175962098407 0 -0.042914570065583427 0.057802329486214707 0 -0.042969512877196837 0.063698159366550891 0 -0.047980875447113908 0.056604040506729722 0 -0.042914570065583427 0.057802329486214707 0 -0.033834976489186493 0.058909460233881362 0 -0.01963881101933795 0.057650575484614511 0 -0.02879531395286377 0.050132256585483953 0 -0.01963881101933795 0.057650575484614511 0 -0.02879531395286377 0.050132256585483953 0 -0.02345087553795689 0.044794196301688183 0 -0.01963881101933795 0.057650575484614511 0 -0.02345087553795689 0.044794196301688183 0 -0.012175026131353321 0.050402421608982242 0 -0.02345087553795689 0.044794196301688183 0 -0.014695186475719159 0.0359408453649432 0 -0.012175026131353321 0.050402421608982242 0 -0.038256592764973757 0.039174794321751791 0 -0.02879531395286377 0.050132256585483953 0 -0.02345087553795689 0.044794196301688183 0 -0.038256592764973757 0.039174794321751791 0 -0.02345087553795689 0.044794196301688183 0 -0.027511467414372541 0.03001296694831072 0 -0.02345087553795689 0.044794196301688183 0 -0.014695186475719159 0.0359408453649432 0 -0.027511467414372541 0.03001296694831072 0 -0.014695186475719159 0.0359408453649432 0 -0.0023331541944977092 0.045311556235899067 0 0.00074240361007229996 0.028778475488121531 0 -0.014695186475719159 0.0359408453649432 0 -0.0023331541944977092 0.045311556235899067 0 -0.012175026131353321 0.050402421608982242 0 -0.0023331541944977092 0.045311556235899067 0 -0.012175026131353321 0.050402421608982242 0 0.00079413703044923156 0.058803151297745167 0 -0.012175026131353321 0.050402421608982242 0 -0.0089029190745683329 0.062319161291970238 0 0.00079413703044923156 0.058803151297745167 0 -0.01963881101933795 0.057650575484614511 0 -0.012175026131353321 0.050402421608982242 0 -0.0089029190745683329 0.062319161291970238 0 -0.021996997598287969 0.010981086364913869 0 -0.02112675760807068 0.0030512678310729521 0 -0.0083058662928979787 0.012079608812324741 0 -0.021996997598287969 0.010981086364913869 0 -0.01661374249992489 0.02103319015209278 0 -0.0083058662928979787 0.012079608812324741 0 -0.021996997598287969 0.010981086364913869 0 -0.02112675760807068 0.0030512678310729521 0 -0.02631380729169577 0.0053104208567875946 0 -0.029539197120254941 -0.00051038393964639519 0 -0.02112675760807068 0.0030512678310729521 0 -0.02631380729169577 0.0053104208567875946 0 -0.029539197120254941 -0.00051038393964639519 0 -0.032770024037711037 0.0084985419153508525 0 -0.02631380729169577 0.0053104208567875946 0 -0.032770024037711037 0.0084985419153508525 0 -0.021996997598287969 0.010981086364913869 0 -0.02631380729169577 0.0053104208567875946 0 -0.032770024037711037 0.0084985419153508525 0 -0.021996997598287969 0.010981086364913869 0 -0.028180513839983729 0.018098474401369 0 -0.028180513839983729 0.018098474401369 0 -0.027511467414372541 0.03001296694831072 0 -0.01661374249992489 0.02103319015209278 0 -0.014695186475719159 0.0359408453649432 0 -0.027511467414372541 0.03001296694831072 0 -0.01661374249992489 0.02103319015209278 0 -0.021996997598287969 0.010981086364913869 0 -0.028180513839983729 0.018098474401369 0 -0.01661374249992489 0.02103319015209278 0 -0.01661374249992489 0.02103319015209278 0 0.00074240361007229996 0.028778475488121531 0 -0.0083058662928979787 0.012079608812324741 0 0.0060294939382754481 0.01286563290641534 0 0.00074240361007229996 0.028778475488121531 0 -0.014695186475719159 0.0359408453649432 0 -0.01661374249992489 0.02103319015209278 0 0.00074240361007229996 0.028778475488121531 0 -0.0083058662928979787 0.012079608812324741 0 0.00074240361007229996 0.028778475488121531 0 -0.01661374249992489 0.02103319015209278 0 -0.0083058662928979787 0.012079608812324741 0 0.00074240361007229996 0.028778475488121531 0 -0.0072764121498596901 -0.0036325873431357339 0 -0.0083058662928979787 0.012079608812324741 0 0.0012074066645448821 -0.00065723147797176382 0 -0.0072764121498596901 -0.0036325873431357339 0 -0.013607688627124061 -0.00178224205395049 0 -0.0083058662928979787 0.012079608812324741 0 -0.017354136195868258 -0.0046192578634720229 0 -0.0083058662928979787 0.012079608812324741 0 -0.017354136195868258 -0.0046192578634720229 0 -0.013607688627124061 -0.00178224205395049 0 -0.0083058662928979787 0.012079608812324741 0 -0.0083058662928979787 0.012079608812324741 0 0.0060294939382754481 0.01286563290641534 0 0.0012074066645448821 -0.00065723147797176382 0 -0.017354136195868258 -0.0046192578634720229 0 -0.02112675760807068 0.0030512678310729521 0 -0.0083058662928979787 0.012079608812324741 0 0.0060294939382754481 0.01286563290641534 0 0.0012074066645448821 -0.00065723147797176382 0 0.01265631079038235 -0.01012693536007268 0 0.0060294939382754481 0.01286563290641534 0 0.020311547060899309 0.014329649790385431 0 0.01265631079038235 -0.01012693536007268 0 0.00074240361007229996 0.028778475488121531 0 0.015746539320639769 0.024046632949657649 0 0.022626785018342459 0.038544513255683338 0 0.0060294939382754481 0.01286563290641534 0 0.00074240361007229996 0.028778475488121531 0 0.015746539320639769 0.024046632949657649 0 0.0060294939382754481 0.01286563290641534 0 0.015746539320639769 0.024046632949657649 0 0.020311547060899309 0.014329649790385431 0 0.015746539320639769 0.024046632949657649 0 0.029022466975609298 0.02571489330768258 0 0.020311547060899309 0.014329649790385431 0 0.015746539320639769 0.024046632949657649 0 0.029022466975609298 0.02571489330768258 0 0.022626785018342459 0.038544513255683338 0 0.020311547060899309 0.014329649790385431 0 0.034885408484197772 0.0062912350017927032 0 0.01265631079038235 -0.01012693536007268 0 0.029022466975609298 0.02571489330768258 0 0.020311547060899309 0.014329649790385431 0 0.034885408484197772 0.0062912350017927032 0 0.00079413703044923156 0.058803151297745167 0 0.01366790099406239 0.052632887419703241 0 0.0065236609159091173 0.071671444604676282 0 -0.0023331541944977092 0.045311556235899067 0 0.00079413703044923156 0.058803151297745167 0 0.01366790099406239 0.052632887419703241 0 0.00074240361007229996 0.028778475488121531 0 0.01366790099406239 0.052632887419703241 0 0.022626785018342459 0.038544513255683338 0 0.00074240361007229996 0.028778475488121531 0 0.022626785018342459 0.038544513255683338 0 -0.0023331541944977092 0.045311556235899067 0 0.00074240361007229996 0.028778475488121531 0 0.01366790099406239 0.052632887419703241 0 0.00074240361007229996 0.028778475488121531 0 0.01366790099406239 0.052632887419703241 0 0.029022466975609298 0.02571489330768258 0 0.022626785018342459 0.038544513255683338 0 0.037630953216902623 0.033668105561091018 0 0.01366790099406239 0.052632887419703241 0 0.022626785018342459 0.038544513255683338 0 0.025434983742737761 0.055249644843112657 0 0.022626785018342459 0.038544513255683338 0 0.025434983742737761 0.055249644843112657 0 0.034616451435572633 0.051242168749322393 0 0.025434983742737761 0.055249644843112657 0 0.034062632092931817 0.061255223706808547 0 0.02703491536905472 0.067401080742933134 0 0.01366790099406239 0.052632887419703241 0 0.025434983742737761 0.055249644843112657 0 0.02703491536905472 0.067401080742933134 0 0.034616451435572633 0.051242168749322393 0 0.044511166426612833 0.04831055102324476 0 0.060132464308973767 0.062986029428160187 0 0.034616451435572633 0.051242168749322393 0 0.060132464308973767 0.062986029428160187 0 0.044258496001147778 0.063884183083345675 0 0.034062632092931817 0.061255223706808547 0 0.034616451435572633 0.051242168749322393 0 0.044258496001147778 0.063884183083345675 0 0.025434983742737761 0.055249644843112657 0 0.034062632092931817 0.061255223706808547 0 0.034616451435572633 0.051242168749322393 0 0.022626785018342459 0.038544513255683338 0 0.044511166426612833 0.04831055102324476 0 0.022626785018342459 0.038544513255683338 0 0.034616451435572633 0.051242168749322393 0 0.044511166426612833 0.04831055102324476 0 0.022626785018342459 0.038544513255683338 0 0.044511166426612833 0.04831055102324476 0 0.037630953216902623 0.033668105561091018 0 0.044511166426612833 0.04831055102324476 0 0.037630953216902623 0.033668105561091018 0 0.0484135161167236 0.034205204957136963 0 0.0484135161167236 0.034205204957136963 0 0.060669767880595721 0.038134724015348051 0 0.0518117103670514 0.042737821036878322 0 0.0484135161167236 0.034205204957136963 0 0.060669767880595721 0.038134724015348051 0 0.057623658326613529 0.02352368721002385 0 0.060669767880595721 0.038134724015348051 0 0.0518117103670514 0.042737821036878322 0 0.059559274975242667 0.047504887075434543 0 0.044511166426612833 0.04831055102324476 0 0.0518117103670514 0.042737821036878322 0 0.059559274975242667 0.047504887075434543 0 0.044511166426612833 0.04831055102324476 0 0.0484135161167236 0.034205204957136963 0 0.0518117103670514 0.042737821036878322 0 0.044511166426612833 0.04831055102324476 0 0.066395547834883203 0.05807658879080619 0 0.060132464308973767 0.062986029428160187 0 0.034616451435572633 0.051242168749322393 0 0.060132464308973767 0.062986029428160187 0 0.044511166426612833 0.04831055102324476 0 0.066395547834883203 0.05807658879080619 0 0.044511166426612833 0.04831055102324476 0 0.059559274975242667 0.047504887075434543 0 0.066395547834883203 0.05807658879080619 0 0.034885408484197772 0.0062912350017927032 0 0.052968053050369737 0.0090809173488315582 0 0.042517259973231587 -0.011683923625132649 0 0.034885408484197772 0.0062912350017927032 0 0.043580831547224863 0.021565365261707499 0 0.052968053050369737 0.0090809173488315582 0 0.029022466975609298 0.02571489330768258 0 0.034885408484197772 0.0062912350017927032 0 0.043580831547224863 0.021565365261707499 0 0.029022466975609298 0.02571489330768258 0 0.037630953216902623 0.033668105561091018 0 0.043580831547224863 0.021565365261707499 0 0.037630953216902623 0.033668105561091018 0 0.0484135161167236 0.034205204957136963 0 0.043580831547224863 0.021565365261707499 0 0.057623658326613529 0.02352368721002385 0 0.052968053050369737 0.0090809173488315582 0 0.071708216805815503 0.016768608491387289 0 0.043580831547224863 0.021565365261707499 0 0.057623658326613529 0.02352368721002385 0 0.052968053050369737 0.0090809173488315582 0 0.0484135161167236 0.034205204957136963 0 0.043580831547224863 0.021565365261707499 0 0.057623658326613529 0.02352368721002385 0 0.052968053050369737 0.0090809173488315582 0 0.071708216805815503 0.016768608491387289 0 0.067492943165135169 -0.0019794682467893379 0 0.083930998993742512 0.0059737405228527038 0 0.071708216805815503 0.016768608491387289 0 0.067492943165135169 -0.0019794682467893379 0 0.083930998993742512 0.0059737405228527038 0 0.098495163759696414 0.0029673617968291321 0 0.094917995650245529 0.021722354499223519 0 0.083930998993742512 0.0059737405228527038 0 0.071708216805815503 0.016768608491387289 0 0.094917995650245529 0.021722354499223519 0 0.071708216805815503 0.016768608491387289 0 0.07449934060461412 0.03258063005354956 0 0.094917995650245529 0.021722354499223519 0 0.07449934060461412 0.03258063005354956 0 0.087237150257314613 0.037926204838731957 0 0.094917995650245529 0.021722354499223519 0 0.057623658326613529 0.02352368721002385 0 0.071708216805815503 0.016768608491387289 0 0.07449934060461412 0.03258063005354956 0 0.060669767880595721 0.038134724015348051 0 0.057623658326613529 0.02352368721002385 0 0.07449934060461412 0.03258063005354956 0 0.060669767880595721 0.038134724015348051 0 0.069155187538762042 0.045022305850501279 0 0.07449934060461412 0.03258063005354956 0 0.060669767880595721 0.038134724015348051 0 0.059559274975242667 0.047504887075434543 0 0.069155187538762042 0.045022305850501279 0 0.069155187538762042 0.045022305850501279 0 0.07449934060461412 0.03258063005354956 0 0.079692196512252927 0.044953406994506007 0 0.059559274975242667 0.047504887075434543 0 0.069155187538762042 0.045022305850501279 0 0.067326156772233525 0.050603546620565112 0 0.059559274975242667 0.047504887075434543 0 0.066395547834883203 0.05807658879080619 0 0.067326156772233525 0.050603546620565112 0 0.066395547834883203 0.05807658879080619 0 0.067326156772233525 0.050603546620565112 0 0.074194616740046182 0.051810404765518438 0 0.069155187538762042 0.045022305850501279 0 0.067326156772233525 0.050603546620565112 0 0.074194616740046182 0.051810404765518438 0 0.069155187538762042 0.045022305850501279 0 0.074194616740046182 0.051810404765518438 0 0.079692196512252927 0.044953406994506007 0 0.066395547834883203 0.05807658879080619 0 0.074194616740046182 0.051810404765518438 0 0.080343143758095259 0.058335218209008277 0 0.066395547834883203 0.05807658879080619 0 0.080343143758095259 0.058335218209008277 0 0.08827992924315356 0.067842626558367619 0 0.080343143758095259 0.058335218209008277 0 0.083306510346727383 0.05351440315152866 0 0.090416084875221875 0.058235299142909973 0 0.074194616740046182 0.051810404765518438 0 0.083306510346727383 0.05351440315152866 0 0.079692196512252927 0.044953406994506007 0 0.083306510346727383 0.05351440315152866 0 0.089760373586053266 0.048866493307206167 0 0.079692196512252927 0.044953406994506007 0 0.074194616740046182 0.051810404765518438 0 0.080343143758095259 0.058335218209008277 0 0.083306510346727383 0.05351440315152866 0 0.083306510346727383 0.05351440315152866 0 0.089760373586053266 0.048866493307206167 0 0.090416084875221875 0.058235299142909973 0 0.089760373586053266 0.048866493307206167 0 0.090416084875221875 0.058235299142909973 0 0.099395501669828634 0.055681054702382278 0 0.080343143758095259 0.058335218209008277 0 0.090416084875221875 0.058235299142909973 0 0.08827992924315356 0.067842626558367619 0 0.087237150257314613 0.037926204838731957 0 0.098930039005792711 0.04227996871225087 0 0.094917995650245529 0.021722354499223519 0 0.07449934060461412 0.03258063005354956 0 0.079692196512252927 0.044953406994506007 0 0.087237150257314613 0.037926204838731957 0 0.089760373586053266 0.048866493307206167 0 0.079692196512252927 0.044953406994506007 0 0.087237150257314613 0.037926204838731957 0 0.089760373586053266 0.048866493307206167 0 0.087237150257314613 0.037926204838731957 0 0.098930039005792711 0.04227996871225087 0 0.10894092886672049 0.033503019923715648 0 0.098930039005792711 0.04227996871225087 0 0.11550376979223601 0.054551475820320147 0 0.10894092886672049 0.033503019923715648 0 0.098930039005792711 0.04227996871225087 0 0.094917995650245529 0.021722354499223519 0 0.098930039005792711 0.04227996871225087 0 0.099395501669828634 0.055681054702382278 0 0.11550376979223601 0.054551475820320147 0 0.099395501669828634 0.055681054702382278 0 0.11550376979223601 0.054551475820320147 0 0.10561354398445311 0.069921878226714862 0 0.090416084875221875 0.058235299142909973 0 0.099395501669828634 0.055681054702382278 0 0.095618088847860577 0.065038419849084594 0 0.089760373586053266 0.048866493307206167 0 0.098930039005792711 0.04227996871225087 0 0.099395501669828634 0.055681054702382278 0 0.10894092886672049 0.033503019923715648 0 0.11961069471150609 0.02296590295220987 0 0.12977361784467401 0.039215218793308727 0 0.10894092886672049 0.033503019923715648 0 0.11550376979223601 0.054551475820320147 0 0.12977361784467401 0.039215218793308727 0 0.11961069471150609 0.02296590295220987 0 0.1158546052028349 0.0064685721448778594 0 0.094917995650245529 0.021722354499223519 0 0.11961069471150609 0.02296590295220987 0 0.1158546052028349 0.0064685721448778594 0 0.13894824890776639 0.02136224913872127 0 0.1158546052028349 0.0064685721448778594 0 0.098495163759696414 0.0029673617968291321 0 0.094917995650245529 0.021722354499223519 0 0.10894092886672049 0.033503019923715648 0 0.11961069471150609 0.02296590295220987 0 0.094917995650245529 0.021722354499223519 0 0.097728221435088053 0.099184528615223033 0 0.110275064223293 0.10236359857942121 0 0.11116449005577619 0.086473750785835857 0 0.099894961061174667 0.1104201015940532 0 0.11150799601301251 0.1117412241471519 0 0.110275064223293 0.10236359857942121 0 0.097728221435088053 0.099184528615223033 0 0.099894961061174667 0.1104201015940532 0 0.110275064223293 0.10236359857942121 0 0.097728221435088053 0.099184528615223033 0 0.099894961061174667 0.1104201015940532 0 0.084925795867796111 0.1103515185161017 0 0.099894961061174667 0.1104201015940532 0 0.096984900528893664 0.1212489081817222 0 0.084925795867796111 0.1103515185161017 0 0.099894961061174667 0.1104201015940532 0 0.096984900528893664 0.1212489081817222 0 0.10712684862241641 0.1210429748963526 0 0.096984900528893664 0.1212489081817222 0 0.10712684862241641 0.1210429748963526 0 0.10589272808503949 0.13156516273042271 0 0.099894961061174667 0.1104201015940532 0 0.10712684862241641 0.1210429748963526 0 0.11150799601301251 0.1117412241471519 0 0.10712684862241641 0.1210429748963526 0 0.11150799601301251 0.1117412241471519 0 0.1187293914863337 0.1182846474287873 0 0.11150799601301251 0.1117412241471519 0 0.1187293914863337 0.1182846474287873 0 0.1197878353292403 0.1092484053650479 0 0.10712684862241641 0.1210429748963526 0 0.1187293914863337 0.1182846474287873 0 0.114987521205969 0.1268010028982309 0 0.1187293914863337 0.1182846474287873 0 0.12813823657366311 0.12049833089676459 0 0.12624189261331301 0.1140678077034443 0 0.1187293914863337 0.1182846474287873 0 0.12212988809696081 0.1249307776834532 0 0.12813823657366311 0.12049833089676459 0 0.1187293914863337 0.1182846474287873 0 0.12212988809696081 0.1249307776834532 0 0.114987521205969 0.1268010028982309 0 0.1187293914863337 0.1182846474287873 0 0.1197878353292403 0.1092484053650479 0 0.12624189261331301 0.1140678077034443 0 0.1216961693062274 0.1020981758197984 0 0.110275064223293 0.10236359857942121 0 0.11116449005577619 0.086473750785835857 0 0.1197878353292403 0.1092484053650479 0 0.1216961693062274 0.1020981758197984 0 0.1302764983332621 0.10693497851168419 0 0.1216961693062274 0.1020981758197984 0 0.11116449005577619 0.086473750785835857 0 0.13668050292917741 0.098217611464673699 0 0.1197878353292403 0.1092484053650479 0 0.1216961693062274 0.1020981758197984 0 0.110275064223293 0.10236359857942121 0 0.11150799601301251 0.1117412241471519 0 0.1197878353292403 0.1092484053650479 0 0.110275064223293 0.10236359857942121 0 0.11116449005577619 0.086473750785835857 0 0.1207366242219714 0.074251990558816788 0 0.1300820653953097 0.084166932106396392 0 0.11116449005577619 0.086473750785835857 0 0.13668050292917741 0.098217611464673699 0 0.11116449005577619 0.086473750785835857 0 0.1207366242219714 0.074251990558816788 0 0.10561354398445311 0.069921878226714862 0 0.11550376979223601 0.054551475820320147 0 0.1207366242219714 0.074251990558816788 0 0.13255022158949201 0.068763676371196639 0 0.11550376979223601 0.054551475820320147 0 0.1207366242219714 0.074251990558816788 0 0.10561354398445311 0.069921878226714862 0 0.11116449005577619 0.086473750785835857 0 0.10561354398445311 0.069921878226714862 0 0.085648477182374977 0.074729890106998029 0 0.10561354398445311 0.069921878226714862 0 0.095618088847860577 0.065038419849084594 0 0.085648477182374977 0.074729890106998029 0 0.099395501669828634 0.055681054702382278 0 0.10561354398445311 0.069921878226714862 0 0.095618088847860577 0.065038419849084594 0 0.11116449005577619 0.086473750785835857 0 0.085648477182374977 0.074729890106998029 0 0.11116449005577619 0.086473750785835857 0 0.090808031879269946 0.087622927320568048 0 0.085648477182374977 0.074729890106998029 0 0.097728221435088053 0.099184528615223033 0 0.11116449005577619 0.086473750785835857 0 0.090808031879269946 0.087622927320568048 0 0.097728221435088053 0.099184528615223033 0 0.090808031879269946 0.087622927320568048 0 0.080235742217082393 0.093435287859391092 0 0.090808031879269946 0.087622927320568048 0 0.078675001300488379 0.083882301042573534 0 0.085648477182374977 0.074729890106998029 0 0.090808031879269946 0.087622927320568048 0 0.078675001300488379 0.083882301042573534 0 0.080235742217082393 0.093435287859391092 0 0.066395547834883203 0.05807658879080619 0 0.08827992924315356 0.067842626558367619 0 0.085648477182374977 0.074729890106998029 0 0.095618088847860577 0.065038419849084594 0 0.08827992924315356 0.067842626558367619 0 0.085648477182374977 0.074729890106998029 0 0.090416084875221875 0.058235299142909973 0 0.095618088847860577 0.065038419849084594 0 0.08827992924315356 0.067842626558367619 0 0.066395547834883203 0.05807658879080619 0 0.085648477182374977 0.074729890106998029 0 0.060132464308973767 0.062986029428160187 0 0.066395547834883203 0.05807658879080619 0 0.08827992924315356 0.067842626558367619 0 0.085648477182374977 0.074729890106998029 0 0.068637102026180674 0.07792917868559901 0 0.060132464308973767 0.062986029428160187 0 0.085648477182374977 0.074729890106998029 0 0.060132464308973767 0.062986029428160187 0 0.078675001300488379 0.083882301042573534 0 0.085648477182374977 0.074729890106998029 0 0.068637102026180674 0.07792917868559901 0 0.080235742217082393 0.093435287859391092 0 0.069503799956795384 0.087722797055870286 0 0.068523875558259784 0.095111972458496966 0 0.078675001300488379 0.083882301042573534 0 0.080235742217082393 0.093435287859391092 0 0.069503799956795384 0.087722797055870286 0 0.078675001300488379 0.083882301042573534 0 0.068637102026180674 0.07792917868559901 0 0.069503799956795384 0.087722797055870286 0 0.068637102026180674 0.07792917868559901 0 0.069503799956795384 0.087722797055870286 0 0.060111091978902922 0.083782113849914977 0 0.069503799956795384 0.087722797055870286 0 0.06135777996986308 0.093915161513068182 0 0.060111091978902922 0.083782113849914977 0 0.069503799956795384 0.087722797055870286 0 0.068523875558259784 0.095111972458496966 0 0.06135777996986308 0.093915161513068182 0 0.068523875558259784 0.095111972458496966 0 0.071520258741129425 0.10189571548122769 0 0.062413973273008162 0.1018934272394761 0 0.068523875558259784 0.095111972458496966 0 0.062413973273008162 0.1018934272394761 0 0.06135777996986308 0.093915161513068182 0 0.071520258741129425 0.10189571548122769 0 0.072821304814728441 0.1108529925529516 0 0.063718101814298073 0.11016590081819259 0 0.071520258741129425 0.10189571548122769 0 0.063718101814298073 0.11016590081819259 0 0.062413973273008162 0.1018934272394761 0 0.071520258741129425 0.10189571548122769 0 0.084925795867796111 0.1103515185161017 0 0.072821304814728441 0.1108529925529516 0 0.080235742217082393 0.093435287859391092 0 0.068523875558259784 0.095111972458496966 0 0.071520258741129425 0.10189571548122769 0 0.097728221435088053 0.099184528615223033 0 0.080235742217082393 0.093435287859391092 0 0.084925795867796111 0.1103515185161017 0 0.080235742217082393 0.093435287859391092 0 0.071520258741129425 0.10189571548122769 0 0.084925795867796111 0.1103515185161017 0 0.084925795867796111 0.1103515185161017 0 0.074154959480044275 0.1204842858357125 0 0.087075880893963842 0.12621803440601359 0 0.096984900528893664 0.1212489081817222 0 0.084925795867796111 0.1103515185161017 0 0.087075880893963842 0.12621803440601359 0 0.084925795867796111 0.1103515185161017 0 0.074154959480044275 0.1204842858357125 0 0.072821304814728441 0.1108529925529516 0 0.074154959480044275 0.1204842858357125 0 0.072821304814728441 0.1108529925529516 0 0.063718101814298073 0.11016590081819259 0 0.074154959480044275 0.1204842858357125 0 0.063718101814298073 0.11016590081819259 0 0.060124536552058239 0.11864948812996751 0 0.074154959480044275 0.1204842858357125 0 0.060124536552058239 0.11864948812996751 0 0.061109117960118017 0.12720913792676911 0 0.060124536552058239 0.11864948812996751 0 0.052595679859244633 0.1236025024456274 0 0.054913207086597561 0.11271600588853189 0 0.060124536552058239 0.11864948812996751 0 0.052595679859244633 0.1236025024456274 0 0.061109117960118017 0.12720913792676911 0 0.052595679859244633 0.1236025024456274 0 0.054913207086597561 0.11271600588853189 0 0.046771683079868627 0.1089772416004138 0 0.063718101814298073 0.11016590081819259 0 0.060124536552058239 0.11864948812996751 0 0.054913207086597561 0.11271600588853189 0 0.063718101814298073 0.11016590081819259 0 0.062413973273008162 0.1018934272394761 0 0.053620768430252298 0.1031656988462608 0 0.063718101814298073 0.11016590081819259 0 0.054913207086597561 0.11271600588853189 0 0.053620768430252298 0.1031656988462608 0 0.06135777996986308 0.093915161513068182 0 0.053620768430252298 0.1031656988462608 0 0.051535176025136201 0.090416251810209708 0 0.062413973273008162 0.1018934272394761 0 0.06135777996986308 0.093915161513068182 0 0.053620768430252298 0.1031656988462608 0 0.053620768430252298 0.1031656988462608 0 0.042875633238578528 0.09739353282270094 0 0.051535176025136201 0.090416251810209708 0 0.053620768430252298 0.1031656988462608 0 0.046771683079868627 0.1089772416004138 0 0.042875633238578528 0.09739353282270094 0 0.054913207086597561 0.11271600588853189 0 0.053620768430252298 0.1031656988462608 0 0.046771683079868627 0.1089772416004138 0 0.046771683079868627 0.1089772416004138 0 0.042875633238578528 0.09739353282270094 0 0.034382595390138257 0.1099700727945534 0 0.042875633238578528 0.09739353282270094 0 0.034382595390138257 0.1099700727945534 0 0.030708755379597181 0.088685576768743155 0 0.034382595390138257 0.1099700727945534 0 0.030708755379597181 0.088685576768743155 0 0.052595679859244633 0.1236025024456274 0 0.046771683079868627 0.1089772416004138 0 0.034382595390138257 0.1099700727945534 0 0.034382595390138257 0.1099700727945534 0 0.02520709702204247 0.1232263280856261 0 0.037354296692750887 0.12718670835402709 0 0.052595679859244633 0.1236025024456274 0 0.034382595390138257 0.1099700727945534 0 0.037354296692750887 0.12718670835402709 0 0.034382595390138257 0.1099700727945534 0 0.037354296692750887 0.12718670835402709 0 0.052595679859244633 0.1236025024456274 0 0.034382595390138257 0.1099700727945534 0 0.060132464308973767 0.062986029428160187 0 0.051537231586459821 0.0703604747810012 0 0.044258496001147778 0.063884183083345675 0 0.051537231586459821 0.0703604747810012 0 0.045053238281461433 0.071665999821029613 0 0.044258496001147778 0.063884183083345675 0 0.060132464308973767 0.062986029428160187 0 0.058160070023191839 0.074213970699792686 0 0.051537231586459821 0.0703604747810012 0 0.068637102026180674 0.07792917868559901 0 0.060132464308973767 0.062986029428160187 0 0.058160070023191839 0.074213970699792686 0 0.051537231586459821 0.0703604747810012 0 0.049495561811348857 0.078896267932753172 0 0.045053238281461433 0.071665999821029613 0 0.058160070023191839 0.074213970699792686 0 0.051537231586459821 0.0703604747810012 0 0.049495561811348857 0.078896267932753172 0 0.049495561811348857 0.078896267932753172 0 0.051535176025136201 0.090416251810209708 0 0.041750220721871581 0.085344735896560275 0 0.049495561811348857 0.078896267932753172 0 0.060111091978902922 0.083782113849914977 0 0.051535176025136201 0.090416251810209708 0 0.068637102026180674 0.07792917868559901 0 0.058160070023191839 0.074213970699792686 0 0.060111091978902922 0.083782113849914977 0 0.058160070023191839 0.074213970699792686 0 0.049495561811348857 0.078896267932753172 0 0.060111091978902922 0.083782113849914977 0 0.06135777996986308 0.093915161513068182 0 0.060111091978902922 0.083782113849914977 0 0.051535176025136201 0.090416251810209708 0 0.042875633238578528 0.09739353282270094 0 0.051535176025136201 0.090416251810209708 0 0.041750220721871581 0.085344735896560275 0 0.042875633238578528 0.09739353282270094 0 0.041750220721871581 0.085344735896560275 0 0.030708755379597181 0.088685576768743155 0 0.041750220721871581 0.085344735896560275 0 0.037489048909448763 0.07466528487264068 0 0.030708755379597181 0.088685576768743155 0 0.049495561811348857 0.078896267932753172 0 0.041750220721871581 0.085344735896560275 0 0.037489048909448763 0.07466528487264068 0 0.037489048909448763 0.07466528487264068 0 0.02703491536905472 0.067401080742933134 0 0.030708755379597181 0.088685576768743155 0 0.049495561811348857 0.078896267932753172 0 0.045053238281461433 0.071665999821029613 0 0.037489048909448763 0.07466528487264068 0 0.045053238281461433 0.071665999821029613 0 0.037489048909448763 0.07466528487264068 0 0.037579666130808903 0.067774354445351542 0 0.034062632092931817 0.061255223706808547 0 0.037579666130808903 0.067774354445351542 0 0.02703491536905472 0.067401080742933134 0 0.037489048909448763 0.07466528487264068 0 0.037579666130808903 0.067774354445351542 0 0.02703491536905472 0.067401080742933134 0 0.034062632092931817 0.061255223706808547 0 0.037579666130808903 0.067774354445351542 0 0.044258496001147778 0.063884183083345675 0 0.045053238281461433 0.071665999821029613 0 0.037579666130808903 0.067774354445351542 0 0.044258496001147778 0.063884183083345675 0 0.02703491536905472 0.067401080742933134 0 0.030708755379597181 0.088685576768743155 0 0.01366790099406239 0.052632887419703241 0 0.026593398378051959 0.076487299351285121 0 0.01366790099406239 0.052632887419703241 0 0.02703491536905472 0.067401080742933134 0 0.026593398378051959 0.076487299351285121 0 0.02703491536905472 0.067401080742933134 0 0.026593398378051959 0.076487299351285121 0 0.030708755379597181 0.088685576768743155 0 0.01366790099406239 0.052632887419703241 0 0.026593398378051959 0.076487299351285121 0 0.01611389888654503 0.070322973248010373 0 0.026593398378051959 0.076487299351285121 0 0.01611389888654503 0.070322973248010373 0 0.01767063525815666 0.080500261616376856 0 0.01767063525815666 0.080500261616376856 0 0.030708755379597181 0.088685576768743155 0 0.011643404763696401 0.092949868607662828 0 0.026593398378051959 0.076487299351285121 0 0.01767063525815666 0.080500261616376856 0 0.030708755379597181 0.088685576768743155 0 0.01767063525815666 0.080500261616376856 0 0.011643404763696401 0.092949868607662828 0 0.0065236609159091173 0.071671444604676282 0 -0.01109578586274463 0.07592966442077155 0 0.011643404763696401 0.092949868607662828 0 0.0065236609159091173 0.071671444604676282 0 -0.01109578586274463 0.07592966442077155 0 0.011643404763696401 0.092949868607662828 0 0.01366790099406239 0.052632887419703241 0 0.01611389888654503 0.070322973248010373 0 0.0065236609159091173 0.071671444604676282 0 0.01611389888654503 0.070322973248010373 0 0.01767063525815666 0.080500261616376856 0 0.0065236609159091173 0.071671444604676282 0 -0.0031702267477386531 0.067180855403790804 0 0.00079413703044923156 0.058803151297745167 0 0.0065236609159091173 0.071671444604676282 0 0.034382595390138257 0.1099700727945534 0 0.02520709702204247 0.1232263280856261 0 0.01356063639681436 0.11371506303709419 0 0.02520709702204247 0.1232263280856261 0 0.01356063639681436 0.11371506303709419 0 0.011098566836083609 0.13484946890849181 0 0.034382595390138257 0.1099700727945534 0 0.011643404763696401 0.092949868607662828 0 0.01356063639681436 0.11371506303709419 0 0.034382595390138257 0.1099700727945534 0 0.011643404763696401 0.092949868607662828 0 0.034382595390138257 0.1099700727945534 0 0.030708755379597181 0.088685576768743155 0 0.011643404763696401 0.092949868607662828 0 -0.0040088977147468936 0.097024336429998151 0 0.011643404763696401 0.092949868607662828 0 0.0025937760044158291 0.1064596481343341 0 0.011643404763696401 0.092949868607662828 0 0.0025937760044158291 0.1064596481343341 0 0.01356063639681436 0.11371506303709419 0 -0.007175360702145514 0.1155930690216506 0 0.0025937760044158291 0.1064596481343341 0 0.01356063639681436 0.11371506303709419 0 -0.007175360702145514 0.1155930690216506 0 0.01356063639681436 0.11371506303709419 0 0.011098566836083609 0.13484946890849181 0 -0.007175360702145514 0.1155930690216506 0 0.011098566836083609 0.13484946890849181 0 0.02520709702204247 0.1232263280856261 0 0.011098566836083609 0.13484946890849181 0 0.028759663239593541 0.13617761485890201 0 0.02520709702204247 0.1232263280856261 0 0.028759663239593541 0.13617761485890201 0 0.037354296692750887 0.12718670835402709 0 0.011098566836083609 0.13484946890849181 0 0.029372494374312729 0.15410586879533311 0 0.013538337341477229 0.1636201682865295 0 0.011098566836083609 0.13484946890849181 0 0.028759663239593541 0.13617761485890201 0 0.029372494374312729 0.15410586879533311 0 0.011098566836083609 0.13484946890849181 0 0.029372494374312729 0.15410586879533311 0 -0.0048034666842798916 0.1614245706846468 0 0.011098566836083609 0.13484946890849181 0 0.013538337341477229 0.1636201682865295 0 -0.0057956805663459468 0.1892940575843915 0 -0.0048034666842798916 0.1614245706846468 0 0.013538337341477229 0.1636201682865295 0 -0.0057956805663459468 0.1892940575843915 0 0.013538337341477229 0.1636201682865295 0 0.020045678312652242 0.18090880435863019 0 -0.0057956805663459468 0.1892940575843915 0 0.020045678312652242 0.18090880435863019 0 0.029372494374312729 0.15410586879533311 0 0.013538337341477229 0.1636201682865295 0 0.020045678312652242 0.18090880435863019 0 0.029372494374312729 0.15410586879533311 0 0.045887037191650451 0.17252355113286891 0 0.04813315871709322 0.1541455757588851 0 0.029372494374312729 0.15410586879533311 0 0.020045678312652242 0.18090880435863019 0 0.045887037191650451 0.17252355113286891 0 0.020045678312652242 0.18090880435863019 0 0.045887037191650451 0.17252355113286891 0 0.020045678312652242 0.18090880435863019 0 0.045887037191650451 0.17252355113286891 0 0.041991232206495782 0.1919910870650737 0 0.045887037191650451 0.17252355113286891 0 0.060802696405823108 0.1787365445376432 0 0.041991232206495782 0.1919910870650737 0 0.045887037191650451 0.17252355113286891 0 0.071728396070648653 0.1641382979071076 0 0.045887037191650451 0.17252355113286891 0 0.060802696405823108 0.1787365445376432 0 0.071728396070648653 0.1641382979071076 0 0.045887037191650451 0.17252355113286891 0 0.059657673584757237 0.15824269734654939 0 0.04813315871709322 0.1541455757588851 0 0.045887037191650451 0.17252355113286891 0 0.059657673584757237 0.15824269734654939 0 0.071728396070648653 0.1641382979071076 0 0.059657673584757237 0.15824269734654939 0 0.04813315871709322 0.1541455757588851 0 0.060329678829100349 0.1474246815113264 0 0.04813315871709322 0.1541455757588851 0 0.050215372913412007 0.1458935282758238 0 0.060329678829100349 0.1474246815113264 0 0.050215372913412007 0.1458935282758238 0 0.060329678829100349 0.1474246815113264 0 0.052072656112092337 0.13760051191958289 0 0.050215372913412007 0.1458935282758238 0 0.052072656112092337 0.13760051191958289 0 0.040325997995362128 0.14440334391350099 0 0.060329678829100349 0.1474246815113264 0 0.062159468211553673 0.13737243366585769 0 0.052072656112092337 0.13760051191958289 0 0.062159468211553673 0.13737243366585769 0 0.054733357378362921 0.13083888414419281 0 0.052072656112092337 0.13760051191958289 0 0.052595679859244633 0.1236025024456274 0 0.054733357378362921 0.13083888414419281 0 0.061109117960118017 0.12720913792676911 0 0.062159468211553673 0.13737243366585769 0 0.054733357378362921 0.13083888414419281 0 0.061109117960118017 0.12720913792676911 0 0.052595679859244633 0.1236025024456274 0 0.054733357378362921 0.13083888414419281 0 0.046346625143134958 0.1312929959830558 0 0.054733357378362921 0.13083888414419281 0 0.052072656112092337 0.13760051191958289 0 0.046346625143134958 0.1312929959830558 0 0.037354296692750887 0.12718670835402709 0 0.040325997995362128 0.14440334391350099 0 0.046346625143134958 0.1312929959830558 0 0.037354296692750887 0.12718670835402709 0 0.040325997995362128 0.14440334391350099 0 0.028759663239593541 0.13617761485890201 0 0.037354296692750887 0.12718670835402709 0 0.040325997995362128 0.14440334391350099 0 0.052072656112092337 0.13760051191958289 0 0.046346625143134958 0.1312929959830558 0 0.040325997995362128 0.14440334391350099 0 0.052595679859244633 0.1236025024456274 0 0.046346625143134958 0.1312929959830558 0 0.037354296692750887 0.12718670835402709 0 0.028759663239593541 0.13617761485890201 0 0.029372494374312729 0.15410586879533311 0 0.040325997995362128 0.14440334391350099 0 0.029372494374312729 0.15410586879533311 0 0.04813315871709322 0.1541455757588851 0 0.040325997995362128 0.14440334391350099 0 0.04813315871709322 0.1541455757588851 0 0.050215372913412007 0.1458935282758238 0 0.040325997995362128 0.14440334391350099 0 0.025149977659741599 0.24684982625080901 0 0.00014186162909880781 0.2338185852574263 0 0.02177620002751179 0.22559840920251981 0 0.025149977659741599 0.24684982625080901 0 0.00014186162909880781 0.2338185852574263 0 0.025149977659741599 0.24684982625080901 0 0.00014186162909880781 0.2338185852574263 0 0.0073806355134042019 0.25529449578482938 0 0.00014186162909880781 0.2338185852574263 0 0.02177620002751179 0.22559840920251981 0 0.0090806704795409685 0.20996839310177981 0 0.025149977659741599 0.24684982625080901 0 0.02177620002751179 0.22559840920251981 0 0.039960986899899173 0.22780444499479169 0 0.02177620002751179 0.22559840920251981 0 0.0090806704795409685 0.20996839310177981 0 0.034547503469278373 0.20955079640779209 0 0.0090806704795409685 0.20996839310177981 0 0.02162293693503077 0.1981024475624624 0 0.034547503469278373 0.20955079640779209 0 -0.0057956805663459468 0.1892940575843915 0 0.0090806704795409685 0.20996839310177981 0 0.02162293693503077 0.1981024475624624 0 -0.0057956805663459468 0.1892940575843915 0 0.020045678312652242 0.18090880435863019 0 0.02162293693503077 0.1981024475624624 0 0.020045678312652242 0.18090880435863019 0 0.02162293693503077 0.1981024475624624 0 0.041991232206495782 0.1919910870650737 0 0.02162293693503077 0.1981024475624624 0 0.041991232206495782 0.1919910870650737 0 0.034547503469278373 0.20955079640779209 0 0.041991232206495782 0.1919910870650737 0 0.05849467095877426 0.1965416733816682 0 0.050764695011206777 0.20916964222725651 0 0.060802696405823108 0.1787365445376432 0 0.041991232206495782 0.1919910870650737 0 0.05849467095877426 0.1965416733816682 0 0.050764695011206777 0.20916964222725651 0 0.066981886553135278 0.20878848804672309 0 0.05849467095877426 0.1965416733816682 0 0.050764695011206777 0.20916964222725651 0 0.066981886553135278 0.20878848804672309 0 0.050764695011206777 0.20916964222725651 0 0.061514006406540499 0.23071042489022231 0 0.066981886553135278 0.20878848804672309 0 0.050764695011206777 0.20916964222725651 0 0.034547503469278373 0.20955079640779209 0 0.039960986899899173 0.22780444499479169 0 0.050764695011206777 0.20916964222725651 0 0.034547503469278373 0.20955079640779209 0 0.041991232206495782 0.1919910870650737 0 0.050764695011206777 0.20916964222725651 0 0.034547503469278373 0.20955079640779209 0 0.02177620002751179 0.22559840920251981 0 0.034547503469278373 0.20955079640779209 0 0.039960986899899173 0.22780444499479169 0 0.039960986899899173 0.22780444499479169 0 0.061514006406540499 0.23071042489022231 0 0.045472231705318063 0.24424317023843681 0 0.050764695011206777 0.20916964222725651 0 0.039960986899899173 0.22780444499479169 0 0.061514006406540499 0.23071042489022231 0 0.061514006406540499 0.23071042489022231 0 0.056046126259945157 0.25263236173372139 0 0.061514006406540499 0.23071042489022231 0 0.056046126259945157 0.25263236173372139 0 0.067905867336300579 0.25358800162702 0 0.061514006406540499 0.23071042489022231 0 0.045472231705318063 0.24424317023843681 0 0.056046126259945157 0.25263236173372139 0 0.025149977659741599 0.24684982625080901 0 0.039960986899899173 0.22780444499479169 0 0.045472231705318063 0.24424317023843681 0 0.092857250133516089 0.24175825718487831 0 0.078525547080241467 0.2465942846531784 0 0.093798877441032588 0.2579700649065903 0 0.092857250133516089 0.24175825718487831 0 0.078525547080241467 0.2465942846531784 0 0.081986142109724491 0.22560265144644431 0 0.061514006406540499 0.23071042489022231 0 0.078525547080241467 0.2465942846531784 0 0.067905867336300579 0.25358800162702 0 0.061514006406540499 0.23071042489022231 0 0.078525547080241467 0.2465942846531784 0 0.081986142109724491 0.22560265144644431 0 0.061514006406540499 0.23071042489022231 0 0.081986142109724491 0.22560265144644431 0 0.066981886553135278 0.20878848804672309 0 0.061514006406540499 0.23071042489022231 0 0.066981886553135278 0.20878848804672309 0 0.081986142109724491 0.22560265144644431 0 0.09236794217301933 0.20819183719001669 0 0.066981886553135278 0.20878848804672309 0 0.09236794217301933 0.20819183719001669 0 0.066981886553135278 0.20878848804672309 0 0.09236794217301933 0.20819183719001669 0 0.066981886553135278 0.20878848804672309 0 0.071445073857882777 0.19089458628000441 0 0.060802696405823108 0.1787365445376432 0 0.05849467095877426 0.1965416733816682 0 0.071445073857882777 0.19089458628000441 0 0.066981886553135278 0.20878848804672309 0 0.071445073857882777 0.19089458628000441 0 0.05849467095877426 0.1965416733816682 0 0.066981886553135278 0.20878848804672309 0 0.071445073857882777 0.19089458628000441 0 0.09236794217301933 0.20819183719001669 0 0.071445073857882777 0.19089458628000441 0 0.086464584236575506 0.1862285865309723 0 0.09236794217301933 0.20819183719001669 0 0.086464584236575506 0.1862285865309723 0 0.1023855527362314 0.18749689463882899 0 0.09236794217301933 0.20819183719001669 0 0.11775399779290339 0.20759518633331239 0 0.1023855527362314 0.18749689463882899 0 0.11775399779290339 0.20759518633331239 0 0.1023855527362314 0.18749689463882899 0 0.12550986450034471 0.186594373040398 0 0.09236794217301933 0.20819183719001669 0 0.11775399779290339 0.20759518633331239 0 0.09236794217301933 0.20819183719001669 0 0.11775399779290339 0.20759518633331239 0 0.10906069526472741 0.22998953009969161 0 0.092857250133516089 0.24175825718487831 0 0.081986142109724491 0.22560265144644431 0 0.10906069526472741 0.22998953009969161 0 0.081986142109724491 0.22560265144644431 0 0.09236794217301933 0.20819183719001669 0 0.10906069526472741 0.22998953009969161 0 0.11775399779290339 0.20759518633331239 0 0.10906069526472741 0.22998953009969161 0 0.1382648444377183 0.22719855966067881 0 0.10906069526472741 0.22998953009969161 0 0.12787711237058769 0.24521089126939841 0 0.1100607559553454 0.25396994184181759 0 0.092857250133516089 0.24175825718487831 0 0.10906069526472741 0.22998953009969161 0 0.1100607559553454 0.25396994184181759 0 0.081151633673542972 0.15313158297098389 0 0.083920606388658545 0.14050817004821939 0 0.0975697549496468 0.15575304468134629 0 0.081151633673542972 0.15313158297098389 0 0.083920606388658545 0.14050817004821939 0 0.071387777285217918 0.15212681924726251 0 0.074154959480044275 0.1204842858357125 0 0.087075880893963842 0.12621803440601359 0 0.083920606388658545 0.14050817004821939 0 0.087075880893963842 0.12621803440601359 0 0.083920606388658545 0.14050817004821939 0 0.097906888154765004 0.1362305538396491 0 0.062159468211553673 0.13737243366585769 0 0.061109117960118017 0.12720913792676911 0 0.083920606388658545 0.14050817004821939 0 0.074154959480044275 0.1204842858357125 0 0.061109117960118017 0.12720913792676911 0 0.083920606388658545 0.14050817004821939 0 0.061109117960118017 0.12720913792676911 0 0.083920606388658545 0.14050817004821939 0 0.062159468211553673 0.13737243366585769 0 0.083920606388658545 0.14050817004821939 0 0.069449382678632612 0.1443580261181665 0 0.060329678829100349 0.1474246815113264 0 0.062159468211553673 0.13737243366585769 0 0.069449382678632612 0.1443580261181665 0 0.060329678829100349 0.1474246815113264 0 0.069449382678632612 0.1443580261181665 0 0.071387777285217918 0.15212681924726251 0 0.083920606388658545 0.14050817004821939 0 0.069449382678632612 0.1443580261181665 0 0.071387777285217918 0.15212681924726251 0 0.059657673584757237 0.15824269734654939 0 0.060329678829100349 0.1474246815113264 0 0.071387777285217918 0.15212681924726251 0 0.059657673584757237 0.15824269734654939 0 0.071387777285217918 0.15212681924726251 0 0.071728396070648653 0.1641382979071076 0 0.081151633673542972 0.15313158297098389 0 0.071387777285217918 0.15212681924726251 0 0.071728396070648653 0.1641382979071076 0 0.071445073857882777 0.19089458628000441 0 0.075908261162629706 0.17300068451328551 0 0.086464584236575506 0.1862285865309723 0 0.060802696405823108 0.1787365445376432 0 0.071445073857882777 0.19089458628000441 0 0.075908261162629706 0.17300068451328551 0 0.071445073857882777 0.19089458628000441 0 0.075908261162629706 0.17300068451328551 0 0.060802696405823108 0.1787365445376432 0 0.071728396070648653 0.1641382979071076 0 0.075908261162629706 0.17300068451328551 0 0.086464584236575506 0.1862285865309723 0 0.090216091253114361 0.17155893003272579 0 0.1023855527362314 0.18749689463882899 0 0.075908261162629706 0.17300068451328551 0 0.086464584236575506 0.1862285865309723 0 0.090216091253114361 0.17155893003272579 0 0.081151633673542972 0.15313158297098389 0 0.071728396070648653 0.1641382979071076 0 0.0975697549496468 0.15575304468134629 0 0.071728396070648653 0.1641382979071076 0 0.090216091253114361 0.17155893003272579 0 0.0975697549496468 0.15575304468134629 0 0.071728396070648653 0.1641382979071076 0 0.075908261162629706 0.17300068451328551 0 0.090216091253114361 0.17155893003272579 0 0.071728396070648653 0.1641382979071076 0 0.0975697549496468 0.15575304468134629 0 0.090216091253114361 0.17155893003272579 0 0.1064810698159025 0.16893633516972181 0 0.0975697549496468 0.15575304468134629 0 0.1064810698159025 0.16893633516972181 0 0.1067320948171991 0.1538072021696697 0 0.0975697549496468 0.15575304468134629 0 0.090216091253114361 0.17155893003272579 0 0.1064810698159025 0.16893633516972181 0 0.1023855527362314 0.18749689463882899 0 0.1064810698159025 0.16893633516972181 0 0.12954358324573961 0.16710623429112001 0 0.12550986450034471 0.186594373040398 0 0.1064810698159025 0.16893633516972181 0 0.1023855527362314 0.18749689463882899 0 0.12550986450034471 0.186594373040398 0 0.1064810698159025 0.16893633516972181 0 0.1067320948171991 0.1538072021696697 0 0.12954358324573961 0.16710623429112001 0 0.1067320948171991 0.1538072021696697 0 0.1262856736452258 0.1537478882528979 0 0.12954358324573961 0.16710623429112001 0 0.1067320948171991 0.1538072021696697 0 0.12954358324573961 0.16710623429112001 0 0.1148569119608701 0.14824987142416859 0 0.1067320948171991 0.1538072021696697 0 0.1262856736452258 0.1537478882528979 0 0.118317888191051 0.14254191757659121 0 0.1148569119608701 0.14824987142416859 0 0.1262856736452258 0.1537478882528979 0 0.118317888191051 0.14254191757659121 0 0.12756241452120801 0.13893694775055651 0 0.1262856736452258 0.1537478882528979 0 0.1148569119608701 0.14824987142416859 0 0.1067320948171991 0.1538072021696697 0 0.1080919911900045 0.14290247769751591 0 0.118317888191051 0.14254191757659121 0 0.1148569119608701 0.14824987142416859 0 0.1080919911900045 0.14290247769751591 0 0.083920606388658545 0.14050817004821939 0 0.1067320948171991 0.1538072021696697 0 0.1067320948171991 0.1538072021696697 0 0.1080919911900045 0.14290247769751591 0 0.097906888154765004 0.1362305538396491 0 0.083920606388658545 0.14050817004821939 0 0.1067320948171991 0.1538072021696697 0 0.097906888154765004 0.1362305538396491 0 0.083920606388658545 0.14050817004821939 0 0.1067320948171991 0.1538072021696697 0 0.0975697549496468 0.15575304468134629 0 0.096984900528893664 0.1212489081817222 0 0.097906888154765004 0.1362305538396491 0 0.10589272808503949 0.13156516273042271 0 0.096984900528893664 0.1212489081817222 0 0.087075880893963842 0.12621803440601359 0 0.097906888154765004 0.1362305538396491 0 0.1080919911900045 0.14290247769751591 0 0.097906888154765004 0.1362305538396491 0 0.10589272808503949 0.13156516273042271 0 0.1080919911900045 0.14290247769751591 0 0.10589272808503949 0.13156516273042271 0 0.11327312463209829 0.13597294690712769 0 0.10712684862241641 0.1210429748963526 0 0.10589272808503949 0.13156516273042271 0 0.114987521205969 0.1268010028982309 0 0.10589272808503949 0.13156516273042271 0 0.114987521205969 0.1268010028982309 0 0.11327312463209829 0.13597294690712769 0 0.114987521205969 0.1268010028982309 0 0.11327312463209829 0.13597294690712769 0 0.1203000125167645 0.13336293759413789 0 0.118317888191051 0.14254191757659121 0 0.1080919911900045 0.14290247769751591 0 0.11327312463209829 0.13597294690712769 0 0.118317888191051 0.14254191757659121 0 0.1203000125167645 0.13336293759413789 0 0.12756241452120801 0.13893694775055651 0 0.118317888191051 0.14254191757659121 0 0.11327312463209829 0.13597294690712769 0 0.1203000125167645 0.13336293759413789 0 0.12212988809696081 0.1249307776834532 0 0.114987521205969 0.1268010028982309 0 0.1203000125167645 0.13336293759413789 0 0.12212988809696081 0.1249307776834532 0 0.1203000125167645 0.13336293759413789 0 0.12788127083107459 0.1291064789800366 0 0.12788127083107459 0.1291064789800366 0 0.13409394305489639 0.1257339851238449 0 0.12813823657366311 0.12049833089676459 0 0.12788127083107459 0.1291064789800366 0 0.13410827310584911 0.13282331674432049 0 0.13409394305489639 0.1257339851238449 0 0.12788127083107459 0.1291064789800366 0 0.12756241452120801 0.13893694775055651 0 0.13410827310584911 0.13282331674432049 0 0.1203000125167645 0.13336293759413789 0 0.12788127083107459 0.1291064789800366 0 0.12756241452120801 0.13893694775055651 0 0.13410827310584911 0.13282331674432049 0 0.14295710802469111 0.12768772724150559 0 0.13848136883728299 0.14203914735535511 0 0.12756241452120801 0.13893694775055651 0 0.13410827310584911 0.13282331674432049 0 0.13848136883728299 0.14203914735535511 0 0.13410827310584911 0.13282331674432049 0 0.13409394305489639 0.1257339851238449 0 0.14295710802469111 0.12768772724150559 0 0.14295710802469111 0.12768772724150559 0 0.15698787762036359 0.14007723406829989 0 0.15364605026385231 0.1227496740475859 0 0.14295710802469111 0.12768772724150559 0 0.13848136883728299 0.14203914735535511 0 0.15698787762036359 0.14007723406829989 0 0.13848136883728299 0.14203914735535511 0 0.1441447949138806 0.1573716891147208 0 0.15698787762036359 0.14007723406829989 0 0.1441447949138806 0.1573716891147208 0 0.1598153361361678 0.15982657838785511 0 0.15698787762036359 0.14007723406829989 0 0.13848136883728299 0.14203914735535511 0 0.1262856736452258 0.1537478882528979 0 0.1441447949138806 0.1573716891147208 0 0.12756241452120801 0.13893694775055651 0 0.13848136883728299 0.14203914735535511 0 0.1262856736452258 0.1537478882528979 0 0.1262856736452258 0.1537478882528979 0 0.12954358324573961 0.16710623429112001 0 0.1441447949138806 0.1573716891147208 0 0.12954358324573961 0.16710623429112001 0 0.12550986450034471 0.186594373040398 0 0.15375492999850379 0.1814330523327968 0 0.12954358324573961 0.16710623429112001 0 0.15375492999850379 0.1814330523327968 0 0.1441447949138806 0.1573716891147208 0 0.15375492999850379 0.1814330523327968 0 0.1441447949138806 0.1573716891147208 0 0.1598153361361678 0.15982657838785511 0 0.1598153361361678 0.15982657838785511 0 0.17205847002769489 0.1711246398383999 0 0.17247097746626519 0.1464629757798975 0 0.15375492999850379 0.1814330523327968 0 0.1598153361361678 0.15982657838785511 0 0.17205847002769489 0.1711246398383999 0 0.15375492999850379 0.1814330523327968 0 0.17205847002769489 0.1711246398383999 0 0.18411838942066619 0.18828130780555291 0 0.17205847002769489 0.1711246398383999 0 0.18411838942066619 0.18828130780555291 0 0.19050902449260759 0.164433536692701 0 0.17205847002769489 0.1711246398383999 0 0.17247097746626519 0.1464629757798975 0 0.19050902449260759 0.164433536692701 0 0.17247097746626519 0.1464629757798975 0 0.1903693880120208 0.14015559280000461 0 0.19050902449260759 0.164433536692701 0 0.17247097746626519 0.1464629757798975 0 0.18002451345814399 0.12716596121819479 0 0.1903693880120208 0.14015559280000461 0 0.17247097746626519 0.1464629757798975 0 0.18002451345814399 0.12716596121819479 0 0.16417220099380411 0.12505127510387981 0 0.15698787762036359 0.14007723406829989 0 0.16417220099380411 0.12505127510387981 0 0.15364605026385231 0.1227496740475859 0 0.17247097746626519 0.1464629757798975 0 0.15698787762036359 0.14007723406829989 0 0.16417220099380411 0.12505127510387981 0 0.1598153361361678 0.15982657838785511 0 0.17247097746626519 0.1464629757798975 0 0.15698787762036359 0.14007723406829989 0 0.14702044576598061 0.2478904659134552 0 0.1382648444377183 0.22719855966067881 0 0.15828943790025421 0.22969507774947781 0 0.14702044576598061 0.2478904659134552 0 0.12787711237058769 0.24521089126939841 0 0.1382648444377183 0.22719855966067881 0 0.10906069526472741 0.22998953009969161 0 0.12787711237058769 0.24521089126939841 0 0.1382648444377183 0.22719855966067881 0 0.1382648444377183 0.22719855966067881 0 0.14314005341278749 0.20699853547660821 0 0.15828943790025421 0.22969507774947781 0 0.14314005341278749 0.20699853547660821 0 0.16852610903267151 0.206401884619904 0 0.11775399779290339 0.20759518633331239 0 0.1382648444377183 0.22719855966067881 0 0.14314005341278749 0.20699853547660821 0 0.11775399779290339 0.20759518633331239 0 0.14314005341278749 0.20699853547660821 0 0.11775399779290339 0.20759518633331239 0 0.12550986450034471 0.186594373040398 0 0.14314005341278749 0.20699853547660821 0 0.15375492999850379 0.1814330523327968 0 0.14314005341278749 0.20699853547660821 0 0.16852610903267151 0.206401884619904 0 0.12550986450034471 0.186594373040398 0 0.15375492999850379 0.1814330523327968 0 0.14314005341278749 0.20699853547660821 0 0.15375492999850379 0.1814330523327968 0 0.18411838942066619 0.18828130780555291 0 0.16852610903267151 0.206401884619904 0 0.18411838942066619 0.18828130780555291 0 0.16852610903267151 0.206401884619904 0 0.1878214256448299 0.20672411698152671 0 0.16852610903267151 0.206401884619904 0 0.17766068788986381 0.23020170431202469 0 0.1878214256448299 0.20672411698152671 0 0.14314005341278749 0.20699853547660821 0 0.16852610903267151 0.206401884619904 0 0.15828943790025421 0.22969507774947781 0 0.16852610903267151 0.206401884619904 0 0.15828943790025421 0.22969507774947781 0 0.17766068788986381 0.23020170431202469 0 0.17766068788986381 0.23020170431202469 0 0.19353513124668931 0.22246748781277501 0 0.1878214256448299 0.20672411698152671 0 0.17766068788986381 0.23020170431202469 0 0.18692125413578081 0.24552837502103991 0 0.19379669244916639 0.23440003217329089 0 0.17766068788986381 0.23020170431202469 0 0.18692125413578081 0.24552837502103991 0 0.16774616909827719 0.2460930353984315 0 0.15828943790025421 0.22969507774947781 0 0.17766068788986381 0.23020170431202469 0 0.16774616909827719 0.2460930353984315 0 0.14702044576598061 0.2478904659134552 0 0.15828943790025421 0.22969507774947781 0 0.16774616909827719 0.2460930353984315 0 0.21557305570370441 0.24515722135805329 0 0.2029257889591993 0.24295866219667439 0 0.23007231546290949 0.2334513308517342 0 0.2029257889591993 0.24295866219667439 0 0.23007231546290949 0.2334513308517342 0 0.21557305570370441 0.24515722135805329 0 0.2029257889591993 0.24295866219667439 0 0.20107379594449931 0.25686311186437227 0 0.18692125413578081 0.24552837502103991 0 0.2029257889591993 0.24295866219667439 0 0.20107379594449931 0.25686311186437227 0 0.18692125413578081 0.24552837502103991 0 0.19379669244916639 0.23440003217329089 0 0.2029257889591993 0.24295866219667439 0 0.17766068788986381 0.23020170431202469 0 0.19379669244916639 0.23440003217329089 0 0.19353513124668931 0.22246748781277501 0 0.19379669244916639 0.23440003217329089 0 0.2029257889591993 0.24295866219667439 0 0.20920449219815451 0.22515354045629349 0 0.19379669244916639 0.23440003217329089 0 0.19353513124668931 0.22246748781277501 0 0.20920449219815451 0.22515354045629349 0 0.2029257889591993 0.24295866219667439 0 0.20920449219815451 0.22515354045629349 0 0.23007231546290949 0.2334513308517342 0 0.19353513124668931 0.22246748781277501 0 0.20920449219815451 0.22515354045629349 0 0.20732414099141369 0.20672295990195361 0 0.20920449219815451 0.22515354045629349 0 0.20732414099141369 0.20672295990195361 0 0.22783619495118521 0.20973527166224001 0 0.19353513124668931 0.22246748781277501 0 0.20732414099141369 0.20672295990195361 0 0.1878214256448299 0.20672411698152671 0 0.18411838942066619 0.18828130780555291 0 0.1878214256448299 0.20672411698152671 0 0.20343121377691101 0.18825927067945539 0 0.20732414099141369 0.20672295990195361 0 0.1878214256448299 0.20672411698152671 0 0.20343121377691101 0.18825927067945539 0 0.20732414099141369 0.20672295990195361 0 0.20343121377691101 0.18825927067945539 0 0.2219787971027708 0.18678942035429349 0 0.20732414099141369 0.20672295990195361 0 0.22783619495118521 0.20973527166224001 0 0.2219787971027708 0.18678942035429349 0 0.24528107816237801 0.1907036486386274 0 0.22783619495118521 0.20973527166224001 0 0.2219787971027708 0.18678942035429349 0 0.24528107816237801 0.1907036486386274 0 0.25242827713160498 0.21540237912569379 0 0.24528107816237801 0.1907036486386274 0 0.22783619495118521 0.20973527166224001 0 0.25242827713160498 0.21540237912569379 0 0.20920449219815451 0.22515354045629349 0 0.22783619495118521 0.20973527166224001 0 0.23007231546290949 0.2334513308517342 0 0.23007231546290949 0.2334513308517342 0 0.25242827713160498 0.21540237912569379 0 0.23007231546290949 0.2334513308517342 0 0.25511338863332461 0.22468137717712711 0 0.25242827713160498 0.21540237912569379 0 0.23007231546290949 0.2334513308517342 0 0.25511338863332461 0.22468137717712711 0 0.23007231546290949 0.2334513308517342 0 0.2457442494512444 0.24022391879071339 0 0.25511338863332461 0.22468137717712711 0 0.22783619495118521 0.20973527166224001 0 0.23007231546290949 0.2334513308517342 0 0.25242827713160498 0.21540237912569379 0 0.2457442494512444 0.24022391879071339 0 0.23628031136540401 0.25597328662156199 0 0.26221447651104962 0.2479993693513689 0 0.23007231546290949 0.2334513308517342 0 0.2457442494512444 0.24022391879071339 0 0.23628031136540401 0.25597328662156199 0 0.21557305570370441 0.24515722135805329 0 0.23007231546290949 0.2334513308517342 0 0.23628031136540401 0.25597328662156199 0 0.21557305570370441 0.24515722135805329 0 0.23007231546290949 0.2334513308517342 0 0.21023583046185859 0.14706018503428281 0 0.22521494488481819 0.12557893006429149 0 0.2001236667938262 0.1180422718546187 0 0.18002451345814399 0.12716596121819479 0 0.1903693880120208 0.14015559280000461 0 0.2001236667938262 0.1180422718546187 0 0.21023583046185859 0.14706018503428281 0 0.1903693880120208 0.14015559280000461 0 0.2001236667938262 0.1180422718546187 0 0.21023583046185859 0.14706018503428281 0 0.1903693880120208 0.14015559280000461 0 0.19050902449260759 0.164433536692701 0 0.18411838942066619 0.18828130780555291 0 0.20343121377691101 0.18825927067945539 0 0.19050902449260759 0.164433536692701 0 0.20343121377691101 0.18825927067945539 0 0.19050902449260759 0.164433536692701 0 0.20962662881846919 0.1707346457134423 0 0.20343121377691101 0.18825927067945539 0 0.20962662881846919 0.1707346457134423 0 0.2219787971027708 0.18678942035429349 0 0.21023583046185859 0.14706018503428281 0 0.20962662881846919 0.1707346457134423 0 0.2254160648188453 0.164078398330023 0 0.21023583046185859 0.14706018503428281 0 0.19050902449260759 0.164433536692701 0 0.20962662881846919 0.1707346457134423 0 0.20962662881846919 0.1707346457134423 0 0.2254160648188453 0.164078398330023 0 0.2219787971027708 0.18678942035429349 0 0.2254160648188453 0.164078398330023 0 0.2219787971027708 0.18678942035429349 0 0.23714843650665229 0.1758398884969993 0 0.24528107816237801 0.1907036486386274 0 0.2219787971027708 0.18678942035429349 0 0.23714843650665229 0.1758398884969993 0 0.24528107816237801 0.1907036486386274 0 0.23714843650665229 0.1758398884969993 0 0.25292738168467233 0.17649485219682931 0 0.2254160648188453 0.164078398330023 0 0.24653130607993951 0.16237692388552691 0 0.23688534306575301 0.1458043597726891 0 0.23714843650665229 0.1758398884969993 0 0.24653130607993951 0.16237692388552691 0 0.25292738168467233 0.17649485219682931 0 0.2254160648188453 0.164078398330023 0 0.23714843650665229 0.1758398884969993 0 0.24653130607993951 0.16237692388552691 0 0.24653130607993951 0.16237692388552691 0 0.2496536413094039 0.15044712256699261 0 0.23688534306575301 0.1458043597726891 0 0.2496536413094039 0.15044712256699261 0 0.23688534306575301 0.1458043597726891 0 0.25004344172447263 0.14019424959050239 0 0.21023583046185859 0.14706018503428281 0 0.2254160648188453 0.164078398330023 0 0.23688534306575301 0.1458043597726891 0 0.21023583046185859 0.14706018503428281 0 0.23688534306575301 0.1458043597726891 0 0.22521494488481819 0.12557893006429149 0 0.22521494488481819 0.12557893006429149 0 0.25030622297580962 0.13311558827396619 0 0.23688534306575301 0.1458043597726891 0 0.22521494488481819 0.12557893006429149 0 0.25030622297580962 0.13311558827396619 0 0.23688534306575301 0.1458043597726891 0 0.25004344172447263 0.14019424959050239 0 0.25030622297580962 0.13311558827396619 0 0.22521494488481819 0.12557893006429149 0 0.2369469616243938 0.1144798656387125 0 0.25030622297580962 0.13311558827396619 0 0.2369469616243938 0.1144798656387125 0 0.25094552198087999 0.11589449234768209 0 0.25030622297580962 0.13311558827396619 0 0.2369469616243938 0.1144798656387125 0 0.25158482098595109 0.098673396421397969 0 0.25094552198087999 0.11589449234768209 0 0.2369469616243938 0.1144798656387125 0 0.2308580048349978 0.09939168424622695 0 0.25158482098595109 0.098673396421397969 0 0.2308580048349978 0.09939168424622695 0 0.2177667053289645 0.10879872465146249 0 0.21723881235993189 0.092441087960636145 0 0.2369469616243938 0.1144798656387125 0 0.2308580048349978 0.09939168424622695 0 0.2177667053289645 0.10879872465146249 0 0.22521494488481819 0.12557893006429149 0 0.2369469616243938 0.1144798656387125 0 0.2177667053289645 0.10879872465146249 0 0.2177667053289645 0.10879872465146249 0 0.1970849337058638 0.1019164286603922 0 0.2001236667938262 0.1180422718546187 0 0.22521494488481819 0.12557893006429149 0 0.2177667053289645 0.10879872465146249 0 0.2001236667938262 0.1180422718546187 0 0.22521494488481819 0.12557893006429149 0 0.2001236667938262 0.1180422718546187 0 0.1970849337058638 0.1019164286603922 0 0.20420713705815571 0.090978010823124941 0 0.21723881235993189 0.092441087960636145 0 0.1970849337058638 0.1019164286603922 0 0.21723881235993189 0.092441087960636145 0 0.2177667053289645 0.10879872465146249 0 0.1970849337058638 0.1019164286603922 0 0.21723881235993189 0.092441087960636145 0 0.1970849337058638 0.1019164286603922 0 0.1916307843626972 0.08827444688259839 0 0.17503238870283441 0.11050561364494491 0 0.2001236667938262 0.1180422718546187 0 0.17503238870283441 0.11050561364494491 0 0.1970849337058638 0.1019164286603922 0 0.2001236667938262 0.1180422718546187 0 0.17503238870283441 0.11050561364494491 0 0.1916307843626972 0.08827444688259839 0 0.2082291800225603 0.066043280120252124 0 0.19067723801237901 0.065525043857756982 0 0.1916307843626972 0.08827444688259839 0 0.2082291800225603 0.066043280120252124 0 0.1916307843626972 0.08827444688259839 0 0.21087401780412959 0.081280079788873041 0 0.20420713705815571 0.090978010823124941 0 0.1970849337058638 0.1019164286603922 0 0.1916307843626972 0.08827444688259839 0 0.20420713705815571 0.090978010823124941 0 0.1916307843626972 0.08827444688259839 0 0.21087401780412959 0.081280079788873041 0 0.2082291800225603 0.066043280120252124 0 0.21087401780412959 0.081280079788873041 0 0.20420713705815571 0.090978010823124941 0 0.21723881235993189 0.092441087960636145 0 0.21087401780412959 0.081280079788873041 0 0.21723881235993189 0.092441087960636145 0 0.22613356481757629 0.0775902723280468 0 0.21087401780412959 0.081280079788873041 0 0.2082291800225603 0.066043280120252124 0 0.22613356481757629 0.0775902723280468 0 0.2082291800225603 0.066043280120252124 0 0.22613356481757629 0.0775902723280468 0 0.2082291800225603 0.066043280120252124 0 0.2259496113806885 0.070300708218039992 0 0.21450653174737461 0.057635669175196122 0 0.2259496113806885 0.070300708218039992 0 0.21450653174737461 0.057635669175196122 0 0.2082291800225603 0.066043280120252124 0 0.2259496113806885 0.070300708218039992 0 0.22613356481757629 0.0775902723280468 0 0.2259496113806885 0.070300708218039992 0 0.2248665156508784 0.061611733455129589 0 0.21450653174737461 0.057635669175196122 0 0.2259496113806885 0.070300708218039992 0 0.22613356481757629 0.0775902723280468 0 0.23739269101400209 0.082965747260884265 0 0.2259496113806885 0.070300708218039992 0 0.23739269101400209 0.082965747260884265 0 0.237967452106535 0.070105640596903412 0 0.2259496113806885 0.070300708218039992 0 0.23739269101400209 0.082965747260884265 0 0.2259496113806885 0.070300708218039992 0 0.2330718446673557 0.064441819436705627 0 0.2248665156508784 0.061611733455129589 0 0.2259496113806885 0.070300708218039992 0 0.2330718446673557 0.064441819436705627 0 0.237967452106535 0.070105640596903412 0 0.2308580048349978 0.09939168424622695 0 0.21723881235993189 0.092441087960636145 0 0.23739269101400209 0.082965747260884265 0 0.21723881235993189 0.092441087960636145 0 0.22613356481757629 0.0775902723280468 0 0.23739269101400209 0.082965747260884265 0 0.21723881235993189 0.092441087960636145 0 0.23739269101400209 0.082965747260884265 0 0.23739269101400209 0.082965747260884265 0 0.25158482098595109 0.098673396421397969 0 0.23739269101400209 0.082965747260884265 0 0.25243039498113262 0.075895774732197205 0 0.25158482098595109 0.098673396421397969 0 0.2308580048349978 0.09939168424622695 0 0.23739269101400209 0.082965747260884265 0 0.25158482098595109 0.098673396421397969 0 0.23739269101400209 0.082965747260884265 0 0.25243039498113262 0.075895774732197205 0 0.23934469018649959 0.064583282500140851 0 0.237967452106535 0.070105640596903412 0 0.24496427956833819 0.066036472520138348 0 0.2330718446673557 0.064441819436705627 0 0.23934469018649959 0.064583282500140851 0 0.2376257901407148 0.059976102198904507 0 0.2330718446673557 0.064441819436705627 0 0.23934469018649959 0.064583282500140851 0 0.237967452106535 0.070105640596903412 0 0.23739269101400209 0.082965747260884265 0 0.237967452106535 0.070105640596903412 0 0.24429048066179679 0.072622021298478806 0 0.24429048066179679 0.072622021298478806 0 0.24842415088314279 0.069033451464499671 0 0.25243039498113262 0.075895774732197205 0 0.23739269101400209 0.082965747260884265 0 0.24429048066179679 0.072622021298478806 0 0.25243039498113262 0.075895774732197205 0 0.24842415088314279 0.069033451464499671 0 0.24853219730195361 0.063845178725116872 0 0.25274476311700622 0.067427493409812952 0 0.237967452106535 0.070105640596903412 0 0.24429048066179679 0.072622021298478806 0 0.24496427956833819 0.066036472520138348 0 0.24429048066179679 0.072622021298478806 0 0.24842415088314279 0.069033451464499671 0 0.24496427956833819 0.066036472520138348 0 0.23934469018649959 0.064583282500140851 0 0.24496427956833819 0.066036472520138348 0 0.24309408444955441 0.062356377748052388 0 0.24496427956833819 0.066036472520138348 0 0.24602681454492631 0.062964227281045088 0 0.24309408444955441 0.062356377748052388 0 0.24496427956833819 0.066036472520138348 0 0.24602681454492631 0.062964227281045088 0 0.24853219730195361 0.063845178725116872 0 0.24842415088314279 0.069033451464499671 0 0.24496427956833819 0.066036472520138348 0 0.24853219730195361 0.063845178725116872 0 0.24751669685985911 0.059618880130872708 0 0.24309408444955441 0.062356377748052388 0 0.2376257901407148 0.059976102198904507 0 0.24751669685985911 0.059618880130872708 0 0.24426241142214139 0.049994713685017962 0 0.2310385276818335 0.053106641608170198 0 0.24751669685985911 0.059618880130872708 0 0.2376257901407148 0.059976102198904507 0 0.2310385276818335 0.053106641608170198 0 0.24751669685985911 0.059618880130872708 0 0.2310385276818335 0.053106641608170198 0 0.24853219730195361 0.063845178725116872 0 0.24751669685985911 0.059618880130872708 0 0.2530174900015254 0.0600809219264858 0 0.24602681454492631 0.062964227281045088 0 0.24853219730195361 0.063845178725116872 0 0.24751669685985911 0.059618880130872708 0 0.24602681454492631 0.062964227281045088 0 0.24751669685985911 0.059618880130872708 0 0.24309408444955441 0.062356377748052388 0 0.23934469018649959 0.064583282500140851 0 0.24309408444955441 0.062356377748052388 0 0.2376257901407148 0.059976102198904507 0 0.24426241142214139 0.049994713685017962 0 0.23928634064401511 0.040096757013566242 0 0.2310385276818335 0.053106641608170198 0 0.24751669685985911 0.059618880130872708 0 0.24426241142214139 0.049994713685017962 0 0.25102243244437311 0.053297338652025752 0 0.24426241142214139 0.049994713685017962 0 0.25174039047255609 0.044464402284776217 0 0.25102243244437311 0.053297338652025752 0 0.23928634064401511 0.040096757013566242 0 0.2320502206633881 0.021165953515508481 0 0.25044211127373811 0.032849993626191502 0 0.23928634064401511 0.040096757013566242 0 0.25044211127373811 0.032849993626191502 0 0.25174039047255609 0.044464402284776217 0 0.24426241142214139 0.049994713685017962 0 0.23928634064401511 0.040096757013566242 0 0.25174039047255609 0.044464402284776217 0 0.22618438235043381 0.038998837361733103 0 0.2320502206633881 0.021165953515508481 0 0.20963369093729961 0.03941564640516447 0 0.23928634064401511 0.040096757013566242 0 0.22618438235043381 0.038998837361733103 0 0.2320502206633881 0.021165953515508481 0 0.22618438235043381 0.038998837361733103 0 0.2310385276818335 0.053106641608170198 0 0.21456035850380811 0.046594403085467223 0 0.23928634064401511 0.040096757013566242 0 0.22618438235043381 0.038998837361733103 0 0.2310385276818335 0.053106641608170198 0 0.2310385276818335 0.053106641608170198 0 0.21456035850380811 0.046594403085467223 0 0.2248665156508784 0.061611733455129589 0 0.2310385276818335 0.053106641608170198 0 0.21456035850380811 0.046594403085467223 0 0.2248665156508784 0.061611733455129589 0 0.21456035850380811 0.046594403085467223 0 0.2330718446673557 0.064441819436705627 0 0.2248665156508784 0.061611733455129589 0 0.23150027442910881 0.059501590197602497 0 0.2248665156508784 0.061611733455129589 0 0.23150027442910881 0.059501590197602497 0 0.2310385276818335 0.053106641608170198 0 0.2330718446673557 0.064441819436705627 0 0.2376257901407148 0.059976102198904507 0 0.23150027442910881 0.059501590197602497 0 0.2376257901407148 0.059976102198904507 0 0.23150027442910881 0.059501590197602497 0 0.2310385276818335 0.053106641608170198 0 0.2320502206633881 0.021165953515508481 0 0.22999165343287109 0.0038227322559807589 0 0.25446675038947358 0.0029162606258486688 0 0.2320502206633881 0.021165953515508481 0 0.2600935707136679 0.019574361616358959 0 0.25446675038947358 0.0029162606258486688 0 0.22999165343287109 0.0038227322559807589 0 0.25446675038947358 0.0029162606258486688 0 0.24138147174972829 -0.0061427828714447699 0 0.2320502206633881 0.021165953515508481 0 0.25446675038947358 0.0029162606258486688 0 0.2320502206633881 0.021165953515508481 0 0.2600935707136679 0.019574361616358959 0 0.25044211127373811 0.032849993626191502 0 0.2320502206633881 0.021165953515508481 0 0.20963369093729961 0.03941564640516447 0 0.22999165343287109 0.0038227322559807589 0 0.21340461703840111 0.0096506044731711187 0 0.21351355446813719 -0.0021103410187178909 0 0.2320502206633881 0.021165953515508481 0 0.22999165343287109 0.0038227322559807589 0 0.21340461703840111 0.0096506044731711187 0 0.21340461703840111 0.0096506044731711187 0 0.1998105265397013 0.00335350757378736 0 0.21351355446813719 -0.0021103410187178909 0 0.21340461703840111 0.0096506044731711187 0 0.20371525389429951 0.01279949030761077 0 0.2082588668535221 0.02245160931237615 0 0.21340461703840111 0.0096506044731711187 0 0.20371525389429951 0.01279949030761077 0 0.1998105265397013 0.00335350757378736 0 0.2320502206633881 0.021165953515508481 0 0.2082588668535221 0.02245160931237615 0 0.20963369093729961 0.03941564640516447 0 0.2320502206633881 0.021165953515508481 0 0.21340461703840111 0.0096506044731711187 0 0.2082588668535221 0.02245160931237615 0 0.2082588668535221 0.02245160931237615 0 0.19338700514557339 0.015742239871108451 0 0.20963369093729961 0.03941564640516447 0 0.19338700514557339 0.015742239871108451 0 0.1989601287501698 0.040429129743079398 0 0.18048502430789731 0.01998114488410483 0 0.1989601287501698 0.040429129743079398 0 0.18048502430789731 0.01998114488410483 0 0.19338700514557339 0.015742239871108451 0 0.20963369093729961 0.03941564640516447 0 0.20371525389429951 0.01279949030761077 0 0.2082588668535221 0.02245160931237615 0 0.19338700514557339 0.015742239871108451 0 0.19338700514557339 0.015742239871108451 0 0.1998105265397013 0.00335350757378736 0 0.17714031935384769 -0.0079311666629475405 0 0.20371525389429951 0.01279949030761077 0 0.19338700514557339 0.015742239871108451 0 0.1998105265397013 0.00335350757378736 0 0.21450653174737461 0.057635669175196122 0 0.2029561920580818 0.044851916216142339 0 0.21450653174737461 0.057635669175196122 0 0.2029561920580818 0.044851916216142339 0 0.2021088015620611 0.053433964061651712 0 0.21450653174737461 0.057635669175196122 0 0.21456035850380811 0.046594403085467223 0 0.2029561920580818 0.044851916216142339 0 0.2082291800225603 0.066043280120252124 0 0.21450653174737461 0.057635669175196122 0 0.2021088015620611 0.053433964061651712 0 0.2248665156508784 0.061611733455129589 0 0.21450653174737461 0.057635669175196122 0 0.21456035850380811 0.046594403085467223 0 0.2082291800225603 0.066043280120252124 0 0.21450653174737461 0.057635669175196122 0 0.22618438235043381 0.038998837361733103 0 0.21456035850380811 0.046594403085467223 0 0.20963369093729961 0.03941564640516447 0 0.21456035850380811 0.046594403085467223 0 0.20963369093729961 0.03941564640516447 0 0.21456035850380811 0.046594403085467223 0 0.20530753189452691 0.042937648913457381 0 0.2029561920580818 0.044851916216142339 0 0.20963369093729961 0.03941564640516447 0 0.20530753189452691 0.042937648913457381 0 0.1989601287501698 0.040429129743079398 0 0.21456035850380811 0.046594403085467223 0 0.20530753189452691 0.042937648913457381 0 0.21456035850380811 0.046594403085467223 0 0.20963369093729961 0.03941564640516447 0 0.20530753189452691 0.042937648913457381 0 0.20963369093729961 0.03941564640516447 0 0.20530753189452691 0.042937648913457381 0 0.20530753189452691 0.042937648913457381 0 0.2029561920580818 0.044851916216142339 0 0.1989601287501698 0.040429129743079398 0 0.1774654858828027 0.031934360706524292 0 0.2029561920580818 0.044851916216142339 0 0.1989601287501698 0.040429129743079398 0 0.19971656766465989 0.047489351670260083 0 0.1989601287501698 0.040429129743079398 0 0.19133087755196571 0.045131483978966998 0 0.19971656766465989 0.047489351670260083 0 0.2029561920580818 0.044851916216142339 0 0.19971656766465989 0.047489351670260083 0 0.19338700514557339 0.015742239871108451 0 0.20963369093729961 0.03941564640516447 0 0.1989601287501698 0.040429129743079398 0 0.1989601287501698 0.040429129743079398 0 0.19133087755196571 0.045131483978966998 0 0.18298678422305309 0.040980100737508622 0 0.20530753189452691 0.042937648913457381 0 0.2029561920580818 0.044851916216142339 0 0.1989601287501698 0.040429129743079398 0 0.20530753189452691 0.042937648913457381 0 0.1989601287501698 0.040429129743079398 0 0.2029561920580818 0.044851916216142339 0 0.1989601287501698 0.040429129743079398 0 0.2082291800225603 0.066043280120252124 0 0.18513553631762919 0.051149603126408108 0 0.2021088015620611 0.053433964061651712 0 0.19971656766465989 0.047489351670260083 0 0.18513553631762919 0.051149603126408108 0 0.2082291800225603 0.066043280120252124 0 0.2021088015620611 0.053433964061651712 0 0.18513553631762919 0.051149603126408108 0 0.19067723801237901 0.065525043857756982 0 0.2082291800225603 0.066043280120252124 0 0.18513553631762919 0.051149603126408108 0 0.19133087755196571 0.045131483978966998 0 0.19971656766465989 0.047489351670260083 0 0.18513553631762919 0.051149603126408108 0 0.2029561920580818 0.044851916216142339 0 0.2021088015620611 0.053433964061651712 0 0.19971656766465989 0.047489351670260083 0 0.17734631865053521 0.060730067185729229 0 0.18513553631762919 0.051149603126408108 0 0.16725106424272049 0.052894846580172288 0 0.19067723801237901 0.065525043857756982 0 0.17734631865053521 0.060730067185729229 0 0.18513553631762919 0.051149603126408108 0 0.18298678422305309 0.040980100737508622 0 0.1774654858828027 0.031934360706524292 0 0.1620418926126978 0.036255926132564682 0 0.19133087755196571 0.045131483978966998 0 0.18513553631762919 0.051149603126408108 0 0.18298678422305309 0.040980100737508622 0 0.18513553631762919 0.051149603126408108 0 0.18298678422305309 0.040980100737508622 0 0.1620418926126978 0.036255926132564682 0 0.1989601287501698 0.040429129743079398 0 0.18298678422305309 0.040980100737508622 0 0.1774654858828027 0.031934360706524292 0 0.18513553631762919 0.051149603126408108 0 0.1620418926126978 0.036255926132564682 0 0.1620418926126978 0.036255926132564682 0 0.16725106424272049 0.052894846580172288 0 0.15541952745182569 0.04677658384696623 0 0.18513553631762919 0.051149603126408108 0 0.1620418926126978 0.036255926132564682 0 0.16725106424272049 0.052894846580172288 0 0.16725106424272049 0.052894846580172288 0 0.15507694825043991 0.057889849327421902 0 0.15541952745182569 0.04677658384696623 0 0.16725106424272049 0.052894846580172288 0 0.15507694825043991 0.057889849327421902 0 0.1653937448538241 0.067538194789913991 0 0.17734631865053521 0.060730067185729229 0 0.16725106424272049 0.052894846580172288 0 0.1653937448538241 0.067538194789913991 0 0.18048502430789731 0.01998114488410483 0 0.1657030786406338 0.0084270166623369204 0 0.17714031935384769 -0.0079311666629475405 0 0.19338700514557339 0.015742239871108451 0 0.17714031935384769 -0.0079311666629475405 0 0.19338700514557339 0.015742239871108451 0 0.18048502430789731 0.01998114488410483 0 0.17714031935384769 -0.0079311666629475405 0 0.1989601287501698 0.040429129743079398 0 0.1774654858828027 0.031934360706524292 0 0.18048502430789731 0.01998114488410483 0 0.1774654858828027 0.031934360706524292 0 0.18048502430789731 0.01998114488410483 0 0.16935520337559401 0.020657770454092759 0 0.1774654858828027 0.031934360706524292 0 0.15597084301543529 0.02343959166996953 0 0.1774654858828027 0.031934360706524292 0 0.1620418926126978 0.036255926132564682 0 0.15597084301543529 0.02343959166996953 0 0.1774654858828027 0.031934360706524292 0 0.16935520337559401 0.020657770454092759 0 0.15597084301543529 0.02343959166996953 0 0.16935520337559401 0.020657770454092759 0 0.1657030786406338 0.0084270166623369204 0 0.15597084301543529 0.02343959166996953 0 0.18048502430789731 0.01998114488410483 0 0.16935520337559401 0.020657770454092759 0 0.1657030786406338 0.0084270166623369204 0 0.1657030786406338 0.0084270166623369204 0 0.14883794818754281 0.01110572894874149 0 0.15480995508657039 -0.001084596553268768 0 0.1657030786406338 0.0084270166623369204 0 0.14883794818754281 0.01110572894874149 0 0.15597084301543529 0.02343959166996953 0 0.14883794818754281 0.01110572894874149 0 0.13464870039648349 0.00080453217212592717 0 0.15480995508657039 -0.001084596553268768 0 0.14883794818754281 0.01110572894874149 0 0.13894824890776639 0.02136224913872127 0 0.13464870039648349 0.00080453217212592717 0 0.1620418926126978 0.036255926132564682 0 0.13894824890776639 0.02136224913872127 0 0.14883794818754281 0.01110572894874149 0 0.15597084301543529 0.02343959166996953 0 0.13894824890776639 0.02136224913872127 0 0.1620418926126978 0.036255926132564682 0 0.15597084301543529 0.02343959166996953 0 0.13894824890776639 0.02136224913872127 0 0.11961069471150609 0.02296590295220987 0 0.13894824890776639 0.02136224913872127 0 0.12977361784467401 0.039215218793308727 0 0.1158546052028349 0.0064685721448778594 0 0.13894824890776639 0.02136224913872127 0 0.1158546052028349 0.0064685721448778594 0 0.13894824890776639 0.02136224913872127 0 0.13464870039648349 0.00080453217212592717 0 0.14278372382386809 0.048416123664777412 0 0.1428601767931531 0.062084067640591357 0 0.15507694825043991 0.057889849327421902 0 0.14278372382386809 0.048416123664777412 0 0.15507694825043991 0.057889849327421902 0 0.15541952745182569 0.04677658384696623 0 0.1620418926126978 0.036255926132564682 0 0.13894824890776639 0.02136224913872127 0 0.14579340212816641 0.038405220315267663 0 0.1620418926126978 0.036255926132564682 0 0.15541952745182569 0.04677658384696623 0 0.14579340212816641 0.038405220315267663 0 0.14278372382386809 0.048416123664777412 0 0.15541952745182569 0.04677658384696623 0 0.14579340212816641 0.038405220315267663 0 0.14278372382386809 0.048416123664777412 0 0.14579340212816641 0.038405220315267663 0 0.12977361784467401 0.039215218793308727 0 0.13894824890776639 0.02136224913872127 0 0.14579340212816641 0.038405220315267663 0 0.12977361784467401 0.039215218793308727 0 0.11550376979223601 0.054551475820320147 0 0.12977361784467401 0.039215218793308727 0 0.1326943019686847 0.054606112458038862 0 0.11550376979223601 0.054551475820320147 0 0.1326943019686847 0.054606112458038862 0 0.13255022158949201 0.068763676371196639 0 0.14278372382386809 0.048416123664777412 0 0.12977361784467401 0.039215218793308727 0 0.1326943019686847 0.054606112458038862 0 0.14278372382386809 0.048416123664777412 0 0.1428601767931531 0.062084067640591357 0 0.1326943019686847 0.054606112458038862 0 0.1428601767931531 0.062084067640591357 0 0.1326943019686847 0.054606112458038862 0 0.13255022158949201 0.068763676371196639 0 0.1207366242219714 0.074251990558816788 0 0.13255022158949201 0.068763676371196639 0 0.13578085374332971 0.077614708003019631 0 0.13255022158949201 0.068763676371196639 0 0.13578085374332971 0.077614708003019631 0 0.1430759120552613 0.073085192731263071 0 0.1428601767931531 0.062084067640591357 0 0.13255022158949201 0.068763676371196639 0 0.1430759120552613 0.073085192731263071 0 0.1428601767931531 0.062084067640591357 0 0.1430759120552613 0.073085192731263071 0 0.15260580868734391 0.069203578475014266 0 0.1430759120552613 0.073085192731263071 0 0.14969883640752091 0.076610515579137797 0 0.14563192422462459 0.083183778073064013 0 0.13578085374332971 0.077614708003019631 0 0.1430759120552613 0.073085192731263071 0 0.14563192422462459 0.083183778073064013 0 0.1430759120552613 0.073085192731263071 0 0.14969883640752091 0.076610515579137797 0 0.15260580868734391 0.069203578475014266 0 0.14969883640752091 0.076610515579137797 0 0.15260580868734391 0.069203578475014266 0 0.15677919641446331 0.080277826610221981 0 0.1428601767931531 0.062084067640591357 0 0.15507694825043991 0.057889849327421902 0 0.15260580868734391 0.069203578475014266 0 0.1506819444987289 0.088437751930635633 0 0.14868901735932749 0.09586058707093438 0 0.157853861938485 0.092527754269896317 0 0.1506819444987289 0.088437751930635633 0 0.15677919641446331 0.080277826610221981 0 0.157853861938485 0.092527754269896317 0 0.14969883640752091 0.076610515579137797 0 0.14563192422462459 0.083183778073064013 0 0.15677919641446331 0.080277826610221981 0 0.1506819444987289 0.088437751930635633 0 0.14563192422462459 0.083183778073064013 0 0.15677919641446331 0.080277826610221981 0 0.14563192422462459 0.083183778073064013 0 0.1444557225567443 0.090338813629061501 0 0.13888671887288589 0.088270852986767859 0 0.1506819444987289 0.088437751930635633 0 0.14563192422462459 0.083183778073064013 0 0.1444557225567443 0.090338813629061501 0 0.1444557225567443 0.090338813629061501 0 0.14209274384079601 0.094639397504520467 0 0.14868901735932749 0.09586058707093438 0 0.1506819444987289 0.088437751930635633 0 0.1444557225567443 0.090338813629061501 0 0.14868901735932749 0.09586058707093438 0 0.1444557225567443 0.090338813629061501 0 0.13888671887288589 0.088270852986767859 0 0.14209274384079601 0.094639397504520467 0 0.13888671887288589 0.088270852986767859 0 0.13668050292917741 0.098217611464673699 0 0.14209274384079601 0.094639397504520467 0 0.13888671887288589 0.088270852986767859 0 0.1300820653953097 0.084166932106396392 0 0.13668050292917741 0.098217611464673699 0 0.11116449005577619 0.086473750785835857 0 0.1300820653953097 0.084166932106396392 0 0.13668050292917741 0.098217611464673699 0 0.13578085374332971 0.077614708003019631 0 0.13888671887288589 0.088270852986767859 0 0.1300820653953097 0.084166932106396392 0 0.13578085374332971 0.077614708003019631 0 0.14563192422462459 0.083183778073064013 0 0.13888671887288589 0.088270852986767859 0 0.1207366242219714 0.074251990558816788 0 0.13578085374332971 0.077614708003019631 0 0.1300820653953097 0.084166932106396392 0 0.1216961693062274 0.1020981758197984 0 0.1302764983332621 0.10693497851168419 0 0.13668050292917741 0.098217611464673699 0 0.1302764983332621 0.10693497851168419 0 0.13758713408363871 0.1043360441680015 0 0.13668050292917741 0.098217611464673699 0 0.1302764983332621 0.10693497851168419 0 0.1360833458267342 0.1084620534226548 0 0.13758713408363871 0.1043360441680015 0 0.1360833458267342 0.1084620534226548 0 0.13758713408363871 0.1043360441680015 0 0.14314356584317489 0.10755645506983 0 0.13758713408363871 0.1043360441680015 0 0.13668050292917741 0.098217611464673699 0 0.14175175748584509 0.1005091223711649 0 0.13668050292917741 0.098217611464673699 0 0.14209274384079601 0.094639397504520467 0 0.14175175748584509 0.1005091223711649 0 0.12813823657366311 0.12049833089676459 0 0.13246275659848361 0.1130811342378658 0 0.13708322035591489 0.118794437000363 0 0.12212988809696081 0.1249307776834532 0 0.12788127083107459 0.1291064789800366 0 0.12813823657366311 0.12049833089676459 0 0.1197878353292403 0.1092484053650479 0 0.1302764983332621 0.10693497851168419 0 0.12624189261331301 0.1140678077034443 0 0.12813823657366311 0.12049833089676459 0 0.12624189261331301 0.1140678077034443 0 0.13246275659848361 0.1130811342378658 0 0.1302764983332621 0.10693497851168419 0 0.12624189261331301 0.1140678077034443 0 0.13246275659848361 0.1130811342378658 0 0.138866780176991 0.11235807520418389 0 0.13708322035591489 0.118794437000363 0 0.14572099158606311 0.1154247658161887 0 0.1360833458267342 0.1084620534226548 0 0.13246275659848361 0.1130811342378658 0 0.138866780176991 0.11235807520418389 0 0.1302764983332621 0.10693497851168419 0 0.1360833458267342 0.1084620534226548 0 0.13246275659848361 0.1130811342378658 0 0.1360833458267342 0.1084620534226548 0 0.138866780176991 0.11235807520418389 0 0.14314356584317489 0.10755645506983 0 0.13246275659848361 0.1130811342378658 0 0.138866780176991 0.11235807520418389 0 0.13708322035591489 0.118794437000363 0 0.13409394305489639 0.1257339851238449 0 0.14295710802469111 0.12768772724150559 0 0.13708322035591489 0.118794437000363 0 0.13409394305489639 0.1257339851238449 0 0.12813823657366311 0.12049833089676459 0 0.13708322035591489 0.118794437000363 0 0.14572099158606311 0.1154247658161887 0 0.15364605026385231 0.1227496740475859 0 0.15839207309433961 0.10550736800805539 0 0.14295710802469111 0.12768772724150559 0 0.13708322035591489 0.118794437000363 0 0.14572099158606311 0.1154247658161887 0 0.14295710802469111 0.12768772724150559 0 0.14572099158606311 0.1154247658161887 0 0.15364605026385231 0.1227496740475859 0 0.138866780176991 0.11235807520418389 0 0.14572099158606311 0.1154247658161887 0 0.14314356584317489 0.10755645506983 0 0.14572099158606311 0.1154247658161887 0 0.14314356584317489 0.10755645506983 0 0.15839207309433961 0.10550736800805539 0 0.14175175748584509 0.1005091223711649 0 0.15839207309433961 0.10550736800805539 0 0.14175175748584509 0.1005091223711649 0 0.14314356584317489 0.10755645506983 0 0.15839207309433961 0.10550736800805539 0 0.14175175748584509 0.1005091223711649 0 0.14868901735932749 0.09586058707093438 0 0.15839207309433961 0.10550736800805539 0 0.14209274384079601 0.094639397504520467 0 0.14175175748584509 0.1005091223711649 0 0.14868901735932749 0.09586058707093438 0 0.13758713408363871 0.1043360441680015 0 0.14175175748584509 0.1005091223711649 0 0.14314356584317489 0.10755645506983 0 0.14868901735932749 0.09586058707093438 0 0.15839207309433961 0.10550736800805539 0 0.157853861938485 0.092527754269896317 0 0.15839207309433961 0.10550736800805539 0 0.17503238870283441 0.11050561364494491 0 0.15839207309433961 0.10550736800805539 0 0.1705578526620479 0.095927182961129481 0 0.157853861938485 0.092527754269896317 0 0.15839207309433961 0.10550736800805539 0 0.1705578526620479 0.095927182961129481 0 0.17503238870283441 0.11050561364494491 0 0.16417220099380411 0.12505127510387981 0 0.15839207309433961 0.10550736800805539 0 0.17503238870283441 0.11050561364494491 0 0.16417220099380411 0.12505127510387981 0 0.15364605026385231 0.1227496740475859 0 0.15839207309433961 0.10550736800805539 0 0.16417220099380411 0.12505127510387981 0 0.17503238870283441 0.11050561364494491 0 0.18002451345814399 0.12716596121819479 0 0.16417220099380411 0.12505127510387981 0 0.17503238870283441 0.11050561364494491 0 0.18002451345814399 0.12716596121819479 0 0.2001236667938262 0.1180422718546187 0 0.17503238870283441 0.11050561364494491 0 0.1916307843626972 0.08827444688259839 0 0.1705578526620479 0.095927182961129481 0 0.17503238870283441 0.11050561364494491 0 0.1916307843626972 0.08827444688259839 0 0.17503238870283441 0.11050561364494491 0 0.1916307843626972 0.08827444688259839 0 0.17935943521264269 0.07135827912697662 0 0.16988015521188329 0.08282073200015258 0 0.1916307843626972 0.08827444688259839 0 0.1705578526620479 0.095927182961129481 0 0.16988015521188329 0.08282073200015258 0 0.19067723801237901 0.065525043857756982 0 0.1916307843626972 0.08827444688259839 0 0.17935943521264269 0.07135827912697662 0 0.19067723801237901 0.065525043857756982 0 0.17734631865053521 0.060730067185729229 0 0.17935943521264269 0.07135827912697662 0 0.17734631865053521 0.060730067185729229 0 0.17935943521264269 0.07135827912697662 0 0.1653937448538241 0.067538194789913991 0 0.17935943521264269 0.07135827912697662 0 0.1653937448538241 0.067538194789913991 0 0.16988015521188329 0.08282073200015258 0 0.15507694825043991 0.057889849327421902 0 0.15260580868734391 0.069203578475014266 0 0.1653937448538241 0.067538194789913991 0 0.15260580868734391 0.069203578475014266 0 0.1653937448538241 0.067538194789913991 0 0.15677919641446331 0.080277826610221981 0 0.1653937448538241 0.067538194789913991 0 0.15677919641446331 0.080277826610221981 0 0.16988015521188329 0.08282073200015258 0 0.15677919641446331 0.080277826610221981 0 0.157853861938485 0.092527754269896317 0 0.16988015521188329 0.08282073200015258 0 0.1705578526620479 0.095927182961129481 0 0.157853861938485 0.092527754269896317 0 0.16988015521188329 0.08282073200015258 0 0.099456207782380623 0.4822659283708195 0 0.1141892196830592 0.48396198267476093 0 0.11304725129434449 0.46767028325629811 0 0.099456207782380623 0.4822659283708195 0 0.11304725129434449 0.46767028325629811 0 0.096803680563272876 0.46646214520586099 0 0.099456207782380623 0.4822659283708195 0 0.10782601469385079 0.5 0 0.078267650747156567 0.50000000000000133 0 0.099456207782380623 0.4822659283708195 0 0.10782601469385079 0.5 0 0.1141892196830592 0.48396198267476093 0 0.10782601469385079 0.5 0 0.1249193769550877 0.49369376296818718 0 0.1141892196830592 0.48396198267476093 0 0.1249193769550877 0.49369376296818718 0 0.1141892196830592 0.48396198267476093 0 0.12569724768963239 0.47617993877849962 0 0.10782601469385079 0.5 0 0.1249193769550877 0.49369376296818718 0 0.13738437864054501 0.5 0 0.1141892196830592 0.48396198267476093 0 0.11304725129434449 0.46767028325629811 0 0.12569724768963239 0.47617993877849962 0 0.11304725129434449 0.46767028325629811 0 0.1267882431275838 0.46370707134437261 0 0.12569724768963239 0.47617993877849962 0 0.11304725129434449 0.46767028325629811 0 0.1221607865463437 0.4507156547582637 0 0.1004821270038239 0.44949914822431608 0 0.11304725129434449 0.46767028325629811 0 0.1221607865463437 0.4507156547582637 0 0.1267882431275838 0.46370707134437261 0 0.1221607865463437 0.4507156547582637 0 0.1004821270038239 0.44949914822431608 0 0.12259086230274099 0.42947812748907283 0 0.1004821270038239 0.44949914822431608 0 0.096803680563272876 0.46646214520586099 0 0.084307548883437972 0.45862843933572522 0 0.11304725129434449 0.46767028325629811 0 0.1004821270038239 0.44949914822431608 0 0.096803680563272876 0.46646214520586099 0 0.084307548883437972 0.45862843933572522 0 0.070120974899159305 0.46867166915081548 0 0.08254081050968877 0.47642281665818748 0 0.096803680563272876 0.46646214520586099 0 0.084307548883437972 0.45862843933572522 0 0.08254081050968877 0.47642281665818748 0 0.084307548883437972 0.45862843933572522 0 0.083205653112744402 0.44008551456546158 0 0.070599818540594342 0.45171728711773013 0 0.1004821270038239 0.44949914822431608 0 0.084307548883437972 0.45862843933572522 0 0.083205653112744402 0.44008551456546158 0 0.1004821270038239 0.44949914822431608 0 0.083205653112744402 0.44008551456546158 0 0.095892719888732866 0.42453745382262881 0 0.070599818540594342 0.45171728711773013 0 0.057347956450285731 0.44480695268810438 0 0.068330088192809502 0.43602814955066621 0 0.083205653112744402 0.44008551456546158 0 0.070599818540594342 0.45171728711773013 0 0.068330088192809502 0.43602814955066621 0 0.070599818540594342 0.45171728711773013 0 0.070120974899159305 0.46867166915081548 0 0.05832870883015126 0.45973880463956351 0 0.084307548883437972 0.45862843933572522 0 0.070599818540594342 0.45171728711773013 0 0.070120974899159305 0.46867166915081548 0 0.070120974899159305 0.46867166915081548 0 0.08254081050968877 0.47642281665818748 0 0.061557047466102868 0.48310025102256282 0 0.070120974899159305 0.46867166915081548 0 0.061557047466102868 0.48310025102256282 0 0.05832870883015126 0.45973880463956351 0 0.099456207782380623 0.4822659283708195 0 0.096803680563272876 0.46646214520586099 0 0.08254081050968877 0.47642281665818748 0 0.099456207782380623 0.4822659283708195 0 0.08254081050968877 0.47642281665818748 0 0.078267650747156567 0.50000000000000133 0 0.078267650747156567 0.50000000000000133 0 0.049166882519808157 0.5 0 0.061557047466102868 0.48310025102256282 0 0.08254081050968877 0.47642281665818748 0 0.078267650747156567 0.50000000000000133 0 0.061557047466102868 0.48310025102256282 0 0.078267650747156567 0.50000000000000133 0 0.061557047466102868 0.48310025102256282 0 0.049166882519808157 0.5 0 0.061557047466102868 0.48310025102256282 0 0.038208171894904559 0.48286056860770488 0 0.061557047466102868 0.48310025102256282 0 0.044846444185049857 0.46620050204512359 0 0.05832870883015126 0.45973880463956351 0 0.061557047466102868 0.48310025102256282 0 0.044846444185049857 0.46620050204512359 0 0.061557047466102868 0.48310025102256282 0 0.038208171894904559 0.48286056860770488 0 0.044846444185049857 0.46620050204512359 0 0.038208171894904559 0.48286056860770488 0 0.029572045059576241 0.469060477695939 0 0.044846444185049857 0.46620050204512359 0 0.049166882519808157 0.5 0 0.038208171894904559 0.48286056860770488 0 0.020066114292459799 0.5 0 0.038208171894904559 0.48286056860770488 0 0.020066114292459799 0.5 0 0.021055159894441029 0.48095839664786189 0 0.038208171894904559 0.48286056860770488 0 0.029572045059576241 0.469060477695939 0 0.021055159894441029 0.48095839664786189 0 0.029572045059576241 0.469060477695939 0 0.021055159894441029 0.48095839664786189 0 0.01561460841948897 0.46598216811131982 0 0.021055159894441029 0.48095839664786189 0 0.0030933759349822849 0.48266358315495572 0 0.01561460841948897 0.46598216811131982 0 0.0030933759349822849 0.48266358315495572 0 0.01561460841948897 0.46598216811131982 0 0.0036787250480955699 0.47408322248379448 0 0.0030933759349822849 0.48266358315495572 0 0.01561460841948897 0.46598216811131982 0 -0.0016340076521478781 0.48633642657919801 0 0.0036787250480955699 0.47408322248379448 0 0.0030933759349822849 0.48266358315495572 0 0.020066114292459799 0.5 0 0.021055159894441029 0.48095839664786189 0 0.0030933759349822849 0.48266358315495572 0 -0.0090346539348886701 0.5 0 -0.0016340076521478781 0.48633642657919801 0 0.020066114292459799 0.5 0 -0.0016340076521478781 0.48633642657919801 0 0.020066114292459799 0.5 0 0.0030933759349822849 0.48266358315495572 0 -0.0030841453677343121 0.43636499760021141 0 -0.002359076509941094 0.46135071208970457 0 0.010470448459028871 0.45111158928184719 0 -0.0030841453677343121 0.43636499760021141 0 0.010470448459028871 0.45111158928184719 0 0.017893296784651399 0.43894227458572882 0 -0.002359076509941094 0.46135071208970457 0 0.010470448459028871 0.45111158928184719 0 0.01561460841948897 0.46598216811131982 0 -0.002359076509941094 0.46135071208970457 0 0.0036787250480955699 0.47408322248379448 0 0.01561460841948897 0.46598216811131982 0 0.010470448459028871 0.45111158928184719 0 0.01561460841948897 0.46598216811131982 0 0.0281358409039968 0.44930075306768458 0 0.029572045059576241 0.469060477695939 0 0.01561460841948897 0.46598216811131982 0 0.0281358409039968 0.44930075306768458 0 0.01561460841948897 0.46598216811131982 0 0.0281358409039968 0.44930075306768458 0 0.010470448459028871 0.45111158928184719 0 0.0281358409039968 0.44930075306768458 0 0.017893296784651399 0.43894227458572882 0 0.0281358409039968 0.44930075306768458 0 0.017893296784651399 0.43894227458572882 0 0.03800042812263172 0.43615865433005307 0 0.0281358409039968 0.44930075306768458 0 0.017893296784651399 0.43894227458572882 0 0.0281358409039968 0.44930075306768458 0 0.04587361322417214 0.448769157871174 0 0.03800042812263172 0.43615865433005307 0 0.0281358409039968 0.44930075306768458 0 0.03800042812263172 0.43615865433005307 0 0.04587361322417214 0.448769157871174 0 0.049411209704934803 0.43621283219101809 0 0.03800042812263172 0.43615865433005307 0 0.029572045059576241 0.469060477695939 0 0.0281358409039968 0.44930075306768458 0 0.044846444185049857 0.46620050204512359 0 0.0281358409039968 0.44930075306768458 0 0.04587361322417214 0.448769157871174 0 0.044846444185049857 0.46620050204512359 0 0.0281358409039968 0.44930075306768458 0 0.044846444185049857 0.46620050204512359 0 0.04587361322417214 0.448769157871174 0 0.044846444185049857 0.46620050204512359 0 0.05832870883015126 0.45973880463956351 0 0.04587361322417214 0.448769157871174 0 0.057347956450285731 0.44480695268810438 0 0.049411209704934803 0.43621283219101809 0 0.04587361322417214 0.448769157871174 0 0.05832870883015126 0.45973880463956351 0 0.057347956450285731 0.44480695268810438 0 0.070599818540594342 0.45171728711773013 0 0.05832870883015126 0.45973880463956351 0 0.057347956450285731 0.44480695268810438 0 0.057347956450285731 0.44480695268810438 0 0.058238482531349368 0.43512174465279091 0 0.068330088192809502 0.43602814955066621 0 0.057347956450285731 0.44480695268810438 0 0.058238482531349368 0.43512174465279091 0 0.049411209704934803 0.43621283219101809 0 0.058238482531349368 0.43512174465279091 0 0.05412352915042095 0.42739076434297479 0 0.063786863135573219 0.4234822836218442 0 0.05412352915042095 0.42739076434297479 0 0.047865015341267358 0.42301655559242213 0 0.049411209704934803 0.43621283219101809 0 0.05412352915042095 0.42739076434297479 0 0.047865015341267358 0.42301655559242213 0 0.058238482531349368 0.43512174465279091 0 0.05412352915042095 0.42739076434297479 0 0.049411209704934803 0.43621283219101809 0 0.047865015341267358 0.42301655559242213 0 0.055388731832649349 0.41299308245440008 0 0.044385004541519633 0.40583709082877739 0 0.055388731832649349 0.41299308245440008 0 0.057103340742871267 0.4006394318358022 0 0.0691327228978319 0.40699071288372829 0 0.05412352915042095 0.42739076434297479 0 0.055388731832649349 0.41299308245440008 0 0.063786863135573219 0.4234822836218442 0 0.047865015341267358 0.42301655559242213 0 0.055388731832649349 0.41299308245440008 0 0.05412352915042095 0.42739076434297479 0 0.047865015341267358 0.42301655559242213 0 0.055388731832649349 0.41299308245440008 0 0.055388731832649349 0.41299308245440008 0 0.044385004541519633 0.40583709082877739 0 0.057103340742871267 0.4006394318358022 0 0.047865015341267358 0.42301655559242213 0 0.030398582533070099 0.41080889326869052 0 0.044385004541519633 0.40583709082877739 0 0.047865015341267358 0.42301655559242213 0 0.035686717363660143 0.42423985257235269 0 0.030398582533070099 0.41080889326869052 0 0.047865015341267358 0.42301655559242213 0 0.030398582533070099 0.41080889326869052 0 0.047865015341267358 0.42301655559242213 0 0.049411209704934803 0.43621283219101809 0 0.03800042812263172 0.43615865433005307 0 0.047865015341267358 0.42301655559242213 0 0.03800042812263172 0.43615865433005307 0 0.047865015341267358 0.42301655559242213 0 0.035686717363660143 0.42423985257235269 0 0.03800042812263172 0.43615865433005307 0 0.035686717363660143 0.42423985257235269 0 0.03800042812263172 0.43615865433005307 0 0.0264828434576714 0.42697530709824522 0 0.017893296784651399 0.43894227458572882 0 0.0264828434576714 0.42697530709824522 0 0.013451351612083251 0.42022136891186163 0 0.017893296784651399 0.43894227458572882 0 0.03800042812263172 0.43615865433005307 0 0.0264828434576714 0.42697530709824522 0 0.030398582533070099 0.41080889326869052 0 0.013451351612083251 0.42022136891186163 0 0.012932149724872831 0.39860123094495892 0 0.0264828434576714 0.42697530709824522 0 0.030398582533070099 0.41080889326869052 0 0.013451351612083251 0.42022136891186163 0 0.035686717363660143 0.42423985257235269 0 0.0264828434576714 0.42697530709824522 0 0.030398582533070099 0.41080889326869052 0 -0.0038092142255275289 0.41137928311071797 0 0.013451351612083251 0.42022136891186163 0 0.012932149724872831 0.39860123094495892 0 -0.0030841453677343121 0.43636499760021141 0 0.017893296784651399 0.43894227458572882 0 0.013451351612083251 0.42022136891186163 0 -0.0030841453677343121 0.43636499760021141 0 -0.0038092142255275289 0.41137928311071797 0 0.013451351612083251 0.42022136891186163 0 -0.0045342830833226501 0.3863935686212247 0 0.012932149724872831 0.39860123094495892 0 0.0079023355216259559 0.37348921158265391 0 0.012932149724872831 0.39860123094495892 0 0.025375843575522711 0.38021681034322929 0 0.0079023355216259559 0.37348921158265391 0 -0.0045342830833226501 0.3863935686212247 0 0.012932149724872831 0.39860123094495892 0 -0.0045342830833226501 0.3863935686212247 0 -0.0038092142255275289 0.41137928311071797 0 0.012932149724872831 0.39860123094495892 0 0.030398582533070099 0.41080889326869052 0 0.012932149724872831 0.39860123094495892 0 0.030398582533070099 0.41080889326869052 0 0.012932149724872831 0.39860123094495892 0 0.030218872497922818 0.39559608178221078 0 0.012932149724872831 0.39860123094495892 0 0.030218872497922818 0.39559608178221078 0 0.025375843575522711 0.38021681034322929 0 0.025375843575522711 0.38021681034322929 0 0.045236422390978262 0.39339421550307069 0 0.045418656597819553 0.37354288132317159 0 0.030218872497922818 0.39559608178221078 0 0.025375843575522711 0.38021681034322929 0 0.045236422390978262 0.39339421550307069 0 0.030398582533070099 0.41080889326869052 0 0.030218872497922818 0.39559608178221078 0 0.044385004541519633 0.40583709082877739 0 0.030218872497922818 0.39559608178221078 0 0.045236422390978262 0.39339421550307069 0 0.044385004541519633 0.40583709082877739 0 0.045236422390978262 0.39339421550307069 0 0.057103340742871267 0.4006394318358022 0 0.06607043693335328 0.38973814947632979 0 0.045236422390978262 0.39339421550307069 0 0.044385004541519633 0.40583709082877739 0 0.057103340742871267 0.4006394318358022 0 0.045236422390978262 0.39339421550307069 0 0.06607043693335328 0.38973814947632979 0 0.045418656597819553 0.37354288132317159 0 0.06607043693335328 0.38973814947632979 0 0.066778362586220691 0.36264744131756171 0 0.045418656597819553 0.37354288132317159 0 0.06607043693335328 0.38973814947632979 0 0.086713905658550791 0.37461406501925459 0 0.066778362586220691 0.36264744131756171 0 0.091303312773641829 0.3995757594209417 0 0.1025776524751303 0.38486691706586951 0 0.086713905658550791 0.37461406501925459 0 0.06607043693335328 0.38973814947632979 0 0.091303312773641829 0.3995757594209417 0 0.086713905658550791 0.37461406501925459 0 0.091303312773641829 0.3995757594209417 0 0.086713905658550791 0.37461406501925459 0 0.06607043693335328 0.38973814947632979 0 0.091303312773641829 0.3995757594209417 0 0.0691327228978319 0.40699071288372829 0 0.057103340742871267 0.4006394318358022 0 0.06607043693335328 0.38973814947632979 0 0.0691327228978319 0.40699071288372829 0 0.055388731832649349 0.41299308245440008 0 0.0691327228978319 0.40699071288372829 0 0.063786863135573219 0.4234822836218442 0 0.0691327228978319 0.40699071288372829 0 0.077714875811277062 0.4214876261871765 0 0.063786863135573219 0.4234822836218442 0 0.083205653112744402 0.44008551456546158 0 0.077714875811277062 0.4214876261871765 0 0.068330088192809502 0.43602814955066621 0 0.058238482531349368 0.43512174465279091 0 0.068330088192809502 0.43602814955066621 0 0.063786863135573219 0.4234822836218442 0 0.077714875811277062 0.4214876261871765 0 0.068330088192809502 0.43602814955066621 0 0.063786863135573219 0.4234822836218442 0 0.083205653112744402 0.44008551456546158 0 0.077714875811277062 0.4214876261871765 0 0.095892719888732866 0.42453745382262881 0 0.091303312773641829 0.3995757594209417 0 0.0691327228978319 0.40699071288372829 0 0.077714875811277062 0.4214876261871765 0 0.091303312773641829 0.3995757594209417 0 0.095892719888732866 0.42453745382262881 0 0.091303312773641829 0.3995757594209417 0 0.077714875811277062 0.4214876261871765 0 0.095892719888732866 0.42453745382262881 0 0.091303312773641829 0.3995757594209417 0 0.095892719888732866 0.42453745382262881 0 0.115428724103706 0.40267530492779557 0 0.1004821270038239 0.44949914822431608 0 0.095892719888732866 0.42453745382262881 0 0.12259086230274099 0.42947812748907283 0 0.1004821270038239 0.44949914822431608 0 0.095892719888732866 0.42453745382262881 0 0.095892719888732866 0.42453745382262881 0 0.12259086230274099 0.42947812748907283 0 0.115428724103706 0.40267530492779557 0 0.115428724103706 0.40267530492779557 0 0.119448870245615 0.38256434187866972 0 0.13692284990477191 0.38930777957628943 0 0.119448870245615 0.38256434187866972 0 0.1025776524751303 0.38486691706586951 0 0.1087205780393706 0.3656269003386084 0 0.115428724103706 0.40267530492779557 0 0.119448870245615 0.38256434187866972 0 0.1025776524751303 0.38486691706586951 0 0.1025776524751303 0.38486691706586951 0 0.1087205780393706 0.3656269003386084 0 0.086713905658550791 0.37461406501925459 0 0.091303312773641829 0.3995757594209417 0 0.115428724103706 0.40267530492779557 0 0.1025776524751303 0.38486691706586951 0 0.1087205780393706 0.3656269003386084 0 0.1202868522871179 0.34060046584014031 0 0.0915497208986496 0.34709204532757532 0 0.1087205780393706 0.3656269003386084 0 0.0915497208986496 0.34709204532757532 0 0.086713905658550791 0.37461406501925459 0 0.119448870245615 0.38256434187866972 0 0.1087205780393706 0.3656269003386084 0 0.13274728415341139 0.36410634055334368 0 0.1087205780393706 0.3656269003386084 0 0.1202868522871179 0.34060046584014031 0 0.13274728415341139 0.36410634055334368 0 0.1202868522871179 0.34060046584014031 0 0.1104734498024164 0.31171603628350752 0 0.14183880654046921 0.32250528078568202 0 0.1202868522871179 0.34060046584014031 0 0.1016552612267161 0.33013161519950079 0 0.1104734498024164 0.31171603628350752 0 0.1016552612267161 0.33013161519950079 0 0.081254576285268804 0.3210829637434266 0 0.1104734498024164 0.31171603628350752 0 0.1202868522871179 0.34060046584014031 0 0.1016552612267161 0.33013161519950079 0 0.0915497208986496 0.34709204532757532 0 0.081254576285268804 0.3210829637434266 0 0.072654821413094289 0.33942743407960763 0 0.0915497208986496 0.34709204532757532 0 0.1016552612267161 0.33013161519950079 0 0.081254576285268804 0.3210829637434266 0 0.0915497208986496 0.34709204532757532 0 0.081254576285268804 0.3210829637434266 0 0.06358813508901956 0.32234581427363851 0 0.071244474661197085 0.3036312559279935 0 0.081254576285268804 0.3210829637434266 0 0.06358813508901956 0.32234581427363851 0 0.072654821413094289 0.33942743407960763 0 0.06358813508901956 0.32234581427363851 0 0.072654821413094289 0.33942743407960763 0 0.055199983679349987 0.34246375673151652 0 0.072654821413094289 0.33942743407960763 0 0.066778362586220691 0.36264744131756171 0 0.055199983679349987 0.34246375673151652 0 0.072654821413094289 0.33942743407960763 0 0.0915497208986496 0.34709204532757532 0 0.066778362586220691 0.36264744131756171 0 0.0915497208986496 0.34709204532757532 0 0.086713905658550791 0.37461406501925459 0 0.066778362586220691 0.36264744131756171 0 0.066778362586220691 0.36264744131756171 0 0.044951457965310811 0.3555124197003488 0 0.045418656597819553 0.37354288132317159 0 0.066778362586220691 0.36264744131756171 0 0.044951457965310811 0.3555124197003488 0 0.055199983679349987 0.34246375673151652 0 0.044951457965310811 0.3555124197003488 0 0.021903196078839001 0.35746348141110651 0 0.035457090884324839 0.34144453771838768 0 0.044951457965310811 0.3555124197003488 0 0.035457090884324839 0.34144453771838768 0 0.055199983679349987 0.34246375673151652 0 0.044951457965310811 0.3555124197003488 0 0.045418656597819553 0.37354288132317159 0 0.021903196078839001 0.35746348141110651 0 0.025375843575522711 0.38021681034322929 0 0.021903196078839001 0.35746348141110651 0 0.0079023355216259559 0.37348921158265391 0 0.025375843575522711 0.38021681034322929 0 0.045418656597819553 0.37354288132317159 0 0.021903196078839001 0.35746348141110651 0 0.021903196078839001 0.35746348141110651 0 0.017151683724365509 0.3376665205351736 0 0.035457090884324839 0.34144453771838768 0 0.021903196078839001 0.35746348141110651 0 0.0095650341834115256 0.34490192427506011 0 0.017151683724365509 0.3376665205351736 0 0.021903196078839001 0.35746348141110651 0 0.0095650341834115256 0.34490192427506011 0 0.0061318462344260851 0.35417601161121459 0 -0.0050552824635438226 0.34569829691311771 0 0.0095650341834115256 0.34490192427506011 0 0.0061318462344260851 0.35417601161121459 0 0.021903196078839001 0.35746348141110651 0 0.0061318462344260851 0.35417601161121459 0 0.0079023355216259559 0.37348921158265391 0 -0.0052616759920083916 0.36132776784546622 0 0.0061318462344260851 0.35417601161121459 0 0.0079023355216259559 0.37348921158265391 0 0.0087281755863181168 0.33049580891976171 0 0.020410497070949891 0.30832150289807031 0 0.0056044744337335906 0.31412092038659428 0 0.0087281755863181168 0.33049580891976171 0 0.020410497070949891 0.30832150289807031 0 -0.003280447873963227 0.32161399115684158 0 0.0056044744337335906 0.31412092038659428 0 0.0087281755863181168 0.33049580891976171 0 0.0064742168078369342 0.3347740657525386 0 0.0087281755863181168 0.33049580891976171 0 -0.0050552824635438226 0.34569829691311771 0 0.0095650341834115256 0.34490192427506011 0 0.0064742168078369342 0.3347740657525386 0 0.0095650341834115256 0.34490192427506011 0 0.0064742168078369342 0.3347740657525386 0 0.017151683724365509 0.3376665205351736 0 0.0064742168078369342 0.3347740657525386 0 0.0087281755863181168 0.33049580891976171 0 0.017151683724365509 0.3376665205351736 0 0.0087281755863181168 0.33049580891976171 0 0.025353163704189718 0.33024288796319817 0 0.017151683724365509 0.3376665205351736 0 0.0087281755863181168 0.33049580891976171 0 0.025353163704189718 0.33024288796319817 0 0.025353163704189718 0.33024288796319817 0 0.017151683724365509 0.3376665205351736 0 0.035457090884324839 0.34144453771838768 0 0.0087281755863181168 0.33049580891976171 0 0.025353163704189718 0.33024288796319817 0 0.020410497070949891 0.30832150289807031 0 0.025353163704189718 0.33024288796319817 0 0.038017806832533571 0.30672300381527179 0 0.020410497070949891 0.30832150289807031 0 0.025353163704189718 0.33024288796319817 0 0.045812945845809312 0.32351293560108041 0 0.038017806832533571 0.30672300381527179 0 0.025353163704189718 0.33024288796319817 0 0.045812945845809312 0.32351293560108041 0 0.035457090884324839 0.34144453771838768 0 0.045812945845809312 0.32351293560108041 0 0.035457090884324839 0.34144453771838768 0 0.055199983679349987 0.34246375673151652 0 0.06358813508901956 0.32234581427363851 0 0.045812945845809312 0.32351293560108041 0 0.055199983679349987 0.34246375673151652 0 0.06358813508901956 0.32234581427363851 0 0.045812945845809312 0.32351293560108041 0 0.055148108477292443 0.3057593846019967 0 0.055148108477292443 0.3057593846019967 0 0.047586914097201803 0.29032131063477928 0 0.038017806832533571 0.30672300381527179 0 0.055148108477292443 0.3057593846019967 0 0.047586914097201803 0.29032131063477928 0 0.066935962560195753 0.28615893812798288 0 0.047586914097201803 0.29032131063477928 0 0.050578246113349837 0.27455429857722041 0 0.066935962560195753 0.28615893812798288 0 0.047586914097201803 0.29032131063477928 0 0.032092818555581597 0.28614719687637868 0 0.038017806832533571 0.30672300381527179 0 0.047586914097201803 0.29032131063477928 0 0.032092818555581597 0.28614719687637868 0 0.050578246113349837 0.27455429857722041 0 0.045812945845809312 0.32351293560108041 0 0.055148108477292443 0.3057593846019967 0 0.038017806832533571 0.30672300381527179 0 0.032092818555581597 0.28614719687637868 0 0.038017806832533571 0.30672300381527179 0 0.020410497070949891 0.30832150289807031 0 0.032092818555581597 0.28614719687637868 0 0.020410497070949891 0.30832150289807031 0 0.032092818555581597 0.28614719687637868 0 0.020410497070949891 0.30832150289807031 0 0.0083336089875100904 0.29343585490586271 0 0.032092818555581597 0.28614719687637868 0 0.0083336089875100904 0.29343585490586271 0 0.021382191810826279 0.2686960609189637 0 -0.0088759444352828343 0.31092800175718183 0 0.0056044744337335906 0.31412092038659428 0 0.0083336089875100904 0.29343585490586271 0 0.0056044744337335906 0.31412092038659428 0 0.020410497070949891 0.30832150289807031 0 0.0083336089875100904 0.29343585490586271 0 0.0073806355134042019 0.25529449578482938 0 3.3590645499582607e-05 0.27236849017123349 0 0.021382191810826279 0.2686960609189637 0 0.0083336089875100904 0.29343585490586271 0 3.3590645499582607e-05 0.27236849017123349 0 0.021382191810826279 0.2686960609189637 0 0.025149977659741599 0.24684982625080901 0 0.0073806355134042019 0.25529449578482938 0 0.021382191810826279 0.2686960609189637 0 0.025149977659741599 0.24684982625080901 0 0.021382191810826279 0.2686960609189637 0 0.043775140040213267 0.26397289085468728 0 0.025149977659741599 0.24684982625080901 0 0.045472231705318063 0.24424317023843681 0 0.050158093690384618 0.2598810672441918 0 0.025149977659741599 0.24684982625080901 0 0.050158093690384618 0.2598810672441918 0 0.025149977659741599 0.24684982625080901 0 0.043775140040213267 0.26397289085468728 0 0.050158093690384618 0.2598810672441918 0 0.032092818555581597 0.28614719687637868 0 0.043775140040213267 0.26397289085468728 0 0.032092818555581597 0.28614719687637868 0 0.021382191810826279 0.2686960609189637 0 0.043775140040213267 0.26397289085468728 0 0.032092818555581597 0.28614719687637868 0 0.043775140040213267 0.26397289085468728 0 0.050578246113349837 0.27455429857722041 0 0.050578246113349837 0.27455429857722041 0 0.063875668081316214 0.2678607518654692 0 0.066935962560195753 0.28615893812798288 0 0.043775140040213267 0.26397289085468728 0 0.050578246113349837 0.27455429857722041 0 0.050158093690384618 0.2598810672441918 0 0.050578246113349837 0.27455429857722041 0 0.056046126259945157 0.25263236173372139 0 0.063875668081316214 0.2678607518654692 0 0.050578246113349837 0.27455429857722041 0 0.050158093690384618 0.2598810672441918 0 0.056046126259945157 0.25263236173372139 0 0.045472231705318063 0.24424317023843681 0 0.050158093690384618 0.2598810672441918 0 0.056046126259945157 0.25263236173372139 0 0.050578246113349837 0.27455429857722041 0 0.056046126259945157 0.25263236173372139 0 0.078525547080241467 0.2465942846531784 0 0.067905867336300579 0.25358800162702 0 0.079567988853459573 0.27014218499250892 0 0.067905867336300579 0.25358800162702 0 0.079567988853459573 0.27014218499250892 0 0.063875668081316214 0.2678607518654692 0 0.056046126259945157 0.25263236173372139 0 0.067905867336300579 0.25358800162702 0 0.063875668081316214 0.2678607518654692 0 0.078525547080241467 0.2465942846531784 0 0.079567988853459573 0.27014218499250892 0 0.093798877441032588 0.2579700649065903 0 0.079567988853459573 0.27014218499250892 0 0.063875668081316214 0.2678607518654692 0 0.066935962560195753 0.28615893812798288 0 0.079567988853459573 0.27014218499250892 0 0.066935962560195753 0.28615893812798288 0 0.087430381393448858 0.29852998767476718 0 0.066935962560195753 0.28615893812798288 0 0.071244474661197085 0.3036312559279935 0 0.087430381393448858 0.29852998767476718 0 0.055148108477292443 0.3057593846019967 0 0.066935962560195753 0.28615893812798288 0 0.071244474661197085 0.3036312559279935 0 0.06358813508901956 0.32234581427363851 0 0.055148108477292443 0.3057593846019967 0 0.071244474661197085 0.3036312559279935 0 0.081254576285268804 0.3210829637434266 0 0.087430381393448858 0.29852998767476718 0 0.1104734498024164 0.31171603628350752 0 0.081254576285268804 0.3210829637434266 0 0.071244474661197085 0.3036312559279935 0 0.087430381393448858 0.29852998767476718 0 0.079567988853459573 0.27014218499250892 0 0.087430381393448858 0.29852998767476718 0 0.1079828451826004 0.27738565586056829 0 0.087430381393448858 0.29852998767476718 0 0.1104734498024164 0.31171603628350752 0 0.1079828451826004 0.27738565586056829 0 0.1104734498024164 0.31171603628350752 0 0.1079828451826004 0.27738565586056829 0 0.13401849175413849 0.29214957311260448 0 0.1079828451826004 0.27738565586056829 0 0.13401849175413849 0.29214957311260448 0 0.1100607559553454 0.25396994184181759 0 0.1079828451826004 0.27738565586056829 0 0.13366986361514199 0.26692500362740812 0 0.12787711237058769 0.24521089126939841 0 0.1100607559553454 0.25396994184181759 0 0.13366986361514199 0.26692500362740812 0 0.092857250133516089 0.24175825718487831 0 0.1100607559553454 0.25396994184181759 0 0.093798877441032588 0.2579700649065903 0 0.1100607559553454 0.25396994184181759 0 0.093798877441032588 0.2579700649065903 0 0.1079828451826004 0.27738565586056829 0 0.079567988853459573 0.27014218499250892 0 0.093798877441032588 0.2579700649065903 0 0.1079828451826004 0.27738565586056829 0 0.13366986361514199 0.26692500362740812 0 0.1558685034792309 0.28595093384994291 0 0.15959452244756481 0.26367036214955358 0 0.14702044576598061 0.2478904659134552 0 0.13366986361514199 0.26692500362740812 0 0.15959452244756481 0.26367036214955358 0 0.14702044576598061 0.2478904659134552 0 0.12787711237058769 0.24521089126939841 0 0.13366986361514199 0.26692500362740812 0 0.1079828451826004 0.27738565586056829 0 0.13366986361514199 0.26692500362740812 0 0.13401849175413849 0.29214957311260448 0 0.1104734498024164 0.31171603628350752 0 0.13401849175413849 0.29214957311260448 0 0.14183880654046921 0.32250528078568202 0 0.13401849175413849 0.29214957311260448 0 0.16005413832567669 0.30691349036464077 0 0.14183880654046921 0.32250528078568202 0 0.13401849175413849 0.29214957311260448 0 0.16005413832567669 0.30691349036464077 0 0.13401849175413849 0.29214957311260448 0 0.1558685034792309 0.28595093384994291 0 0.16005413832567669 0.30691349036464077 0 0.13366986361514199 0.26692500362740812 0 0.13401849175413849 0.29214957311260448 0 0.1558685034792309 0.28595093384994291 0 0.1558685034792309 0.28595093384994291 0 0.1700220001876428 0.28782965529906401 0 0.16005413832567669 0.30691349036464077 0 0.1558685034792309 0.28595093384994291 0 0.1700220001876428 0.28782965529906401 0 0.17370236977615991 0.27502287964280692 0 0.1700220001876428 0.28782965529906401 0 0.16005413832567669 0.30691349036464077 0 0.1764196225356903 0.29880027385689728 0 0.16005413832567669 0.30691349036464077 0 0.1764196225356903 0.29880027385689728 0 0.18686192329242929 0.31378732528256248 0 0.1764196225356903 0.29880027385689728 0 0.18674031124236579 0.30201460306836742 0 0.19086383386244751 0.2907864273273883 0 0.1764196225356903 0.29880027385689728 0 0.18674031124236579 0.30201460306836742 0 0.18686192329242929 0.31378732528256248 0 0.1700220001876428 0.28782965529906401 0 0.18013512871176271 0.28566990799825959 0 0.17370236977615991 0.27502287964280692 0 0.1700220001876428 0.28782965529906401 0 0.1764196225356903 0.29880027385689728 0 0.18013512871176271 0.28566990799825959 0 0.1764196225356903 0.29880027385689728 0 0.18013512871176271 0.28566990799825959 0 0.19086383386244751 0.2907864273273883 0 0.18013512871176271 0.28566990799825959 0 0.1896678171968729 0.27591030386514148 0 0.19086383386244751 0.2907864273273883 0 0.18251379545819379 0.26835647973838378 0 0.17370236977615991 0.27502287964280692 0 0.1896678171968729 0.27591030386514148 0 0.18013512871176271 0.28566990799825959 0 0.17370236977615991 0.27502287964280692 0 0.1896678171968729 0.27591030386514148 0 0.18251379545819379 0.26835647973838378 0 0.17370236977615991 0.27502287964280692 0 0.17699066645021869 0.2595722272450377 0 0.17370236977615991 0.27502287964280692 0 0.15959452244756481 0.26367036214955358 0 0.17699066645021869 0.2595722272450377 0 0.1558685034792309 0.28595093384994291 0 0.17370236977615991 0.27502287964280692 0 0.15959452244756481 0.26367036214955358 0 0.16774616909827719 0.2460930353984315 0 0.15959452244756481 0.26367036214955358 0 0.17699066645021869 0.2595722272450377 0 0.14702044576598061 0.2478904659134552 0 0.16774616909827719 0.2460930353984315 0 0.15959452244756481 0.26367036214955358 0 0.18692125413578081 0.24552837502103991 0 0.16774616909827719 0.2460930353984315 0 0.17699066645021869 0.2595722272450377 0 0.18692125413578081 0.24552837502103991 0 0.17699066645021869 0.2595722272450377 0 0.19242781921148469 0.26384338938458129 0 0.18251379545819379 0.26835647973838378 0 0.17699066645021869 0.2595722272450377 0 0.19242781921148469 0.26384338938458129 0 0.18692125413578081 0.24552837502103991 0 0.19242781921148469 0.26384338938458129 0 0.20107379594449931 0.25686311186437227 0 0.18692125413578081 0.24552837502103991 0 0.20107379594449931 0.25686311186437227 0 0.19242781921148469 0.26384338938458129 0 0.20107379594449931 0.25686311186437227 0 0.2008998280478862 0.26959186196165702 0 0.19242781921148469 0.26384338938458129 0 0.20107379594449931 0.25686311186437227 0 0.19242781921148469 0.26384338938458129 0 0.1896678171968729 0.27591030386514148 0 0.2008998280478862 0.26959186196165702 0 0.18251379545819379 0.26835647973838378 0 0.19242781921148469 0.26384338938458129 0 0.1896678171968729 0.27591030386514148 0 0.1896678171968729 0.27591030386514148 0 0.2008998280478862 0.26959186196165702 0 0.20354188417430641 0.281093168015905 0 0.2008998280478862 0.26959186196165702 0 0.2177878237122676 0.27024933667828532 0 0.20354188417430641 0.281093168015905 0 0.2177878237122676 0.27024933667828532 0 0.20354188417430641 0.281093168015905 0 0.2166033006779626 0.28924568688104418 0 0.21557305570370441 0.24515722135805329 0 0.20107379594449931 0.25686311186437227 0 0.2177878237122676 0.27024933667828532 0 0.20107379594449931 0.25686311186437227 0 0.2177878237122676 0.27024933667828532 0 0.20107379594449931 0.25686311186437227 0 0.2008998280478862 0.26959186196165702 0 0.2177878237122676 0.27024933667828532 0 0.21557305570370441 0.24515722135805329 0 0.20107379594449931 0.25686311186437227 0 0.21557305570370441 0.24515722135805329 0 0.2177878237122676 0.27024933667828532 0 0.23628031136540401 0.25597328662156199 0 0.2177878237122676 0.27024933667828532 0 0.23628031136540401 0.25597328662156199 0 0.23450185148003599 0.28363556149219821 0 0.2177878237122676 0.27024933667828532 0 0.23450185148003599 0.28363556149219821 0 0.2166033006779626 0.28924568688104418 0 0.2177878237122676 0.27024933667828532 0 0.23450185148003599 0.28363556149219821 0 0.23628031136540401 0.25597328662156199 0 0.23450185148003599 0.28363556149219821 0 0.25102838231212438 0.26850893423506528 0 0.23450185148003599 0.28363556149219821 0 0.25953152444998728 0.28294166139542631 0 0.25102838231212438 0.26850893423506528 0 0.23628031136540401 0.25597328662156199 0 0.25102838231212438 0.26850893423506528 0 0.26221447651104962 0.2479993693513689 0 0.2297645605960125 0.30261029929826411 0 0.25121587924780342 0.29702178630611242 0 0.2484846271056145 0.31037308609574782 0 0.2297645605960125 0.30261029929826411 0 0.23798581837376781 0.31938142953188831 0 0.2484846271056145 0.31037308609574782 0 0.2297645605960125 0.30261029929826411 0 0.25121587924780342 0.29702178630611242 0 0.23450185148003599 0.28363556149219821 0 0.2297645605960125 0.30261029929826411 0 0.25121587924780342 0.29702178630611242 0 0.23450185148003599 0.28363556149219821 0 0.25121587924780342 0.29702178630611242 0 0.23450185148003599 0.28363556149219821 0 0.25953152444998728 0.28294166139542631 0 0.25121587924780342 0.29702178630611242 0 0.23450185148003599 0.28363556149219821 0 0.2297645605960125 0.30261029929826411 0 0.2166033006779626 0.28924568688104418 0 0.2297645605960125 0.30261029929826411 0 0.20831324194422091 0.30819881229041318 0 0.2297645605960125 0.30261029929826411 0 0.20831324194422091 0.30819881229041318 0 0.21977364325038071 0.31928170538083578 0 0.20831324194422091 0.30819881229041318 0 0.2166033006779626 0.28924568688104418 0 0.20288664267638859 0.29424953150154581 0 0.2297645605960125 0.30261029929826411 0 0.20831324194422091 0.30819881229041318 0 0.2166033006779626 0.28924568688104418 0 0.20354188417430641 0.281093168015905 0 0.2166033006779626 0.28924568688104418 0 0.20288664267638859 0.29424953150154581 0 0.20354188417430641 0.281093168015905 0 0.20288664267638859 0.29424953150154581 0 0.19086383386244751 0.2907864273273883 0 0.20288664267638859 0.29424953150154581 0 0.19086383386244751 0.2907864273273883 0 0.19511095272300569 0.3019235629929784 0 0.1896678171968729 0.27591030386514148 0 0.20354188417430641 0.281093168015905 0 0.19086383386244751 0.2907864273273883 0 0.20831324194422091 0.30819881229041318 0 0.18686192329242929 0.31378732528256248 0 0.20831324194422091 0.30819881229041318 0 0.19511095272300569 0.3019235629929784 0 0.18686192329242929 0.31378732528256248 0 0.20831324194422091 0.30819881229041318 0 0.20288664267638859 0.29424953150154581 0 0.19511095272300569 0.3019235629929784 0 0.18674031124236579 0.30201460306836742 0 0.19086383386244751 0.2907864273273883 0 0.19511095272300569 0.3019235629929784 0 0.18674031124236579 0.30201460306836742 0 0.19511095272300569 0.3019235629929784 0 0.18686192329242929 0.31378732528256248 0 0.20141288137377081 0.31920030670374799 0 0.18686192329242929 0.31378732528256248 0 0.18608978489721489 0.32167740761667712 0 0.20831324194422091 0.30819881229041318 0 0.20141288137377081 0.31920030670374799 0 0.18686192329242929 0.31378732528256248 0 0.20141288137377081 0.31920030670374799 0 0.21212543146875301 0.33644132486871342 0 0.18608978489721489 0.32167740761667712 0 0.21212543146875301 0.33644132486871342 0 0.18608978489721489 0.32167740761667712 0 0.19231113454718349 0.34165597013868199 0 0.21212543146875301 0.33644132486871342 0 0.18608978489721489 0.32167740761667712 0 0.20831324194422091 0.30819881229041318 0 0.20141288137377081 0.31920030670374799 0 0.21977364325038071 0.31928170538083578 0 0.20141288137377081 0.31920030670374799 0 0.21212543146875301 0.33644132486871342 0 0.21977364325038071 0.31928170538083578 0 0.21977364325038071 0.31928170538083578 0 0.2290399257457596 0.32985805959198788 0 0.23798581837376781 0.31938142953188831 0 0.2297645605960125 0.30261029929826411 0 0.21977364325038071 0.31928170538083578 0 0.23798581837376781 0.31938142953188831 0 0.21212543146875301 0.33644132486871342 0 0.21977364325038071 0.31928170538083578 0 0.2290399257457596 0.32985805959198788 0 0.21212543146875301 0.33644132486871342 0 0.23060518033342339 0.33807106122714048 0 0.2290399257457596 0.32985805959198788 0 0.21212543146875301 0.33644132486871342 0 0.23060518033342339 0.33807106122714048 0 0.23816107804029091 0.35120524212074949 0 0.23060518033342339 0.33807106122714048 0 0.2290399257457596 0.32985805959198788 0 0.2430942860788903 0.33477961832711151 0 0.23060518033342339 0.33807106122714048 0 0.2430942860788903 0.33477961832711151 0 0.23816107804029091 0.35120524212074949 0 0.2484846271056145 0.31037308609574782 0 0.23798581837376781 0.31938142953188831 0 0.25508783524565293 0.32209220201309929 0 0.2430942860788903 0.33477961832711151 0 0.23798581837376781 0.31938142953188831 0 0.25508783524565293 0.32209220201309929 0 0.2290399257457596 0.32985805959198788 0 0.2430942860788903 0.33477961832711151 0 0.23798581837376781 0.31938142953188831 0 0.23439037865920059 0.35560025357312369 0 0.2386764282036242 0.37725286527910618 0 0.24311907173897271 0.36013203008567057 0 0.23439037865920059 0.35560025357312369 0 0.2386764282036242 0.37725286527910618 0 0.2492643002430574 0.365916522193315 0 0.24311907173897271 0.36013203008567057 0 0.2386764282036242 0.37725286527910618 0 0.2492643002430574 0.365916522193315 0 0.2386764282036242 0.37725286527910618 0 0.25383912625151372 0.37755129754335942 0 0.24311907173897271 0.36013203008567057 0 0.23816107804029091 0.35120524212074949 0 0.2641967246118288 0.36596915937278562 0 0.2430942860788903 0.33477961832711151 0 0.23816107804029091 0.35120524212074949 0 0.26173146881309822 0.35734024057335978 0 0.24311907173897271 0.36013203008567057 0 0.23816107804029091 0.35120524212074949 0 0.23439037865920059 0.35560025357312369 0 0.21212543146875301 0.33644132486871342 0 0.23816107804029091 0.35120524212074949 0 0.21848510057545151 0.35453686872473111 0 0.23816107804029091 0.35120524212074949 0 0.23439037865920059 0.35560025357312369 0 0.21848510057545151 0.35453686872473111 0 0.21212543146875301 0.33644132486871342 0 0.23816107804029091 0.35120524212074949 0 0.23439037865920059 0.35560025357312369 0 0.22513916990612379 0.36868200325308897 0 0.2386764282036242 0.37725286527910618 0 0.23439037865920059 0.35560025357312369 0 0.22513916990612379 0.36868200325308897 0 0.21848510057545151 0.35453686872473111 0 0.22513916990612379 0.36868200325308897 0 0.20931495008602691 0.36890180222237801 0 0.21961872799640589 0.38146559318592133 0 0.22513916990612379 0.36868200325308897 0 0.20931495008602691 0.36890180222237801 0 0.21848510057545151 0.35453686872473111 0 0.20931495008602691 0.36890180222237801 0 0.21848510057545151 0.35453686872473111 0 0.2018014651714847 0.35413555731190122 0 0.21212543146875301 0.33644132486871342 0 0.21848510057545151 0.35453686872473111 0 0.2018014651714847 0.35413555731190122 0 0.19231113454718349 0.34165597013868199 0 0.2018014651714847 0.35413555731190122 0 0.1832131523033072 0.3569188224833833 0 0.19231113454718349 0.34165597013868199 0 0.21212543146875301 0.33644132486871342 0 0.2018014651714847 0.35413555731190122 0 0.20931495008602691 0.36890180222237801 0 0.2018014651714847 0.35413555731190122 0 0.19217836357317111 0.36996972767433872 0 0.20931495008602691 0.36890180222237801 0 0.19217836357317111 0.36996972767433872 0 0.20289108470775991 0.38370682355227331 0 0.2018014651714847 0.35413555731190122 0 0.19217836357317111 0.36996972767433872 0 0.1832131523033072 0.3569188224833833 0 0.19217836357317111 0.36996972767433872 0 0.17197644233242751 0.37002706837148541 0 0.1832131523033072 0.3569188224833833 0 0.17197644233242751 0.37002706837148541 0 0.16866852787741549 0.35230522619665788 0 0.1832131523033072 0.3569188224833833 0 0.17197644233242751 0.37002706837148541 0 0.16866852787741549 0.35230522619665788 0 0.15186920095361911 0.35620033980905319 0 0.17197644233242751 0.37002706837148541 0 0.15186920095361911 0.35620033980905319 0 0.15185568245476189 0.37707061606136422 0 0.16866852787741549 0.35230522619665788 0 0.1579580049025659 0.33927316190663209 0 0.15186920095361911 0.35620033980905319 0 0.16866852787741549 0.35230522619665788 0 0.1832131523033072 0.3569188224833833 0 0.17832583889515771 0.33910673841273542 0 0.19231113454718349 0.34165597013868199 0 0.1832131523033072 0.3569188224833833 0 0.17832583889515771 0.33910673841273542 0 0.17832583889515771 0.33910673841273542 0 0.18608978489721489 0.32167740761667712 0 0.16647560889869609 0.32578562508456149 0 0.19231113454718349 0.34165597013868199 0 0.17832583889515771 0.33910673841273542 0 0.18608978489721489 0.32167740761667712 0 0.16005413832567669 0.30691349036464077 0 0.18608978489721489 0.32167740761667712 0 0.16005413832567669 0.30691349036464077 0 0.18686192329242929 0.31378732528256248 0 0.18608978489721489 0.32167740761667712 0 0.16005413832567669 0.30691349036464077 0 0.18608978489721489 0.32167740761667712 0 0.16647560889869609 0.32578562508456149 0 0.17832583889515771 0.33910673841273542 0 0.16647560889869609 0.32578562508456149 0 0.1579580049025659 0.33927316190663209 0 0.16866852787741549 0.35230522619665788 0 0.17832583889515771 0.33910673841273542 0 0.1579580049025659 0.33927316190663209 0 0.16647560889869609 0.32578562508456149 0 0.1579580049025659 0.33927316190663209 0 0.14183880654046921 0.32250528078568202 0 0.1579580049025659 0.33927316190663209 0 0.14183880654046921 0.32250528078568202 0 0.14054269679001921 0.34363296691054102 0 0.16005413832567669 0.30691349036464077 0 0.16647560889869609 0.32578562508456149 0 0.14183880654046921 0.32250528078568202 0 0.1202868522871179 0.34060046584014031 0 0.14183880654046921 0.32250528078568202 0 0.14054269679001921 0.34363296691054102 0 0.1202868522871179 0.34060046584014031 0 0.14054269679001921 0.34363296691054102 0 0.13274728415341139 0.36410634055334368 0 0.13274728415341139 0.36410634055334368 0 0.15186920095361911 0.35620033980905319 0 0.15185568245476189 0.37707061606136422 0 0.14054269679001921 0.34363296691054102 0 0.13274728415341139 0.36410634055334368 0 0.15186920095361911 0.35620033980905319 0 0.1579580049025659 0.33927316190663209 0 0.14054269679001921 0.34363296691054102 0 0.15186920095361911 0.35620033980905319 0 0.15352992747694119 0.40026604784697911 0 0.13692284990477191 0.38930777957628943 0 0.1397509022148696 0.40843688002483958 0 0.15352992747694119 0.40026604784697911 0 0.15185568245476189 0.37707061606136422 0 0.13692284990477191 0.38930777957628943 0 0.13274728415341139 0.36410634055334368 0 0.15185568245476189 0.37707061606136422 0 0.13692284990477191 0.38930777957628943 0 0.119448870245615 0.38256434187866972 0 0.13274728415341139 0.36410634055334368 0 0.13692284990477191 0.38930777957628943 0 0.115428724103706 0.40267530492779557 0 0.13692284990477191 0.38930777957628943 0 0.1397509022148696 0.40843688002483958 0 0.12259086230274099 0.42947812748907283 0 0.1397509022148696 0.40843688002483958 0 0.14363603346764281 0.42707530835579988 0 0.12259086230274099 0.42947812748907283 0 0.115428724103706 0.40267530492779557 0 0.1397509022148696 0.40843688002483958 0 0.12259086230274099 0.42947812748907283 0 0.14363603346764281 0.42707530835579988 0 0.13510526379757609 0.44116740875256688 0 0.14363603346764281 0.42707530835579988 0 0.16526304614212209 0.42908608809292892 0 0.1507341445198021 0.44370602134863157 0 0.14363603346764281 0.42707530835579988 0 0.15527295380072001 0.4153931176925994 0 0.16526304614212209 0.42908608809292892 0 0.14363603346764281 0.42707530835579988 0 0.1507341445198021 0.44370602134863157 0 0.13510526379757609 0.44116740875256688 0 0.1397509022148696 0.40843688002483958 0 0.14363603346764281 0.42707530835579988 0 0.15527295380072001 0.4153931176925994 0 0.15352992747694119 0.40026604784697911 0 0.1397509022148696 0.40843688002483958 0 0.15527295380072001 0.4153931176925994 0 0.15527295380072001 0.4153931176925994 0 0.1711416470664554 0.41062619466687539 0 0.16526304614212209 0.42908608809292892 0 0.15352992747694119 0.40026604784697911 0 0.15527295380072001 0.4153931176925994 0 0.1711416470664554 0.41062619466687539 0 0.16526304614212209 0.42908608809292892 0 0.1809560021812836 0.43814832633623357 0 0.16598328874466911 0.44273574664910909 0 0.16526304614212209 0.42908608809292892 0 0.18469425222239219 0.42125941149134333 0 0.1809560021812836 0.43814832633623357 0 0.1711416470664554 0.41062619466687539 0 0.16526304614212209 0.42908608809292892 0 0.18469425222239219 0.42125941149134333 0 0.1711416470664554 0.41062619466687539 0 0.18469425222239219 0.42125941149134333 0 0.1843100454414533 0.40126956181167389 0 0.1711416470664554 0.41062619466687539 0 0.1843100454414533 0.40126956181167389 0 0.16952276405911931 0.3912061138884545 0 0.1843100454414533 0.40126956181167389 0 0.16952276405911931 0.3912061138884545 0 0.18589276442329861 0.38606835492789338 0 0.15352992747694119 0.40026604784697911 0 0.1711416470664554 0.41062619466687539 0 0.16952276405911931 0.3912061138884545 0 0.15352992747694119 0.40026604784697911 0 0.15185568245476189 0.37707061606136422 0 0.16952276405911931 0.3912061138884545 0 0.17197644233242751 0.37002706837148541 0 0.15185568245476189 0.37707061606136422 0 0.16952276405911931 0.3912061138884545 0 0.17197644233242751 0.37002706837148541 0 0.16952276405911931 0.3912061138884545 0 0.18589276442329861 0.38606835492789338 0 0.19217836357317111 0.36996972767433872 0 0.17197644233242751 0.37002706837148541 0 0.18589276442329861 0.38606835492789338 0 0.18589276442329861 0.38606835492789338 0 0.20289108470775991 0.38370682355227331 0 0.19700705340585539 0.39579078134538831 0 0.19217836357317111 0.36996972767433872 0 0.18589276442329861 0.38606835492789338 0 0.20289108470775991 0.38370682355227331 0 0.19700705340585539 0.39579078134538831 0 0.21316338490038089 0.39704202397260657 0 0.19877798755638451 0.41086714246249401 0 0.1843100454414533 0.40126956181167389 0 0.19700705340585539 0.39579078134538831 0 0.19877798755638451 0.41086714246249401 0 0.1843100454414533 0.40126956181167389 0 0.18589276442329861 0.38606835492789338 0 0.19700705340585539 0.39579078134538831 0 0.20289108470775991 0.38370682355227331 0 0.19700705340585539 0.39579078134538831 0 0.21316338490038089 0.39704202397260657 0 0.20931495008602691 0.36890180222237801 0 0.20289108470775991 0.38370682355227331 0 0.21961872799640589 0.38146559318592133 0 0.20289108470775991 0.38370682355227331 0 0.21316338490038089 0.39704202397260657 0 0.21961872799640589 0.38146559318592133 0 0.22513916990612379 0.36868200325308897 0 0.21961872799640589 0.38146559318592133 0 0.2386764282036242 0.37725286527910618 0 0.21961872799640589 0.38146559318592133 0 0.22852735017452019 0.39320804083607441 0 0.2386764282036242 0.37725286527910618 0 0.21316338490038089 0.39704202397260657 0 0.21961872799640589 0.38146559318592133 0 0.22852735017452019 0.39320804083607441 0 0.21316338490038089 0.39704202397260657 0 0.22852735017452019 0.39320804083607441 0 0.22983145469658259 0.40925978250573319 0 0.21316338490038089 0.39704202397260657 0 0.22983145469658259 0.40925978250573319 0 0.22852735017452019 0.39320804083607441 0 0.2429624777480478 0.39890547698508871 0 0.22983145469658259 0.40925978250573319 0 0.2429624777480478 0.39890547698508871 0 0.2386764282036242 0.37725286527910618 0 0.22852735017452019 0.39320804083607441 0 0.2429624777480478 0.39890547698508871 0 0.2386764282036242 0.37725286527910618 0 0.2429624777480478 0.39890547698508871 0 0.2386764282036242 0.37725286527910618 0 0.25341304662754638 0.38974012394171498 0 0.2386764282036242 0.37725286527910618 0 0.25383912625151372 0.37755129754335942 0 0.25341304662754638 0.38974012394171498 0 0.24649952449278431 0.42147754103885982 0 0.22996656543308741 0.44177288309861867 0 0.24946733303660301 0.43176723098649622 0 0.24649952449278431 0.42147754103885982 0 0.22996656543308741 0.44177288309861867 0 0.24649952449278431 0.42147754103885982 0 0.22738899126970491 0.42458926785457718 0 0.22996656543308741 0.44177288309861867 0 0.24946733303660301 0.43176723098649622 0 0.24649952449278431 0.42147754103885982 0 0.2429624777480478 0.39890547698508871 0 0.24649952449278431 0.42147754103885982 0 0.24649952449278431 0.42147754103885982 0 0.22983145469658259 0.40925978250573319 0 0.22738899126970491 0.42458926785457718 0 0.24649952449278431 0.42147754103885982 0 0.22983145469658259 0.40925978250573319 0 0.2429624777480478 0.39890547698508871 0 0.24649952449278431 0.42147754103885982 0 0.22983145469658259 0.40925978250573319 0 0.21316338490038089 0.39704202397260657 0 0.22983145469658259 0.40925978250573319 0 0.21370806227123909 0.41789950377956148 0 0.22983145469658259 0.40925978250573319 0 0.22738899126970491 0.42458926785457718 0 0.21370806227123909 0.41789950377956148 0 0.22738899126970491 0.42458926785457718 0 0.21739304288862979 0.43200563017257382 0 0.22996656543308741 0.44177288309861867 0 0.22738899126970491 0.42458926785457718 0 0.21739304288862979 0.43200563017257382 0 0.21370806227123909 0.41789950377956148 0 0.21739304288862979 0.43200563017257382 0 0.1999317510848099 0.43097584272053618 0 0.2111195299095035 0.44359306409302351 0 0.21739304288862979 0.43200563017257382 0 0.21370806227123909 0.41789950377956148 0 0.1999317510848099 0.43097584272053618 0 0.21370806227123909 0.41789950377956148 0 0.19877798755638451 0.41086714246249401 0 0.1999317510848099 0.43097584272053618 0 0.21316338490038089 0.39704202397260657 0 0.21370806227123909 0.41789950377956148 0 0.19877798755638451 0.41086714246249401 0 0.18469425222239219 0.42125941149134333 0 0.19877798755638451 0.41086714246249401 0 0.1999317510848099 0.43097584272053618 0 0.18469425222239219 0.42125941149134333 0 0.1843100454414533 0.40126956181167389 0 0.19877798755638451 0.41086714246249401 0 0.18469425222239219 0.42125941149134333 0 0.1999317510848099 0.43097584272053618 0 0.1809560021812836 0.43814832633623357 0 0.1999317510848099 0.43097584272053618 0 0.19479511809318301 0.4526549487178691 0 0.2111195299095035 0.44359306409302351 0 0.1999317510848099 0.43097584272053618 0 0.19479511809318301 0.4526549487178691 0 0.1809560021812836 0.43814832633623357 0 0.19479511809318301 0.4526549487178691 0 0.213169792932182 0.46047172596691099 0 0.19211155850092579 0.47790980627879082 0 0.19479511809318301 0.4526549487178691 0 0.19211155850092579 0.47790980627879082 0 0.18348770279874721 0.46143911161818069 0 0.213169792932182 0.46047172596691099 0 0.2111195299095035 0.44359306409302351 0 0.22996656543308741 0.44177288309861867 0 0.19479511809318301 0.4526549487178691 0 0.213169792932182 0.46047172596691099 0 0.2111195299095035 0.44359306409302351 0 0.21739304288862979 0.43200563017257382 0 0.2111195299095035 0.44359306409302351 0 0.22996656543308741 0.44177288309861867 0 0.22996656543308741 0.44177288309861867 0 0.22854105436186559 0.46372788353366717 0 0.24141841662185301 0.45603819576859073 0 0.213169792932182 0.46047172596691099 0 0.22854105436186559 0.46372788353366717 0 0.221321310837439 0.47674074212904899 0 0.213169792932182 0.46047172596691099 0 0.22996656543308741 0.44177288309861867 0 0.22854105436186559 0.46372788353366717 0 0.24141841662185301 0.45603819576859073 0 0.23645949407781469 0.47608243786178739 0 0.25047151807745072 0.47036873115219768 0 0.22854105436186559 0.46372788353366717 0 0.24141841662185301 0.45603819576859073 0 0.23645949407781469 0.47608243786178739 0 0.24141841662185301 0.45603819576859073 0 0.25047151807745072 0.47036873115219768 0 0.25477099823403621 0.45804476415031298 0 0.24141841662185301 0.45603819576859073 0 0.25282491994113748 0.44831200937164878 0 0.25477099823403621 0.45804476415031298 0 0.22996656543308741 0.44177288309861867 0 0.24141841662185301 0.45603819576859073 0 0.24583280085865111 0.44361242472787987 0 0.24946733303660301 0.43176723098649622 0 0.22996656543308741 0.44177288309861867 0 0.24583280085865111 0.44361242472787987 0 0.24141841662185301 0.45603819576859073 0 0.24583280085865111 0.44361242472787987 0 0.25282491994113748 0.44831200937164878 0 0.24904418528453851 0.48634810883828161 0 0.23645949407781469 0.47608243786178739 0 0.23352830384551029 0.49999999999999978 0 0.24904418528453851 0.48634810883828161 0 0.23352830384551029 0.49999999999999978 0 0.25181722630913472 0.5 0 0.24904418528453851 0.48634810883828161 0 0.23645949407781469 0.47608243786178739 0 0.25047151807745072 0.47036873115219768 0 0.23645949407781469 0.47608243786178739 0 0.221321310837439 0.47674074212904899 0 0.23352830384551029 0.49999999999999978 0 0.22854105436186559 0.46372788353366717 0 0.23645949407781469 0.47608243786178739 0 0.221321310837439 0.47674074212904899 0 0.23352830384551029 0.49999999999999978 0 0.2128199311732181 0.48895490313939532 0 0.21702906166474581 0.5 0 0.23352830384551029 0.49999999999999978 0 0.2128199311732181 0.48895490313939532 0 0.221321310837439 0.47674074212904899 0 0.23352830384551029 0.49999999999999978 0 0.2128199311732181 0.48895490313939532 0 0.2128199311732181 0.48895490313939532 0 0.21702906166474581 0.5 0 0.20052981948398141 0.49999999999999989 0 0.213169792932182 0.46047172596691099 0 0.221321310837439 0.47674074212904899 0 0.19211155850092579 0.47790980627879082 0 0.221321310837439 0.47674074212904899 0 0.2128199311732181 0.48895490313939532 0 0.19211155850092579 0.47790980627879082 0 0.2128199311732181 0.48895490313939532 0 0.19211155850092579 0.47790980627879082 0 0.2128199311732181 0.48895490313939532 0 0.20052981948398141 0.49999999999999989 0 0.19295831529489699 0.4905304616351287 0 0.2128199311732181 0.48895490313939532 0 0.19211155850092579 0.47790980627879082 0 0.19295831529489699 0.4905304616351287 0 0.20052981948398141 0.49999999999999989 0 0.1839227339461352 0.49861489743603538 0 0.20052981948398141 0.49999999999999989 0 0.19295831529489699 0.4905304616351287 0 0.1839227339461352 0.49861489743603538 0 0.19211155850092579 0.47790980627879082 0 0.19295831529489699 0.4905304616351287 0 0.1809625144841838 0.48570342190566712 0 0.1839227339461352 0.49861489743603538 0 0.1809625144841838 0.48570342190566712 0 0.16731564840828889 0.49722979487207219 0 0.1839227339461352 0.49861489743603538 0 0.16731564840828889 0.49722979487207219 0 0.1839227339461352 0.49861489743603538 0 0.1669427425872391 0.49999999999999922 0 0.16731564840828889 0.49722979487207219 0 0.19295831529489699 0.4905304616351287 0 0.1839227339461352 0.49861489743603538 0 0.1809625144841838 0.48570342190566712 0 0.1809625144841838 0.48570342190566712 0 0.16731564840828889 0.49722979487207219 0 0.16935941711846161 0.48204725214512889 0 0.16731564840828889 0.49722979487207219 0 0.157708884996551 0.48584061526662409 0 0.14611751268168829 0.49546177892012921 0 0.16731564840828889 0.49722979487207219 0 0.14611751268168829 0.49546177892012921 0 0.1669427425872391 0.49999999999999922 0 0.16731564840828889 0.49722979487207219 0 0.14611751268168829 0.49546177892012921 0 0.1669427425872391 0.49999999999999922 0 0.16731564840828889 0.49722979487207219 0 0.16731564840828889 0.49722979487207219 0 0.16935941711846161 0.48204725214512889 0 0.16731564840828889 0.49722979487207219 0 0.157708884996551 0.48584061526662409 0 0.16935941711846161 0.48204725214512889 0 0.16382575626869561 0.4735735187060508 0 0.15802571703479451 0.46684670821381258 0 0.1531189490294651 0.47544631339495541 0 0.157708884996551 0.48584061526662409 0 0.16382575626869561 0.4735735187060508 0 0.1531189490294651 0.47544631339495541 0 0.157708884996551 0.48584061526662409 0 0.16382575626869561 0.4735735187060508 0 0.16935941711846161 0.48204725214512889 0 0.16935941711846161 0.48204725214512889 0 0.17140318582863401 0.46686470941818559 0 0.16382575626869561 0.4735735187060508 0 0.16935941711846161 0.48204725214512889 0 0.17140318582863401 0.46686470941818559 0 0.1809625144841838 0.48570342190566712 0 0.16935941711846161 0.48204725214512889 0 0.17140318582863401 0.46686470941818559 0 0.19211155850092579 0.47790980627879082 0 0.1809625144841838 0.48570342190566712 0 0.17140318582863401 0.46686470941818559 0 0.19211155850092579 0.47790980627879082 0 0.17140318582863401 0.46686470941818559 0 0.19479511809318301 0.4526549487178691 0 0.18348770279874721 0.46143911161818069 0 0.17341546959919829 0.45191605883299152 0 0.19211155850092579 0.47790980627879082 0 0.18348770279874721 0.46143911161818069 0 0.17140318582863401 0.46686470941818559 0 0.18348770279874721 0.46143911161818069 0 0.17341546959919829 0.45191605883299152 0 0.17140318582863401 0.46686470941818559 0 0.17341546959919829 0.45191605883299152 0 0.17140318582863401 0.46686470941818559 0 0.19479511809318301 0.4526549487178691 0 0.1809560021812836 0.43814832633623357 0 0.17341546959919829 0.45191605883299152 0 0.1809560021812836 0.43814832633623357 0 0.17341546959919829 0.45191605883299152 0 0.16598328874466911 0.44273574664910909 0 0.17341546959919829 0.45191605883299152 0 0.16598328874466911 0.44273574664910909 0 0.15954778128093949 0.4508222386347599 0 0.16598328874466911 0.44273574664910909 0 0.15954778128093949 0.4508222386347599 0 0.1507341445198021 0.44370602134863157 0 0.16526304614212209 0.42908608809292892 0 0.16598328874466911 0.44273574664910909 0 0.1507341445198021 0.44370602134863157 0 0.16382575626869561 0.4735735187060508 0 0.1651762257979181 0.46354347419730452 0 0.17140318582863401 0.46686470941818559 0 0.1651762257979181 0.46354347419730452 0 0.17140318582863401 0.46686470941818559 0 0.17341546959919829 0.45191605883299152 0 0.1651762257979181 0.46354347419730452 0 0.17140318582863401 0.46686470941818559 0 0.17341546959919829 0.45191605883299152 0 0.15954778128093949 0.4508222386347599 0 0.1651762257979181 0.46354347419730452 0 0.15954778128093949 0.4508222386347599 0 0.1651762257979181 0.46354347419730452 0 0.1582471669695637 0.45974252444074731 0 0.16382575626869561 0.4735735187060508 0 0.1651762257979181 0.46354347419730452 0 0.15802571703479451 0.46684670821381258 0 0.1651762257979181 0.46354347419730452 0 0.1582471669695637 0.45974252444074731 0 0.15802571703479451 0.46684670821381258 0 0.14976048710833001 0.46192771033000529 0 0.1507341445198021 0.44370602134863157 0 0.136404492151351 0.45486193181106682 0 0.1582471669695637 0.45974252444074731 0 0.15802571703479451 0.46684670821381258 0 0.14976048710833001 0.46192771033000529 0 0.15802571703479451 0.46684670821381258 0 0.14976048710833001 0.46192771033000529 0 0.1531189490294651 0.47544631339495541 0 0.15954778128093949 0.4508222386347599 0 0.1582471669695637 0.45974252444074731 0 0.14976048710833001 0.46192771033000529 0 0.14976048710833001 0.46192771033000529 0 0.136404492151351 0.45486193181106682 0 0.13663143795624749 0.46910754811773492 0 0.15954778128093949 0.4508222386347599 0 0.14976048710833001 0.46192771033000529 0 0.1507341445198021 0.44370602134863157 0 0.1507341445198021 0.44370602134863157 0 0.13510526379757609 0.44116740875256688 0 0.136404492151351 0.45486193181106682 0 0.1221607865463437 0.4507156547582637 0 0.12259086230274099 0.42947812748907283 0 0.13510526379757609 0.44116740875256688 0 0.1221607865463437 0.4507156547582637 0 0.13510526379757609 0.44116740875256688 0 0.136404492151351 0.45486193181106682 0 0.136404492151351 0.45486193181106682 0 0.1267882431275838 0.46370707134437261 0 0.13663143795624749 0.46910754811773492 0 0.1221607865463437 0.4507156547582637 0 0.136404492151351 0.45486193181106682 0 0.1267882431275838 0.46370707134437261 0 0.1267882431275838 0.46370707134437261 0 0.12569724768963239 0.47617993877849962 0 0.13663143795624749 0.46910754811773492 0 0.12569724768963239 0.47617993877849962 0 0.13663143795624749 0.46910754811773492 0 0.1364132019148096 0.48384982340983701 0 0.13663143795624749 0.46910754811773492 0 0.1364132019148096 0.48384982340983701 0 0.14361111091913481 0.47574478002545789 0 0.1249193769550877 0.49369376296818718 0 0.1364132019148096 0.48384982340983701 0 0.14611751268168829 0.49546177892012921 0 0.1249193769550877 0.49369376296818718 0 0.14611751268168829 0.49546177892012921 0 0.1249193769550877 0.49369376296818718 0 0.12569724768963239 0.47617993877849962 0 0.1364132019148096 0.48384982340983701 0 0.1249193769550877 0.49369376296818718 0 0.13738437864054501 0.5 0 0.14611751268168829 0.49546177892012921 0 0.1364132019148096 0.48384982340983701 0 0.14611751268168829 0.49546177892012921 0 0.14718343377546941 0.48347361591025501 0 0.1669427425872391 0.49999999999999922 0 0.13738437864054501 0.5 0 0.14611751268168829 0.49546177892012921 0 0.157708884996551 0.48584061526662409 0 0.14611751268168829 0.49546177892012921 0 0.14718343377546941 0.48347361591025501 0 0.157708884996551 0.48584061526662409 0 0.1531189490294651 0.47544631339495541 0 0.14718343377546941 0.48347361591025501 0 0.14976048710833001 0.46192771033000529 0 0.1531189490294651 0.47544631339495541 0 0.14361111091913481 0.47574478002545789 0 0.14976048710833001 0.46192771033000529 0 0.13663143795624749 0.46910754811773492 0 0.14361111091913481 0.47574478002545789 0 0.1364132019148096 0.48384982340983701 0 0.14361111091913481 0.47574478002545789 0 0.14718343377546941 0.48347361591025501 0 0.1531189490294651 0.47544631339495541 0 0.14361111091913481 0.47574478002545789 0 0.14718343377546941 0.48347361591025501 0 0.35832214194920592 0.47929915408112939 0 0.34611268429232461 0.46591887339206078 0 0.3375369348076922 0.4829399206954248 0 0.35832214194920592 0.47929915408112939 0 0.35850557312216419 0.5 0 0.3375369348076922 0.4829399206954248 0 0.35850557312216419 0.5 0 0.37801407526051067 0.48065415083330842 0 0.38797204790529932 0.5 0 0.35832214194920592 0.47929915408112939 0 0.35850557312216419 0.5 0 0.37801407526051067 0.48065415083330842 0 0.35832214194920592 0.47929915408112939 0 0.36980735363827261 0.46050290225189661 0 0.37801407526051067 0.48065415083330842 0 0.36980735363827261 0.46050290225189661 0 0.34502769605759259 0.44546544446971242 0 0.36959298495063608 0.43610817863788948 0 0.35832214194920592 0.47929915408112939 0 0.36980735363827261 0.46050290225189661 0 0.34611268429232461 0.46591887339206078 0 0.36980735363827261 0.46050290225189661 0 0.34502769605759259 0.44546544446971242 0 0.34611268429232461 0.46591887339206078 0 0.36980735363827261 0.46050290225189661 0 0.34611268429232461 0.46591887339206078 0 0.34611268429232461 0.46591887339206078 0 0.3317687487832644 0.45597005559148451 0 0.32241801494637662 0.47133484453222518 0 0.34502769605759259 0.44546544446971242 0 0.34611268429232461 0.46591887339206078 0 0.3317687487832644 0.45597005559148451 0 0.34611268429232461 0.46591887339206078 0 0.32241801494637662 0.47133484453222518 0 0.34502769605759259 0.44546544446971242 0 0.3317687487832644 0.45597005559148451 0 0.32480939915707069 0.44218818576869201 0 0.34502769605759259 0.44546544446971242 0 0.32480939915707069 0.44218818576869201 0 0.33523501366627878 0.43221560569608392 0 0.3107318966111981 0.4514989769174147 0 0.3227404476219688 0.42624713816244092 0 0.3317687487832644 0.45597005559148451 0 0.32480939915707069 0.44218818576869201 0 0.3107318966111981 0.4514989769174147 0 0.32480939915707069 0.44218818576869201 0 0.3107318966111981 0.4514989769174147 0 0.3227404476219688 0.42624713816244092 0 0.3317687487832644 0.45597005559148451 0 0.32241801494637662 0.47133484453222518 0 0.3107318966111981 0.4514989769174147 0 0.32241801494637662 0.47133484453222518 0 0.3375369348076922 0.4829399206954248 0 0.31372501333874958 0.48784291822244708 0 0.34611268429232461 0.46591887339206078 0 0.32241801494637662 0.47133484453222518 0 0.3375369348076922 0.4829399206954248 0 0.35850557312216419 0.5 0 0.3375369348076922 0.4829399206954248 0 0.32903909833902928 0.5 0 0.32903909833902928 0.5 0 0.31372501333874958 0.48784291822244708 0 0.29957262355589431 0.5 0 0.3375369348076922 0.4829399206954248 0 0.32903909833902928 0.5 0 0.31372501333874958 0.48784291822244708 0 0.31372501333874958 0.48784291822244708 0 0.30130976803097798 0.48891801032572652 0 0.29957262355589431 0.5 0 0.31372501333874958 0.48784291822244708 0 0.30130976803097798 0.48891801032572652 0 0.29872334560042851 0.47675081567238892 0 0.30130976803097798 0.48891801032572652 0 0.29957262355589431 0.5 0 0.28978827390519868 0.49553967616935518 0 0.32241801494637662 0.47133484453222518 0 0.29872334560042851 0.47675081567238892 0 0.32241801494637662 0.47133484453222518 0 0.31372501333874958 0.48784291822244708 0 0.29872334560042851 0.47675081567238892 0 0.29872334560042851 0.47675081567238892 0 0.28397488520641462 0.48012192141307769 0 0.28978827390519868 0.49553967616935518 0 0.29872334560042851 0.47675081567238892 0 0.28929399795500932 0.47058792179259418 0 0.29703527816799058 0.46117092995693892 0 0.29872334560042851 0.47675081567238892 0 0.28929399795500932 0.47058792179259418 0 0.28397488520641462 0.48012192141307769 0 0.29872334560042851 0.47675081567238892 0 0.28397488520641462 0.48012192141307769 0 0.28929399795500932 0.47058792179259418 0 0.28397488520641462 0.48012192141307769 0 0.27920072977811172 0.47805830749059319 0 0.28397488520641462 0.48012192141307769 0 0.28978827390519868 0.49553967616935518 0 0.27010614877275918 0.50000000000000067 0 0.29957262355589431 0.5 0 0.28978827390519868 0.49553967616935518 0 0.27010614877275918 0.50000000000000067 0 0.30130976803097798 0.48891801032572652 0 0.29872334560042851 0.47675081567238892 0 0.28978827390519868 0.49553967616935518 0 0.29872334560042851 0.47675081567238892 0 0.28978827390519868 0.49553967616935518 0 0.28397488520641462 0.48012192141307769 0 0.27010614877275918 0.50000000000000067 0 0.27920072977811172 0.47805830749059319 0 0.27010614877275918 0.50000000000000067 0 0.26909437115437917 0.48384867389528768 0 0.26130641782501518 0.49139676135406141 0 0.27010614877275918 0.50000000000000067 0 0.27920072977811172 0.47805830749059319 0 0.26909437115437917 0.48384867389528768 0 0.27010614877275918 0.50000000000000067 0 0.27920072977811172 0.47805830749059319 0 0.27920072977811172 0.47805830749059319 0 0.27306774476234302 0.47644699960251641 0 0.26909437115437917 0.48384867389528768 0 0.27920072977811172 0.47805830749059319 0 0.27306774476234302 0.47644699960251641 0 0.27643472525740193 0.46726539210963169 0 0.26824582816420722 0.47348896141386071 0 0.27306774476234302 0.47644699960251641 0 0.27643472525740193 0.46726539210963169 0 0.26824582816420722 0.47348896141386071 0 0.26909437115437917 0.48384867389528768 0 0.25993240985832161 0.47939275616227872 0 0.26824582816420722 0.47348896141386071 0 0.27306774476234302 0.47644699960251641 0 0.26909437115437917 0.48384867389528768 0 0.24904418528453851 0.48634810883828161 0 0.25993240985832161 0.47939275616227872 0 0.25047151807745072 0.47036873115219768 0 0.26824582816420722 0.47348896141386071 0 0.25993240985832161 0.47939275616227872 0 0.26165523792153211 0.46576309323832682 0 0.25993240985832161 0.47939275616227872 0 0.25047151807745072 0.47036873115219768 0 0.26165523792153211 0.46576309323832682 0 0.27010614877275918 0.50000000000000067 0 0.25181722630913472 0.5 0 0.26130641782501518 0.49139676135406141 0 0.24904418528453851 0.48634810883828161 0 0.25993240985832161 0.47939275616227872 0 0.26130641782501518 0.49139676135406141 0 0.24904418528453851 0.48634810883828161 0 0.25181722630913472 0.5 0 0.26130641782501518 0.49139676135406141 0 0.26909437115437917 0.48384867389528768 0 0.25993240985832161 0.47939275616227872 0 0.26130641782501518 0.49139676135406141 0 0.26490489917960358 0.45079530358348557 0 0.25548676926057468 0.44017180441404491 0 0.26331147225899149 0.43380076267102891 0 0.24946733303660301 0.43176723098649622 0 0.24583280085865111 0.44361242472787987 0 0.25548676926057468 0.44017180441404491 0 0.24583280085865111 0.44361242472787987 0 0.25548676926057468 0.44017180441404491 0 0.25282491994113748 0.44831200937164878 0 0.26490489917960358 0.45079530358348557 0 0.25548676926057468 0.44017180441404491 0 0.25282491994113748 0.44831200937164878 0 0.26490489917960358 0.45079530358348557 0 0.25282491994113748 0.44831200937164878 0 0.25477099823403621 0.45804476415031298 0 0.25047151807745072 0.47036873115219768 0 0.25477099823403621 0.45804476415031298 0 0.26165523792153211 0.46576309323832682 0 0.26490489917960358 0.45079530358348557 0 0.25477099823403621 0.45804476415031298 0 0.26165523792153211 0.46576309323832682 0 0.26490489917960358 0.45079530358348557 0 0.27160577401557351 0.46248804296782559 0 0.27679169795675967 0.45600994403837303 0 0.26490489917960358 0.45079530358348557 0 0.26165523792153211 0.46576309323832682 0 0.27160577401557351 0.46248804296782559 0 0.26824582816420722 0.47348896141386071 0 0.27160577401557351 0.46248804296782559 0 0.27643472525740193 0.46726539210963169 0 0.26824582816420722 0.47348896141386071 0 0.26165523792153211 0.46576309323832682 0 0.27160577401557351 0.46248804296782559 0 0.27160577401557351 0.46248804296782559 0 0.27643472525740193 0.46726539210963169 0 0.27679169795675967 0.45600994403837303 0 0.27643472525740193 0.46726539210963169 0 0.27679169795675967 0.45600994403837303 0 0.28829531078346382 0.45611661498118572 0 0.27903440424894049 0.4453257315987294 0 0.26331147225899149 0.43380076267102891 0 0.26490489917960358 0.45079530358348557 0 0.27903440424894049 0.4453257315987294 0 0.26331147225899149 0.43380076267102891 0 0.26490489917960358 0.45079530358348557 0 0.27679169795675967 0.45600994403837303 0 0.27903440424894049 0.4453257315987294 0 0.27903440424894049 0.4453257315987294 0 0.2917470315179379 0.44281751567604499 0 0.28179675760275558 0.42932557237874241 0 0.27679169795675967 0.45600994403837303 0 0.27903440424894049 0.4453257315987294 0 0.28829531078346382 0.45611661498118572 0 0.27903440424894049 0.4453257315987294 0 0.2917470315179379 0.44281751567604499 0 0.28829531078346382 0.45611661498118572 0 0.2917470315179379 0.44281751567604499 0 0.28829531078346382 0.45611661498118572 0 0.29813183988985342 0.45090032042111128 0 0.27920072977811172 0.47805830749059319 0 0.27643472525740193 0.46726539210963169 0 0.28829531078346382 0.45611661498118572 0 0.28929399795500932 0.47058792179259418 0 0.27920072977811172 0.47805830749059319 0 0.28829531078346382 0.45611661498118572 0 0.27920072977811172 0.47805830749059319 0 0.28829531078346382 0.45611661498118572 0 0.28829531078346382 0.45611661498118572 0 0.29703527816799058 0.46117092995693892 0 0.29813183988985342 0.45090032042111128 0 0.28929399795500932 0.47058792179259418 0 0.28829531078346382 0.45611661498118572 0 0.29703527816799058 0.46117092995693892 0 0.29872334560042851 0.47675081567238892 0 0.29703527816799058 0.46117092995693892 0 0.3107318966111981 0.4514989769174147 0 0.29872334560042851 0.47675081567238892 0 0.3107318966111981 0.4514989769174147 0 0.32241801494637662 0.47133484453222518 0 0.29872334560042851 0.47675081567238892 0 0.3107318966111981 0.4514989769174147 0 0.29703527816799058 0.46117092995693892 0 0.29813183988985342 0.45090032042111128 0 0.3107318966111981 0.4514989769174147 0 0.30159082278473881 0.44219288247638061 0 0.3107318966111981 0.4514989769174147 0 0.30884109342504262 0.43428586920116352 0 0.2917470315179379 0.44281751567604499 0 0.30159082278473881 0.44219288247638061 0 0.29850225247966211 0.43146173016616862 0 0.2917470315179379 0.44281751567604499 0 0.30159082278473881 0.44219288247638061 0 0.29813183988985342 0.45090032042111128 0 0.30159082278473881 0.44219288247638061 0 0.29813183988985342 0.45090032042111128 0 0.3107318966111981 0.4514989769174147 0 0.30884109342504262 0.43428586920116352 0 0.29850225247966211 0.43146173016616862 0 0.30862162828234507 0.42004495563460759 0 0.29850225247966211 0.43146173016616862 0 0.30862162828234507 0.42004495563460759 0 0.29547148538100448 0.41817397575591742 0 0.30159082278473881 0.44219288247638061 0 0.30884109342504262 0.43428586920116352 0 0.29850225247966211 0.43146173016616862 0 0.30862162828234507 0.42004495563460759 0 0.30304430461131138 0.40735012112542651 0 0.3196782615082488 0.40265332564926309 0 0.30862162828234507 0.42004495563460759 0 0.30304430461131138 0.40735012112542651 0 0.29547148538100448 0.41817397575591742 0 0.30304430461131138 0.40735012112542651 0 0.29062365375375682 0.40708788978866228 0 0.29547148538100448 0.41817397575591742 0 0.29062365375375682 0.40708788978866228 0 0.29547148538100448 0.41817397575591742 0 0.28288479604298378 0.41446876034122271 0 0.29547148538100448 0.41817397575591742 0 0.28288479604298378 0.41446876034122271 0 0.28179675760275558 0.42932557237874241 0 0.29062365375375682 0.40708788978866228 0 0.28288479604298378 0.41446876034122271 0 0.28001120465417539 0.40182109974822727 0 0.29850225247966211 0.43146173016616862 0 0.29547148538100448 0.41817397575591742 0 0.28179675760275558 0.42932557237874241 0 0.2917470315179379 0.44281751567604499 0 0.29850225247966211 0.43146173016616862 0 0.28179675760275558 0.42932557237874241 0 0.28179675760275558 0.42932557237874241 0 0.27042562322166658 0.41684269204638819 0 0.26331147225899149 0.43380076267102891 0 0.27903440424894049 0.4453257315987294 0 0.28179675760275558 0.42932557237874241 0 0.26331147225899149 0.43380076267102891 0 0.27042562322166658 0.41684269204638819 0 0.26380858941988822 0.4002294757553399 0 0.28001120465417539 0.40182109974822727 0 0.28288479604298378 0.41446876034122271 0 0.28179675760275558 0.42932557237874241 0 0.27042562322166658 0.41684269204638819 0 0.28288479604298378 0.41446876034122271 0 0.27042562322166658 0.41684269204638819 0 0.28001120465417539 0.40182109974822727 0 0.24649952449278431 0.42147754103885982 0 0.25492995388566009 0.41993008507457552 0 0.26380858941988822 0.4002294757553399 0 0.27042562322166658 0.41684269204638819 0 0.25492995388566009 0.41993008507457552 0 0.26380858941988822 0.4002294757553399 0 0.24649952449278431 0.42147754103885982 0 0.26380858941988822 0.4002294757553399 0 0.2429624777480478 0.39890547698508871 0 0.24649952449278431 0.42147754103885982 0 0.26380858941988822 0.4002294757553399 0 0.24946733303660301 0.43176723098649622 0 0.24649952449278431 0.42147754103885982 0 0.26331147225899149 0.43380076267102891 0 0.24649952449278431 0.42147754103885982 0 0.25492995388566009 0.41993008507457552 0 0.26331147225899149 0.43380076267102891 0 0.24649952449278431 0.42147754103885982 0 0.26331147225899149 0.43380076267102891 0 0.27042562322166658 0.41684269204638819 0 0.25492995388566009 0.41993008507457552 0 0.26331147225899149 0.43380076267102891 0 0.24946733303660301 0.43176723098649622 0 0.25548676926057468 0.44017180441404491 0 0.26331147225899149 0.43380076267102891 0 0.26350653962281989 0.38010735630523079 0 0.25341304662754638 0.38974012394171498 0 0.26380858941988822 0.4002294757553399 0 0.26350653962281989 0.38010735630523079 0 0.25383912625151372 0.37755129754335942 0 0.25710864090743918 0.37145542319719338 0 0.26350653962281989 0.38010735630523079 0 0.25383912625151372 0.37755129754335942 0 0.25341304662754638 0.38974012394171498 0 0.2429624777480478 0.39890547698508871 0 0.25341304662754638 0.38974012394171498 0 0.26380858941988822 0.4002294757553399 0 0.26380858941988822 0.4002294757553399 0 0.28001120465417539 0.40182109974822727 0 0.28036865154730628 0.37990086281960789 0 0.26350653962281989 0.38010735630523079 0 0.28036865154730628 0.37990086281960789 0 0.2641967246118288 0.36596915937278562 0 0.26380858941988822 0.4002294757553399 0 0.28036865154730628 0.37990086281960789 0 0.26350653962281989 0.38010735630523079 0 0.26380858941988822 0.4002294757553399 0 0.28036865154730628 0.37990086281960789 0 0.28036865154730628 0.37990086281960789 0 0.29170647807930872 0.39362549197251728 0 0.2987730087010142 0.37934426936791982 0 0.28036865154730628 0.37990086281960789 0 0.29170647807930872 0.39362549197251728 0 0.28001120465417539 0.40182109974822727 0 0.28036865154730628 0.37990086281960789 0 0.29170647807930872 0.39362549197251728 0 0.29062365375375682 0.40708788978866228 0 0.28001120465417539 0.40182109974822727 0 0.29170647807930872 0.39362549197251728 0 0.30304430461131138 0.40735012112542651 0 0.29062365375375682 0.40708788978866228 0 0.29170647807930872 0.39362549197251728 0 0.30304430461131138 0.40735012112542651 0 0.30637452063024528 0.39219955594670219 0 0.3196782615082488 0.40265332564926309 0 0.30304430461131138 0.40735012112542651 0 0.29170647807930872 0.39362549197251728 0 0.30304430461131138 0.40735012112542651 0 0.29170647807930872 0.39362549197251728 0 0.30637452063024528 0.39219955594670219 0 0.30637452063024528 0.39219955594670219 0 0.2987730087010142 0.37934426936791982 0 0.31661607539452802 0.37905951313608538 0 0.29170647807930872 0.39362549197251728 0 0.30637452063024528 0.39219955594670219 0 0.2987730087010142 0.37934426936791982 0 0.31661607539452802 0.37905951313608538 0 0.32905198958534931 0.38831461949406398 0 0.3196782615082488 0.40265332564926309 0 0.31661607539452802 0.37905951313608538 0 0.32905198958534931 0.38831461949406398 0 0.33389487655237682 0.3658352592629312 0 0.32905198958534931 0.38831461949406398 0 0.34270248502322931 0.38427053755298168 0 0.33389487655237682 0.3658352592629312 0 0.32905198958534931 0.38831461949406398 0 0.34270248502322931 0.38427053755298168 0 0.33272146632259869 0.40525883785771122 0 0.34270248502322931 0.38427053755298168 0 0.33272146632259869 0.40525883785771122 0 0.34270248502322931 0.38427053755298168 0 0.33272146632259869 0.40525883785771122 0 0.34670895149724801 0.40816004440777182 0 0.31661607539452802 0.37905951313608538 0 0.3196782615082488 0.40265332564926309 0 0.32905198958534931 0.38831461949406398 0 0.33272146632259869 0.40525883785771122 0 0.3196782615082488 0.40265332564926309 0 0.30637452063024528 0.39219955594670219 0 0.31661607539452802 0.37905951313608538 0 0.3196782615082488 0.40265332564926309 0 0.3196782615082488 0.40265332564926309 0 0.3227404476219688 0.42624713816244092 0 0.30862162828234507 0.42004495563460759 0 0.3196782615082488 0.40265332564926309 0 0.3227404476219688 0.42624713816244092 0 0.33272146632259869 0.40525883785771122 0 0.3196782615082488 0.40265332564926309 0 0.3227404476219688 0.42624713816244092 0 0.33272146632259869 0.40525883785771122 0 0.3227404476219688 0.42624713816244092 0 0.32480939915707069 0.44218818576869201 0 0.3227404476219688 0.42624713816244092 0 0.3107318966111981 0.4514989769174147 0 0.30884109342504262 0.43428586920116352 0 0.3227404476219688 0.42624713816244092 0 0.32480939915707069 0.44218818576869201 0 0.3227404476219688 0.42624713816244092 0 0.33523501366627878 0.43221560569608392 0 0.30884109342504262 0.43428586920116352 0 0.30862162828234507 0.42004495563460759 0 0.3227404476219688 0.42624713816244092 0 0.34502769605759259 0.44546544446971242 0 0.33523501366627878 0.43221560569608392 0 0.34795858503051302 0.425881111768525 0 0.3227404476219688 0.42624713816244092 0 0.33523501366627878 0.43221560569608392 0 0.33659904832278342 0.4201421825902541 0 0.33523501366627878 0.43221560569608392 0 0.33659904832278342 0.4201421825902541 0 0.34795858503051302 0.425881111768525 0 0.33272146632259869 0.40525883785771122 0 0.3227404476219688 0.42624713816244092 0 0.33659904832278342 0.4201421825902541 0 0.33272146632259869 0.40525883785771122 0 0.33659904832278342 0.4201421825902541 0 0.34670895149724801 0.40816004440777182 0 0.33659904832278342 0.4201421825902541 0 0.34670895149724801 0.40816004440777182 0 0.34795858503051302 0.425881111768525 0 0.34670895149724801 0.40816004440777182 0 0.34795858503051302 0.425881111768525 0 0.36336601300371613 0.41450991002864218 0 0.34670895149724801 0.40816004440777182 0 0.36336601300371613 0.41450991002864218 0 0.35690611128064731 0.3988976866485166 0 0.34502769605759259 0.44546544446971242 0 0.34795858503051302 0.425881111768525 0 0.36959298495063608 0.43610817863788948 0 0.34795858503051302 0.425881111768525 0 0.36959298495063608 0.43610817863788948 0 0.36336601300371613 0.41450991002864218 0 0.36959298495063608 0.43610817863788948 0 0.36336601300371613 0.41450991002864218 0 0.38530342098431941 0.41064856824057122 0 0.36336601300371613 0.41450991002864218 0 0.3736470799201031 0.39378130610698531 0 0.38530342098431941 0.41064856824057122 0 0.3736470799201031 0.39378130610698531 0 0.3601059063978746 0.38125551426405008 0 0.35690611128064731 0.3988976866485166 0 0.36336601300371613 0.41450991002864218 0 0.3736470799201031 0.39378130610698531 0 0.35690611128064731 0.3988976866485166 0 0.3736470799201031 0.39378130610698531 0 0.3601059063978746 0.38125551426405008 0 0.37414389550204002 0.36898578533419818 0 0.34270248502322931 0.38427053755298168 0 0.3601059063978746 0.38125551426405008 0 0.35690611128064731 0.3988976866485166 0 0.34270248502322931 0.38427053755298168 0 0.3601059063978746 0.38125551426405008 0 0.35268350372385993 0.36328223724825232 0 0.34270248502322931 0.38427053755298168 0 0.34670895149724801 0.40816004440777182 0 0.35690611128064731 0.3988976866485166 0 0.35268350372385993 0.36328223724825232 0 0.36266452242448938 0.34229393694352239 0 0.35030182712711511 0.35130594720886232 0 0.35268350372385993 0.36328223724825232 0 0.36266452242448938 0.34229393694352239 0 0.35030182712711511 0.35130594720886232 0 0.35146565257524442 0.34420791440797271 0 0.36266452242448938 0.34229393694352239 0 0.35030182712711511 0.35130594720886232 0 0.35146565257524442 0.34420791440797271 0 0.34269927497721508 0.34493512072036142 0 0.35030182712711511 0.35130594720886232 0 0.35268350372385993 0.36328223724825232 0 0.33389487655237682 0.3658352592629312 0 0.34270248502322931 0.38427053755298168 0 0.35268350372385993 0.36328223724825232 0 0.3601059063978746 0.38125551426405008 0 0.35268350372385993 0.36328223724825232 0 0.37414389550204002 0.36898578533419818 0 0.35268350372385993 0.36328223724825232 0 0.37414389550204002 0.36898578533419818 0 0.36300645299402812 0.35604351837507042 0 0.37414389550204002 0.36898578533419818 0 0.37228166628853332 0.35471301169251829 0 0.36300645299402812 0.35604351837507042 0 0.35268350372385993 0.36328223724825232 0 0.36300645299402812 0.35604351837507042 0 0.36266452242448938 0.34229393694352239 0 0.37228166628853332 0.35471301169251829 0 0.36300645299402812 0.35604351837507042 0 0.36840829020790361 0.34668560051738673 0 0.36300645299402812 0.35604351837507042 0 0.36840829020790361 0.34668560051738673 0 0.36266452242448938 0.34229393694352239 0 0.36840829020790361 0.34668560051738673 0 0.36266452242448938 0.34229393694352239 0 0.36587418437400321 0.34278907974668538 0 0.37228166628853332 0.35471301169251829 0 0.36840829020790361 0.34668560051738673 0 0.37486749369974542 0.34694596905823039 0 0.37486749369974542 0.34694596905823039 0 0.37256750073976291 0.34304532959464751 0 0.37670219357667811 0.34177383067972761 0 0.36840829020790361 0.34668560051738673 0 0.37486749369974542 0.34694596905823039 0 0.37256750073976291 0.34304532959464751 0 0.36124897776362869 0.33531944770056321 0 0.36266452242448938 0.34229393694352239 0 0.36411885078159001 0.32644375487552563 0 0.37256750073976291 0.34304532959464751 0 0.36916640720496519 0.34145859007673351 0 0.37369311900952262 0.33836265764115908 0 0.37256750073976291 0.34304532959464751 0 0.37369311900952262 0.33836265764115908 0 0.37670219357667811 0.34177383067972761 0 0.36266452242448938 0.34229393694352239 0 0.37014896644917339 0.316543878568457 0 0.36770298492566261 0.33637877995368609 0 0.36266452242448938 0.34229393694352239 0 0.37368960646642962 0.31911015363466272 0 0.36770298492566261 0.33637877995368609 0 0.36985494237623989 0.33311962493185521 0 0.37368960646642962 0.31911015363466272 0 0.36266452242448938 0.34229393694352239 0 0.37368960646642962 0.31911015363466272 0 0.36266452242448938 0.34229393694352239 0 0.37014896644917339 0.316543878568457 0 0.36411885078159001 0.32644375487552563 0 0.36840829020790361 0.34668560051738673 0 0.36916640720496519 0.34145859007673351 0 0.36587418437400321 0.34278907974668538 0 0.36840829020790361 0.34668560051738673 0 0.37256750073976291 0.34304532959464751 0 0.36916640720496519 0.34145859007673351 0 0.36916640720496519 0.34145859007673351 0 0.36587418437400321 0.34278907974668538 0 0.36708394454210669 0.33994961910346172 0 0.36916640720496519 0.34145859007673351 0 0.37010024416019238 0.33739894816112592 0 0.36708394454210669 0.33994961910346172 0 0.36916640720496519 0.34145859007673351 0 0.37010024416019238 0.33739894816112592 0 0.37369311900952262 0.33836265764115908 0 0.36770298492566261 0.33637877995368609 0 0.37010024416019238 0.33739894816112592 0 0.36708394454210669 0.33994961910346172 0 0.37010024416019238 0.33739894816112592 0 0.37369311900952262 0.33836265764115908 0 0.3722735272100694 0.33425106354392481 0 0.3722735272100694 0.33425106354392481 0 0.37245621682226088 0.32924087979990557 0 0.375263113682131 0.33313320718557798 0 0.37369311900952262 0.33836265764115908 0 0.3722735272100694 0.33425106354392481 0 0.375263113682131 0.33313320718557798 0 0.3722735272100694 0.33425106354392481 0 0.37245621682226088 0.32924087979990557 0 0.36985494237623989 0.33311962493185521 0 0.37245621682226088 0.32924087979990557 0 0.37577016905582622 0.32787937856968757 0 0.375263113682131 0.33313320718557798 0 0.37010024416019238 0.33739894816112592 0 0.3722735272100694 0.33425106354392481 0 0.36985494237623989 0.33311962493185521 0 0.36770298492566261 0.33637877995368609 0 0.37010024416019238 0.33739894816112592 0 0.36985494237623989 0.33311962493185521 0 0.36128237795215928 0.33126347269122047 0 0.36124897776362869 0.33531944770056321 0 0.36411885078159001 0.32644375487552563 0 0.36150631125237548 0.32912422255951068 0 0.36128237795215928 0.33126347269122047 0 0.36411885078159001 0.32644375487552563 0 0.36150631125237548 0.32912422255951068 0 0.35994194411877378 0.32646204206530971 0 0.35835984371964152 0.33045614064968309 0 0.36128237795215928 0.33126347269122047 0 0.35899626180536931 0.33430086833413269 0 0.35835984371964152 0.33045614064968309 0 0.36150631125237548 0.32912422255951068 0 0.36128237795215928 0.33126347269122047 0 0.35835984371964152 0.33045614064968309 0 0.36128237795215928 0.33126347269122047 0 0.36124897776362869 0.33531944770056321 0 0.35899626180536931 0.33430086833413269 0 0.36124897776362869 0.33531944770056321 0 0.36001134864139028 0.33778823672905661 0 0.35899626180536931 0.33430086833413269 0 0.36124897776362869 0.33531944770056321 0 0.36001134864139028 0.33778823672905661 0 0.36266452242448938 0.34229393694352239 0 0.36001134864139028 0.33778823672905661 0 0.36266452242448938 0.34229393694352239 0 0.3582225103283424 0.33883319475427592 0 0.36266452242448938 0.34229393694352239 0 0.36587418437400321 0.34278907974668538 0 0.36708394454210669 0.33994961910346172 0 0.36770298492566261 0.33637877995368609 0 0.36266452242448938 0.34229393694352239 0 0.36708394454210669 0.33994961910346172 0 0.36266452242448938 0.34229393694352239 0 0.37368960646642962 0.31911015363466272 0 0.37014896644917339 0.316543878568457 0 0.37014896644917339 0.316543878568457 0 0.36604953812300478 0.31497278055865852 0 0.36630954626425261 0.31087512405144152 0 0.37499251130121058 0.31593455150060828 0 0.37014896644917339 0.316543878568457 0 0.37695808612291098 0.31120865645681561 0 0.37499251130121058 0.31593455150060828 0 0.37368960646642962 0.31911015363466272 0 0.37014896644917339 0.316543878568457 0 0.37014896644917339 0.316543878568457 0 0.36646072203027302 0.32009490443849897 0 0.3659238024377004 0.31770243144255911 0 0.37014896644917339 0.316543878568457 0 0.3659238024377004 0.31770243144255911 0 0.36604953812300478 0.31497278055865852 0 0.37245621682226088 0.32924087979990557 0 0.36985494237623989 0.33311962493185521 0 0.37368960646642962 0.31911015363466272 0 0.37245621682226088 0.32924087979990557 0 0.37368960646642962 0.31911015363466272 0 0.37506056064123422 0.32471797871916308 0 0.37245621682226088 0.32924087979990557 0 0.37577016905582622 0.32787937856968757 0 0.37506056064123422 0.32471797871916308 0 0.37014896644917339 0.316543878568457 0 0.36411885078159001 0.32644375487552563 0 0.36646072203027302 0.32009490443849897 0 0.36411885078159001 0.32644375487552563 0 0.35994194411877378 0.32646204206530971 0 0.36132202517978662 0.32303080634539388 0 0.36150631125237548 0.32912422255951068 0 0.36411885078159001 0.32644375487552563 0 0.35994194411877378 0.32646204206530971 0 0.36132202517978662 0.32303080634539388 0 0.36348301458407639 0.32047903077872458 0 0.35962675317161102 0.31893041505789499 0 0.36411885078159001 0.32644375487552563 0 0.36132202517978662 0.32303080634539388 0 0.36348301458407639 0.32047903077872458 0 0.36411885078159001 0.32644375487552563 0 0.36348301458407639 0.32047903077872458 0 0.36646072203027302 0.32009490443849897 0 0.36348301458407639 0.32047903077872458 0 0.36646072203027302 0.32009490443849897 0 0.3659238024377004 0.31770243144255911 0 0.3659238024377004 0.31770243144255911 0 0.36344593390349789 0.31667187251247519 0 0.36604953812300478 0.31497278055865852 0 0.36348301458407639 0.32047903077872458 0 0.3659238024377004 0.31770243144255911 0 0.36344593390349789 0.31667187251247519 0 0.36348301458407639 0.32047903077872458 0 0.36344593390349789 0.31667187251247519 0 0.35962675317161102 0.31893041505789499 0 0.36344593390349789 0.31667187251247519 0 0.35962675317161102 0.31893041505789499 0 0.35878641637012221 0.31305233625990619 0 0.36344593390349789 0.31667187251247519 0 0.36331333565659901 0.31283202127524651 0 0.35878641637012221 0.31305233625990619 0 0.36331333565659901 0.31283202127524651 0 0.36604953812300478 0.31497278055865852 0 0.36630954626425261 0.31087512405144152 0 0.36344593390349789 0.31667187251247519 0 0.36331333565659901 0.31283202127524651 0 0.36604953812300478 0.31497278055865852 0 0.35878641637012221 0.31305233625990619 0 0.35512602374864599 0.31718053618965047 0 0.35090510471213721 0.31152713165908658 0 0.35512602374864599 0.31718053618965047 0 0.34983435518440159 0.31943204998396652 0 0.35090510471213721 0.31152713165908658 0 0.35962675317161102 0.31893041505789499 0 0.35878641637012221 0.31305233625990619 0 0.35512602374864599 0.31718053618965047 0 0.35962675317161102 0.31893041505789499 0 0.35512602374864599 0.31718053618965047 0 0.35673455485560862 0.32229528426682241 0 0.35512602374864599 0.31718053618965047 0 0.35673455485560862 0.32229528426682241 0 0.34983435518440159 0.31943204998396652 0 0.35673455485560862 0.32229528426682241 0 0.35060422568955008 0.32587015674736058 0 0.34983435518440159 0.31943204998396652 0 0.35994194411877378 0.32646204206530971 0 0.36132202517978662 0.32303080634539388 0 0.35673455485560862 0.32229528426682241 0 0.36132202517978662 0.32303080634539388 0 0.35962675317161102 0.31893041505789499 0 0.35673455485560862 0.32229528426682241 0 0.35994194411877378 0.32646204206530971 0 0.35673455485560862 0.32229528426682241 0 0.35627338036128769 0.32705738058013539 0 0.35994194411877378 0.32646204206530971 0 0.35627338036128769 0.32705738058013539 0 0.35835984371964152 0.33045614064968309 0 0.35627338036128769 0.32705738058013539 0 0.35060422568955008 0.32587015674736058 0 0.35398721241228231 0.33095327650953749 0 0.35673455485560862 0.32229528426682241 0 0.35627338036128769 0.32705738058013539 0 0.35060422568955008 0.32587015674736058 0 0.35060422568955008 0.32587015674736058 0 0.34514221143703899 0.32919058107390442 0 0.34284551192874652 0.32364904383841531 0 0.35060422568955008 0.32587015674736058 0 0.34983435518440159 0.31943204998396652 0 0.34284551192874652 0.32364904383841531 0 0.34983435518440159 0.31943204998396652 0 0.34480088275632298 0.31606258733578418 0 0.35090510471213721 0.31152713165908658 0 0.34983435518440159 0.31943204998396652 0 0.34480088275632298 0.31606258733578418 0 0.34284551192874652 0.32364904383841531 0 0.35146565257524442 0.34420791440797271 0 0.36266452242448938 0.34229393694352239 0 0.35562031764263757 0.34031424282986023 0 0.35302683950207769 0.33602013814058929 0 0.35562031764263757 0.34031424282986023 0 0.35672120529774148 0.33684362974708199 0 0.35202203774268331 0.33965573310897551 0 0.35302683950207769 0.33602013814058929 0 0.35562031764263757 0.34031424282986023 0 0.35146565257524442 0.34420791440797271 0 0.35202203774268331 0.33965573310897551 0 0.35562031764263757 0.34031424282986023 0 0.36266452242448938 0.34229393694352239 0 0.35562031764263757 0.34031424282986023 0 0.3582225103283424 0.33883319475427592 0 0.35562031764263757 0.34031424282986023 0 0.3582225103283424 0.33883319475427592 0 0.35672120529774148 0.33684362974708199 0 0.36001134864139028 0.33778823672905661 0 0.3582225103283424 0.33883319475427592 0 0.35672120529774148 0.33684362974708199 0 0.36001134864139028 0.33778823672905661 0 0.35672120529774148 0.33684362974708199 0 0.35899626180536931 0.33430086833413269 0 0.35899626180536931 0.33430086833413269 0 0.35641212776078268 0.33381706902087938 0 0.35835984371964152 0.33045614064968309 0 0.35672120529774148 0.33684362974708199 0 0.35899626180536931 0.33430086833413269 0 0.35641212776078268 0.33381706902087938 0 0.35627338036128769 0.32705738058013539 0 0.35835984371964152 0.33045614064968309 0 0.35398721241228231 0.33095327650953749 0 0.35641212776078268 0.33381706902087938 0 0.35835984371964152 0.33045614064968309 0 0.35398721241228231 0.33095327650953749 0 0.35302683950207769 0.33602013814058929 0 0.35641212776078268 0.33381706902087938 0 0.35398721241228231 0.33095327650953749 0 0.35302683950207769 0.33602013814058929 0 0.35398721241228231 0.33095327650953749 0 0.34924685744035389 0.33249877391857741 0 0.35302683950207769 0.33602013814058929 0 0.35672120529774148 0.33684362974708199 0 0.35641212776078268 0.33381706902087938 0 0.35302683950207769 0.33602013814058929 0 0.34924685744035389 0.33249877391857741 0 0.34788509595764172 0.33882226599831611 0 0.35060422568955008 0.32587015674736058 0 0.34924685744035389 0.33249877391857741 0 0.34514221143703899 0.32919058107390442 0 0.35060422568955008 0.32587015674736058 0 0.35398721241228231 0.33095327650953749 0 0.34924685744035389 0.33249877391857741 0 0.34924685744035389 0.33249877391857741 0 0.34514221143703899 0.32919058107390442 0 0.34474234507332802 0.33433591834825649 0 0.34924685744035389 0.33249877391857741 0 0.34474234507332802 0.33433591834825649 0 0.34788509595764172 0.33882226599831611 0 0.34474234507332802 0.33433591834825649 0 0.34788509595764172 0.33882226599831611 0 0.34057592936449049 0.33809639891542392 0 0.35146565257524442 0.34420791440797271 0 0.34788509595764172 0.33882226599831611 0 0.34269927497721508 0.34493512072036142 0 0.35202203774268331 0.33965573310897551 0 0.35302683950207769 0.33602013814058929 0 0.34788509595764172 0.33882226599831611 0 0.35146565257524442 0.34420791440797271 0 0.35202203774268331 0.33965573310897551 0 0.34788509595764172 0.33882226599831611 0 0.34057592936449049 0.33809639891542392 0 0.33318390910610529 0.34358855052096038 0 0.34269927497721508 0.34493512072036142 0 0.34788509595764172 0.33882226599831611 0 0.34057592936449049 0.33809639891542392 0 0.34269927497721508 0.34493512072036142 0 0.34474234507332802 0.33433591834825649 0 0.34057592936449049 0.33809639891542392 0 0.33946855119551672 0.33096103471374028 0 0.34514221143703899 0.32919058107390442 0 0.34474234507332802 0.33433591834825649 0 0.33946855119551672 0.33096103471374028 0 0.34057592936449049 0.33809639891542392 0 0.33946855119551672 0.33096103471374028 0 0.33283637980140879 0.33469331179832718 0 0.33946855119551672 0.33096103471374028 0 0.33283637980140879 0.33469331179832718 0 0.33464693517381472 0.32630086361949601 0 0.33283637980140879 0.33469331179832718 0 0.33464693517381472 0.32630086361949601 0 0.3250964778074269 0.32978689602061512 0 0.34057592936449049 0.33809639891542392 0 0.33283637980140879 0.33469331179832718 0 0.33318390910610529 0.34358855052096038 0 0.33283637980140879 0.33469331179832718 0 0.33318390910610529 0.34358855052096038 0 0.32611481079287369 0.33974729713420021 0 0.34480088275632298 0.31606258733578418 0 0.33769186663180051 0.31814262317354819 0 0.34192449374142192 0.30753297203612773 0 0.34480088275632298 0.31606258733578418 0 0.33769186663180051 0.31814262317354819 0 0.34284551192874652 0.32364904383841531 0 0.33946855119551672 0.33096103471374028 0 0.34284551192874652 0.32364904383841531 0 0.33464693517381472 0.32630086361949601 0 0.33769186663180051 0.31814262317354819 0 0.34284551192874652 0.32364904383841531 0 0.33464693517381472 0.32630086361949601 0 0.34514221143703899 0.32919058107390442 0 0.33946855119551672 0.33096103471374028 0 0.34284551192874652 0.32364904383841531 0 0.33769186663180051 0.31814262317354819 0 0.33464693517381472 0.32630086361949601 0 0.32994282367798861 0.32057227217232959 0 0.33464693517381472 0.32630086361949601 0 0.32994282367798861 0.32057227217232959 0 0.3250964778074269 0.32978689602061512 0 0.33769186663180051 0.31814262317354819 0 0.32994282367798861 0.32057227217232959 0 0.32867162081685902 0.31028670060733149 0 0.32176892132522322 0.32006025561378759 0 0.31440941436971798 0.31242774502049953 0 0.32867162081685902 0.31028670060733149 0 0.32994282367798861 0.32057227217232959 0 0.32176892132522322 0.32006025561378759 0 0.32867162081685902 0.31028670060733149 0 0.32176892132522322 0.32006025561378759 0 0.31484893044661 0.32778579360563193 0 0.3250964778074269 0.32978689602061512 0 0.32994282367798861 0.32057227217232959 0 0.32176892132522322 0.32006025561378759 0 0.3250964778074269 0.32978689602061512 0 0.32176892132522322 0.32006025561378759 0 0.31484893044661 0.32778579360563193 0 0.31440941436971798 0.31242774502049953 0 0.32611481079287369 0.33974729713420021 0 0.3250964778074269 0.32978689602061512 0 0.31767498628904178 0.33862919533695518 0 0.32611481079287369 0.33974729713420021 0 0.31767498628904178 0.33862919533695518 0 0.32336406622478242 0.34852958887145069 0 0.33283637980140879 0.33469331179832718 0 0.32611481079287369 0.33974729713420021 0 0.3250964778074269 0.32978689602061512 0 0.31484893044661 0.32778579360563193 0 0.31767498628904178 0.33862919533695518 0 0.30654896287530792 0.34033791233229299 0 0.31484893044661 0.32778579360563193 0 0.3250964778074269 0.32978689602061512 0 0.31767498628904178 0.33862919533695518 0 0.31767498628904178 0.33862919533695518 0 0.31315570067328902 0.3464643712977632 0 0.32336406622478242 0.34852958887145069 0 0.31315570067328902 0.3464643712977632 0 0.31355388928080707 0.35546570062290778 0 0.32336406622478242 0.34852958887145069 0 0.32336406622478242 0.34852958887145069 0 0.33442175170730049 0.35218858713626039 0 0.32437013183195901 0.3602157298059272 0 0.31355388928080707 0.35546570062290778 0 0.32336406622478242 0.34852958887145069 0 0.32437013183195901 0.3602157298059272 0 0.33318390910610529 0.34358855052096038 0 0.32611481079287369 0.33974729713420021 0 0.32336406622478242 0.34852958887145069 0 0.35030182712711511 0.35130594720886232 0 0.33442175170730049 0.35218858713626039 0 0.33389487655237682 0.3658352592629312 0 0.33318390910610529 0.34358855052096038 0 0.32336406622478242 0.34852958887145069 0 0.33442175170730049 0.35218858713626039 0 0.35030182712711511 0.35130594720886232 0 0.33442175170730049 0.35218858713626039 0 0.34269927497721508 0.34493512072036142 0 0.33318390910610529 0.34358855052096038 0 0.33442175170730049 0.35218858713626039 0 0.34269927497721508 0.34493512072036142 0 0.34270248502322931 0.38427053755298168 0 0.35268350372385993 0.36328223724825232 0 0.33389487655237682 0.3658352592629312 0 0.33442175170730049 0.35218858713626039 0 0.33389487655237682 0.3658352592629312 0 0.32437013183195901 0.3602157298059272 0 0.31661607539452802 0.37905951313608538 0 0.33389487655237682 0.3658352592629312 0 0.32437013183195901 0.3602157298059272 0 0.31661607539452802 0.37905951313608538 0 0.31355388928080707 0.35546570062290778 0 0.32437013183195901 0.3602157298059272 0 0.31661607539452802 0.37905951313608538 0 0.31355388928080707 0.35546570062290778 0 0.31661607539452802 0.37905951313608538 0 0.31355388928080707 0.35546570062290778 0 0.30541822204374358 0.36584678197342768 0 0.2987730087010142 0.37934426936791982 0 0.31661607539452802 0.37905951313608538 0 0.30541822204374358 0.36584678197342768 0 0.30541822204374358 0.36584678197342768 0 0.30393955747459928 0.35096595789874813 0 0.29215410451095353 0.36543341035917859 0 0.2987730087010142 0.37934426936791982 0 0.30541822204374358 0.36584678197342768 0 0.29215410451095353 0.36543341035917859 0 0.31315570067328902 0.3464643712977632 0 0.30393955747459928 0.35096595789874813 0 0.30654896287530792 0.34033791233229299 0 0.31315570067328902 0.3464643712977632 0 0.31355388928080707 0.35546570062290778 0 0.30393955747459928 0.35096595789874813 0 0.31355388928080707 0.35546570062290778 0 0.30541822204374358 0.36584678197342768 0 0.30393955747459928 0.35096595789874813 0 0.30393955747459928 0.35096595789874813 0 0.29215410451095353 0.36543341035917859 0 0.30393955747459928 0.35096595789874813 0 0.29720735802849829 0.34424744790442102 0 0.29027641861796738 0.35164951467646482 0 0.30393955747459928 0.35096595789874813 0 0.29720735802849829 0.34424744790442102 0 0.30654896287530792 0.34033791233229299 0 0.29720735802849829 0.34424744790442102 0 0.29027641861796738 0.35164951467646482 0 0.28998304713239348 0.34105976447064218 0 0.30393955747459928 0.35096595789874813 0 0.29027641861796738 0.35164951467646482 0 0.29215410451095353 0.36543341035917859 0 0.29027641861796738 0.35164951467646482 0 0.29215410451095353 0.36543341035917859 0 0.27920137084664282 0.3573603676334649 0 0.29027641861796738 0.35164951467646482 0 0.27920137084664282 0.3573603676334649 0 0.28068773357058369 0.34198453751068081 0 0.29027641861796738 0.35164951467646482 0 0.28068773357058369 0.34198453751068081 0 0.28998304713239348 0.34105976447064218 0 0.28036865154730628 0.37990086281960789 0 0.29215410451095353 0.36543341035917859 0 0.27920137084664282 0.3573603676334649 0 0.28036865154730628 0.37990086281960789 0 0.2987730087010142 0.37934426936791982 0 0.29215410451095353 0.36543341035917859 0 0.28036865154730628 0.37990086281960789 0 0.29215410451095353 0.36543341035917859 0 0.28036865154730628 0.37990086281960789 0 0.27920137084664282 0.3573603676334649 0 0.26173146881309822 0.35734024057335978 0 0.28036865154730628 0.37990086281960789 0 0.26173146881309822 0.35734024057335978 0 0.28036865154730628 0.37990086281960789 0 0.26173146881309822 0.35734024057335978 0 0.2641967246118288 0.36596915937278562 0 0.27920137084664282 0.3573603676334649 0 0.27030047393074008 0.3474963096498429 0 0.26173146881309822 0.35734024057335978 0 0.27920137084664282 0.3573603676334649 0 0.27030047393074008 0.3474963096498429 0 0.28068773357058369 0.34198453751068081 0 0.2430942860788903 0.33477961832711151 0 0.26173146881309822 0.35734024057335978 0 0.27030047393074008 0.3474963096498429 0 0.26173146881309822 0.35734024057335978 0 0.26240083601839698 0.33727672217147331 0 0.23816107804029091 0.35120524212074949 0 0.26173146881309822 0.35734024057335978 0 0.2641967246118288 0.36596915937278562 0 0.23816107804029091 0.35120524212074949 0 0.2641967246118288 0.36596915937278562 0 0.2492643002430574 0.365916522193315 0 0.24311907173897271 0.36013203008567057 0 0.2641967246118288 0.36596915937278562 0 0.2492643002430574 0.365916522193315 0 0.25710864090743918 0.37145542319719338 0 0.2641967246118288 0.36596915937278562 0 0.2492643002430574 0.365916522193315 0 0.25383912625151372 0.37755129754335942 0 0.25710864090743918 0.37145542319719338 0 0.26350653962281989 0.38010735630523079 0 0.25710864090743918 0.37145542319719338 0 0.2641967246118288 0.36596915937278562 0 0.2484846271056145 0.31037308609574782 0 0.25508783524565293 0.32209220201309929 0 0.26836904206483531 0.31075971332937607 0 0.25508783524565293 0.32209220201309929 0 0.26240083601839698 0.33727672217147331 0 0.26677092012209491 0.32204036282613252 0 0.25508783524565293 0.32209220201309929 0 0.26677092012209491 0.32204036282613252 0 0.26836904206483531 0.31075971332937607 0 0.2430942860788903 0.33477961832711151 0 0.25508783524565293 0.32209220201309929 0 0.26240083601839698 0.33727672217147331 0 0.2430942860788903 0.33477961832711151 0 0.26173146881309822 0.35734024057335978 0 0.26240083601839698 0.33727672217147331 0 0.26240083601839698 0.33727672217147331 0 0.27184092000699639 0.33891315949469752 0 0.27388917516664008 0.32964775149744319 0 0.26240083601839698 0.33727672217147331 0 0.27388917516664008 0.32964775149744319 0 0.26677092012209491 0.32204036282613252 0 0.27030047393074008 0.3474963096498429 0 0.26240083601839698 0.33727672217147331 0 0.27184092000699639 0.33891315949469752 0 0.27030047393074008 0.3474963096498429 0 0.27184092000699639 0.33891315949469752 0 0.28068773357058369 0.34198453751068081 0 0.27184092000699639 0.33891315949469752 0 0.28068773357058369 0.34198453751068081 0 0.27388917516664008 0.32964775149744319 0 0.28068773357058369 0.34198453751068081 0 0.27388917516664008 0.32964775149744319 0 0.28570907475377572 0.33188311037056872 0 0.27388917516664008 0.32964775149744319 0 0.26677092012209491 0.32204036282613252 0 0.28178409254690689 0.31684790712797722 0 0.27388917516664008 0.32964775149744319 0 0.28178409254690689 0.31684790712797722 0 0.28570907475377572 0.33188311037056872 0 0.26677092012209491 0.32204036282613252 0 0.28178409254690689 0.31684790712797722 0 0.26836904206483531 0.31075971332937607 0 0.28178409254690689 0.31684790712797722 0 0.29262159606390598 0.32453461147271162 0 0.29660332646403359 0.30785121346786842 0 0.28178409254690689 0.31684790712797722 0 0.29262159606390598 0.32453461147271162 0 0.28570907475377572 0.33188311037056872 0 0.28068773357058369 0.34198453751068081 0 0.28570907475377572 0.33188311037056872 0 0.28998304713239348 0.34105976447064218 0 0.29262159606390598 0.32453461147271162 0 0.28570907475377572 0.33188311037056872 0 0.29603465069114282 0.33553421189107618 0 0.29720735802849829 0.34424744790442102 0 0.29603465069114282 0.33553421189107618 0 0.28998304713239348 0.34105976447064218 0 0.28570907475377572 0.33188311037056872 0 0.29603465069114282 0.33553421189107618 0 0.28998304713239348 0.34105976447064218 0 0.29720735802849829 0.34424744790442102 0 0.29603465069114282 0.33553421189107618 0 0.30654896287530792 0.34033791233229299 0 0.29603465069114282 0.33553421189107618 0 0.30654896287530792 0.34033791233229299 0 0.30445412428221041 0.32558903425911379 0 0.29262159606390598 0.32453461147271162 0 0.29603465069114282 0.33553421189107618 0 0.30445412428221041 0.32558903425911379 0 0.31484893044661 0.32778579360563193 0 0.30654896287530792 0.34033791233229299 0 0.30445412428221041 0.32558903425911379 0 0.31767498628904178 0.33862919533695518 0 0.31315570067328902 0.3464643712977632 0 0.30654896287530792 0.34033791233229299 0 0.30445412428221041 0.32558903425911379 0 0.29660332646403359 0.30785121346786842 0 0.31440941436971798 0.31242774502049953 0 0.29262159606390598 0.32453461147271162 0 0.30445412428221041 0.32558903425911379 0 0.29660332646403359 0.30785121346786842 0 0.31484893044661 0.32778579360563193 0 0.30445412428221041 0.32558903425911379 0 0.31440941436971798 0.31242774502049953 0 0.30822946874662033 0.29998271616579031 0 0.29660332646403359 0.30785121346786842 0 0.31440941436971798 0.31242774502049953 0 0.30822946874662033 0.29998271616579031 0 0.30055108247350393 0.28416894361273021 0 0.29660332646403359 0.30785121346786842 0 0.30822946874662033 0.29998271616579031 0 0.30055108247350393 0.28416894361273021 0 0.32109763140443309 0.29547610107375327 0 0.30055108247350393 0.28416894361273021 0 0.29660332646403359 0.30785121346786842 0 0.27430616976337108 0.29100628718303567 0 0.30055108247350393 0.28416894361273021 0 0.27430616976337108 0.29100628718303567 0 0.28443506245096839 0.27205148705280008 0 0.30055108247350393 0.28416894361273021 0 0.27430616976337108 0.29100628718303567 0 0.28178409254690689 0.31684790712797722 0 0.29660332646403359 0.30785121346786842 0 0.27430616976337108 0.29100628718303567 0 0.28178409254690689 0.31684790712797722 0 0.26836904206483531 0.31075971332937607 0 0.27430616976337108 0.29100628718303567 0 0.28178409254690689 0.31684790712797722 0 0.27430616976337108 0.29100628718303567 0 0.27430616976337108 0.29100628718303567 0 0.25121587924780342 0.29702178630611242 0 0.27430616976337108 0.29100628718303567 0 0.25953152444998728 0.28294166139542631 0 0.25121587924780342 0.29702178630611242 0 0.26836904206483531 0.31075971332937607 0 0.27430616976337108 0.29100628718303567 0 0.25121587924780342 0.29702178630611242 0 0.26836904206483531 0.31075971332937607 0 0.25121587924780342 0.29702178630611242 0 0.2484846271056145 0.31037308609574782 0 0.26836904206483531 0.31075971332937607 0 0.25121587924780342 0.29702178630611242 0 0.25102838231212438 0.26850893423506528 0 0.26790857605335527 0.26889798384773289 0 0.26221447651104962 0.2479993693513689 0 0.26790857605335527 0.26889798384773289 0 0.26221447651104962 0.2479993693513689 0 0.25953152444998728 0.28294166139542631 0 0.25102838231212438 0.26850893423506528 0 0.26790857605335527 0.26889798384773289 0 0.27430616976337108 0.29100628718303567 0 0.26790857605335527 0.26889798384773289 0 0.28443506245096839 0.27205148705280008 0 0.27430616976337108 0.29100628718303567 0 0.25953152444998728 0.28294166139542631 0 0.26790857605335527 0.26889798384773289 0 0.27430616976337108 0.29100628718303567 0 0.26790857605335527 0.26889798384773289 0 0.26790857605335527 0.26889798384773289 0 0.28119448123381058 0.25405304303149878 0 0.26221447651104962 0.2479993693513689 0 0.26790857605335527 0.26889798384773289 0 0.28119448123381058 0.25405304303149878 0 0.28443506245096839 0.27205148705280008 0 0.28119448123381058 0.25405304303149878 0 0.28443506245096839 0.27205148705280008 0 0.2982150027308012 0.26213117758900317 0 0.28119448123381058 0.25405304303149878 0 0.2982150027308012 0.26213117758900317 0 0.30328699804120918 0.24394477185791469 0 0.30055108247350393 0.28416894361273021 0 0.28443506245096839 0.27205148705280008 0 0.2982150027308012 0.26213117758900317 0 0.30055108247350393 0.28416894361273021 0 0.2982150027308012 0.26213117758900317 0 0.31879452400631653 0.25919465198291952 0 0.2982150027308012 0.26213117758900317 0 0.31879452400631653 0.25919465198291952 0 0.30328699804120918 0.24394477185791469 0 0.31879452400631653 0.25919465198291952 0 0.33092809789354199 0.24744869965648561 0 0.31845456220733243 0.24449663650262579 0 0.31879452400631653 0.25919465198291952 0 0.33565265393095528 0.25675142138279861 0 0.33982225619875311 0.26765994074234428 0 0.31879452400631653 0.25919465198291952 0 0.33982225619875311 0.26765994074234428 0 0.31879452400631653 0.25919465198291952 0 0.33565265393095528 0.25675142138279861 0 0.33092809789354199 0.24744869965648561 0 0.33565265393095528 0.25675142138279861 0 0.33982225619875311 0.26765994074234428 0 0.34536281311255052 0.25941060478944128 0 0.33565265393095528 0.25675142138279861 0 0.3433555784436142 0.25004320974280247 0 0.33092809789354199 0.24744869965648561 0 0.33565265393095528 0.25675142138279861 0 0.3433555784436142 0.25004320974280247 0 0.34536281311255052 0.25941060478944128 0 0.31879452400631653 0.25919465198291952 0 0.33982225619875311 0.26765994074234428 0 0.32679599518363661 0.27733160004242491 0 0.33982225619875311 0.26765994074234428 0 0.32679599518363661 0.27733160004242491 0 0.34056182851336592 0.28206143899133118 0 0.30055108247350393 0.28416894361273021 0 0.32679599518363661 0.27733160004242491 0 0.30055108247350393 0.28416894361273021 0 0.31879452400631653 0.25919465198291952 0 0.32679599518363661 0.27733160004242491 0 0.32679599518363661 0.27733160004242491 0 0.32109763140443309 0.29547610107375327 0 0.33248404658197278 0.28876668272462419 0 0.30055108247350393 0.28416894361273021 0 0.32679599518363661 0.27733160004242491 0 0.32109763140443309 0.29547610107375327 0 0.32109763140443309 0.29547610107375327 0 0.31440941436971798 0.31242774502049953 0 0.32867162081685902 0.31028670060733149 0 0.30822946874662033 0.29998271616579031 0 0.32109763140443309 0.29547610107375327 0 0.31440941436971798 0.31242774502049953 0 0.32867162081685902 0.31028670060733149 0 0.33472549883669622 0.29791121211074773 0 0.34192449374142192 0.30753297203612773 0 0.32109763140443309 0.29547610107375327 0 0.32867162081685902 0.31028670060733149 0 0.33472549883669622 0.29791121211074773 0 0.33472549883669622 0.29791121211074773 0 0.34281583705185747 0.29966479619329672 0 0.34192449374142192 0.30753297203612773 0 0.33769186663180051 0.31814262317354819 0 0.32867162081685902 0.31028670060733149 0 0.34192449374142192 0.30753297203612773 0 0.32679599518363661 0.27733160004242491 0 0.33248404658197278 0.28876668272462419 0 0.34056182851336592 0.28206143899133118 0 0.32109763140443309 0.29547610107375327 0 0.33472549883669622 0.29791121211074773 0 0.33248404658197278 0.28876668272462419 0 0.33472549883669622 0.29791121211074773 0 0.33248404658197278 0.28876668272462419 0 0.34417327957572558 0.29277050597204329 0 0.33472549883669622 0.29791121211074773 0 0.34281583705185747 0.29966479619329672 0 0.34417327957572558 0.29277050597204329 0 0.33248404658197278 0.28876668272462419 0 0.34056182851336592 0.28206143899133118 0 0.34417327957572558 0.29277050597204329 0 0.34056182851336592 0.28206143899133118 0 0.34979868535227071 0.28728326233729501 0 0.34417327957572558 0.29277050597204329 0 0.34056182851336592 0.28206143899133118 0 0.34979868535227071 0.28728326233729501 0 0.35183199075491411 0.27966461044832719 0 0.34417327957572558 0.29277050597204329 0 0.35334053836337709 0.29410458558147129 0 0.34972900846361488 0.30172704795696642 0 0.34979868535227071 0.28728326233729501 0 0.34417327957572558 0.29277050597204329 0 0.35334053836337709 0.29410458558147129 0 0.34979868535227071 0.28728326233729501 0 0.35334053836337709 0.29410458558147129 0 0.35722235408413222 0.28831366276426512 0 0.35334053836337709 0.29410458558147129 0 0.35826071325737319 0.3003277240158499 0 0.36091512844171192 0.29433704443458902 0 0.35334053836337709 0.29410458558147129 0 0.35722235408413222 0.28831366276426512 0 0.36091512844171192 0.29433704443458902 0 0.34979868535227071 0.28728326233729501 0 0.35722235408413222 0.28831366276426512 0 0.35183199075491411 0.27966461044832719 0 0.35722235408413222 0.28831366276426512 0 0.36152496379752869 0.28359539021876212 0 0.35183199075491411 0.27966461044832719 0 0.34480088275632298 0.31606258733578418 0 0.34192449374142192 0.30753297203612773 0 0.35090510471213721 0.31152713165908658 0 0.34192449374142192 0.30753297203612773 0 0.35090510471213721 0.31152713165908658 0 0.34972900846361488 0.30172704795696642 0 0.34281583705185747 0.29966479619329672 0 0.34417327957572558 0.29277050597204329 0 0.34972900846361488 0.30172704795696642 0 0.34281583705185747 0.29966479619329672 0 0.34192449374142192 0.30753297203612773 0 0.34972900846361488 0.30172704795696642 0 0.34972900846361488 0.30172704795696642 0 0.35826071325737319 0.3003277240158499 0 0.35721607615581658 0.30656573559573969 0 0.35334053836337709 0.29410458558147129 0 0.34972900846361488 0.30172704795696642 0 0.35826071325737319 0.3003277240158499 0 0.35090510471213721 0.31152713165908658 0 0.34972900846361488 0.30172704795696642 0 0.35721607615581658 0.30656573559573969 0 0.35878641637012221 0.31305233625990619 0 0.35090510471213721 0.31152713165908658 0 0.35721607615581658 0.30656573559573969 0 0.37014896644917339 0.316543878568457 0 0.37763341047385651 0.29079382019339128 0 0.37014896644917339 0.316543878568457 0 0.37108481648816682 0.30013899891886681 0 0.36845835323010317 0.30596496181531441 0 0.37014896644917339 0.316543878568457 0 0.37763341047385651 0.29079382019339128 0 0.37695808612291098 0.31120865645681561 0 0.37014896644917339 0.316543878568457 0 0.37108481648816682 0.30013899891886681 0 0.37763341047385651 0.29079382019339128 0 0.36630954626425261 0.31087512405144152 0 0.36228941999803421 0.30896529616435242 0 0.36543096483439103 0.3064802843427199 0 0.36331333565659901 0.31283202127524651 0 0.36630954626425261 0.31087512405144152 0 0.36228941999803421 0.30896529616435242 0 0.36331333565659901 0.31283202127524651 0 0.35878641637012221 0.31305233625990619 0 0.36228941999803421 0.30896529616435242 0 0.35878641637012221 0.31305233625990619 0 0.35721607615581658 0.30656573559573969 0 0.36228941999803421 0.30896529616435242 0 0.35721607615581658 0.30656573559573969 0 0.36228941999803421 0.30896529616435242 0 0.36268018070702418 0.30398627546106088 0 0.36630954626425261 0.31087512405144152 0 0.36543096483439103 0.3064802843427199 0 0.36845835323010317 0.30596496181531441 0 0.36228941999803421 0.30896529616435242 0 0.36543096483439103 0.3064802843427199 0 0.36268018070702418 0.30398627546106088 0 0.36543096483439103 0.3064802843427199 0 0.36607900901995372 0.30349396637540749 0 0.36845835323010317 0.30596496181531441 0 0.36607900901995372 0.30349396637540749 0 0.36268018070702418 0.30398627546106088 0 0.36558719123160882 0.29969948119116269 0 0.36607900901995372 0.30349396637540749 0 0.36558719123160882 0.29969948119116269 0 0.36823835509664099 0.30133882906677939 0 0.36543096483439103 0.3064802843427199 0 0.36607900901995372 0.30349396637540749 0 0.36268018070702418 0.30398627546106088 0 0.35826071325737319 0.3003277240158499 0 0.35721607615581658 0.30656573559573969 0 0.36268018070702418 0.30398627546106088 0 0.35826071325737319 0.3003277240158499 0 0.36268018070702418 0.30398627546106088 0 0.36558719123160882 0.29969948119116269 0 0.35826071325737319 0.3003277240158499 0 0.36558719123160882 0.29969948119116269 0 0.36091512844171192 0.29433704443458902 0 0.36871223371641282 0.29817542324200702 0 0.37108481648816682 0.30013899891886681 0 0.37014933742706652 0.29575476169949788 0 0.36558719123160882 0.29969948119116269 0 0.36871223371641282 0.29817542324200702 0 0.36734652779664789 0.29411680932906442 0 0.36558719123160882 0.29969948119116269 0 0.36871223371641282 0.29817542324200702 0 0.36823835509664099 0.30133882906677939 0 0.36871223371641282 0.29817542324200702 0 0.37108481648816682 0.30013899891886681 0 0.36823835509664099 0.30133882906677939 0 0.37108481648816682 0.30013899891886681 0 0.36823835509664099 0.30133882906677939 0 0.36845835323010317 0.30596496181531441 0 0.36607900901995372 0.30349396637540749 0 0.36823835509664099 0.30133882906677939 0 0.36845835323010317 0.30596496181531441 0 0.37014896644917339 0.316543878568457 0 0.36630954626425261 0.31087512405144152 0 0.36845835323010317 0.30596496181531441 0 0.36812955944888692 0.28419813691800921 0 0.36084998839118931 0.2761252295017701 0 0.37969218042614078 0.28371066929036243 0 0.36152496379752869 0.28359539021876212 0 0.36812955944888692 0.28419813691800921 0 0.36084998839118931 0.2761252295017701 0 0.36414496955441777 0.28941104037434479 0 0.36911771796651938 0.28986917351547109 0 0.36812955944888692 0.28419813691800921 0 0.36152496379752869 0.28359539021876212 0 0.36414496955441777 0.28941104037434479 0 0.36812955944888692 0.28419813691800921 0 0.35722235408413222 0.28831366276426512 0 0.36152496379752869 0.28359539021876212 0 0.36414496955441777 0.28941104037434479 0 0.35722235408413222 0.28831366276426512 0 0.36091512844171192 0.29433704443458902 0 0.36414496955441777 0.28941104037434479 0 0.36558719123160882 0.29969948119116269 0 0.36091512844171192 0.29433704443458902 0 0.36734652779664789 0.29411680932906442 0 0.36091512844171192 0.29433704443458902 0 0.36414496955441777 0.28941104037434479 0 0.36734652779664789 0.29411680932906442 0 0.36414496955441777 0.28941104037434479 0 0.36911771796651938 0.28986917351547109 0 0.36734652779664789 0.29411680932906442 0 0.36911771796651938 0.28986917351547109 0 0.37026464520563152 0.29279186409727531 0 0.36734652779664789 0.29411680932906442 0 0.37108481648816682 0.30013899891886681 0 0.37306860395079622 0.29341917559567809 0 0.37763341047385651 0.29079382019339128 0 0.36911771796651938 0.28986917351547109 0 0.37026464520563152 0.29279186409727531 0 0.37237913536365119 0.29056320862162688 0 0.36871223371641282 0.29817542324200702 0 0.36734652779664789 0.29411680932906442 0 0.37014933742706652 0.29575476169949788 0 0.37026464520563152 0.29279186409727531 0 0.36734652779664789 0.29411680932906442 0 0.37014933742706652 0.29575476169949788 0 0.37108481648816682 0.30013899891886681 0 0.37014933742706652 0.29575476169949788 0 0.37306860395079622 0.29341917559567809 0 0.37026464520563152 0.29279186409727531 0 0.37014933742706652 0.29575476169949788 0 0.37306860395079622 0.29341917559567809 0 0.36911771796651938 0.28986917351547109 0 0.37237913536365119 0.29056320862162688 0 0.37333201972158658 0.2878654242033048 0 0.37306860395079622 0.29341917559567809 0 0.37237913536365119 0.29056320862162688 0 0.37763341047385651 0.29079382019339128 0 0.37237913536365119 0.29056320862162688 0 0.37333201972158658 0.2878654242033048 0 0.37763341047385651 0.29079382019339128 0 0.37026464520563152 0.29279186409727531 0 0.37306860395079622 0.29341917559567809 0 0.37237913536365119 0.29056320862162688 0 0.37333201972158658 0.2878654242033048 0 0.36812955944888692 0.28419813691800921 0 0.37969218042614078 0.28371066929036243 0 0.36911771796651938 0.28986917351547109 0 0.37333201972158658 0.2878654242033048 0 0.36812955944888692 0.28419813691800921 0 0.36084998839118931 0.2761252295017701 0 0.37969218042614078 0.28371066929036243 0 0.36084998839118931 0.2761252295017701 0 0.37017340450925651 0.266060206293324 0 0.3539366042426153 0.26554047293381039 0 0.36084998839118931 0.2761252295017701 0 0.38460708535355081 0.26680105137204091 0 0.36084998839118931 0.2761252295017701 0 0.37017340450925651 0.266060206293324 0 0.38460708535355081 0.26680105137204091 0 0.3539366042426153 0.26554047293381039 0 0.38129994004966872 0.25577407136566988 0 0.37169426656027921 0.24972740256563611 0 0.37017340450925651 0.266060206293324 0 0.3539366042426153 0.26554047293381039 0 0.38129994004966872 0.25577407136566988 0 0.3539366042426153 0.26554047293381039 0 0.37169426656027921 0.24972740256563611 0 0.36205361842742478 0.24882498742118489 0 0.3539366042426153 0.26554047293381039 0 0.38129994004966872 0.25577407136566988 0 0.3539366042426153 0.26554047293381039 0 0.35175757775775729 0.2532797976346674 0 0.36205361842742478 0.24882498742118489 0 0.3433555784436142 0.25004320974280247 0 0.35175757775775729 0.2532797976346674 0 0.34536281311255052 0.25941060478944128 0 0.33982225619875311 0.26765994074234428 0 0.3539366042426153 0.26554047293381039 0 0.34536281311255052 0.25941060478944128 0 0.3539366042426153 0.26554047293381039 0 0.35175757775775729 0.2532797976346674 0 0.34536281311255052 0.25941060478944128 0 0.33982225619875311 0.26765994074234428 0 0.36084998839118931 0.2761252295017701 0 0.33982225619875311 0.26765994074234428 0 0.36084998839118931 0.2761252295017701 0 0.3539366042426153 0.26554047293381039 0 0.33982225619875311 0.26765994074234428 0 0.36084998839118931 0.2761252295017701 0 0.35183199075491411 0.27966461044832719 0 0.33982225619875311 0.26765994074234428 0 0.34056182851336592 0.28206143899133118 0 0.35183199075491411 0.27966461044832719 0 0.36152496379752869 0.28359539021876212 0 0.36084998839118931 0.2761252295017701 0 0.35183199075491411 0.27966461044832719 0 0.36084998839118931 0.2761252295017701 0 0.35183199075491411 0.27966461044832719 0 0.39945440726228237 0.27350419034528239 0 0.38460708535355081 0.26680105137204091 0 0.40768566828284042 0.25774317622192677 0 0.39945440726228237 0.27350419034528239 0 0.4092682188351508 0.26816031590002881 0 0.40768566828284042 0.25774317622192677 0 0.39945440726228237 0.27350419034528239 0 0.38460708535355081 0.26680105137204091 0 0.3904751567012596 0.27530993325585928 0 0.39945440726228237 0.27350419034528239 0 0.3904751567012596 0.27530993325585928 0 0.39488150240831521 0.28173053148540511 0 0.39945440726228237 0.27350419034528239 0 0.40366985246608472 0.28285995447659418 0 0.40929088926209078 0.279020096056181 0 0.39945440726228237 0.27350419034528239 0 0.4092682188351508 0.26816031590002881 0 0.40929088926209078 0.279020096056181 0 0.39945440726228237 0.27350419034528239 0 0.39488150240831521 0.28173053148540511 0 0.40366985246608472 0.28285995447659418 0 0.38783836144724232 0.2556839199238965 0 0.38129994004966872 0.25577407136566988 0 0.40866327585672191 0.24600766979752939 0 0.38460708535355081 0.26680105137204091 0 0.40768566828284042 0.25774317622192677 0 0.38783836144724232 0.2556839199238965 0 0.40768566828284042 0.25774317622192677 0 0.40866327585672191 0.24600766979752939 0 0.38783836144724232 0.2556839199238965 0 0.38460708535355081 0.26680105137204091 0 0.40768566828284042 0.25774317622192677 0 0.38129994004966872 0.25577407136566988 0 0.40866327585672191 0.24600766979752939 0 0.38783836144724232 0.2556839199238965 0 0.38129994004966872 0.25577407136566988 0 0.38460708535355081 0.26680105137204091 0 0.38783836144724232 0.2556839199238965 0 0.38460708535355081 0.26680105137204091 0 0.38129994004966872 0.25577407136566988 0 0.37169426656027921 0.24972740256563611 0 0.38106847269238292 0.24536179082341181 0 0.37017340450925651 0.266060206293324 0 0.38129994004966872 0.25577407136566988 0 0.38460708535355081 0.26680105137204091 0 0.36084998839118931 0.2761252295017701 0 0.38460708535355081 0.26680105137204091 0 0.37969218042614078 0.28371066929036243 0 0.38460708535355081 0.26680105137204091 0 0.3904751567012596 0.27530993325585928 0 0.37969218042614078 0.28371066929036243 0 0.38460708535355081 0.26680105137204091 0 0.37969218042614078 0.28371066929036243 0 0.3904751567012596 0.27530993325585928 0 0.37969218042614078 0.28371066929036243 0 0.39488150240831521 0.28173053148540511 0 0.37969218042614078 0.28371066929036243 0 0.37763341047385651 0.29079382019339128 0 0.40259214502479168 0.29292967641552992 0 0.37763341047385651 0.29079382019339128 0 0.4027243230010164 0.30147339632314252 0 0.37969218042614078 0.28371066929036243 0 0.37763341047385651 0.29079382019339128 0 0.37333201972158658 0.2878654242033048 0 0.37969218042614078 0.28371066929036243 0 0.37763341047385651 0.29079382019339128 0 0.37763341047385651 0.29079382019339128 0 0.37695808612291098 0.31120865645681561 0 0.38599374742651271 0.30414296713942529 0 0.37763341047385651 0.29079382019339128 0 0.38599374742651271 0.30414296713942529 0 0.4027243230010164 0.30147339632314252 0 0.37695808612291098 0.31120865645681561 0 0.38599374742651271 0.30414296713942529 0 0.38754735899376969 0.31282171123814728 0 0.38599374742651271 0.30414296713942529 0 0.4027243230010164 0.30147339632314252 0 0.38754735899376969 0.31282171123814728 0 0.4027243230010164 0.30147339632314252 0 0.3956366020903157 0.32248231082130752 0 0.38754735899376969 0.31282171123814728 0 0.37969218042614078 0.28371066929036243 0 0.40259214502479168 0.29292967641552992 0 0.37969218042614078 0.28371066929036243 0 0.39488150240831521 0.28173053148540511 0 0.40259214502479168 0.29292967641552992 0 0.37763341047385651 0.29079382019339128 0 0.4027243230010164 0.30147339632314252 0 0.40259214502479168 0.29292967641552992 0 0.4027243230010164 0.30147339632314252 0 0.40259214502479168 0.29292967641552992 0 0.41139710839419091 0.29189735433941028 0 0.40259214502479168 0.29292967641552992 0 0.40366985246608472 0.28285995447659418 0 0.41139710839419091 0.29189735433941028 0 0.39488150240831521 0.28173053148540511 0 0.40259214502479168 0.29292967641552992 0 0.40366985246608472 0.28285995447659418 0 0.40366985246608472 0.28285995447659418 0 0.41139710839419091 0.29189735433941028 0 0.40929088926209078 0.279020096056181 0 0.41139710839419091 0.29189735433941028 0 0.42781523552817591 0.31215297245289481 0 0.42226183937510081 0.28327127115801121 0 0.41139710839419091 0.29189735433941028 0 0.42226183937510081 0.28327127115801121 0 0.40929088926209078 0.279020096056181 0 0.4027243230010164 0.30147339632314252 0 0.41139710839419091 0.29189735433941028 0 0.42781523552817591 0.31215297245289481 0 0.4027243230010164 0.30147339632314252 0 0.42781523552817591 0.31215297245289481 0 0.41357021602424721 0.32279281759874212 0 0.4027243230010164 0.30147339632314252 0 0.42781523552817591 0.31215297245289481 0 0.42781523552817591 0.31215297245289481 0 0.42226183937510081 0.28327127115801121 0 0.42781523552817591 0.31215297245289481 0 0.42226183937510081 0.28327127115801121 0 0.44120727567718632 0.28746005308771089 0 0.42226183937510081 0.28327127115801121 0 0.43023391716603732 0.27040224467912161 0 0.44120727567718632 0.28746005308771089 0 0.42226183937510081 0.28327127115801121 0 0.43023391716603732 0.27040224467912161 0 0.41664462513020523 0.25422696758609492 0 0.43023391716603732 0.27040224467912161 0 0.43692075095235122 0.26433370861442979 0 0.44373838257505849 0.27050131303512348 0 0.42226183937510081 0.28327127115801121 0 0.4092682188351508 0.26816031590002881 0 0.41664462513020523 0.25422696758609492 0 0.42226183937510081 0.28327127115801121 0 0.41664462513020523 0.25422696758609492 0 0.42226183937510081 0.28327127115801121 0 0.4092682188351508 0.26816031590002881 0 0.40929088926209078 0.279020096056181 0 0.40768566828284042 0.25774317622192677 0 0.41664462513020523 0.25422696758609492 0 0.40866327585672191 0.24600766979752939 0 0.40768566828284042 0.25774317622192677 0 0.41664462513020523 0.25422696758609492 0 0.4092682188351508 0.26816031590002881 0 0.40768566828284042 0.25774317622192677 0 0.41664462513020523 0.25422696758609492 0 0.42749544465446981 0.25699566217507153 0 0.45166362976964691 0.25106894999712381 0 0.43076425121212841 0.2486853010718087 0 0.41664462513020523 0.25422696758609492 0 0.42749544465446981 0.25699566217507153 0 0.43076425121212841 0.2486853010718087 0 0.43023391716603732 0.27040224467912161 0 0.41664462513020523 0.25422696758609492 0 0.42749544465446981 0.25699566217507153 0 0.41664462513020523 0.25422696758609492 0 0.43076425121212841 0.2486853010718087 0 0.42749544465446981 0.25699566217507153 0 0.43692075095235122 0.26433370861442979 0 0.44456450099631911 0.26043047377218492 0 0.43023391716603732 0.27040224467912161 0 0.42749544465446981 0.25699566217507153 0 0.43692075095235122 0.26433370861442979 0 0.42749544465446981 0.25699566217507153 0 0.45166362976964691 0.25106894999712381 0 0.42749544465446981 0.25699566217507153 0 0.44456450099631911 0.26043047377218492 0 0.45166362976964691 0.25106894999712381 0 0.43692075095235122 0.26433370861442979 0 0.44456450099631911 0.26043047377218492 0 0.44373838257505849 0.27050131303512348 0 0.44456450099631911 0.26043047377218492 0 0.44373838257505849 0.27050131303512348 0 0.45508065662597141 0.26402805921732958 0 0.44456450099631911 0.26043047377218492 0 0.45166362976964691 0.25106894999712381 0 0.45508065662597141 0.26402805921732958 0 0.44373838257505849 0.27050131303512348 0 0.45472874274978531 0.27586911806656422 0 0.44120727567718632 0.28746005308771089 0 0.43023391716603732 0.27040224467912161 0 0.44373838257505849 0.27050131303512348 0 0.44120727567718632 0.28746005308771089 0 0.44373838257505849 0.27050131303512348 0 0.45472874274978531 0.27586911806656422 0 0.45508065662597141 0.26402805921732958 0 0.45472874274978531 0.27586911806656422 0 0.46665275363318931 0.27127710252775639 0 0.46192346945889701 0.28817835066990299 0 0.45472874274978531 0.27586911806656422 0 0.46665275363318931 0.27127710252775639 0 0.45508065662597141 0.26402805921732958 0 0.45166362976964691 0.25106894999712381 0 0.46652816171208539 0.25830808769848879 0 0.47583181488482379 0.2451422378191761 0 0.45166362976964691 0.25106894999712381 0 0.45508065662597141 0.26402805921732958 0 0.46652816171208539 0.25830808769848879 0 0.46665275363318931 0.27127710252775639 0 0.45508065662597141 0.26402805921732958 0 0.46652816171208539 0.25830808769848879 0 0.46665275363318931 0.27127710252775639 0 0.46652816171208539 0.25830808769848879 0 0.48341195364679568 0.26002408893105827 0 0.46652816171208539 0.25830808769848879 0 0.48341195364679568 0.26002408893105827 0 0.47583181488482379 0.2451422378191761 0 0.46665275363318931 0.27127710252775639 0 0.48341195364679568 0.26002408893105827 0 0.48138518434246891 0.28130646820503019 0 0.46665275363318931 0.27127710252775639 0 0.48138518434246891 0.28130646820503019 0 0.46192346945889701 0.28817835066990299 0 0.5 0.26671351767664991 0 0.5 0.29421150971207138 0 0.48138518434246891 0.28130646820503019 0 0.48341195364679568 0.26002408893105827 0 0.5 0.26671351767664991 0 0.48138518434246891 0.28130646820503019 0 0.48341195364679568 0.26002408893105827 0 0.5 0.26671351767664991 0 0.50000000000000067 0.2392155256412283 0 0.5 0.29421150971207138 0 0.47556093647901088 0.30733800586058863 0 0.5 0.32170950174749302 0 0.5 0.29421150971207138 0 0.48138518434246891 0.28130646820503019 0 0.47556093647901088 0.30733800586058863 0 0.48138518434246891 0.28130646820503019 0 0.47556093647901088 0.30733800586058863 0 0.46192346945889701 0.28817835066990299 0 0.47556093647901088 0.30733800586058863 0 0.45214514511688908 0.30370412902975941 0 0.45421880844117613 0.32339126307769928 0 0.47556093647901088 0.30733800586058863 0 0.46192346945889701 0.28817835066990299 0 0.45214514511688908 0.30370412902975941 0 0.46192346945889701 0.28817835066990299 0 0.44120727567718632 0.28746005308771089 0 0.45214514511688908 0.30370412902975941 0 0.45472874274978531 0.27586911806656422 0 0.46192346945889701 0.28817835066990299 0 0.44120727567718632 0.28746005308771089 0 0.42781523552817591 0.31215297245289481 0 0.44120727567718632 0.28746005308771089 0 0.45214514511688908 0.30370412902975941 0 0.42781523552817591 0.31215297245289481 0 0.45421880844117613 0.32339126307769928 0 0.43298436918619881 0.33903622913929549 0 0.42781523552817591 0.31215297245289481 0 0.45214514511688908 0.30370412902975941 0 0.45421880844117613 0.32339126307769928 0 0.42781523552817591 0.31215297245289481 0 0.45421880844117613 0.32339126307769928 0 0.45421880844117613 0.32339126307769928 0 0.45970761232660212 0.34692044601787542 0 0.43298436918619881 0.33903622913929549 0 0.45421880844117613 0.32339126307769928 0 0.48062238135417568 0.33462955370250519 0 0.45421880844117613 0.32339126307769928 0 0.48062238135417568 0.33462955370250519 0 0.45970761232660212 0.34692044601787542 0 0.47556093647901088 0.30733800586058863 0 0.45421880844117613 0.32339126307769928 0 0.48062238135417568 0.33462955370250519 0 0.48062238135417568 0.33462955370250519 0 0.5 0.32170950174749302 0 0.5 0.34920749378291471 0 0.47556093647901088 0.30733800586058863 0 0.48062238135417568 0.33462955370250519 0 0.5 0.32170950174749302 0 0.5 0.34920749378291471 0 0.48254603458521478 0.3522402998402685 0 0.5 0.37670548581833618 0 0.48062238135417568 0.33462955370250519 0 0.5 0.34920749378291471 0 0.48254603458521478 0.3522402998402685 0 0.48254603458521478 0.3522402998402685 0 0.46972057754862501 0.36630584452178799 0 0.45970761232660212 0.34692044601787542 0 0.48062238135417568 0.33462955370250519 0 0.48254603458521478 0.3522402998402685 0 0.45970761232660212 0.34692044601787542 0 0.48254603458521478 0.3522402998402685 0 0.46972057754862501 0.36630584452178799 0 0.5 0.37670548581833618 0 0.46972057754862501 0.36630584452178799 0 0.43815350284422228 0.36591948582569622 0 0.45848938469160699 0.38276388730883248 0 0.46972057754862501 0.36630584452178799 0 0.45970761232660212 0.34692044601787542 0 0.43815350284422228 0.36591948582569622 0 0.45970761232660212 0.34692044601787542 0 0.43815350284422228 0.36591948582569622 0 0.43298436918619881 0.33903622913929549 0 0.43815350284422228 0.36591948582569622 0 0.4167242930516859 0.35972934744593471 0 0.42344095457037051 0.38268701701273461 0 0.4167242930516859 0.35972934744593471 0 0.40101385701800268 0.38518895784325291 0 0.4167242930516859 0.35972934744593471 0 0.40181680918128981 0.35947395412181382 0 0.40101385701800268 0.38518895784325291 0 0.4167242930516859 0.35972934744593471 0 0.40869055031553031 0.33881917925707022 0 0.40181680918128981 0.35947395412181382 0 0.4167242930516859 0.35972934744593471 0 0.43298436918619881 0.33903622913929549 0 0.40869055031553031 0.33881917925707022 0 0.43815350284422228 0.36591948582569622 0 0.4167242930516859 0.35972934744593471 0 0.43298436918619881 0.33903622913929549 0 0.43815350284422228 0.36591948582569622 0 0.43298436918619881 0.33903622913929549 0 0.42781523552817591 0.31215297245289481 0 0.43298436918619881 0.33903622913929549 0 0.42781523552817591 0.31215297245289481 0 0.43298436918619881 0.33903622913929549 0 0.41357021602424721 0.32279281759874212 0 0.43298436918619881 0.33903622913929549 0 0.41357021602424721 0.32279281759874212 0 0.40869055031553031 0.33881917925707022 0 0.40869055031553031 0.33881917925707022 0 0.39369601167170543 0.33564153172070438 0 0.39209274976778918 0.34814598654190299 0 0.40869055031553031 0.33881917925707022 0 0.39369601167170543 0.33564153172070438 0 0.3956366020903157 0.32248231082130752 0 0.39369601167170543 0.33564153172070438 0 0.3956366020903157 0.32248231082130752 0 0.38362385659697051 0.32926172455430031 0 0.39369601167170543 0.33564153172070438 0 0.38635485741833753 0.33883185827426582 0 0.39209274976778918 0.34814598654190299 0 0.41357021602424721 0.32279281759874212 0 0.40869055031553031 0.33881917925707022 0 0.3956366020903157 0.32248231082130752 0 0.4027243230010164 0.30147339632314252 0 0.41357021602424721 0.32279281759874212 0 0.3956366020903157 0.32248231082130752 0 0.3956366020903157 0.32248231082130752 0 0.38754735899376969 0.31282171123814728 0 0.38479800915553353 0.32074741934569512 0 0.38754735899376969 0.31282171123814728 0 0.38479800915553353 0.32074741934569512 0 0.37917338616632867 0.3168755173424983 0 0.3956366020903157 0.32248231082130752 0 0.38479800915553353 0.32074741934569512 0 0.38362385659697051 0.32926172455430031 0 0.38479800915553353 0.32074741934569512 0 0.37832625022041982 0.32264150287239662 0 0.38362385659697051 0.32926172455430031 0 0.37577016905582622 0.32787937856968757 0 0.37832625022041982 0.32264150287239662 0 0.38362385659697051 0.32926172455430031 0 0.37577016905582622 0.32787937856968757 0 0.37506056064123422 0.32471797871916308 0 0.37832625022041982 0.32264150287239662 0 0.37368960646642962 0.31911015363466272 0 0.37506056064123422 0.32471797871916308 0 0.37832625022041982 0.32264150287239662 0 0.37695808612291098 0.31120865645681561 0 0.38754735899376969 0.31282171123814728 0 0.37917338616632867 0.3168755173424983 0 0.38479800915553353 0.32074741934569512 0 0.37832625022041982 0.32264150287239662 0 0.37917338616632867 0.3168755173424983 0 0.37368960646642962 0.31911015363466272 0 0.37832625022041982 0.32264150287239662 0 0.37917338616632867 0.3168755173424983 0 0.37499251130121058 0.31593455150060828 0 0.37368960646642962 0.31911015363466272 0 0.37917338616632867 0.3168755173424983 0 0.37499251130121058 0.31593455150060828 0 0.37695808612291098 0.31120865645681561 0 0.37917338616632867 0.3168755173424983 0 0.38635485741833753 0.33883185827426582 0 0.3795813787571668 0.3363772241379393 0 0.38278029029805521 0.34473282441648212 0 0.39369601167170543 0.33564153172070438 0 0.38635485741833753 0.33883185827426582 0 0.38362385659697051 0.32926172455430031 0 0.38635485741833753 0.33883185827426582 0 0.38362385659697051 0.32926172455430031 0 0.3795813787571668 0.3363772241379393 0 0.37577016905582622 0.32787937856968757 0 0.38362385659697051 0.32926172455430031 0 0.37868435463470768 0.3315773541462857 0 0.38362385659697051 0.32926172455430031 0 0.37868435463470768 0.3315773541462857 0 0.3795813787571668 0.3363772241379393 0 0.37577016905582622 0.32787937856968757 0 0.37868435463470768 0.3315773541462857 0 0.375263113682131 0.33313320718557798 0 0.37868435463470768 0.3315773541462857 0 0.375263113682131 0.33313320718557798 0 0.3795813787571668 0.3363772241379393 0 0.37369311900952262 0.33836265764115908 0 0.3795813787571668 0.3363772241379393 0 0.37670219357667811 0.34177383067972761 0 0.3795813787571668 0.3363772241379393 0 0.37670219357667811 0.34177383067972761 0 0.38278029029805521 0.34473282441648212 0 0.37369311900952262 0.33836265764115908 0 0.375263113682131 0.33313320718557798 0 0.3795813787571668 0.3363772241379393 0 0.3809821990389497 0.35490418517770578 0 0.39056259575344082 0.36548629952090861 0 0.39209274976778918 0.34814598654190299 0 0.37486749369974542 0.34694596905823039 0 0.37670219357667811 0.34177383067972761 0 0.38278029029805521 0.34473282441648212 0 0.37486749369974542 0.34694596905823039 0 0.38278029029805521 0.34473282441648212 0 0.3809821990389497 0.35490418517770578 0 0.38278029029805521 0.34473282441648212 0 0.3809821990389497 0.35490418517770578 0 0.39209274976778918 0.34814598654190299 0 0.38635485741833753 0.33883185827426582 0 0.38278029029805521 0.34473282441648212 0 0.39209274976778918 0.34814598654190299 0 0.37228166628853332 0.35471301169251829 0 0.37486749369974542 0.34694596905823039 0 0.3809821990389497 0.35490418517770578 0 0.37414389550204002 0.36898578533419818 0 0.3809821990389497 0.35490418517770578 0 0.39056259575344082 0.36548629952090861 0 0.37414389550204002 0.36898578533419818 0 0.39056259575344082 0.36548629952090861 0 0.40101385701800268 0.38518895784325291 0 0.37414389550204002 0.36898578533419818 0 0.37228166628853332 0.35471301169251829 0 0.3809821990389497 0.35490418517770578 0 0.39056259575344082 0.36548629952090861 0 0.40181680918128981 0.35947395412181382 0 0.40101385701800268 0.38518895784325291 0 0.39056259575344082 0.36548629952090861 0 0.40181680918128981 0.35947395412181382 0 0.39209274976778918 0.34814598654190299 0 0.40869055031553031 0.33881917925707022 0 0.40181680918128981 0.35947395412181382 0 0.39209274976778918 0.34814598654190299 0 0.40101385701800268 0.38518895784325291 0 0.38530342098431941 0.41064856824057122 0 0.40101385701800268 0.38518895784325291 0 0.38530342098431941 0.41064856824057122 0 0.41521715527738928 0.40390661881175682 0 0.3736470799201031 0.39378130610698531 0 0.37414389550204002 0.36898578533419818 0 0.40101385701800268 0.38518895784325291 0 0.3736470799201031 0.39378130610698531 0 0.40101385701800268 0.38518895784325291 0 0.38530342098431941 0.41064856824057122 0 0.36959298495063608 0.43610817863788948 0 0.38530342098431941 0.41064856824057122 0 0.36959298495063608 0.43610817863788948 0 0.38530342098431941 0.41064856824057122 0 0.3889231515195431 0.43141286456833011 0 0.3889231515195431 0.43141286456833011 0 0.40362265567455102 0.42304679086704539 0 0.39942544658573009 0.43872588670818857 0 0.40362265567455102 0.42304679086704539 0 0.41248490446316177 0.43293377153942381 0 0.39942544658573009 0.43872588670818857 0 0.38530342098431941 0.41064856824057122 0 0.3889231515195431 0.43141286456833011 0 0.40362265567455102 0.42304679086704539 0 0.38530342098431941 0.41064856824057122 0 0.40362265567455102 0.42304679086704539 0 0.41521715527738928 0.40390661881175682 0 0.40362265567455102 0.42304679086704539 0 0.42233359500988371 0.42307221464191669 0 0.41521715527738928 0.40390661881175682 0 0.40362265567455102 0.42304679086704539 0 0.41248490446316177 0.43293377153942381 0 0.42233359500988371 0.42307221464191669 0 0.41248490446316177 0.43293377153942381 0 0.42233359500988371 0.42307221464191669 0 0.42326813014219627 0.43909650749986368 0 0.42233359500988371 0.42307221464191669 0 0.43681876433844857 0.43497208046478802 0 0.42326813014219627 0.43909650749986368 0 0.42233359500988371 0.42307221464191669 0 0.43681876433844857 0.43497208046478802 0 0.43655617137350622 0.42038510460191503 0 0.42233359500988371 0.42307221464191669 0 0.42830887421762198 0.41018013153495869 0 0.41521715527738928 0.40390661881175682 0 0.42233359500988371 0.42307221464191669 0 0.42830887421762198 0.41018013153495869 0 0.43655617137350622 0.42038510460191503 0 0.42830887421762198 0.41018013153495869 0 0.43655617137350622 0.42038510460191503 0 0.439625884597032 0.40642404903869822 0 0.42978568865087441 0.39901034440009059 0 0.42344095457037051 0.38268701701273461 0 0.4433226365022459 0.39280274251209668 0 0.42978568865087441 0.39901034440009059 0 0.41521715527738928 0.40390661881175682 0 0.42344095457037051 0.38268701701273461 0 0.42830887421762198 0.41018013153495869 0 0.42978568865087441 0.39901034440009059 0 0.439625884597032 0.40642404903869822 0 0.42830887421762198 0.41018013153495869 0 0.42978568865087441 0.39901034440009059 0 0.41521715527738928 0.40390661881175682 0 0.4167242930516859 0.35972934744593471 0 0.40101385701800268 0.38518895784325291 0 0.42344095457037051 0.38268701701273461 0 0.40101385701800268 0.38518895784325291 0 0.41521715527738928 0.40390661881175682 0 0.42344095457037051 0.38268701701273461 0 0.43815350284422228 0.36591948582569622 0 0.42344095457037051 0.38268701701273461 0 0.4433226365022459 0.39280274251209668 0 0.43815350284422228 0.36591948582569622 0 0.4433226365022459 0.39280274251209668 0 0.43815350284422228 0.36591948582569622 0 0.4433226365022459 0.39280274251209668 0 0.45848938469160699 0.38276388730883248 0 0.4433226365022459 0.39280274251209668 0 0.4587292321942566 0.40377894109977869 0 0.44849177016026981 0.41968599919849731 0 0.4433226365022459 0.39280274251209668 0 0.44849177016026981 0.41968599919849731 0 0.42978568865087441 0.39901034440009059 0 0.4433226365022459 0.39280274251209668 0 0.439625884597032 0.40642404903869822 0 0.4433226365022459 0.39280274251209668 0 0.4587292321942566 0.40377894109977869 0 0.45848938469160699 0.38276388730883248 0 0.4587292321942566 0.40377894109977869 0 0.45848938469160699 0.38276388730883248 0 0.47720201034463561 0.39055994944820821 0 0.46972057754862501 0.36630584452178799 0 0.45848938469160699 0.38276388730883248 0 0.47720201034463561 0.39055994944820821 0 0.46972057754862501 0.36630584452178799 0 0.47720201034463561 0.39055994944820821 0 0.5 0.37670548581833618 0 0.47720201034463561 0.39055994944820821 0 0.5 0.40420347785375749 0 0.47329291580914951 0.41490179660840648 0 0.4587292321942566 0.40377894109977869 0 0.47720201034463561 0.39055994944820821 0 0.47329291580914951 0.41490179660840648 0 0.47720201034463561 0.39055994944820821 0 0.5 0.40420347785375749 0 0.5 0.37670548581833618 0 0.48546521128148462 0.42572005307568972 0 0.49999999999999828 0.43170146988917901 0 0.48502495584706629 0.44181750450007778 0 0.49999999999999828 0.43170146988917901 0 0.48502495584706629 0.44181750450007778 0 0.5 0.40420347785375749 0 0.48546521128148462 0.42572005307568972 0 0.47329291580914951 0.41490179660840648 0 0.5 0.40420347785375749 0 0.48546521128148462 0.42572005307568972 0 0.49999999999999828 0.43170146988917901 0 0.48546521128148462 0.42572005307568972 0 0.47462076711180717 0.43403653248997731 0 0.48502495584706629 0.44181750450007778 0 0.47329291580914951 0.41490179660840648 0 0.47462076711180717 0.43403653248997731 0 0.45927084092720188 0.43580976915473651 0 0.48546521128148462 0.42572005307568972 0 0.47329291580914951 0.41490179660840648 0 0.47462076711180717 0.43403653248997731 0 0.45927084092720188 0.43580976915473651 0 0.44849177016026981 0.41968599919849731 0 0.47329291580914951 0.41490179660840648 0 0.45927084092720188 0.43580976915473651 0 0.44849177016026981 0.41968599919849731 0 0.45927084092720188 0.43580976915473651 0 0.44849177016026981 0.41968599919849731 0 0.45165089640657707 0.43611575462809582 0 0.4587292321942566 0.40377894109977869 0 0.47329291580914951 0.41490179660840648 0 0.44849177016026981 0.41968599919849731 0 0.4433226365022459 0.39280274251209668 0 0.44849177016026981 0.41968599919849731 0 0.439625884597032 0.40642404903869822 0 0.43655617137350622 0.42038510460191503 0 0.44849177016026981 0.41968599919849731 0 0.439625884597032 0.40642404903869822 0 0.44849177016026981 0.41968599919849731 0 0.439625884597032 0.40642404903869822 0 0.44849177016026981 0.41968599919849731 0 0.45165089640657707 0.43611575462809582 0 0.44386952542921521 0.4295111469185629 0 0.44849177016026981 0.41968599919849731 0 0.45165089640657707 0.43611575462809582 0 0.45165089640657707 0.43611575462809582 0 0.44386952542921521 0.4295111469185629 0 0.44519082659473158 0.43782150968735878 0 0.43655617137350622 0.42038510460191503 0 0.44849177016026981 0.41968599919849731 0 0.44386952542921521 0.4295111469185629 0 0.43681876433844857 0.43497208046478802 0 0.43655617137350622 0.42038510460191503 0 0.44386952542921521 0.4295111469185629 0 0.43681876433844857 0.43497208046478802 0 0.44386952542921521 0.4295111469185629 0 0.44519082659473158 0.43782150968735878 0 0.43681876433844857 0.43497208046478802 0 0.44519082659473158 0.43782150968735878 0 0.44362096681603608 0.44566090358066651 0 0.43681876433844857 0.43497208046478802 0 0.44362096681603608 0.44566090358066651 0 0.43343701099378978 0.44857281610427868 0 0.44362096681603608 0.44566090358066651 0 0.44110505044236059 0.45564825146568327 0 0.43343701099378978 0.44857281610427868 0 0.44362096681603608 0.44566090358066651 0 0.45255374853073171 0.45216262504332899 0 0.45221828903371142 0.44335246171580328 0 0.44362096681603608 0.44566090358066651 0 0.45255374853073171 0.45216262504332899 0 0.44110505044236059 0.45564825146568327 0 0.44519082659473158 0.43782150968735878 0 0.44362096681603608 0.44566090358066651 0 0.45221828903371142 0.44335246171580328 0 0.45165089640657707 0.43611575462809582 0 0.44519082659473158 0.43782150968735878 0 0.45221828903371142 0.44335246171580328 0 0.45255374853073171 0.45216262504332899 0 0.44518446721829791 0.46873079822848901 0 0.44110505044236059 0.45564825146568327 0 0.44518446721829791 0.46873079822848901 0 0.44110505044236059 0.45564825146568327 0 0.43072905865294731 0.46311411437165317 0 0.47284597636140308 0.45611600571247141 0 0.46302896313844299 0.47272331085799019 0 0.45255374853073171 0.45216262504332899 0 0.44518446721829791 0.46873079822848901 0 0.47004991169413368 0.45193353911097589 0 0.47004991169413368 0.45193353911097589 0 0.47284597636140308 0.45611600571247141 0 0.46302896313844299 0.47272331085799019 0 0.44518446721829791 0.46873079822848901 0 0.47004991169413368 0.45193353911097589 0 0.46302896313844299 0.47272331085799019 0 0.44518446721829791 0.46873079822848901 0 0.47004991169413368 0.45193353911097589 0 0.45927084092720188 0.43580976915473651 0 0.47004991169413368 0.45193353911097589 0 0.45927084092720188 0.43580976915473651 0 0.45930684530103161 0.44617181272829648 0 0.47004991169413368 0.45193353911097589 0 0.47462076711180717 0.43403653248997731 0 0.45927084092720188 0.43580976915473651 0 0.47004991169413368 0.45193353911097589 0 0.45255374853073171 0.45216262504332899 0 0.45930684530103161 0.44617181272829648 0 0.47004991169413368 0.45193353911097589 0 0.45927084092720188 0.43580976915473651 0 0.45221828903371142 0.44335246171580328 0 0.45930684530103161 0.44617181272829648 0 0.45927084092720188 0.43580976915473651 0 0.45165089640657707 0.43611575462809582 0 0.45221828903371142 0.44335246171580328 0 0.45255374853073171 0.45216262504332899 0 0.45221828903371142 0.44335246171580328 0 0.45930684530103161 0.44617181272829648 0 0.47462076711180717 0.43403653248997731 0 0.47004991169413368 0.45193353911097589 0 0.48502495584706629 0.44181750450007778 0 0.48189680466807888 0.45106209462173341 0 0.47450081081676521 0.45331654521044668 0 0.48502495584706629 0.44181750450007778 0 0.47004991169413368 0.45193353911097589 0 0.48502495584706629 0.44181750450007778 0 0.47004991169413368 0.45193353911097589 0 0.47450081081676521 0.45331654521044668 0 0.48502495584706629 0.44181750450007778 0 0.47284597636140308 0.45611600571247141 0 0.48050552008400071 0.46757346096286262 0 0.46302896313844299 0.47272331085799019 0 0.47004991169413368 0.45193353911097589 0 0.47284597636140308 0.45611600571247141 0 0.47004991169413368 0.45193353911097589 0 0.47450081081676521 0.45331654521044668 0 0.47284597636140308 0.45611600571247141 0 0.47450081081676521 0.45331654521044668 0 0.47284597636140308 0.45611600571247141 0 0.47951191807974908 0.45654698881850991 0 0.47450081081676521 0.45331654521044668 0 0.47284597636140308 0.45611600571247141 0 0.47284597636140308 0.45611600571247141 0 0.48050552008400071 0.46757346096286262 0 0.47284597636140308 0.45611600571247141 0 0.48050552008400071 0.46757346096286262 0 0.47951191807974908 0.45654698881850991 0 0.48189680466807888 0.45106209462173341 0 0.47951191807974908 0.45654698881850991 0 0.4878104784684959 0.4546668375850359 0 0.48050552008400071 0.46757346096286262 0 0.47951191807974908 0.45654698881850991 0 0.4878104784684959 0.4546668375850359 0 0.48189680466807888 0.45106209462173341 0 0.47450081081676521 0.45331654521044668 0 0.47951191807974908 0.45654698881850991 0 0.48050552008400071 0.46757346096286262 0 0.4878104784684959 0.4546668375850359 0 0.49999999999999928 0.46182898591187349 0 0.48050552008400071 0.46757346096286262 0 0.49999999999999928 0.46182898591187349 0 0.49999999999999828 0.43170146988917901 0 0.4878104784684959 0.4546668375850359 0 0.49999999999999928 0.46182898591187349 0 0.49999999999999828 0.43170146988917901 0 0.4878104784684959 0.4546668375850359 0 0.48502495584706629 0.44181750450007778 0 0.48189680466807888 0.45106209462173341 0 0.4878104784684959 0.4546668375850359 0 0.48502495584706629 0.44181750450007778 0 0.49999999999999928 0.46182898591187349 0 0.5 0.5 0 0.49753071700976492 0.4930404390193398 0 0.5 0.5 0 0.47501141284236448 0.48698608464618232 0 0.44690499747156931 0.4999999999999995 0 0.5 0.5 0 0.49753071700976492 0.4930404390193398 0 0.47501141284236448 0.48698608464618232 0 0.49753071700976492 0.4930404390193398 0 0.48901811854688337 0.4803069499911008 0 0.47501141284236448 0.48698608464618232 0 0.49753071700976492 0.4930404390193398 0 0.48901811854688337 0.4803069499911008 0 0.48050552008400071 0.46757346096286262 0 0.49999999999999928 0.46182898591187349 0 0.48901811854688337 0.4803069499911008 0 0.49999999999999928 0.46182898591187349 0 0.49753071700976492 0.4930404390193398 0 0.48901811854688337 0.4803069499911008 0 0.48050552008400071 0.46757346096286262 0 0.48901811854688337 0.4803069499911008 0 0.48050552008400071 0.46757346096286262 0 0.46302896313844299 0.47272331085799019 0 0.48901811854688337 0.4803069499911008 0 0.47689100365292297 0.47689745161453417 0 0.47501141284236448 0.48698608464618232 0 0.48050552008400071 0.46757346096286262 0 0.47689100365292297 0.47689745161453417 0 0.46302896313844299 0.47272331085799019 0 0.48050552008400071 0.46757346096286262 0 0.48901811854688337 0.4803069499911008 0 0.47689100365292297 0.47689745161453417 0 0.47689100365292297 0.47689745161453417 0 0.47501141284236448 0.48698608464618232 0 0.46302896313844299 0.47272331085799019 0 0.47501141284236448 0.48698608464618232 0 0.45496698030500621 0.48636165542899479 0 0.44690499747156931 0.4999999999999995 0 0.47501141284236448 0.48698608464618232 0 0.45496698030500621 0.48636165542899479 0 0.46302896313844299 0.47272331085799019 0 0.45496698030500621 0.48636165542899479 0 0.46302896313844299 0.47272331085799019 0 0.46302896313844299 0.47272331085799019 0 0.43620850627812668 0.48062654530969717 0 0.44518446721829791 0.46873079822848901 0 0.46302896313844299 0.47272331085799019 0 0.43620850627812668 0.48062654530969717 0 0.45496698030500621 0.48636165542899479 0 0.46302896313844299 0.47272331085799019 0 0.43620850627812668 0.48062654530969717 0 0.45496698030500621 0.48636165542899479 0 0.44690499747156931 0.4999999999999995 0 0.43620850627812668 0.48062654530969717 0 0.45496698030500621 0.48636165542899479 0 0.44690499747156931 0.4999999999999995 0 0.42031902274246069 0.48552805734600057 0 0.41743852268843429 0.5 0 0.43620850627812668 0.48062654530969717 0 0.44690499747156931 0.4999999999999995 0 0.41743852268843429 0.5 0 0.43620850627812668 0.48062654530969717 0 0.42031902274246069 0.48552805734600057 0 0.41743852268843429 0.5 0 0.40134209412993838 0.48520307466421098 0 0.42031902274246069 0.48552805734600057 0 0.40973563488985532 0.47579104778557152 0 0.40134209412993838 0.48520307466421098 0 0.42031902274246069 0.48552805734600057 0 0.40973563488985532 0.47579104778557152 0 0.41789473538963601 0.46705380048502582 0 0.44518446721829791 0.46873079822848901 0 0.42031902274246069 0.48552805734600057 0 0.43072905865294731 0.46311411437165317 0 0.44518446721829791 0.46873079822848901 0 0.42031902274246069 0.48552805734600057 0 0.43620850627812668 0.48062654530969717 0 0.44518446721829791 0.46873079822848901 0 0.42031902274246069 0.48552805734600057 0 0.42031902274246069 0.48552805734600057 0 0.43072905865294731 0.46311411437165317 0 0.41789473538963601 0.46705380048502582 0 0.44110505044236059 0.45564825146568327 0 0.43072905865294731 0.46311411437165317 0 0.43343701099378978 0.44857281610427868 0 0.43072905865294731 0.46311411437165317 0 0.43343701099378978 0.44857281610427868 0 0.42053980660522761 0.45341513910658388 0 0.43072905865294731 0.46311411437165317 0 0.41789473538963601 0.46705380048502582 0 0.42053980660522761 0.45341513910658388 0 0.43681876433844857 0.43497208046478802 0 0.43343701099378978 0.44857281610427868 0 0.42326813014219627 0.43909650749986368 0 0.43343701099378978 0.44857281610427868 0 0.42326813014219627 0.43909650749986368 0 0.42053980660522761 0.45341513910658388 0 0.41248490446316177 0.43293377153942381 0 0.42326813014219627 0.43909650749986368 0 0.41215324011006321 0.44426916471351768 0 0.42326813014219627 0.43909650749986368 0 0.41215324011006321 0.44426916471351768 0 0.42053980660522761 0.45341513910658388 0 0.41215324011006321 0.44426916471351768 0 0.42053980660522761 0.45341513910658388 0 0.40575666434273311 0.45838443146516472 0 0.41248490446316177 0.43293377153942381 0 0.41215324011006321 0.44426916471351768 0 0.39942544658573009 0.43872588670818857 0 0.40973563488985532 0.47579104778557152 0 0.41789473538963601 0.46705380048502582 0 0.40575666434273311 0.45838443146516472 0 0.41789473538963601 0.46705380048502582 0 0.42053980660522761 0.45341513910658388 0 0.40575666434273311 0.45838443146516472 0 0.40973563488985532 0.47579104778557152 0 0.40575666434273311 0.45838443146516472 0 0.39457326129307041 0.46924519202038539 0 0.40575666434273311 0.45838443146516472 0 0.38748492612950952 0.44892285829301931 0 0.39457326129307041 0.46924519202038539 0 0.40575666434273311 0.45838443146516472 0 0.39942544658573009 0.43872588670818857 0 0.38748492612950952 0.44892285829301931 0 0.3889231515195431 0.43141286456833011 0 0.39942544658573009 0.43872588670818857 0 0.38748492612950952 0.44892285829301931 0 0.41215324011006321 0.44426916471351768 0 0.40575666434273311 0.45838443146516472 0 0.39942544658573009 0.43872588670818857 0 0.36980735363827261 0.46050290225189661 0 0.36959298495063608 0.43610817863788948 0 0.38748492612950952 0.44892285829301931 0 0.36959298495063608 0.43610817863788948 0 0.3889231515195431 0.43141286456833011 0 0.38748492612950952 0.44892285829301931 0 0.36980735363827261 0.46050290225189661 0 0.38748492612950952 0.44892285829301931 0 0.39457326129307041 0.46924519202038539 0 0.36980735363827261 0.46050290225189661 0 0.37801407526051067 0.48065415083330842 0 0.39457326129307041 0.46924519202038539 0 0.37801407526051067 0.48065415083330842 0 0.38797204790529932 0.5 0 0.40134209412993838 0.48520307466421098 0 0.41743852268843429 0.5 0 0.38797204790529932 0.5 0 0.40134209412993838 0.48520307466421098 0 0.40973563488985532 0.47579104778557152 0 0.40134209412993838 0.48520307466421098 0 0.39457326129307041 0.46924519202038539 0 0.37801407526051067 0.48065415083330842 0 0.40134209412993838 0.48520307466421098 0 0.39457326129307041 0.46924519202038539 0 0.33471388977496319 0.083869725553476451 0 0.32003772732572838 0.080925826065863432 0 0.34163206045391592 0.099703108374672819 0 0.32003772732572838 0.080925826065863432 0 0.34163206045391592 0.099703108374672819 0 0.33471388977496319 0.083869725553476451 0 0.34163206045391592 0.099703108374672819 0 0.35085433501378249 0.086695181415402722 0 0.33471388977496319 0.083869725553476451 0 0.34209731100959018 0.06531632876058778 0 0.3490795063897344 0.076610282135673974 0 0.33471388977496319 0.083869725553476451 0 0.34209731100959018 0.06531632876058778 0 0.32721969837032222 0.069259436753723466 0 0.33471388977496319 0.083869725553476451 0 0.32721969837032222 0.069259436753723466 0 0.32003772732572838 0.080925826065863432 0 0.31518448171420999 0.065085558788002928 0 0.32721969837032222 0.069259436753723466 0 0.32003772732572838 0.080925826065863432 0 0.32003772732572838 0.080925826065863432 0 0.31657863646219547 0.093324099257994786 0 0.34163206045391592 0.099703108374672819 0 0.32003772732572838 0.080925826065863432 0 0.31657863646219547 0.093324099257994786 0 0.30227411453462139 0.089652133027170247 0 0.33471388977496319 0.083869725553476451 0 0.32003772732572838 0.080925826065863432 0 0.31657863646219547 0.093324099257994786 0 0.32025759602694659 0.1047776340902011 0 0.34163206045391592 0.099703108374672819 0 0.31657863646219547 0.093324099257994786 0 0.32025759602694659 0.1047776340902011 0 0.30640852481201453 0.1024735992044304 0 0.32025759602694659 0.1047776340902011 0 0.31114536757858358 0.11742006929579971 0 0.30640852481201453 0.1024735992044304 0 0.32606950933900308 0.1158177097477945 0 0.31114536757858358 0.11742006929579971 0 0.3195478300457561 0.1332621056988223 0 0.32025759602694659 0.1047776340902011 0 0.32606950933900308 0.1158177097477945 0 0.31114536757858358 0.11742006929579971 0 0.33761965874988609 0.1186889285033586 0 0.34163206045391592 0.099703108374672819 0 0.34956654336434939 0.1234914401014125 0 0.32606950933900308 0.1158177097477945 0 0.33761965874988609 0.1186889285033586 0 0.34163206045391592 0.099703108374672819 0 0.32606950933900308 0.1158177097477945 0 0.33761965874988609 0.1186889285033586 0 0.33436770153514289 0.13112975471366969 0 0.33761965874988609 0.1186889285033586 0 0.34956654336434939 0.1234914401014125 0 0.33436770153514289 0.13112975471366969 0 0.32025759602694659 0.1047776340902011 0 0.32606950933900308 0.1158177097477945 0 0.34163206045391592 0.099703108374672819 0 0.34163206045391592 0.099703108374672819 0 0.35755874922647762 0.098360434014750309 0 0.36322639358210312 0.11848039068348271 0 0.34163206045391592 0.099703108374672819 0 0.36322639358210312 0.11848039068348271 0 0.34163206045391592 0.099703108374672819 0 0.35755874922647762 0.098360434014750309 0 0.35085433501378249 0.086695181415402722 0 0.34163206045391592 0.099703108374672819 0 0.34956654336434939 0.1234914401014125 0 0.36322639358210312 0.11848039068348271 0 0.36322639358210312 0.11848039068348271 0 0.37045299287494049 0.09679375479102828 0 0.38005682511468147 0.12140739343396729 0 0.35755874922647762 0.098360434014750309 0 0.36322639358210312 0.11848039068348271 0 0.37045299287494049 0.09679375479102828 0 0.35755874922647762 0.098360434014750309 0 0.37045299287494049 0.09679375479102828 0 0.35979627253246887 0.087956112087811941 0 0.37045299287494049 0.09679375479102828 0 0.36986657419494789 0.075759843690150083 0 0.37682589963749002 0.081332762740894418 0 0.37045299287494049 0.09679375479102828 0 0.35979627253246887 0.087956112087811941 0 0.36084916063519962 0.072180116148089279 0 0.37045299287494049 0.09679375479102828 0 0.36084916063519962 0.072180116148089279 0 0.36986657419494789 0.075759843690150083 0 0.37045299287494049 0.09679375479102828 0 0.36084916063519962 0.072180116148089279 0 0.35755874922647762 0.098360434014750309 0 0.35979627253246887 0.087956112087811941 0 0.35085433501378249 0.086695181415402722 0 0.35979627253246887 0.087956112087811941 0 0.35560274156159061 0.081403828627082772 0 0.36084916063519962 0.072180116148089279 0 0.33471388977496319 0.083869725553476451 0 0.35085433501378249 0.086695181415402722 0 0.3490795063897344 0.076610282135673974 0 0.35979627253246887 0.087956112087811941 0 0.35560274156159061 0.081403828627082772 0 0.35085433501378249 0.086695181415402722 0 0.35560274156159061 0.081403828627082772 0 0.35085433501378249 0.086695181415402722 0 0.3490795063897344 0.076610282135673974 0 0.34209731100959018 0.06531632876058778 0 0.3490795063897344 0.076610282135673974 0 0.36084916063519962 0.072180116148089279 0 0.36448270712015302 0.068442951443566186 0 0.36084916063519962 0.072180116148089279 0 0.35124532839545858 0.047566477505150237 0 0.35560274156159061 0.081403828627082772 0 0.3490795063897344 0.076610282135673974 0 0.36084916063519962 0.072180116148089279 0 0.36448270712015302 0.068442951443566186 0 0.36084916063519962 0.072180116148089279 0 0.36986657419494789 0.075759843690150083 0 0.36986657419494789 0.075759843690150083 0 0.37596532967213542 0.069868995675824025 0 0.37682589963749002 0.081332762740894418 0 0.36448270712015302 0.068442951443566186 0 0.36986657419494789 0.075759843690150083 0 0.37084641292541748 0.06878424193773866 0 0.36986657419494789 0.075759843690150083 0 0.37084641292541748 0.06878424193773866 0 0.37596532967213542 0.069868995675824025 0 0.36448270712015302 0.068442951443566186 0 0.37084641292541748 0.06878424193773866 0 0.37307104071443398 0.061065176941414383 0 0.37084641292541748 0.06878424193773866 0 0.37307104071443398 0.061065176941414383 0 0.37596532967213542 0.069868995675824025 0 0.36448270712015302 0.068442951443566186 0 0.37307104071443398 0.061065176941414383 0 0.37146335928247548 0.04052602251159599 0 0.36448270712015302 0.068442951443566186 0 0.37146335928247548 0.04052602251159599 0 0.35124532839545858 0.047566477505150237 0 0.36448270712015302 0.068442951443566186 0 0.37146335928247548 0.04052602251159599 0 0.37146335928247548 0.04052602251159599 0 0.35572529983931911 0.032753521421585163 0 0.36312657459820519 0.022962182453169309 0 0.37146335928247548 0.04052602251159599 0 0.35572529983931911 0.032753521421585163 0 0.35124532839545858 0.047566477505150237 0 0.35572529983931911 0.032753521421585163 0 0.35124532839545858 0.047566477505150237 0 0.3321968515854315 0.028027004478648001 0 0.36084916063519962 0.072180116148089279 0 0.35124532839545858 0.047566477505150237 0 0.34209731100959018 0.06531632876058778 0 0.36084916063519962 0.072180116148089279 0 0.35124532839545858 0.047566477505150237 0 0.36312657459820519 0.022962182453169309 0 0.35936362748920009 0.0091271431172253586 0 0.37844401144479839 0.012609093579625891 0 0.35936362748920009 0.0091271431172253586 0 0.37844401144479839 0.012609093579625891 0 0.36665723294200347 -0.001883505129568449 0 0.35936362748920009 0.0091271431172253586 0 0.36665723294200347 -0.001883505129568449 0 0.35531676971978082 -0.0033532784323768001 0 0.37146335928247548 0.04052602251159599 0 0.36312657459820519 0.022962182453169309 0 0.37844401144479839 0.012609093579625891 0 0.37146335928247548 0.04052602251159599 0 0.37844401144479839 0.012609093579625891 0 0.35572529983931911 0.032753521421585163 0 0.35063657493523293 0.0197951316358141 0 0.3321968515854315 0.028027004478648001 0 0.35572529983931911 0.032753521421585163 0 0.36312657459820519 0.022962182453169309 0 0.35063657493523293 0.0197951316358141 0 0.36312657459820519 0.022962182453169309 0 0.35063657493523293 0.0197951316358141 0 0.35936362748920009 0.0091271431172253586 0 0.35936362748920009 0.0091271431172253586 0 0.33689267375143878 0.0039255003288513873 0 0.35531676971978082 -0.0033532784323768001 0 0.35063657493523293 0.0197951316358141 0 0.35936362748920009 0.0091271431172253586 0 0.33689267375143878 0.0039255003288513873 0 0.33689267375143878 0.0039255003288513873 0 0.3321968515854315 0.028027004478648001 0 0.30352242257352219 0.0039185454548519476 0 0.35063657493523293 0.0197951316358141 0 0.33689267375143878 0.0039255003288513873 0 0.3321968515854315 0.028027004478648001 0 0.3321968515854315 0.028027004478648001 0 0.32406508202711942 0.05109974460068676 0 0.30086563814790429 0.035038583275740692 0 0.34209731100959018 0.06531632876058778 0 0.32721969837032222 0.069259436753723466 0 0.32406508202711942 0.05109974460068676 0 0.34209731100959018 0.06531632876058778 0 0.35124532839545858 0.047566477505150237 0 0.32406508202711942 0.05109974460068676 0 0.35124532839545858 0.047566477505150237 0 0.3321968515854315 0.028027004478648001 0 0.32406508202711942 0.05109974460068676 0 0.31518448171420999 0.065085558788002928 0 0.32721969837032222 0.069259436753723466 0 0.32406508202711942 0.05109974460068676 0 0.31518448171420999 0.065085558788002928 0 0.32406508202711942 0.05109974460068676 0 0.29882370077581188 0.062479238108283437 0 0.32406508202711942 0.05109974460068676 0 0.29882370077581188 0.062479238108283437 0 0.30086563814790429 0.035038583275740692 0 0.32406508202711942 0.05109974460068676 0 0.30086563814790429 0.035038583275740692 0 0.30086563814790429 0.035038583275740692 0 0.28350496565293731 0.043820562147367653 0 0.27766619426868899 0.018977421950794569 0 0.29882370077581188 0.062479238108283437 0 0.30086563814790429 0.035038583275740692 0 0.28350496565293731 0.043820562147367653 0 0.29882370077581188 0.062479238108283437 0 0.28350496565293731 0.043820562147367653 0 0.28339325744793759 0.061338593161917712 0 0.3321968515854315 0.028027004478648001 0 0.30086563814790429 0.035038583275740692 0 0.30352242257352219 0.0039185454548519476 0 0.30086563814790429 0.035038583275740692 0 0.27766619426868899 0.018977421950794569 0 0.30086563814790429 0.035038583275740692 0 0.30352242257352219 0.0039185454548519476 0 0.27766619426868899 0.018977421950794569 0 0.30352242257352219 0.0039185454548519476 0 0.27766619426868899 0.018977421950794569 0 0.27708695819087842 -0.0025378708656911609 0 0.27766619426868899 0.018977421950794569 0 0.25446675038947358 0.0029162606258486688 0 0.27766619426868899 0.018977421950794569 0 0.26047117107291767 -0.0019720443344692288 0 0.27708695819087842 -0.0025378708656911609 0 0.27766619426868899 0.018977421950794569 0 0.2600935707136679 0.019574361616358959 0 0.26464981823601458 0.038183209123269009 0 0.2600935707136679 0.019574361616358959 0 0.26464981823601458 0.038183209123269009 0 0.25044211127373811 0.032849993626191502 0 0.27766619426868899 0.018977421950794569 0 0.2600935707136679 0.019574361616358959 0 0.25446675038947358 0.0029162606258486688 0 0.27766619426868899 0.018977421950794569 0 0.25446675038947358 0.0029162606258486688 0 0.26047117107291767 -0.0019720443344692288 0 0.25446675038947358 0.0029162606258486688 0 0.26047117107291767 -0.0019720443344692288 0 0.28339325744793759 0.061338593161917712 0 0.2699795556074106 0.054659435659755229 0 0.26514968559830832 0.069915803624621298 0 0.28350496565293731 0.043820562147367653 0 0.28339325744793759 0.061338593161917712 0 0.2699795556074106 0.054659435659755229 0 0.28350496565293731 0.043820562147367653 0 0.27766619426868899 0.018977421950794569 0 0.26464981823601458 0.038183209123269009 0 0.28350496565293731 0.043820562147367653 0 0.2699795556074106 0.054659435659755229 0 0.26464981823601458 0.038183209123269009 0 0.26464981823601458 0.038183209123269009 0 0.25174039047255609 0.044464402284776217 0 0.2585751734657834 0.052327775232976027 0 0.26464981823601458 0.038183209123269009 0 0.25044211127373811 0.032849993626191502 0 0.25174039047255609 0.044464402284776217 0 0.25174039047255609 0.044464402284776217 0 0.25102243244437311 0.053297338652025752 0 0.2585751734657834 0.052327775232976027 0 0.2699795556074106 0.054659435659755229 0 0.26464981823601458 0.038183209123269009 0 0.2585751734657834 0.052327775232976027 0 0.2699795556074106 0.054659435659755229 0 0.2585751734657834 0.052327775232976027 0 0.26000268679747079 0.061003988239662958 0 0.2699795556074106 0.054659435659755229 0 0.26000268679747079 0.061003988239662958 0 0.26514968559830832 0.069915803624621298 0 0.2585751734657834 0.052327775232976027 0 0.26000268679747079 0.061003988239662958 0 0.2530174900015254 0.0600809219264858 0 0.25102243244437311 0.053297338652025752 0 0.2585751734657834 0.052327775232976027 0 0.2530174900015254 0.0600809219264858 0 0.24751669685985911 0.059618880130872708 0 0.25102243244437311 0.053297338652025752 0 0.2530174900015254 0.0600809219264858 0 0.24853219730195361 0.063845178725116872 0 0.2530174900015254 0.0600809219264858 0 0.25274476311700622 0.067427493409812952 0 0.2530174900015254 0.0600809219264858 0 0.25274476311700622 0.067427493409812952 0 0.26000268679747079 0.061003988239662958 0 0.2530174900015254 0.0600809219264858 0 0.25274476311700622 0.067427493409812952 0 0.25274476311700622 0.067427493409812952 0 0.25243039498113262 0.075895774732197205 0 0.24842415088314279 0.069033451464499671 0 0.25274476311700622 0.067427493409812952 0 0.25243039498113262 0.075895774732197205 0 0.25274476311700622 0.067427493409812952 0 0.25243039498113262 0.075895774732197205 0 0.26514968559830832 0.069915803624621298 0 0.25243039498113262 0.075895774732197205 0 0.26514968559830832 0.069915803624621298 0 0.26417250328098718 0.085299079350852347 0 0.25243039498113262 0.075895774732197205 0 0.26514968559830832 0.069915803624621298 0 0.26000268679747079 0.061003988239662958 0 0.25274476311700622 0.067427493409812952 0 0.26514968559830832 0.069915803624621298 0 0.25274476311700622 0.067427493409812952 0 0.26514968559830832 0.069915803624621298 0 0.25243039498113262 0.075895774732197205 0 0.26417250328098718 0.085299079350852347 0 0.25158482098595109 0.098673396421397969 0 0.25243039498113262 0.075895774732197205 0 0.25158482098595109 0.098673396421397969 0 0.26417250328098718 0.085299079350852347 0 0.27563544099652842 0.091217529053328833 0 0.26597619666038957 0.098681263799979324 0 0.26417250328098718 0.085299079350852347 0 0.27658940398852799 0.081360569412953818 0 0.27563544099652842 0.091217529053328833 0 0.26514968559830832 0.069915803624621298 0 0.26417250328098718 0.085299079350852347 0 0.27658940398852799 0.081360569412953818 0 0.27658940398852799 0.081360569412953818 0 0.27563544099652842 0.091217529053328833 0 0.28742128170162778 0.087331448045782731 0 0.28339325744793759 0.061338593161917712 0 0.26514968559830832 0.069915803624621298 0 0.29259370646201821 0.075420814845242989 0 0.26514968559830832 0.069915803624621298 0 0.27658940398852799 0.081360569412953818 0 0.29259370646201821 0.075420814845242989 0 0.28339325744793759 0.061338593161917712 0 0.26514968559830832 0.069915803624621298 0 0.26514968559830832 0.069915803624621298 0 0.29259370646201821 0.075420814845242989 0 0.29882370077581188 0.062479238108283437 0 0.28339325744793759 0.061338593161917712 0 0.29259370646201821 0.075420814845242989 0 0.27658940398852799 0.081360569412953818 0 0.29259370646201821 0.075420814845242989 0 0.28742128170162778 0.087331448045782731 0 0.27563544099652842 0.091217529053328833 0 0.28742128170162778 0.087331448045782731 0 0.29001374252644291 0.099006193890217781 0 0.28742128170162778 0.087331448045782731 0 0.30227411453462139 0.089652133027170247 0 0.29001374252644291 0.099006193890217781 0 0.29259370646201821 0.075420814845242989 0 0.28742128170162778 0.087331448045782731 0 0.30227411453462139 0.089652133027170247 0 0.32003772732572838 0.080925826065863432 0 0.29259370646201821 0.075420814845242989 0 0.30227411453462139 0.089652133027170247 0 0.32003772732572838 0.080925826065863432 0 0.29259370646201821 0.075420814845242989 0 0.32003772732572838 0.080925826065863432 0 0.29882370077581188 0.062479238108283437 0 0.29259370646201821 0.075420814845242989 0 0.32003772732572838 0.080925826065863432 0 0.29882370077581188 0.062479238108283437 0 0.31518448171420999 0.065085558788002928 0 0.32003772732572838 0.080925826065863432 0 0.29882370077581188 0.062479238108283437 0 0.29818169174329712 0.11066146566519899 0 0.31114536757858358 0.11742006929579971 0 0.294250496481684 0.12267566802032639 0 0.31114536757858358 0.11742006929579971 0 0.294250496481684 0.12267566802032639 0 0.30313841955192899 0.13260249050964579 0 0.29818169174329712 0.11066146566519899 0 0.31114536757858358 0.11742006929579971 0 0.30640852481201453 0.1024735992044304 0 0.30227411453462139 0.089652133027170247 0 0.30640852481201453 0.1024735992044304 0 0.29001374252644291 0.099006193890217781 0 0.29818169174329712 0.11066146566519899 0 0.30640852481201453 0.1024735992044304 0 0.29001374252644291 0.099006193890217781 0 0.31657863646219547 0.093324099257994786 0 0.30227411453462139 0.089652133027170247 0 0.30640852481201453 0.1024735992044304 0 0.29818169174329712 0.11066146566519899 0 0.29001374252644291 0.099006193890217781 0 0.28729541733308872 0.1128284558108848 0 0.29001374252644291 0.099006193890217781 0 0.28729541733308872 0.1128284558108848 0 0.27577858748266387 0.1072301355245756 0 0.29818169174329712 0.11066146566519899 0 0.28729541733308872 0.1128284558108848 0 0.294250496481684 0.12267566802032639 0 0.28729541733308872 0.1128284558108848 0 0.294250496481684 0.12267566802032639 0 0.28067449336876182 0.1220521091494646 0 0.28067449336876182 0.1220521091494646 0 0.26956705708048567 0.1198361090660386 0 0.27577858748266387 0.1072301355245756 0 0.28729541733308872 0.1128284558108848 0 0.28067449336876182 0.1220521091494646 0 0.27577858748266387 0.1072301355245756 0 0.26956705708048567 0.1198361090660386 0 0.27577858748266387 0.1072301355245756 0 0.26270963055581759 0.11098617864974181 0 0.27563544099652842 0.091217529053328833 0 0.27577858748266387 0.1072301355245756 0 0.26597619666038957 0.098681263799979324 0 0.27563544099652842 0.091217529053328833 0 0.29001374252644291 0.099006193890217781 0 0.27577858748266387 0.1072301355245756 0 0.27577858748266387 0.1072301355245756 0 0.26597619666038957 0.098681263799979324 0 0.26270963055581759 0.11098617864974181 0 0.25158482098595109 0.098673396421397969 0 0.25094552198087999 0.11589449234768209 0 0.25158482098595109 0.098673396421397969 0 0.26270963055581759 0.11098617864974181 0 0.25094552198087999 0.11589449234768209 0 0.26417250328098718 0.085299079350852347 0 0.26597619666038957 0.098681263799979324 0 0.25158482098595109 0.098673396421397969 0 0.26597619666038957 0.098681263799979324 0 0.25158482098595109 0.098673396421397969 0 0.26270963055581759 0.11098617864974181 0 0.25158482098595109 0.098673396421397969 0 0.26270963055581759 0.11098617864974181 0 0.25094552198087999 0.11589449234768209 0 0.25030622297580962 0.13311558827396619 0 0.26022612795132161 0.12333036834530881 0 0.25094552198087999 0.11589449234768209 0 0.25030622297580962 0.13311558827396619 0 0.26956705708048567 0.1198361090660386 0 0.26022612795132161 0.12333036834530881 0 0.26270963055581759 0.11098617864974181 0 0.26022612795132161 0.12333036834530881 0 0.26270963055581759 0.11098617864974181 0 0.25094552198087999 0.11589449234768209 0 0.26956705708048567 0.1198361090660386 0 0.26022612795132161 0.12333036834530881 0 0.26675796828336718 0.1380571931171293 0 0.26022612795132161 0.12333036834530881 0 0.25030622297580962 0.13311558827396619 0 0.26675796828336718 0.1380571931171293 0 0.25030622297580962 0.13311558827396619 0 0.26675796828336718 0.1380571931171293 0 0.25030622297580962 0.13311558827396619 0 0.26675796828336718 0.1380571931171293 0 0.25638724149227848 0.14295410589973731 0 0.25004344172447263 0.14019424959050239 0 0.25030622297580962 0.13311558827396619 0 0.25638724149227848 0.14295410589973731 0 0.25004344172447263 0.14019424959050239 0 0.25030622297580962 0.13311558827396619 0 0.26675796828336718 0.1380571931171293 0 0.28320971359092417 0.1429987979602943 0 0.26675796828336718 0.1380571931171293 0 0.28666270206708028 0.1324408374186071 0 0.28320971359092417 0.1429987979602943 0 0.28067449336876182 0.1220521091494646 0 0.26956705708048567 0.1198361090660386 0 0.26675796828336718 0.1380571931171293 0 0.28067449336876182 0.1220521091494646 0 0.26675796828336718 0.1380571931171293 0 0.28666270206708028 0.1324408374186071 0 0.26675796828336718 0.1380571931171293 0 0.27436529468354132 0.15433220537778311 0 0.26010861073109098 0.15248373785575309 0 0.26675796828336718 0.1380571931171293 0 0.27436529468354132 0.15433220537778311 0 0.28320971359092417 0.1429987979602943 0 0.26675796828336718 0.1380571931171293 0 0.26010861073109098 0.15248373785575309 0 0.25638724149227848 0.14295410589973731 0 0.2496536413094039 0.15044712256699261 0 0.25004344172447263 0.14019424959050239 0 0.25638724149227848 0.14295410589973731 0 0.24653130607993951 0.16237692388552691 0 0.2496536413094039 0.15044712256699261 0 0.26010861073109098 0.15248373785575309 0 0.2496536413094039 0.15044712256699261 0 0.26010861073109098 0.15248373785575309 0 0.25638724149227848 0.14295410589973731 0 0.24653130607993951 0.16237692388552691 0 0.25292738168467233 0.17649485219682931 0 0.26638423851283249 0.16867758561061549 0 0.24653130607993951 0.16237692388552691 0 0.26010861073109098 0.15248373785575309 0 0.26638423851283249 0.16867758561061549 0 0.24528107816237801 0.1907036486386274 0 0.25292738168467233 0.17649485219682931 0 0.26633433714882182 0.18577592949096661 0 0.25292738168467233 0.17649485219682931 0 0.26633433714882182 0.18577592949096661 0 0.26638423851283249 0.16867758561061549 0 0.27723266788850742 0.181048228772968 0 0.26638423851283249 0.16867758561061549 0 0.28391425324491287 0.17071999404263091 0 0.26633433714882182 0.18577592949096661 0 0.27723266788850742 0.181048228772968 0 0.26638423851283249 0.16867758561061549 0 0.27436529468354132 0.15433220537778311 0 0.26010861073109098 0.15248373785575309 0 0.26638423851283249 0.16867758561061549 0 0.27436529468354132 0.15433220537778311 0 0.26638423851283249 0.16867758561061549 0 0.28391425324491287 0.17071999404263091 0 0.27436529468354132 0.15433220537778311 0 0.28391425324491287 0.17071999404263091 0 0.29097703849613438 0.15773848939083679 0 0.28391425324491287 0.17071999404263091 0 0.2931647794093819 0.16879209887591959 0 0.29097703849613438 0.15773848939083679 0 0.2931647794093819 0.16879209887591959 0 0.29097703849613438 0.15773848939083679 0 0.30040947706207388 0.16512632217721829 0 0.28391425324491287 0.17071999404263091 0 0.28743664533084129 0.187357279865842 0 0.29743995151898561 0.17866098634217961 0 0.27723266788850742 0.181048228772968 0 0.28391425324491287 0.17071999404263091 0 0.28743664533084129 0.187357279865842 0 0.28391425324491287 0.17071999404263091 0 0.2931647794093819 0.16879209887591959 0 0.29743995151898561 0.17866098634217961 0 0.28743664533084129 0.187357279865842 0 0.29743995151898561 0.17866098634217961 0 0.29971043857951379 0.19298806906372529 0 0.29743995151898561 0.17866098634217961 0 0.30929675685570829 0.1858318568065235 0 0.29971043857951379 0.19298806906372529 0 0.29743995151898561 0.17866098634217961 0 0.3101655001798202 0.17563615506282959 0 0.30040947706207388 0.16512632217721829 0 0.29743995151898561 0.17866098634217961 0 0.3101655001798202 0.17563615506282959 0 0.30929675685570829 0.1858318568065235 0 0.30040947706207388 0.16512632217721829 0 0.30453528129870422 0.15487579661148021 0 0.32848741365188411 0.1727716232507491 0 0.29097703849613438 0.15773848939083679 0 0.30040947706207388 0.16512632217721829 0 0.30453528129870422 0.15487579661148021 0 0.2931647794093819 0.16879209887591959 0 0.29743995151898561 0.17866098634217961 0 0.30040947706207388 0.16512632217721829 0 0.29097703849613438 0.15773848939083679 0 0.30453528129870422 0.15487579661148021 0 0.29618567382365713 0.14404403195872001 0 0.30453528129870422 0.15487579661148021 0 0.30873747279203018 0.14281046260302349 0 0.29618567382365713 0.14404403195872001 0 0.30453528129870422 0.15487579661148021 0 0.30873747279203018 0.14281046260302349 0 0.32007589174333823 0.14676000458717811 0 0.30873747279203018 0.14281046260302349 0 0.30313841955192899 0.13260249050964579 0 0.3195478300457561 0.1332621056988223 0 0.31114536757858358 0.11742006929579971 0 0.30313841955192899 0.13260249050964579 0 0.3195478300457561 0.1332621056988223 0 0.30873747279203018 0.14281046260302349 0 0.30313841955192899 0.13260249050964579 0 0.29618567382365713 0.14404403195872001 0 0.294250496481684 0.12267566802032639 0 0.30313841955192899 0.13260249050964579 0 0.28666270206708028 0.1324408374186071 0 0.30313841955192899 0.13260249050964579 0 0.28666270206708028 0.1324408374186071 0 0.29618567382365713 0.14404403195872001 0 0.294250496481684 0.12267566802032639 0 0.28067449336876182 0.1220521091494646 0 0.28666270206708028 0.1324408374186071 0 0.28666270206708028 0.1324408374186071 0 0.28320971359092417 0.1429987979602943 0 0.29618567382365713 0.14404403195872001 0 0.27436529468354132 0.15433220537778311 0 0.29097703849613438 0.15773848939083679 0 0.28320971359092417 0.1429987979602943 0 0.29097703849613438 0.15773848939083679 0 0.28320971359092417 0.1429987979602943 0 0.29618567382365713 0.14404403195872001 0 0.28119448123381058 0.25405304303149878 0 0.26221447651104962 0.2479993693513689 0 0.28440499104296979 0.23439140090611099 0 0.26221447651104962 0.2479993693513689 0 0.26853130556434218 0.23400660741274959 0 0.28440499104296979 0.23439140090611099 0 0.26221447651104962 0.2479993693513689 0 0.28440499104296979 0.23439140090611099 0 0.2457442494512444 0.24022391879071339 0 0.26221447651104962 0.2479993693513689 0 0.25511338863332461 0.22468137717712711 0 0.26221447651104962 0.2479993693513689 0 0.25511338863332461 0.22468137717712711 0 0.26853130556434218 0.23400660741274959 0 0.26221447651104962 0.2479993693513689 0 0.25511338863332461 0.22468137717712711 0 0.25511338863332461 0.22468137717712711 0 0.25242827713160498 0.21540237912569379 0 0.25511338863332461 0.22468137717712711 0 0.2794126892910288 0.21617120911671081 0 0.25511338863332461 0.22468137717712711 0 0.26853130556434218 0.23400660741274959 0 0.2794126892910288 0.21617120911671081 0 0.26853130556434218 0.23400660741274959 0 0.2794126892910288 0.21617120911671081 0 0.28440499104296979 0.23439140090611099 0 0.25511338863332461 0.22468137717712711 0 0.2794126892910288 0.21617120911671081 0 0.26644318031571418 0.20408753099865831 0 0.2794126892910288 0.21617120911671081 0 0.26644318031571418 0.20408753099865831 0 0.27722953884408802 0.19656269719262509 0 0.24528107816237801 0.1907036486386274 0 0.26644318031571418 0.20408753099865831 0 0.25242827713160498 0.21540237912569379 0 0.25511338863332461 0.22468137717712711 0 0.26644318031571418 0.20408753099865831 0 0.25242827713160498 0.21540237912569379 0 0.26644318031571418 0.20408753099865831 0 0.25242827713160498 0.21540237912569379 0 0.24528107816237801 0.1907036486386274 0 0.26633433714882182 0.18577592949096661 0 0.26644318031571418 0.20408753099865831 0 0.26633433714882182 0.18577592949096661 0 0.26644318031571418 0.20408753099865831 0 0.27722953884408802 0.19656269719262509 0 0.27723266788850742 0.181048228772968 0 0.28743664533084129 0.187357279865842 0 0.27722953884408802 0.19656269719262509 0 0.26633433714882182 0.18577592949096661 0 0.27723266788850742 0.181048228772968 0 0.27722953884408802 0.19656269719262509 0 0.28743664533084129 0.187357279865842 0 0.27722953884408802 0.19656269719262509 0 0.28939512316467059 0.2005252056429343 0 0.28743664533084129 0.187357279865842 0 0.28939512316467059 0.2005252056429343 0 0.29971043857951379 0.19298806906372529 0 0.30929675685570829 0.1858318568065235 0 0.29971043857951379 0.19298806906372529 0 0.31162694501442678 0.19735313208654229 0 0.29971043857951379 0.19298806906372529 0 0.31162694501442678 0.19735313208654229 0 0.30371198994873311 0.20766104105629449 0 0.28939512316467059 0.2005252056429343 0 0.29971043857951379 0.19298806906372529 0 0.30371198994873311 0.20766104105629449 0 0.2794126892910288 0.21617120911671081 0 0.30371198994873311 0.20766104105629449 0 0.2794126892910288 0.21617120911671081 0 0.30371198994873311 0.20766104105629449 0 0.30659550557489001 0.220783432460853 0 0.2794126892910288 0.21617120911671081 0 0.27722953884408802 0.19656269719262509 0 0.28939512316467059 0.2005252056429343 0 0.2794126892910288 0.21617120911671081 0 0.28939512316467059 0.2005252056429343 0 0.30371198994873311 0.20766104105629449 0 0.30659550557489001 0.220783432460853 0 0.28440499104296979 0.23439140090611099 0 0.2794126892910288 0.21617120911671081 0 0.30659550557489001 0.220783432460853 0 0.28440499104296979 0.23439140090611099 0 0.30659550557489001 0.220783432460853 0 0.30328699804120918 0.24394477185791469 0 0.28440499104296979 0.23439140090611099 0 0.30659550557489001 0.220783432460853 0 0.30328699804120918 0.24394477185791469 0 0.31607427666693672 0.2331905299380852 0 0.28119448123381058 0.25405304303149878 0 0.30328699804120918 0.24394477185791469 0 0.28440499104296979 0.23439140090611099 0 0.3433555784436142 0.25004320974280247 0 0.34183468199228573 0.23727684870966961 0 0.33092809789354199 0.24744869965648561 0 0.34183468199228573 0.23727684870966961 0 0.3288410404878227 0.2348757256337824 0 0.33092809789354199 0.24744869965648561 0 0.3288410404878227 0.2348757256337824 0 0.33092809789354199 0.24744869965648561 0 0.31845456220733243 0.24449663650262579 0 0.31879452400631653 0.25919465198291952 0 0.30328699804120918 0.24394477185791469 0 0.31845456220733243 0.24449663650262579 0 0.30328699804120918 0.24394477185791469 0 0.31845456220733243 0.24449663650262579 0 0.31607427666693672 0.2331905299380852 0 0.3288410404878227 0.2348757256337824 0 0.31845456220733243 0.24449663650262579 0 0.31607427666693672 0.2331905299380852 0 0.3288410404878227 0.2348757256337824 0 0.31607427666693672 0.2331905299380852 0 0.32372534117020862 0.22390137225637691 0 0.30659550557489001 0.220783432460853 0 0.31607427666693672 0.2331905299380852 0 0.32372534117020862 0.22390137225637691 0 0.3288410404878227 0.2348757256337824 0 0.32372534117020862 0.22390137225637691 0 0.33832986301458301 0.22348170923356889 0 0.34183468199228573 0.23727684870966961 0 0.3288410404878227 0.2348757256337824 0 0.33832986301458301 0.22348170923356889 0 0.32372534117020862 0.22390137225637691 0 0.33832986301458301 0.22348170923356889 0 0.32878602010681029 0.20717546401559489 0 0.33832986301458301 0.22348170923356889 0 0.32878602010681029 0.20717546401559489 0 0.35089693608391498 0.21212819010674691 0 0.32878602010681029 0.20717546401559489 0 0.35097653463873058 0.19356749557033681 0 0.35089693608391498 0.21212819010674691 0 0.30659550557489001 0.220783432460853 0 0.32372534117020862 0.22390137225637691 0 0.32878602010681029 0.20717546401559489 0 0.31162694501442678 0.19735313208654229 0 0.30371198994873311 0.20766104105629449 0 0.32878602010681029 0.20717546401559489 0 0.30371198994873311 0.20766104105629449 0 0.30659550557489001 0.220783432460853 0 0.32878602010681029 0.20717546401559489 0 0.30659550557489001 0.220783432460853 0 0.32878602010681029 0.20717546401559489 0 0.32878602010681029 0.20717546401559489 0 0.31972446529152482 0.19052244909679969 0 0.3336272658304279 0.18895925974375941 0 0.31162694501442678 0.19735313208654229 0 0.32878602010681029 0.20717546401559489 0 0.31972446529152482 0.19052244909679969 0 0.30929675685570829 0.1858318568065235 0 0.31162694501442678 0.19735313208654229 0 0.31972446529152482 0.19052244909679969 0 0.32878602010681029 0.20717546401559489 0 0.3336272658304279 0.18895925974375941 0 0.35097653463873058 0.19356749557033681 0 0.32878602010681029 0.20717546401559489 0 0.35097653463873058 0.19356749557033681 0 0.3336272658304279 0.18895925974375941 0 0.35097653463873058 0.19356749557033681 0 0.35656535024169428 0.1804169243242798 0 0.35097653463873058 0.19356749557033681 0 0.35896651107905142 0.20360726904620211 0 0.35089693608391498 0.21212819010674691 0 0.35097653463873058 0.19356749557033681 0 0.36405518175537521 0.19484170215684679 0 0.35896651107905142 0.20360726904620211 0 0.35097653463873058 0.19356749557033681 0 0.36405518175537521 0.19484170215684679 0 0.35656535024169428 0.1804169243242798 0 0.36405518175537521 0.19484170215684679 0 0.35656535024169428 0.1804169243242798 0 0.38464328683150451 0.18806222539781059 0 0.36405518175537521 0.19484170215684679 0 0.36923798170140371 0.20928007436804161 0 0.38464328683150451 0.18806222539781059 0 0.36405518175537521 0.19484170215684679 0 0.36923798170140371 0.20928007436804161 0 0.35896651107905142 0.20360726904620211 0 0.36923798170140371 0.20928007436804161 0 0.36132702422268731 0.21787493872225441 0 0.35896651107905142 0.20360726904620211 0 0.36923798170140371 0.20928007436804161 0 0.36132702422268731 0.21787493872225441 0 0.37292139258550783 0.22672254500020811 0 0.36132702422268731 0.21787493872225441 0 0.35896651107905142 0.20360726904620211 0 0.35089693608391498 0.21212819010674691 0 0.34183468199228573 0.23727684870966961 0 0.33832986301458301 0.22348170923356889 0 0.35524969613090918 0.22837961108452459 0 0.36132702422268731 0.21787493872225441 0 0.35089693608391498 0.21212819010674691 0 0.35524969613090918 0.22837961108452459 0 0.33832986301458301 0.22348170923356889 0 0.35089693608391498 0.21212819010674691 0 0.35524969613090918 0.22837961108452459 0 0.36132702422268731 0.21787493872225441 0 0.35524969613090918 0.22837961108452459 0 0.37292139258550783 0.22672254500020811 0 0.35524969613090918 0.22837961108452459 0 0.37292139258550783 0.22672254500020811 0 0.36587213359177301 0.2378375665458646 0 0.37292139258550783 0.22672254500020811 0 0.36587213359177301 0.2378375665458646 0 0.3757768555661396 0.240133652284411 0 0.36587213359177301 0.2378375665458646 0 0.37169426656027921 0.24972740256563611 0 0.3757768555661396 0.240133652284411 0 0.36587213359177301 0.2378375665458646 0 0.37169426656027921 0.24972740256563611 0 0.36205361842742478 0.24882498742118489 0 0.36587213359177301 0.2378375665458646 0 0.36205361842742478 0.24882498742118489 0 0.35356337405553911 0.24205426642971811 0 0.35175757775775729 0.2532797976346674 0 0.36205361842742478 0.24882498742118489 0 0.35356337405553911 0.24205426642971811 0 0.35524969613090918 0.22837961108452459 0 0.36587213359177301 0.2378375665458646 0 0.35356337405553911 0.24205426642971811 0 0.34183468199228573 0.23727684870966961 0 0.35524969613090918 0.22837961108452459 0 0.35356337405553911 0.24205426642971811 0 0.3433555784436142 0.25004320974280247 0 0.34183468199228573 0.23727684870966961 0 0.35356337405553911 0.24205426642971811 0 0.3433555784436142 0.25004320974280247 0 0.35175757775775729 0.2532797976346674 0 0.35356337405553911 0.24205426642971811 0 0.33379856680907583 0.1437068241164389 0 0.32007589174333823 0.14676000458717811 0 0.33365817402274128 0.15789089208148979 0 0.33379856680907583 0.1437068241164389 0 0.33365817402274128 0.15789089208148979 0 0.34780073530519279 0.14835628742565241 0 0.33379856680907583 0.1437068241164389 0 0.34780073530519279 0.14835628742565241 0 0.34586764947947463 0.1362539899128139 0 0.33379856680907583 0.1437068241164389 0 0.33436770153514289 0.13112975471366969 0 0.34586764947947463 0.1362539899128139 0 0.34956654336434939 0.1234914401014125 0 0.33436770153514289 0.13112975471366969 0 0.34586764947947463 0.1362539899128139 0 0.33379856680907583 0.1437068241164389 0 0.33436770153514289 0.13112975471366969 0 0.3195478300457561 0.1332621056988223 0 0.32606950933900308 0.1158177097477945 0 0.33436770153514289 0.13112975471366969 0 0.3195478300457561 0.1332621056988223 0 0.30873747279203018 0.14281046260302349 0 0.3195478300457561 0.1332621056988223 0 0.32007589174333823 0.14676000458717811 0 0.30453528129870422 0.15487579661148021 0 0.32007589174333823 0.14676000458717811 0 0.33365817402274128 0.15789089208148979 0 0.33379856680907583 0.1437068241164389 0 0.3195478300457561 0.1332621056988223 0 0.32007589174333823 0.14676000458717811 0 0.30453528129870422 0.15487579661148021 0 0.33365817402274128 0.15789089208148979 0 0.30453528129870422 0.15487579661148021 0 0.32848741365188411 0.1727716232507491 0 0.33365817402274128 0.15789089208148979 0 0.30040947706207388 0.16512632217721829 0 0.32848741365188411 0.1727716232507491 0 0.3101655001798202 0.17563615506282959 0 0.30040947706207388 0.16512632217721829 0 0.32848741365188411 0.1727716232507491 0 0.3101655001798202 0.17563615506282959 0 0.31983557186529732 0.18171103000860481 0 0.32848741365188411 0.1727716232507491 0 0.3336272658304279 0.18895925974375941 0 0.31983557186529732 0.18171103000860481 0 0.32848741365188411 0.1727716232507491 0 0.3101655001798202 0.17563615506282959 0 0.30929675685570829 0.1858318568065235 0 0.31983557186529732 0.18171103000860481 0 0.30929675685570829 0.1858318568065235 0 0.31972446529152482 0.19052244909679969 0 0.31983557186529732 0.18171103000860481 0 0.31972446529152482 0.19052244909679969 0 0.3336272658304279 0.18895925974375941 0 0.31983557186529732 0.18171103000860481 0 0.32848741365188411 0.1727716232507491 0 0.34507730906385942 0.16855187839241309 0 0.35656535024169428 0.1804169243242798 0 0.3336272658304279 0.18895925974375941 0 0.32848741365188411 0.1727716232507491 0 0.35656535024169428 0.1804169243242798 0 0.32848741365188411 0.1727716232507491 0 0.35656535024169428 0.1804169243242798 0 0.32848741365188411 0.1727716232507491 0 0.33365817402274128 0.15789089208148979 0 0.34507730906385942 0.16855187839241309 0 0.33365817402274128 0.15789089208148979 0 0.34507730906385942 0.16855187839241309 0 0.36278106674677829 0.1609059875514994 0 0.34507730906385942 0.16855187839241309 0 0.35656535024169428 0.1804169243242798 0 0.36278106674677829 0.1609059875514994 0 0.33365817402274128 0.15789089208148979 0 0.36278106674677829 0.1609059875514994 0 0.35656535024169428 0.1804169243242798 0 0.37356219856206202 0.1741215612114578 0 0.38464328683150451 0.18806222539781059 0 0.35656535024169428 0.1804169243242798 0 0.38464328683150451 0.18806222539781059 0 0.35656535024169428 0.1804169243242798 0 0.37356219856206202 0.1741215612114578 0 0.36278106674677829 0.1609059875514994 0 0.36278106674677829 0.1609059875514994 0 0.36531512046589693 0.1378839500987098 0 0.37680076681991098 0.15092733218095339 0 0.36278106674677829 0.1609059875514994 0 0.34780073530519279 0.14835628742565241 0 0.36531512046589693 0.1378839500987098 0 0.34780073530519279 0.14835628742565241 0 0.34586764947947463 0.1362539899128139 0 0.36531512046589693 0.1378839500987098 0 0.33365817402274128 0.15789089208148979 0 0.36278106674677829 0.1609059875514994 0 0.34780073530519279 0.14835628742565241 0 0.34956654336434939 0.1234914401014125 0 0.34586764947947463 0.1362539899128139 0 0.36531512046589693 0.1378839500987098 0 0.34956654336434939 0.1234914401014125 0 0.36322639358210312 0.11848039068348271 0 0.36531512046589693 0.1378839500987098 0 0.36322639358210312 0.11848039068348271 0 0.36531512046589693 0.1378839500987098 0 0.38482072671029011 0.13725767299229241 0 0.36322639358210312 0.11848039068348271 0 0.38482072671029011 0.13725767299229241 0 0.36322639358210312 0.11848039068348271 0 0.38482072671029011 0.13725767299229241 0 0.38005682511468147 0.12140739343396729 0 0.38482072671029011 0.13725767299229241 0 0.39398634319161102 0.12556361147638159 0 0.38005682511468147 0.12140739343396729 0 0.38482072671029011 0.13725767299229241 0 0.39398634319161102 0.12556361147638159 0 0.40386822996399702 0.1370092008917044 0 0.39398634319161102 0.12556361147638159 0 0.40386822996399702 0.1370092008917044 0 0.40630256149234217 0.12337914253670321 0 0.38482072671029011 0.13725767299229241 0 0.40641505983847698 0.15603495530110209 0 0.38482072671029011 0.13725767299229241 0 0.40386822996399702 0.1370092008917044 0 0.40641505983847698 0.15603495530110209 0 0.38482072671029011 0.13725767299229241 0 0.39190395947081519 0.16392108302150901 0 0.40641505983847698 0.15603495530110209 0 0.36531512046589693 0.1378839500987098 0 0.38482072671029011 0.13725767299229241 0 0.37680076681991098 0.15092733218095339 0 0.38482072671029011 0.13725767299229241 0 0.37680076681991098 0.15092733218095339 0 0.39190395947081519 0.16392108302150901 0 0.36278106674677829 0.1609059875514994 0 0.39190395947081519 0.16392108302150901 0 0.36278106674677829 0.1609059875514994 0 0.37680076681991098 0.15092733218095339 0 0.39190395947081519 0.16392108302150901 0 0.37356219856206202 0.1741215612114578 0 0.36278106674677829 0.1609059875514994 0 0.39190395947081519 0.16392108302150901 0 0.37356219856206202 0.1741215612114578 0 0.39190395947081519 0.16392108302150901 0 0.38464328683150451 0.18806222539781059 0 0.4059128807594603 0.17981630131623391 0 0.39190395947081519 0.16392108302150901 0 0.38464328683150451 0.18806222539781059 0 0.39190395947081519 0.16392108302150901 0 0.42102685219485209 0.16693617849151851 0 0.40641505983847698 0.15603495530110209 0 0.4059128807594603 0.17981630131623391 0 0.39190395947081519 0.16392108302150901 0 0.42102685219485209 0.16693617849151851 0 0.42102685219485209 0.16693617849151851 0 0.40641505983847698 0.15603495530110209 0 0.41490094777653419 0.14712571815411829 0 0.39190395947081519 0.16392108302150901 0 0.42102685219485209 0.16693617849151851 0 0.4059128807594603 0.17981630131623391 0 0.42102685219485209 0.16693617849151851 0 0.42759287120751482 0.1799189573059411 0 0.4059128807594603 0.17981630131623391 0 0.42759287120751482 0.1799189573059411 0 0.42045703890892938 0.19185412915784311 0 0.42102685219485209 0.16693617849151851 0 0.42759287120751482 0.1799189573059411 0 0.45014974491888898 0.16995127396152809 0 0.42759287120751482 0.1799189573059411 0 0.42045703890892938 0.19185412915784311 0 0.43799329450951457 0.1898848624547933 0 0.42102685219485209 0.16693617849151851 0 0.45014974491888898 0.16995127396152809 0 0.42102685219485209 0.16693617849151851 0 0.43641214087317609 0.15776157540708571 0 0.42820809332857229 0.14540676379554701 0 0.42102685219485209 0.16693617849151851 0 0.43641214087317609 0.15776157540708571 0 0.45014974491888898 0.16995127396152809 0 0.43641214087317609 0.15776157540708571 0 0.42820809332857229 0.14540676379554701 0 0.44305345270963392 0.14224085277467549 0 0.42820809332857229 0.14540676379554701 0 0.43267139290449452 0.12562392175117529 0 0.41815906511665779 0.13368892679480551 0 0.42820809332857229 0.14540676379554701 0 0.43267139290449452 0.12562392175117529 0 0.44305345270963392 0.14224085277467549 0 0.43267139290449452 0.12562392175117529 0 0.41815906511665779 0.13368892679480551 0 0.41840244549433692 0.1204435227777134 0 0.41815906511665779 0.13368892679480551 0 0.41840244549433692 0.1204435227777134 0 0.40630256149234217 0.12337914253670321 0 0.40386822996399702 0.1370092008917044 0 0.41815906511665779 0.13368892679480551 0 0.40630256149234217 0.12337914253670321 0 0.40386822996399702 0.1370092008917044 0 0.41815906511665779 0.13368892679480551 0 0.41490094777653419 0.14712571815411829 0 0.42102685219485209 0.16693617849151851 0 0.42820809332857229 0.14540676379554701 0 0.41490094777653419 0.14712571815411829 0 0.40386822996399702 0.1370092008917044 0 0.40641505983847698 0.15603495530110209 0 0.41490094777653419 0.14712571815411829 0 0.42820809332857229 0.14540676379554701 0 0.41815906511665779 0.13368892679480551 0 0.41490094777653419 0.14712571815411829 0 0.39196586341458151 0.242441409442547 0 0.40329821407583749 0.23025496453590971 0 0.40866327585672191 0.24600766979752939 0 0.38129994004966872 0.25577407136566988 0 0.39196586341458151 0.242441409442547 0 0.40866327585672191 0.24600766979752939 0 0.38129994004966872 0.25577407136566988 0 0.39196586341458151 0.242441409442547 0 0.38106847269238292 0.24536179082341181 0 0.37169426656027921 0.24972740256563611 0 0.38106847269238292 0.24536179082341181 0 0.3757768555661396 0.240133652284411 0 0.37292139258550783 0.22672254500020811 0 0.3757768555661396 0.240133652284411 0 0.38460543787124563 0.238732418458795 0 0.38106847269238292 0.24536179082341181 0 0.3757768555661396 0.240133652284411 0 0.38460543787124563 0.238732418458795 0 0.39196586341458151 0.242441409442547 0 0.38106847269238292 0.24536179082341181 0 0.38460543787124563 0.238732418458795 0 0.39196586341458151 0.242441409442547 0 0.38460543787124563 0.238732418458795 0 0.38844350160088592 0.2284985707660753 0 0.37292139258550783 0.22672254500020811 0 0.38460543787124563 0.238732418458795 0 0.38844350160088592 0.2284985707660753 0 0.37292139258550783 0.22672254500020811 0 0.38844350160088592 0.2284985707660753 0 0.38369130631537601 0.21297307403445409 0 0.38844350160088592 0.2284985707660753 0 0.39679964264504158 0.21937630878092959 0 0.38369130631537601 0.21297307403445409 0 0.38844350160088592 0.2284985707660753 0 0.39679964264504158 0.21937630878092959 0 0.40329821407583749 0.23025496453590971 0 0.39196586341458151 0.242441409442547 0 0.38844350160088592 0.2284985707660753 0 0.40329821407583749 0.23025496453590971 0 0.39679964264504158 0.21937630878092959 0 0.40329821407583749 0.23025496453590971 0 0.41066806580544729 0.2160617609406458 0 0.39598296716959969 0.20626700748070109 0 0.40513352984814438 0.19492560706685999 0 0.41066806580544729 0.2160617609406458 0 0.39679964264504158 0.21937630878092959 0 0.39598296716959969 0.20626700748070109 0 0.41066806580544729 0.2160617609406458 0 0.39679964264504158 0.21937630878092959 0 0.39598296716959969 0.20626700748070109 0 0.38369130631537601 0.21297307403445409 0 0.36923798170140371 0.20928007436804161 0 0.37292139258550783 0.22672254500020811 0 0.38369130631537601 0.21297307403445409 0 0.36923798170140371 0.20928007436804161 0 0.38369130631537601 0.21297307403445409 0 0.38464328683150451 0.18806222539781059 0 0.39598296716959969 0.20626700748070109 0 0.38369130631537601 0.21297307403445409 0 0.38464328683150451 0.18806222539781059 0 0.39598296716959969 0.20626700748070109 0 0.38464328683150451 0.18806222539781059 0 0.40513352984814438 0.19492560706685999 0 0.4059128807594603 0.17981630131623391 0 0.38464328683150451 0.18806222539781059 0 0.40513352984814438 0.19492560706685999 0 0.40513352984814438 0.19492560706685999 0 0.42045703890892938 0.19185412915784311 0 0.42444067869502011 0.20693424997503959 0 0.4059128807594603 0.17981630131623391 0 0.40513352984814438 0.19492560706685999 0 0.42045703890892938 0.19185412915784311 0 0.42045703890892938 0.19185412915784311 0 0.42444067869502011 0.20693424997503959 0 0.43799329450951457 0.1898848624547933 0 0.42444067869502011 0.20693424997503959 0 0.44184419378540352 0.2076794424592901 0 0.43799329450951457 0.1898848624547933 0 0.42444067869502011 0.20693424997503959 0 0.4302098735549707 0.2206458244329694 0 0.44184419378540352 0.2076794424592901 0 0.42444067869502011 0.20693424997503959 0 0.41066806580544729 0.2160617609406458 0 0.4302098735549707 0.2206458244329694 0 0.40513352984814438 0.19492560706685999 0 0.42444067869502011 0.20693424997503959 0 0.41066806580544729 0.2160617609406458 0 0.41066806580544729 0.2160617609406458 0 0.41777320819135039 0.22984229758728861 0 0.4302098735549707 0.2206458244329694 0 0.40329821407583749 0.23025496453590971 0 0.41066806580544729 0.2160617609406458 0 0.41777320819135039 0.22984229758728861 0 0.4302098735549707 0.2206458244329694 0 0.43602661166377499 0.2362412682293889 0 0.44584438813649652 0.2203436080528294 0 0.41777320819135039 0.22984229758728861 0 0.4302098735549707 0.2206458244329694 0 0.43602661166377499 0.2362412682293889 0 0.43602661166377499 0.2362412682293889 0 0.43076425121212841 0.2486853010718087 0 0.40866327585672191 0.24600766979752939 0 0.43602661166377499 0.2362412682293889 0 0.40866327585672191 0.24600766979752939 0 0.41777320819135039 0.22984229758728861 0 0.43602661166377499 0.2362412682293889 0 0.40866327585672191 0.24600766979752939 0 0.41664462513020523 0.25422696758609492 0 0.43076425121212841 0.2486853010718087 0 0.40866327585672191 0.24600766979752939 0 0.40329821407583749 0.23025496453590971 0 0.41777320819135039 0.22984229758728861 0 0.40866327585672191 0.24600766979752939 0 0.45166362976964691 0.25106894999712381 0 0.45384283414141641 0.23962742592169059 0 0.47583181488482379 0.2451422378191761 0 0.45166362976964691 0.25106894999712381 0 0.47583181488482379 0.2451422378191761 0 0.45384283414141641 0.23962742592169059 0 0.47692141707070451 0.23056955077157251 0 0.45166362976964691 0.25106894999712381 0 0.43076425121212841 0.2486853010718087 0 0.45384283414141641 0.23962742592169059 0 0.43602661166377499 0.2362412682293889 0 0.43076425121212841 0.2486853010718087 0 0.45384283414141641 0.23962742592169059 0 0.43076425121212841 0.2486853010718087 0 0.45384283414141641 0.23962742592169059 0 0.43602661166377499 0.2362412682293889 0 0.46338994747082818 0.22647486666124839 0 0.43602661166377499 0.2362412682293889 0 0.44584438813649652 0.2203436080528294 0 0.46338994747082818 0.22647486666124839 0 0.43602661166377499 0.2362412682293889 0 0.45384283414141641 0.23962742592169059 0 0.46338994747082818 0.22647486666124839 0 0.44584438813649652 0.2203436080528294 0 0.46338994747082818 0.22647486666124839 0 0.4574246187180494 0.20998202225832771 0 0.45384283414141641 0.23962742592169059 0 0.46338994747082818 0.22647486666124839 0 0.47692141707070451 0.23056955077157251 0 0.46338994747082818 0.22647486666124839 0 0.4574246187180494 0.20998202225832771 0 0.47311107537994651 0.21060674662752529 0 0.4574246187180494 0.20998202225832771 0 0.46861366351278472 0.19789432193598561 0 0.47311107537994651 0.21060674662752529 0 0.44584438813649652 0.2203436080528294 0 0.4574246187180494 0.20998202225832771 0 0.44184419378540352 0.2076794424592901 0 0.4302098735549707 0.2206458244329694 0 0.44584438813649652 0.2203436080528294 0 0.44184419378540352 0.2076794424592901 0 0.4574246187180494 0.20998202225832771 0 0.44184419378540352 0.2076794424592901 0 0.45120510308892831 0.19507838461398491 0 0.44184419378540352 0.2076794424592901 0 0.43799329450951457 0.1898848624547933 0 0.45120510308892831 0.19507838461398491 0 0.4574246187180494 0.20998202225832771 0 0.45120510308892831 0.19507838461398491 0 0.46861366351278472 0.19789432193598561 0 0.45120510308892831 0.19507838461398491 0 0.46861366351278472 0.19789432193598561 0 0.45014974491888898 0.16995127396152809 0 0.46861366351278472 0.19789432193598561 0 0.48377650321145821 0.20030440734603891 0 0.47890777313388699 0.17818810929941131 0 0.46861366351278472 0.19789432193598561 0 0.48377650321145821 0.20030440734603891 0 0.47311107537994651 0.21060674662752529 0 0.48377650321145821 0.20030440734603891 0 0.5 0.19442179120654851 0 0.47890777313388699 0.17818810929941131 0 0.48377650321145821 0.20030440734603891 0 0.5 0.19442179120654851 0 0.49075328327788142 0.2167084650931079 0 0.5 0.19442179120654851 0 0.49075328327788142 0.2167084650931079 0 0.49999999999999339 0.2215116756214566 0 0.48377650321145821 0.20030440734603891 0 0.49075328327788142 0.2167084650931079 0 0.47311107537994651 0.21060674662752529 0 0.46338994747082818 0.22647486666124839 0 0.49075328327788142 0.2167084650931079 0 0.47311107537994651 0.21060674662752529 0 0.46338994747082818 0.22647486666124839 0 0.49075328327788142 0.2167084650931079 0 0.46338994747082818 0.22647486666124839 0 0.49075328327788142 0.2167084650931079 0 0.47692141707070451 0.23056955077157251 0 0.47692141707070451 0.23056955077157251 0 0.49999999999999339 0.2215116756214566 0 0.50000000000000067 0.2392155256412283 0 0.49075328327788142 0.2167084650931079 0 0.47692141707070451 0.23056955077157251 0 0.49999999999999339 0.2215116756214566 0 0.47692141707070451 0.23056955077157251 0 0.49999999999999339 0.2215116756214566 0 0.50000000000000067 0.2392155256412283 0 0.47583181488482379 0.2451422378191761 0 0.48341195364679568 0.26002408893105827 0 0.50000000000000067 0.2392155256412283 0 0.47583181488482379 0.2451422378191761 0 0.47692141707070451 0.23056955077157251 0 0.50000000000000067 0.2392155256412283 0 0.47583181488482379 0.2451422378191761 0 0.45384283414141641 0.23962742592169059 0 0.47692141707070451 0.23056955077157251 0 0.47583181488482379 0.2451422378191761 0 0.46053260521531592 0.14091734283165991 0 0.45014974491888898 0.16995127396152809 0 0.47759274938693741 0.15337993901402261 0 0.46053260521531592 0.14091734283165991 0 0.47596637305353268 0.1236489788231635 0 0.45094723062946279 0.12208098845927939 0 0.46053260521531592 0.14091734283165991 0 0.44305345270963392 0.14224085277467549 0 0.45094723062946279 0.12208098845927939 0 0.43267139290449452 0.12562392175117529 0 0.44305345270963392 0.14224085277467549 0 0.45094723062946279 0.12208098845927939 0 0.46053260521531592 0.14091734283165991 0 0.44305345270963392 0.14224085277467549 0 0.45014974491888898 0.16995127396152809 0 0.43641214087317609 0.15776157540708571 0 0.44305345270963392 0.14224085277467549 0 0.45014974491888898 0.16995127396152809 0 0.42759287120751482 0.1799189573059411 0 0.43799329450951457 0.1898848624547933 0 0.45014974491888898 0.16995127396152809 0 0.43799329450951457 0.1898848624547933 0 0.45120510308892831 0.19507838461398491 0 0.45014974491888898 0.16995127396152809 0 0.46861366351278472 0.19789432193598561 0 0.45014974491888898 0.16995127396152809 0 0.47890777313388699 0.17818810929941131 0 0.45014974491888898 0.16995127396152809 0 0.47890777313388699 0.17818810929941131 0 0.47759274938693741 0.15337993901402261 0 0.5 0.19442179120654851 0 0.47890777313388699 0.17818810929941131 0 0.5 0.16733190679164031 0 0.47890777313388699 0.17818810929941131 0 0.5 0.16733190679164031 0 0.47759274938693741 0.15337993901402261 0 0.5 0.16733190679164031 0 0.47759274938693741 0.15337993901402261 0 0.5 0.14024202237673219 0 0.46053260521531592 0.14091734283165991 0 0.47759274938693741 0.15337993901402261 0 0.47596637305353268 0.1236489788231635 0 0.5 0.14024202237673219 0 0.5 0.11315213796182411 0 0.47596637305353268 0.1236489788231635 0 0.47759274938693741 0.15337993901402261 0 0.5 0.14024202237673219 0 0.47596637305353268 0.1236489788231635 0 0.5 0.11315213796182411 0 0.48146508414057748 0.097867616362435003 0 0.47596637305353268 0.1236489788231635 0 0.5 0.11315213796182411 0 0.48146508414057748 0.097867616362435003 0 0.5 0.08606225354691599 0 0.48146508414057748 0.097867616362435003 0 0.46684480345772023 0.083704774648097419 0 0.46085076100455152 0.1051260388446932 0 0.48146508414057748 0.097867616362435003 0 0.47596637305353268 0.1236489788231635 0 0.46085076100455152 0.1051260388446932 0 0.5 0.08606225354691599 0 0.48297411160829701 0.071419164250366693 0 0.5 0.058972369132007867 0 0.48146508414057748 0.097867616362435003 0 0.5 0.08606225354691599 0 0.48297411160829701 0.071419164250366693 0 0.48146508414057748 0.097867616362435003 0 0.48297411160829701 0.071419164250366693 0 0.46684480345772023 0.083704774648097419 0 0.48297411160829701 0.071419164250366693 0 0.46368779630991369 0.062884433647911922 0 0.46684480345772023 0.083704774648097419 0 0.46368779630991369 0.062884433647911922 0 0.4455316944648699 0.078385408113317706 0 0.46368779630991369 0.062884433647911922 0 0.46684480345772023 0.083704774648097419 0 0.4455316944648699 0.078385408113317706 0 0.46684480345772023 0.083704774648097419 0 0.4455316944648699 0.078385408113317706 0 0.46085076100455152 0.1051260388446932 0 0.4455316944648699 0.078385408113317706 0 0.46085076100455152 0.1051260388446932 0 0.43655847815144871 0.087567909291679069 0 0.4455316944648699 0.078385408113317706 0 0.43655847815144871 0.087567909291679069 0 0.43300293116684879 0.070359854062556224 0 0.4455316944648699 0.078385408113317706 0 0.43300293116684879 0.070359854062556224 0 0.44432728466234178 0.059795406129610977 0 0.46368779630991369 0.062884433647911922 0 0.4455316944648699 0.078385408113317706 0 0.44432728466234178 0.059795406129610977 0 0.47596637305353268 0.1236489788231635 0 0.46085076100455152 0.1051260388446932 0 0.45094723062946279 0.12208098845927939 0 0.46085076100455152 0.1051260388446932 0 0.43655847815144871 0.087567909291679069 0 0.46085076100455152 0.1051260388446932 0 0.43845481143497073 0.110031162788742 0 0.43302597451412722 0.09911942802672713 0 0.46085076100455152 0.1051260388446932 0 0.43302597451412722 0.09911942802672713 0 0.43655847815144871 0.087567909291679069 0 0.43267139290449452 0.12562392175117529 0 0.45094723062946279 0.12208098845927939 0 0.43845481143497073 0.110031162788742 0 0.46085076100455152 0.1051260388446932 0 0.45094723062946279 0.12208098845927939 0 0.43845481143497073 0.110031162788742 0 0.43267139290449452 0.12562392175117529 0 0.43845481143497073 0.110031162788742 0 0.42512360996164289 0.1101942667169049 0 0.43267139290449452 0.12562392175117529 0 0.42512360996164289 0.1101942667169049 0 0.41840244549433692 0.1204435227777134 0 0.42512360996164289 0.1101942667169049 0 0.41840244549433692 0.1204435227777134 0 0.41145911669595331 0.1096997076075869 0 0.41840244549433692 0.1204435227777134 0 0.41145911669595331 0.1096997076075869 0 0.40630256149234217 0.12337914253670321 0 0.41145911669595331 0.1096997076075869 0 0.41782870111656589 0.098086010242617663 0 0.40188519574572068 0.098349840232826835 0 0.41782870111656589 0.098086010242617663 0 0.41132824907511162 0.087668761689670915 0 0.40188519574572068 0.098349840232826835 0 0.42512360996164289 0.1101942667169049 0 0.41145911669595331 0.1096997076075869 0 0.41782870111656589 0.098086010242617663 0 0.41782870111656589 0.098086010242617663 0 0.43302597451412722 0.09911942802672713 0 0.42198136315300161 0.08812274721924529 0 0.42512360996164289 0.1101942667169049 0 0.41782870111656589 0.098086010242617663 0 0.43302597451412722 0.09911942802672713 0 0.43845481143497073 0.110031162788742 0 0.42512360996164289 0.1101942667169049 0 0.43302597451412722 0.09911942802672713 0 0.43655847815144871 0.087567909291679069 0 0.42198136315300161 0.08812274721924529 0 0.41226619529834591 0.070009779738664735 0 0.43655847815144871 0.087567909291679069 0 0.41226619529834591 0.070009779738664735 0 0.43302597451412722 0.09911942802672713 0 0.43655847815144871 0.087567909291679069 0 0.42198136315300161 0.08812274721924529 0 0.43300293116684879 0.070359854062556224 0 0.41226619529834591 0.070009779738664735 0 0.42739758089851382 0.054541393999090262 0 0.43655847815144871 0.087567909291679069 0 0.43300293116684879 0.070359854062556224 0 0.41226619529834591 0.070009779738664735 0 0.42198136315300161 0.08812274721924529 0 0.41226619529834591 0.070009779738664735 0 0.41132824907511162 0.087668761689670915 0 0.41226619529834591 0.070009779738664735 0 0.41132824907511162 0.087668761689670915 0 0.39992923875424519 0.082621500021195282 0 0.41782870111656589 0.098086010242617663 0 0.42198136315300161 0.08812274721924529 0 0.41132824907511162 0.087668761689670915 0 0.41132824907511162 0.087668761689670915 0 0.39992923875424519 0.082621500021195282 0 0.40188519574572068 0.098349840232826835 0 0.39992923875424519 0.082621500021195282 0 0.38759228221014619 0.095233220303727467 0 0.40188519574572068 0.098349840232826835 0 0.39992923875424519 0.082621500021195282 0 0.38759228221014619 0.095233220303727467 0 0.41226619529834591 0.070009779738664735 0 0.39707386889515511 0.070908779594843374 0 0.39683376059791597 0.058855427163935138 0 0.41226619529834591 0.070009779738664735 0 0.39683376059791597 0.058855427163935138 0 0.41226619529834591 0.070009779738664735 0 0.39992923875424519 0.082621500021195282 0 0.41226619529834591 0.070009779738664735 0 0.39992923875424519 0.082621500021195282 0 0.39707386889515511 0.070908779594843374 0 0.39992923875424519 0.082621500021195282 0 0.39707386889515511 0.070908779594843374 0 0.38583977896057609 0.075316135258006081 0 0.39707386889515511 0.070908779594843374 0 0.38282045226763678 0.060547433734587333 0 0.39683376059791597 0.058855427163935138 0 0.39707386889515511 0.070908779594843374 0 0.38583977896057609 0.075316135258006081 0 0.38282045226763678 0.060547433734587333 0 0.38583977896057609 0.075316135258006081 0 0.37596532967213542 0.069868995675824025 0 0.37682589963749002 0.081332762740894418 0 0.37307104071443398 0.061065176941414383 0 0.37596532967213542 0.069868995675824025 0 0.38282045226763678 0.060547433734587333 0 0.38583977896057609 0.075316135258006081 0 0.37596532967213542 0.069868995675824025 0 0.38282045226763678 0.060547433734587333 0 0.39992923875424519 0.082621500021195282 0 0.38412803848747967 0.086259474622970303 0 0.38759228221014619 0.095233220303727467 0 0.39992923875424519 0.082621500021195282 0 0.38583977896057609 0.075316135258006081 0 0.38412803848747967 0.086259474622970303 0 0.37045299287494049 0.09679375479102828 0 0.38412803848747967 0.086259474622970303 0 0.38759228221014619 0.095233220303727467 0 0.38583977896057609 0.075316135258006081 0 0.38412803848747967 0.086259474622970303 0 0.37682589963749002 0.081332762740894418 0 0.37045299287494049 0.09679375479102828 0 0.38412803848747967 0.086259474622970303 0 0.37682589963749002 0.081332762740894418 0 0.37045299287494049 0.09679375479102828 0 0.38005682511468147 0.12140739343396729 0 0.37045299287494049 0.09679375479102828 0 0.38759228221014619 0.095233220303727467 0 0.38890959528695412 0.1083938038889192 0 0.37045299287494049 0.09679375479102828 0 0.38890959528695412 0.1083938038889192 0 0.38005682511468147 0.12140739343396729 0 0.39398634319161102 0.12556361147638159 0 0.38890959528695412 0.1083938038889192 0 0.38005682511468147 0.12140739343396729 0 0.39398634319161102 0.12556361147638159 0 0.38890959528695412 0.1083938038889192 0 0.39948393258462489 0.11301500309558379 0 0.39398634319161102 0.12556361147638159 0 0.40630256149234217 0.12337914253670321 0 0.39948393258462489 0.11301500309558379 0 0.41145911669595331 0.1096997076075869 0 0.40630256149234217 0.12337914253670321 0 0.39948393258462489 0.11301500309558379 0 0.41145911669595331 0.1096997076075869 0 0.39948393258462489 0.11301500309558379 0 0.40188519574572068 0.098349840232826835 0 0.38759228221014619 0.095233220303727467 0 0.38890959528695412 0.1083938038889192 0 0.40188519574572068 0.098349840232826835 0 0.38890959528695412 0.1083938038889192 0 0.39948393258462489 0.11301500309558379 0 0.40188519574572068 0.098349840232826835 0 0.3912475249538237 0.025882868266216091 0 0.40325323122183843 0.024352223252143548 0 0.39536881189699241 0.01378873843063998 0 0.3912475249538237 0.025882868266216091 0 0.40325323122183843 0.024352223252143548 0 0.39805180056669343 0.032772735105760037 0 0.40325323122183843 0.024352223252143548 0 0.39805180056669343 0.032772735105760037 0 0.40655765028286611 0.035582104639029083 0 0.40325323122183843 0.024352223252143548 0 0.39536881189699241 0.01378873843063998 0 0.40720094273855439 0.01372602960598159 0 0.40060323373222451 0.0042547197705496897 0 0.39536881189699241 0.01378873843063998 0 0.40720094273855439 0.01372602960598159 0 0.40060323373222451 0.0042547197705496897 0 0.41081432206005303 0.0037114498956348132 0 0.4046584776842293 -0.0050702490882302163 0 0.40060323373222451 0.0042547197705496897 0 0.41081432206005303 0.0037114498956348132 0 0.40720094273855439 0.01372602960598159 0 0.40060323373222451 0.0042547197705496897 0 0.39025836247721268 0.0036292771787240202 0 0.39531848553630572 -0.0042569273994520467 0 0.40060323373222451 0.0042547197705496897 0 0.39536881189699241 0.01378873843063998 0 0.39025836247721268 0.0036292771787240202 0 0.37844401144479839 0.012609093579625891 0 0.38356146703633898 -0.0078565650350033434 0 0.37844401144479839 0.012609093579625891 0 0.39025836247721268 0.0036292771787240202 0 0.38356146703633898 -0.0078565650350033434 0 0.39536881189699241 0.01378873843063998 0 0.37844401144479839 0.012609093579625891 0 0.39025836247721268 0.0036292771787240202 0 0.3912475249538237 0.025882868266216091 0 0.37844401144479839 0.012609093579625891 0 0.38063223185621792 0.036578263657106522 0 0.37844401144479839 0.012609093579625891 0 0.38063223185621792 0.036578263657106522 0 0.37146335928247548 0.04052602251159599 0 0.37844401144479839 0.012609093579625891 0 0.38063223185621792 0.036578263657106522 0 0.3912475249538237 0.025882868266216091 0 0.39536881189699241 0.01378873843063998 0 0.37844401144479839 0.012609093579625891 0 0.37146335928247548 0.04052602251159599 0 0.38063223185621792 0.036578263657106522 0 0.38282045226763678 0.060547433734587333 0 0.3912475249538237 0.025882868266216091 0 0.38063223185621792 0.036578263657106522 0 0.3908528121234538 0.035995570554822158 0 0.38063223185621792 0.036578263657106522 0 0.38791705742610771 0.044539104287684539 0 0.3908528121234538 0.035995570554822158 0 0.38791705742610771 0.044539104287684539 0 0.38282045226763678 0.060547433734587333 0 0.39079668350586277 0.051215399393808793 0 0.37307104071443398 0.061065176941414383 0 0.37146335928247548 0.04052602251159599 0 0.38282045226763678 0.060547433734587333 0 0.38063223185621792 0.036578263657106522 0 0.38791705742610771 0.044539104287684539 0 0.38282045226763678 0.060547433734587333 0 0.38063223185621792 0.036578263657106522 0 0.38282045226763678 0.060547433734587333 0 0.38282045226763678 0.060547433734587333 0 0.39683376059791597 0.058855427163935138 0 0.39079668350586277 0.051215399393808793 0 0.41226619529834591 0.070009779738664735 0 0.39683376059791597 0.058855427163935138 0 0.40948896714378957 0.05055434744181983 0 0.39683376059791597 0.058855427163935138 0 0.39079668350586277 0.051215399393808793 0 0.39674782008621368 0.04348041067995833 0 0.39683376059791597 0.058855427163935138 0 0.39674782008621368 0.04348041067995833 0 0.40948896714378957 0.05055434744181983 0 0.3908528121234538 0.035995570554822158 0 0.39805180056669343 0.032772735105760037 0 0.39674782008621368 0.04348041067995833 0 0.3912475249538237 0.025882868266216091 0 0.3908528121234538 0.035995570554822158 0 0.39805180056669343 0.032772735105760037 0 0.38791705742610771 0.044539104287684539 0 0.3908528121234538 0.035995570554822158 0 0.39674782008621368 0.04348041067995833 0 0.38791705742610771 0.044539104287684539 0 0.39079668350586277 0.051215399393808793 0 0.39674782008621368 0.04348041067995833 0 0.39674782008621368 0.04348041067995833 0 0.40655765028286611 0.035582104639029083 0 0.40948896714378957 0.05055434744181983 0 0.39805180056669343 0.032772735105760037 0 0.39674782008621368 0.04348041067995833 0 0.40655765028286611 0.035582104639029083 0 0.40655765028286611 0.035582104639029083 0 0.41713079569888262 0.040856968430241461 0 0.41557099838193923 0.024039796491718179 0 0.41713079569888262 0.040856968430241461 0 0.42755741698364552 0.032815777208855347 0 0.41557099838193923 0.024039796491718179 0 0.40655765028286611 0.035582104639029083 0 0.41713079569888262 0.040856968430241461 0 0.40948896714378957 0.05055434744181983 0 0.41226619529834591 0.070009779738664735 0 0.40948896714378957 0.05055434744181983 0 0.42739758089851382 0.054541393999090262 0 0.41713079569888262 0.040856968430241461 0 0.40948896714378957 0.05055434744181983 0 0.42739758089851382 0.054541393999090262 0 0.41226619529834591 0.070009779738664735 0 0.42739758089851382 0.054541393999090262 0 0.43300293116684879 0.070359854062556224 0 0.42739758089851382 0.054541393999090262 0 0.44432728466234178 0.059795406129610977 0 0.41713079569888262 0.040856968430241461 0 0.42739758089851382 0.054541393999090262 0 0.42755741698364552 0.032815777208855347 0 0.42739758089851382 0.054541393999090262 0 0.42755741698364552 0.032815777208855347 0 0.44252896649868317 0.039073008259517338 0 0.42739758089851382 0.054541393999090262 0 0.44252896649868317 0.039073008259517338 0 0.42755741698364552 0.032815777208855347 0 0.4358194844604939 0.024219735287320941 0 0.44252896649868317 0.039073008259517338 0 0.42755741698364552 0.032815777208855347 0 0.41557099838193923 0.024039796491718179 0 0.4265644217351573 0.014684511896395219 0 0.4358194844604939 0.024219735287320941 0 0.4265644217351573 0.014684511896395219 0 0.44548351627008242 0.01642882659412407 0 0.42755741698364552 0.032815777208855347 0 0.4358194844604939 0.024219735287320941 0 0.4265644217351573 0.014684511896395219 0 0.41557099838193923 0.024039796491718179 0 0.4165272652869268 0.01155925859927168 0 0.4265644217351573 0.014684511896395219 0 0.41557099838193923 0.024039796491718179 0 0.40720094273855439 0.01372602960598159 0 0.4165272652869268 0.01155925859927168 0 0.40325323122183843 0.024352223252143548 0 0.41557099838193923 0.024039796491718179 0 0.40720094273855439 0.01372602960598159 0 0.40325323122183843 0.024352223252143548 0 0.40655765028286611 0.035582104639029083 0 0.41557099838193923 0.024039796491718179 0 0.41081432206005303 0.0037114498956348132 0 0.40720094273855439 0.01372602960598159 0 0.4165272652869268 0.01155925859927168 0 0.4165272652869268 0.01155925859927168 0 0.42248564151892998 0.0016345051066286029 0 0.4265644217351573 0.014684511896395219 0 0.41081432206005303 0.0037114498956348132 0 0.4165272652869268 0.01155925859927168 0 0.42248564151892998 0.0016345051066286029 0 0.42248564151892998 0.0016345051066286029 0 0.4265644217351573 0.014684511896395219 0 0.4382820622288856 -0.0014159552958160841 0 0.4265644217351573 0.014684511896395219 0 0.44548351627008242 0.01642882659412407 0 0.4382820622288856 -0.0014159552958160841 0 0.45100246047295739 0.0046664116742636159 0 0.44548351627008242 0.01642882659412407 0 0.4382820622288856 -0.0014159552958160841 0 0.45100246047295739 0.0046664116742636159 0 0.44548351627008242 0.01642882659412407 0 0.4580470330794123 0.0188547641718908 0 0.4358194844604939 0.024219735287320941 0 0.4514029071021442 0.02821869916314456 0 0.44548351627008242 0.01642882659412407 0 0.4358194844604939 0.024219735287320941 0 0.4514029071021442 0.02821869916314456 0 0.44252896649868317 0.039073008259517338 0 0.4514029071021442 0.02821869916314456 0 0.44548351627008242 0.01642882659412407 0 0.4580470330794123 0.0188547641718908 0 0.4514029071021442 0.02821869916314456 0 0.4580470330794123 0.0188547641718908 0 0.46553563141862692 0.027383902935855992 0 0.4580470330794123 0.0188547641718908 0 0.46553563141862692 0.027383902935855992 0 0.471035018561343 0.01684384088441979 0 0.4580470330794123 0.0188547641718908 0 0.4620271672997433 0.0081957990277541914 0 0.471035018561343 0.01684384088441979 0 0.4620271672997433 0.0081957990277541914 0 0.47207727543944228 0.0077163925679632076 0 0.45540766643685782 -0.0078732224449345398 0 0.4620271672997433 0.0081957990277541914 0 0.47207727543944228 0.0077163925679632076 0 0.471035018561343 0.01684384088441979 0 0.45100246047295739 0.0046664116742636159 0 0.4620271672997433 0.0081957990277541914 0 0.45540766643685782 -0.0078732224449345398 0 0.45100246047295739 0.0046664116742636159 0 0.4580470330794123 0.0188547641718908 0 0.4620271672997433 0.0081957990277541914 0 0.42739758089851382 0.054541393999090262 0 0.44432728466234178 0.059795406129610977 0 0.44252896649868317 0.039073008259517338 0 0.44432728466234178 0.059795406129610977 0 0.44252896649868317 0.039073008259517338 0 0.46100281088556699 0.043351957730158222 0 0.4514029071021442 0.02821869916314456 0 0.44252896649868317 0.039073008259517338 0 0.46100281088556699 0.043351957730158222 0 0.4514029071021442 0.02821869916314456 0 0.46553563141862692 0.027383902935855992 0 0.46100281088556699 0.043351957730158222 0 0.46553563141862692 0.027383902935855992 0 0.46100281088556699 0.043351957730158222 0 0.4764725540003833 0.035303178421407518 0 0.46368779630991369 0.062884433647911922 0 0.44432728466234178 0.059795406129610977 0 0.46100281088556699 0.043351957730158222 0 0.48297411160829701 0.071419164250366693 0 0.46368779630991369 0.062884433647911922 0 0.48184389815495748 0.047383459182506117 0 0.46368779630991369 0.062884433647911922 0 0.46100281088556699 0.043351957730158222 0 0.48184389815495748 0.047383459182506117 0 0.46368779630991369 0.062884433647911922 0 0.48184389815495748 0.047383459182506117 0 0.46100281088556699 0.043351957730158222 0 0.48184389815495748 0.047383459182506117 0 0.4764725540003833 0.035303178421407518 0 0.48184389815495748 0.047383459182506117 0 0.50000000000000089 0.031882484717099757 0 0.48184389815495748 0.047383459182506117 0 0.50000000000000089 0.031882484717099757 0 0.5 0.058972369132007867 0 0.48184389815495748 0.047383459182506117 0 0.4764725540003833 0.035303178421407518 0 0.50000000000000089 0.031882484717099757 0 0.48297411160829701 0.071419164250366693 0 0.48184389815495748 0.047383459182506117 0 0.5 0.058972369132007867 0 0.48173822001607031 0.002441982684480838 0 0.47207727543944228 0.0077163925679632076 0 0.45540766643685782 -0.0078732224449345398 0 0.48073089036299149 0.01447516008145705 0 0.48088876464914698 0.0066420825236524483 0 0.47207727543944228 0.0077163925679632076 0 0.48088876464914698 0.0066420825236524483 0 0.48173822001607031 0.002441982684480838 0 0.48944624590280772 0.014576472087587141 0 0.48073089036299149 0.01447516008145705 0 0.48088876464914698 0.0066420825236524483 0 0.48944624590280772 0.014576472087587141 0 0.48088876464914698 0.0066420825236524483 0 0.48173822001607031 0.002441982684480838 0 0.47207727543944228 0.0077163925679632076 0 0.48088876464914698 0.0066420825236524483 0 0.48173822001607031 0.002441982684480838 0 0.48073089036299149 0.01447516008145705 0 0.47207727543944228 0.0077163925679632076 0 0.471035018561343 0.01684384088441979 0 0.46553563141862692 0.027383902935855992 0 0.471035018561343 0.01684384088441979 0 0.48098968552297122 0.023479159592672289 0 0.46553563141862692 0.027383902935855992 0 0.4764725540003833 0.035303178421407518 0 0.48098968552297122 0.023479159592672289 0 0.48073089036299149 0.01447516008145705 0 0.471035018561343 0.01684384088441979 0 0.48098968552297122 0.023479159592672289 0 0.48073089036299149 0.01447516008145705 0 0.48098968552297122 0.023479159592672289 0 0.48944624590280772 0.014576472087587141 0 0.50000000000000089 0.031882484717099757 0 0.50000000000000044 0.0095961811708810997 0 0.48944624590280772 0.014576472087587141 0 0.4764725540003833 0.035303178421407518 0 0.50000000000000089 0.031882484717099757 0 0.48098968552297122 0.023479159592672289 0 0.50000000000000089 0.031882484717099757 0 0.48098968552297122 0.023479159592672289 0 0.48944624590280772 0.014576472087587141 0 0.48173822001607031 0.002441982684480838 0 0.50000000000000044 0.0095961811708810997 0 0.48944624590280772 0.014576472087587141 0 0.48173822001607031 0.002441982684480838 0 0.50000000000000044 0.0095961811708810997 0 0.48173822001607031 0.002441982684480838 0 0.50000000000000044 0.0095961811708810997 0 0.5 -0.01553848795347695 0 0.48173822001607031 0.002441982684480838 0 0.5 -0.01553848795347695 0 0.48723509010938909 -0.024737082977995831 0 0.48173822001607031 0.002441982684480838 0 0.48723509010938909 -0.024737082977995831 0 0.48173822001607031 0.002441982684480838 0 0.46944239540012012 -0.021901386132034111 0 0.45540766643685782 -0.0078732224449345398 0 0.48173822001607031 0.002441982684480838 0 0.46944239540012012 -0.021901386132034111 0 0.48723509010938909 -0.024737082977995831 0 0.46944239540012012 -0.021901386132034111 0 0.48723509010938909 -0.024737082977995831 0 0.47311684284700922 -0.039980301183512167 0 0.5 -0.01553848795347695 0 0.48723509010938909 -0.024737082977995831 0 0.5 -0.040673157077835087 0 0.48723509010938909 -0.024737082977995831 0 0.49273196020270971 -0.051916148640471983 0 0.48034048547664182 -0.050194577481915269 0 0.48723509010938909 -0.024737082977995831 0 0.49273196020270971 -0.051916148640471983 0 0.48723509010938909 -0.024737082977995831 0 0.5 -0.040673157077835087 0 0.49273196020270971 -0.051916148640471983 0 0.5 -0.040673157077835087 0 0.49273196020270971 -0.051916148640471983 0 0.5 -0.065807826202193331 0 0.49273196020270971 -0.051916148640471983 0 0.48384360039889979 -0.062204599920787272 0 0.48034048547664182 -0.050194577481915269 0 0.48034048547664182 -0.050194577481915269 0 0.47035120232490191 -0.060528185902064997 0 0.47311684284700922 -0.039980301183512167 0 0.47035120232490191 -0.060528185902064997 0 0.47311684284700922 -0.039980301183512167 0 0.48384360039889979 -0.062204599920787272 0 0.48034048547664182 -0.050194577481915269 0 0.47035120232490191 -0.060528185902064997 0 0.48723509010938909 -0.024737082977995831 0 0.48034048547664182 -0.050194577481915269 0 0.47311684284700922 -0.039980301183512167 0 0.46944239540012012 -0.021901386132034111 0 0.47311684284700922 -0.039980301183512167 0 0.44971415759127392 -0.039358306738208573 0 0.47035120232490191 -0.060528185902064997 0 0.47311684284700922 -0.039980301183512167 0 0.44971415759127392 -0.039358306738208573 0 0.47035120232490191 -0.060528185902064997 0 0.44971415759127392 -0.039358306738208573 0 0.47035120232490191 -0.060528185902064997 0 0.43963483674523918 -0.055334607978488382 0 0.44971415759127392 -0.039358306738208573 0 0.43963483674523918 -0.055334607978488382 0 0.44971415759127392 -0.039358306738208573 0 0.42419530264354072 -0.042652000491910397 0 0.46944239540012012 -0.021901386132034111 0 0.44971415759127392 -0.039358306738208573 0 0.45540766643685782 -0.0078732224449345398 0 0.44971415759127392 -0.039358306738208573 0 0.42907711285764621 -0.01818842757435184 0 0.44971415759127392 -0.039358306738208573 0 0.45540766643685782 -0.0078732224449345398 0 0.42907711285764621 -0.01818842757435184 0 0.45540766643685782 -0.0078732224449345398 0 0.42907711285764621 -0.01818842757435184 0 0.45100246047295739 0.0046664116742636159 0 0.4382820622288856 -0.0014159552958160841 0 0.45540766643685782 -0.0078732224449345398 0 0.4382820622288856 -0.0014159552958160841 0 0.45540766643685782 -0.0078732224449345398 0 0.42907711285764621 -0.01818842757435184 0 0.48173822001607031 0.002441982684480838 0 0.45540766643685782 -0.0078732224449345398 0 0.47129126618897188 -0.1223351355815797 0 0.47148248434309947 -0.114916285604633 0 0.48087269318342413 -0.1216818802472065 0 0.47148248434309947 -0.114916285604633 0 0.48087269318342413 -0.1216818802472065 0 0.47838814501791832 -0.1066654575105275 0 0.48087269318342413 -0.1216818802472065 0 0.48924328608656842 -0.1141618265083332 0 0.47838814501791832 -0.1066654575105275 0 0.5 -0.1122204549214597 0 0.48924328608656842 -0.1141618265083332 0 0.5 -0.13349841451636779 0 0.48087269318342413 -0.1216818802472065 0 0.48924328608656842 -0.1141618265083332 0 0.5 -0.13349841451636779 0 0.5 -0.1122204549214597 0 0.48924328608656842 -0.1141618265083332 0 0.48827073793524339 -0.097774102912636218 0 0.48924328608656842 -0.1141618265083332 0 0.48827073793524339 -0.097774102912636218 0 0.47838814501791832 -0.1066654575105275 0 0.5 -0.1122204549214597 0 0.48827073793524339 -0.097774102912636218 0 0.50000000000000266 -0.090942495326551576 0 0.47652975213937199 -0.091635549067057065 0 0.46683976751390588 -0.086617099886465918 0 0.46456669494636288 -0.10350535152343909 0 0.48827073793524339 -0.097774102912636218 0 0.47838814501791832 -0.1066654575105275 0 0.47652975213937199 -0.091635549067057065 0 0.47148248434309947 -0.114916285604633 0 0.47838814501791832 -0.1066654575105275 0 0.46456669494636288 -0.10350535152343909 0 0.47838814501791832 -0.1066654575105275 0 0.47652975213937199 -0.091635549067057065 0 0.46456669494636288 -0.10350535152343909 0 0.48827073793524339 -0.097774102912636218 0 0.47652975213937199 -0.091635549067057065 0 0.48517560116245317 -0.075735340614307423 0 0.47652975213937199 -0.091635549067057065 0 0.48517560116245317 -0.075735340614307423 0 0.46683976751390588 -0.086617099886465918 0 0.47652975213937199 -0.091635549067057065 0 0.46683976751390588 -0.086617099886465918 0 0.50000000000000266 -0.090942495326551576 0 0.49822883029603021 -0.079095214302948247 0 0.5 -0.065807826202193331 0 0.48827073793524339 -0.097774102912636218 0 0.50000000000000266 -0.090942495326551576 0 0.48517560116245317 -0.075735340614307423 0 0.50000000000000266 -0.090942495326551576 0 0.48517560116245317 -0.075735340614307423 0 0.50000000000000266 -0.090942495326551576 0 0.49822883029603021 -0.079095214302948247 0 0.48517560116245317 -0.075735340614307423 0 0.49273196020270971 -0.051916148640471983 0 0.49822883029603021 -0.079095214302948247 0 0.48384360039889979 -0.062204599920787272 0 0.49822883029603021 -0.079095214302948247 0 0.48517560116245317 -0.075735340614307423 0 0.49273196020270971 -0.051916148640471983 0 0.48384360039889979 -0.062204599920787272 0 0.49822883029603021 -0.079095214302948247 0 0.49273196020270971 -0.051916148640471983 0 0.49822883029603021 -0.079095214302948247 0 0.5 -0.065807826202193331 0 0.47035120232490191 -0.060528185902064997 0 0.48517560116245317 -0.075735340614307423 0 0.47035120232490191 -0.060528185902064997 0 0.48517560116245317 -0.075735340614307423 0 0.46683976751390588 -0.086617099886465918 0 0.48384360039889979 -0.062204599920787272 0 0.47035120232490191 -0.060528185902064997 0 0.48517560116245317 -0.075735340614307423 0 0.47035120232490191 -0.060528185902064997 0 0.46683976751390588 -0.086617099886465918 0 0.47035120232490191 -0.060528185902064997 0 0.44249197108241189 -0.074007360679063244 0 0.46683976751390588 -0.086617099886465918 0 0.47035120232490191 -0.060528185902064997 0 0.43963483674523918 -0.055334607978488382 0 0.44249197108241189 -0.074007360679063244 0 0.44249197108241189 -0.074007360679063244 0 0.46683976751390588 -0.086617099886465918 0 0.4490662803509099 -0.094083529251462475 0 0.44249197108241189 -0.074007360679063244 0 0.4490662803509099 -0.094083529251462475 0 0.42834270349958448 -0.099226311759436261 0 0.44249197108241189 -0.074007360679063244 0 0.46683976751390588 -0.086617099886465918 0 0.46683976751390588 -0.086617099886465918 0 0.46456669494636288 -0.10350535152343909 0 0.4490662803509099 -0.094083529251462475 0 0.46683976751390588 -0.086617099886465918 0 0.46456669494636288 -0.10350535152343909 0 0.46456669494636288 -0.10350535152343909 0 0.4490662803509099 -0.094083529251462475 0 0.44386094964032902 -0.11054798122052439 0 0.4490662803509099 -0.094083529251462475 0 0.44386094964032902 -0.11054798122052439 0 0.42834270349958448 -0.099226311759436261 0 0.44386094964032902 -0.11054798122052439 0 0.46257396642688631 -0.12529077885077469 0 0.45239247298790419 -0.125419693033265 0 0.44386094964032902 -0.11054798122052439 0 0.42916935431308728 -0.1205456085246996 0 0.4435038969132965 -0.12540022695152131 0 0.44386094964032902 -0.11054798122052439 0 0.45239247298790419 -0.125419693033265 0 0.4435038969132965 -0.12540022695152131 0 0.44386094964032902 -0.11054798122052439 0 0.46229362237882032 -0.1203936031604123 0 0.46257396642688631 -0.12529077885077469 0 0.46456669494636288 -0.10350535152343909 0 0.46229362237882032 -0.1203936031604123 0 0.46456669494636288 -0.10350535152343909 0 0.44386094964032902 -0.11054798122052439 0 0.46229362237882032 -0.1203936031604123 0 0.44386094964032902 -0.11054798122052439 0 0.46257396642688631 -0.12529077885077469 0 0.47148248434309947 -0.114916285604633 0 0.46456669494636288 -0.10350535152343909 0 0.46229362237882032 -0.1203936031604123 0 0.47129126618897188 -0.1223351355815797 0 0.46229362237882032 -0.1203936031604123 0 0.46257396642688631 -0.12529077885077469 0 0.47129126618897188 -0.1223351355815797 0 0.47148248434309947 -0.114916285604633 0 0.46229362237882032 -0.1203936031604123 0 0.44386094964032902 -0.11054798122052439 0 0.42916935431308728 -0.1205456085246996 0 0.42834270349958448 -0.099226311759436261 0 0.41143930547928681 -0.11934523636421419 0 0.42916935431308728 -0.1205456085246996 0 0.42834270349958448 -0.099226311759436261 0 0.41143930547928681 -0.11934523636421419 0 0.40555832972599831 -0.095826118330896617 0 0.41143930547928681 -0.11934523636421419 0 0.42834270349958448 -0.099226311759436261 0 0.40555832972599831 -0.095826118330896617 0 0.42834270349958448 -0.099226311759436261 0 0.41884290658632428 -0.080552882507727325 0 0.40555832972599831 -0.095826118330896617 0 0.41884290658632428 -0.080552882507727325 0 0.39967735397270959 -0.072307000297579083 0 0.40555832972599831 -0.095826118330896617 0 0.44249197108241189 -0.074007360679063244 0 0.42834270349958448 -0.099226311759436261 0 0.41884290658632428 -0.080552882507727325 0 0.44249197108241189 -0.074007360679063244 0 0.41814417465091752 -0.061397621471661459 0 0.43963483674523918 -0.055334607978488382 0 0.44249197108241189 -0.074007360679063244 0 0.41814417465091752 -0.061397621471661459 0 0.44249197108241189 -0.074007360679063244 0 0.41884290658632428 -0.080552882507727325 0 0.41814417465091752 -0.061397621471661459 0 0.41884290658632428 -0.080552882507727325 0 0.39967735397270959 -0.072307000297579083 0 0.41814417465091752 -0.061397621471661459 0 0.39967735397270959 -0.072307000297579083 0 0.38669795957132042 -0.057310603286660967 0 0.37240766699872252 -0.068318548019290964 0 0.39967735397270959 -0.072307000297579083 0 0.37781097748786241 -0.089314889372882261 0 0.37240766699872252 -0.068318548019290964 0 0.39967735397270959 -0.072307000297579083 0 0.37781097748786241 -0.089314889372882261 0 0.40555832972599831 -0.095826118330896617 0 0.39967735397270959 -0.072307000297579083 0 0.40555832972599831 -0.095826118330896617 0 0.40555832972599831 -0.095826118330896617 0 0.38953803654933628 -0.10754997095337659 0 0.39823574772599779 -0.11763079726210079 0 0.37781097748786241 -0.089314889372882261 0 0.40555832972599831 -0.095826118330896617 0 0.38953803654933628 -0.10754997095337659 0 0.37781097748786241 -0.089314889372882261 0 0.38953803654933628 -0.10754997095337659 0 0.37644505785585192 -0.1058120404938334 0 0.38953803654933628 -0.10754997095337659 0 0.37644505785585192 -0.1058120404938334 0 0.37720890243704291 -0.12310924361699779 0 0.38953803654933628 -0.10754997095337659 0 0.37720890243704291 -0.12310924361699779 0 0.38918813321375051 -0.12739880168557821 0 0.38953803654933628 -0.10754997095337659 0 0.39823574772599779 -0.11763079726210079 0 0.38918813321375051 -0.12739880168557821 0 0.41143930547928681 -0.11934523636421419 0 0.39823574772599779 -0.11763079726210079 0 0.40257569972698831 -0.13396225485532559 0 0.41143930547928681 -0.11934523636421419 0 0.40555832972599831 -0.095826118330896617 0 0.39823574772599779 -0.11763079726210079 0 0.42011428296152808 -0.02169968792975261 0 0.41401194260749391 -0.028450411104576211 0 0.41343304557213612 -0.018371446868227208 0 0.42011428296152808 -0.02169968792975261 0 0.41343304557213612 -0.018371446868227208 0 0.41928481904255338 -0.01548900553927589 0 0.42011428296152808 -0.02169968792975261 0 0.41928481904255338 -0.01548900553927589 0 0.42542521438275183 -0.0144422395697206 0 0.42011428296152808 -0.02169968792975261 0 0.41401194260749391 -0.028450411104576211 0 0.42742255973229643 -0.030069766767760062 0 0.41401194260749391 -0.028450411104576211 0 0.40522076275047969 -0.019933987949522329 0 0.40044964155059998 -0.029094842751199331 0 0.41401194260749391 -0.028450411104576211 0 0.41343304557213612 -0.018371446868227208 0 0.40522076275047969 -0.019933987949522329 0 0.41343304557213612 -0.018371446868227208 0 0.40806592415966281 -0.01253819616599721 0 0.40522076275047969 -0.019933987949522329 0 0.40806592415966281 -0.01253819616599721 0 0.4135204533098043 -0.0054466611181140526 0 0.41498054603746559 -0.011947546426581419 0 0.41343304557213612 -0.018371446868227208 0 0.40806592415966281 -0.01253819616599721 0 0.41498054603746559 -0.011947546426581419 0 0.41081432206005303 0.0037114498956348132 0 0.4135204533098043 -0.0054466611181140526 0 0.4046584776842293 -0.0050702490882302163 0 0.40806592415966281 -0.01253819616599721 0 0.4135204533098043 -0.0054466611181140526 0 0.4046584776842293 -0.0050702490882302163 0 0.41081432206005303 0.0037114498956348132 0 0.42248564151892998 0.0016345051066286029 0 0.4135204533098043 -0.0054466611181140526 0 0.42248564151892998 0.0016345051066286029 0 0.4135204533098043 -0.0054466611181140526 0 0.42119781252485211 -0.0083000839364812864 0 0.41343304557213612 -0.018371446868227208 0 0.41498054603746559 -0.011947546426581419 0 0.41928481904255338 -0.01548900553927589 0 0.4135204533098043 -0.0054466611181140526 0 0.41498054603746559 -0.011947546426581419 0 0.42119781252485211 -0.0083000839364812864 0 0.41498054603746559 -0.011947546426581419 0 0.42119781252485211 -0.0083000839364812864 0 0.41928481904255338 -0.01548900553927589 0 0.42542521438275183 -0.0144422395697206 0 0.42820760236351979 -0.0076976995852137747 0 0.42907711285764621 -0.01818842757435184 0 0.4382820622288856 -0.0014159552958160841 0 0.42820760236351979 -0.0076976995852137747 0 0.42907711285764621 -0.01818842757435184 0 0.42119781252485211 -0.0083000839364812864 0 0.41928481904255338 -0.01548900553927589 0 0.42542521438275183 -0.0144422395697206 0 0.42248564151892998 0.0016345051066286029 0 0.4382820622288856 -0.0014159552958160841 0 0.42820760236351979 -0.0076976995852137747 0 0.42119781252485211 -0.0083000839364812864 0 0.42542521438275183 -0.0144422395697206 0 0.42820760236351979 -0.0076976995852137747 0 0.42248564151892998 0.0016345051066286029 0 0.42119781252485211 -0.0083000839364812864 0 0.42820760236351979 -0.0076976995852137747 0 0.44971415759127392 -0.039358306738208573 0 0.42907711285764621 -0.01818842757435184 0 0.42742255973229643 -0.030069766767760062 0 0.42011428296152808 -0.02169968792975261 0 0.42907711285764621 -0.01818842757435184 0 0.42742255973229643 -0.030069766767760062 0 0.42011428296152808 -0.02169968792975261 0 0.42542521438275183 -0.0144422395697206 0 0.42907711285764621 -0.01818842757435184 0 0.42011428296152808 -0.02169968792975261 0 0.42907711285764621 -0.01818842757435184 0 0.42542521438275183 -0.0144422395697206 0 0.42907711285764621 -0.01818842757435184 0 0.44971415759127392 -0.039358306738208573 0 0.42742255973229643 -0.030069766767760062 0 0.42419530264354072 -0.042652000491910397 0 0.41401194260749391 -0.028450411104576211 0 0.42742255973229643 -0.030069766767760062 0 0.42419530264354072 -0.042652000491910397 0 0.43963483674523918 -0.055334607978488382 0 0.42419530264354072 -0.042652000491910397 0 0.41814417465091752 -0.061397621471661459 0 0.41814417465091752 -0.061397621471661459 0 0.41107184061272262 -0.047596707948501772 0 0.39379637821942232 -0.04878788226426127 0 0.42419530264354072 -0.042652000491910397 0 0.41814417465091752 -0.061397621471661459 0 0.41107184061272262 -0.047596707948501772 0 0.41401194260749391 -0.028450411104576211 0 0.42419530264354072 -0.042652000491910397 0 0.40815150693701141 -0.037549327566173699 0 0.42419530264354072 -0.042652000491910397 0 0.41107184061272262 -0.047596707948501772 0 0.40815150693701141 -0.037549327566173699 0 0.41401194260749391 -0.028450411104576211 0 0.40815150693701141 -0.037549327566173699 0 0.40044964155059998 -0.029094842751199331 0 0.41107184061272262 -0.047596707948501772 0 0.40815150693701141 -0.037549327566173699 0 0.39379637821942232 -0.04878788226426127 0 0.40815150693701141 -0.037549327566173699 0 0.39379637821942232 -0.04878788226426127 0 0.40044964155059998 -0.029094842751199331 0 0.39379637821942232 -0.04878788226426127 0 0.38867892262788012 -0.028322223649632432 0 0.39379637821942232 -0.04878788226426127 0 0.38867892262788012 -0.028322223649632432 0 0.40044964155059998 -0.029094842751199331 0 0.39967735397270959 -0.072307000297579083 0 0.39379637821942232 -0.04878788226426127 0 0.38669795957132042 -0.057310603286660967 0 0.41814417465091752 -0.061397621471661459 0 0.39379637821942232 -0.04878788226426127 0 0.39967735397270959 -0.072307000297579083 0 0.39379637821942232 -0.04878788226426127 0 0.39967735397270959 -0.072307000297579083 0 0.41814417465091752 -0.061397621471661459 0 0.39379637821942232 -0.04878788226426127 0 0.39379637821942232 -0.04878788226426127 0 0.38896036142985008 -0.046283306103098283 0 0.38669795957132042 -0.057310603286660967 0 0.37839056082150663 -0.050608978831784571 0 0.37240766699872252 -0.068318548019290964 0 0.38669795957132042 -0.057310603286660967 0 0.37839056082150663 -0.050608978831784571 0 0.38896036142985008 -0.046283306103098283 0 0.39379637821942232 -0.04878788226426127 0 0.38669795957132042 -0.057310603286660967 0 0.38896036142985008 -0.046283306103098283 0 0.39379637821942232 -0.04878788226426127 0 0.38896036142985008 -0.046283306103098283 0 0.38867892262788012 -0.028322223649632432 0 0.3834615598562825 -0.037386722635115492 0 0.38896036142985008 -0.046283306103098283 0 0.38867892262788012 -0.028322223649632432 0 0.37839056082150663 -0.050608978831784571 0 0.3834615598562825 -0.037386722635115492 0 0.38896036142985008 -0.046283306103098283 0 0.37839056082150663 -0.050608978831784571 0 0.3834615598562825 -0.037386722635115492 0 0.37356965880113402 -0.040783236975350308 0 0.38867892262788012 -0.028322223649632432 0 0.38356146703633898 -0.0078565650350033434 0 0.3834615598562825 -0.037386722635115492 0 0.37600683512296651 -0.014087071697862221 0 0.37356965880113402 -0.040783236975350308 0 0.3834615598562825 -0.037386722635115492 0 0.38867892262788012 -0.028322223649632432 0 0.37600683512296651 -0.014087071697862221 0 0.38867892262788012 -0.028322223649632432 0 0.37600683512296651 -0.014087071697862221 0 0.38356146703633898 -0.0078565650350033434 0 0.38867892262788012 -0.028322223649632432 0 0.39658225960386179 -0.014459285545308009 0 0.38356146703633898 -0.0078565650350033434 0 0.38867892262788012 -0.028322223649632432 0 0.40044964155059998 -0.029094842751199331 0 0.39658225960386179 -0.014459285545308009 0 0.40522076275047969 -0.019933987949522329 0 0.40044964155059998 -0.029094842751199331 0 0.39658225960386179 -0.014459285545308009 0 0.40806592415966281 -0.01253819616599721 0 0.40522076275047969 -0.019933987949522329 0 0.39658225960386179 -0.014459285545308009 0 0.40060323373222451 0.0042547197705496897 0 0.4046584776842293 -0.0050702490882302163 0 0.39531848553630572 -0.0042569273994520467 0 0.40806592415966281 -0.01253819616599721 0 0.4046584776842293 -0.0050702490882302163 0 0.39658225960386179 -0.014459285545308009 0 0.4046584776842293 -0.0050702490882302163 0 0.39658225960386179 -0.014459285545308009 0 0.39531848553630572 -0.0042569273994520467 0 0.39658225960386179 -0.014459285545308009 0 0.39531848553630572 -0.0042569273994520467 0 0.38356146703633898 -0.0078565650350033434 0 0.39025836247721268 0.0036292771787240202 0 0.39531848553630572 -0.0042569273994520467 0 0.38356146703633898 -0.0078565650350033434 0 0.37844401144479839 0.012609093579625891 0 0.37600683512296651 -0.014087071697862221 0 0.37844401144479839 0.012609093579625891 0 0.37600683512296651 -0.014087071697862221 0 0.38356146703633898 -0.0078565650350033434 0 0.37600683512296651 -0.014087071697862221 0 0.36665723294200347 -0.001883505129568449 0 0.35850646790810559 -0.01395473468271459 0 0.37844401144479839 0.012609093579625891 0 0.37600683512296651 -0.014087071697862221 0 0.36665723294200347 -0.001883505129568449 0 0.36665723294200347 -0.001883505129568449 0 0.35531676971978082 -0.0033532784323768001 0 0.35850646790810559 -0.01395473468271459 0 0.37600683512296651 -0.014087071697862221 0 0.37356965880113402 -0.040783236975350308 0 0.37600683512296651 -0.014087071697862221 0 0.36404947753274258 -0.026706798856440471 0 0.35850646790810559 -0.01395473468271459 0 0.37600683512296651 -0.014087071697862221 0 0.36404947753274258 -0.026706798856440471 0 0.37356965880113402 -0.040783236975350308 0 0.34748556133762742 -0.02738266599094942 0 0.35850646790810559 -0.01395473468271459 0 0.34370628527030811 -0.0115647124322744 0 0.36404947753274258 -0.026706798856440471 0 0.34748556133762742 -0.02738266599094942 0 0.35850646790810559 -0.01395473468271459 0 0.36404947753274258 -0.026706798856440471 0 0.34748556133762742 -0.02738266599094942 0 0.36012817770438982 -0.039413746555128387 0 0.33689267375143878 0.0039255003288513873 0 0.35531676971978082 -0.0033532784323768001 0 0.34370628527030811 -0.0115647124322744 0 0.35531676971978082 -0.0033532784323768001 0 0.35850646790810559 -0.01395473468271459 0 0.34370628527030811 -0.0115647124322744 0 0.33689267375143878 0.0039255003288513873 0 0.34370628527030811 -0.0115647124322744 0 0.32469666258817742 -0.019557632270551 0 0.33689267375143878 0.0039255003288513873 0 0.30352242257352219 0.0039185454548519476 0 0.32469666258817742 -0.019557632270551 0 0.34748556133762742 -0.02738266599094942 0 0.34370628527030811 -0.0115647124322744 0 0.32469666258817742 -0.019557632270551 0 0.34748556133762742 -0.02738266599094942 0 0.32469666258817742 -0.019557632270551 0 0.33457477032001748 -0.043965109755099818 0 0.31326255248553708 -0.043768501277314603 0 0.32924913997341337 -0.063603686862235317 0 0.31014365419524398 -0.06072536978512106 0 0.31326255248553708 -0.043768501277314603 0 0.32924913997341337 -0.063603686862235317 0 0.31326255248553708 -0.043768501277314603 0 0.33457477032001748 -0.043965109755099818 0 0.32924913997341337 -0.063603686862235317 0 0.32469666258817742 -0.019557632270551 0 0.31326255248553708 -0.043768501277314603 0 0.33457477032001748 -0.043965109755099818 0 0.33457477032001748 -0.043965109755099818 0 0.34313363496153881 -0.061193084728204693 0 0.35029003257871461 -0.048624574981710279 0 0.33457477032001748 -0.043965109755099818 0 0.34313363496153881 -0.061193084728204693 0 0.32924913997341337 -0.063603686862235317 0 0.35029003257871461 -0.048624574981710279 0 0.36524615827173029 -0.053571455971191423 0 0.35631850447425872 -0.066333179594821989 0 0.34313363496153881 -0.061193084728204693 0 0.35029003257871461 -0.048624574981710279 0 0.35631850447425872 -0.066333179594821989 0 0.35029003257871461 -0.048624574981710279 0 0.36012817770438982 -0.039413746555128387 0 0.36524615827173029 -0.053571455971191423 0 0.34748556133762742 -0.02738266599094942 0 0.33457477032001748 -0.043965109755099818 0 0.35029003257871461 -0.048624574981710279 0 0.34748556133762742 -0.02738266599094942 0 0.35029003257871461 -0.048624574981710279 0 0.36012817770438982 -0.039413746555128387 0 0.36404947753274258 -0.026706798856440471 0 0.36012817770438982 -0.039413746555128387 0 0.37356965880113402 -0.040783236975350308 0 0.36012817770438982 -0.039413746555128387 0 0.37356965880113402 -0.040783236975350308 0 0.36524615827173029 -0.053571455971191423 0 0.37839056082150663 -0.050608978831784571 0 0.36524615827173029 -0.053571455971191423 0 0.37240766699872252 -0.068318548019290964 0 0.37839056082150663 -0.050608978831784571 0 0.37356965880113402 -0.040783236975350308 0 0.36524615827173029 -0.053571455971191423 0 0.36524615827173029 -0.053571455971191423 0 0.37240766699872252 -0.068318548019290964 0 0.35631850447425872 -0.066333179594821989 0 0.37240766699872252 -0.068318548019290964 0 0.36259903827425999 -0.08213590949324566 0 0.35631850447425872 -0.066333179594821989 0 0.37781097748786241 -0.089314889372882261 0 0.37240766699872252 -0.068318548019290964 0 0.36259903827425999 -0.08213590949324566 0 0.37781097748786241 -0.089314889372882261 0 0.36259903827425999 -0.08213590949324566 0 0.3612223149491664 -0.1032740580320769 0 0.34523572746128989 -0.083438872447156087 0 0.3612223149491664 -0.1032740580320769 0 0.36259903827425999 -0.08213590949324566 0 0.34523572746128989 -0.083438872447156087 0 0.3612223149491664 -0.1032740580320769 0 0.34313363496153881 -0.061193084728204693 0 0.34523572746128989 -0.083438872447156087 0 0.35631850447425872 -0.066333179594821989 0 0.36259903827425999 -0.08213590949324566 0 0.34523572746128989 -0.083438872447156087 0 0.35631850447425872 -0.066333179594821989 0 0.37720890243704291 -0.12310924361699779 0 0.36253108037134668 -0.1248744885805331 0 0.3612223149491664 -0.1032740580320769 0 0.37644505785585192 -0.1058120404938334 0 0.37720890243704291 -0.12310924361699779 0 0.3612223149491664 -0.1032740580320769 0 0.37720890243704291 -0.12310924361699779 0 0.3612223149491664 -0.1032740580320769 0 0.37781097748786241 -0.089314889372882261 0 0.37644505785585192 -0.1058120404938334 0 0.3612223149491664 -0.1032740580320769 0 0.34523572746128989 -0.083438872447156087 0 0.3612223149491664 -0.1032740580320769 0 0.33932087337301742 -0.1007066993955318 0 0.3612223149491664 -0.1032740580320769 0 0.34941185211170689 -0.1127717253903176 0 0.33932087337301742 -0.1007066993955318 0 0.36253108037134668 -0.1248744885805331 0 0.33587402752894302 -0.122350175475488 0 0.36253108037134668 -0.1248744885805331 0 0.34941185211170689 -0.1127717253903176 0 0.33587402752894302 -0.122350175475488 0 0.36253108037134668 -0.1248744885805331 0 0.3612223149491664 -0.1032740580320769 0 0.34941185211170689 -0.1127717253903176 0 0.34941185211170689 -0.1127717253903176 0 0.33587402752894302 -0.122350175475488 0 0.33932087337301742 -0.1007066993955318 0 0.33587402752894302 -0.122350175475488 0 0.33932087337301742 -0.1007066993955318 0 0.31943204723016899 -0.10139701157958859 0 0.33932087337301742 -0.1007066993955318 0 0.31943204723016899 -0.10139701157958859 0 0.32474927095682959 -0.081008353448563344 0 0.33587402752894302 -0.122350175475488 0 0.31943204723016899 -0.10139701157958859 0 0.3092169746865393 -0.1198258623704429 0 0.33587402752894302 -0.122350175475488 0 0.3092169746865393 -0.1198258623704429 0 0.34523572746128989 -0.083438872447156087 0 0.32924913997341337 -0.063603686862235317 0 0.32474927095682959 -0.081008353448563344 0 0.34523572746128989 -0.083438872447156087 0 0.32924913997341337 -0.063603686862235317 0 0.34313363496153881 -0.061193084728204693 0 0.34523572746128989 -0.083438872447156087 0 0.32924913997341337 -0.063603686862235317 0 0.34523572746128989 -0.083438872447156087 0 0.33932087337301742 -0.1007066993955318 0 0.32474927095682959 -0.081008353448563344 0 0.31943204723016899 -0.10139701157958859 0 0.32474927095682959 -0.081008353448563344 0 0.31117343018006932 -0.08835554327446378 0 0.32474927095682959 -0.081008353448563344 0 0.30201438303726968 -0.075929904193525521 0 0.32474927095682959 -0.081008353448563344 0 0.30201438303726968 -0.075929904193525521 0 0.31117343018006932 -0.08835554327446378 0 0.32924913997341337 -0.063603686862235317 0 0.32474927095682959 -0.081008353448563344 0 0.31014365419524398 -0.06072536978512106 0 0.32474927095682959 -0.081008353448563344 0 0.30201438303726968 -0.075929904193525521 0 0.31014365419524398 -0.06072536978512106 0 0.30201438303726968 -0.075929904193525521 0 0.31014365419524398 -0.06072536978512106 0 0.29222542489931519 -0.060978945333093171 0 0.31117343018006932 -0.08835554327446378 0 0.29442961060618023 -0.089764156713605506 0 0.30306705175182019 -0.101009202806625 0 0.30201438303726968 -0.075929904193525521 0 0.31117343018006932 -0.08835554327446378 0 0.29442961060618023 -0.089764156713605506 0 0.29442961060618023 -0.089764156713605506 0 0.28691460331806928 -0.079185378374353493 0 0.27734124638624891 -0.089737863242296378 0 0.30201438303726968 -0.075929904193525521 0 0.29442961060618023 -0.089764156713605506 0 0.28691460331806928 -0.079185378374353493 0 0.30201438303726968 -0.075929904193525521 0 0.27927949511770961 -0.070851454938488739 0 0.29222542489931519 -0.060978945333093171 0 0.30201438303726968 -0.075929904193525521 0 0.27927949511770961 -0.070851454938488739 0 0.30201438303726968 -0.075929904193525521 0 0.28691460331806928 -0.079185378374353493 0 0.27927949511770961 -0.070851454938488739 0 0.28691460331806928 -0.079185378374353493 0 0.27927949511770961 -0.070851454938488739 0 0.27809334201771629 -0.079209584513290715 0 0.28691460331806928 -0.079185378374353493 0 0.27927949511770961 -0.070851454938488739 0 0.27927949511770961 -0.070851454938488739 0 0.27868582307562201 -0.055886184139343542 0 0.29222542489931519 -0.060978945333093171 0 0.31943204723016899 -0.10139701157958859 0 0.3092169746865393 -0.1198258623704429 0 0.30306705175182019 -0.101009202806625 0 0.3092169746865393 -0.1198258623704429 0 0.30306705175182019 -0.101009202806625 0 0.28879183359809052 -0.10393054527906551 0 0.31943204723016899 -0.10139701157958859 0 0.31117343018006932 -0.08835554327446378 0 0.30306705175182019 -0.101009202806625 0 0.28879183359809052 -0.10393054527906551 0 0.28255992184413548 -0.11730154926539781 0 0.27267591943638608 -0.1048970298088977 0 0.29442961060618023 -0.089764156713605506 0 0.28879183359809052 -0.10393054527906551 0 0.27734124638624891 -0.089737863242296378 0 0.29442961060618023 -0.089764156713605506 0 0.30306705175182019 -0.101009202806625 0 0.28879183359809052 -0.10393054527906551 0 0.3092169746865393 -0.1198258623704429 0 0.28255992184413548 -0.11730154926539781 0 0.3092169746865393 -0.1198258623704429 0 0.28879183359809052 -0.10393054527906551 0 0.28255992184413548 -0.11730154926539781 0 0.3092169746865393 -0.1198258623704429 0 0.28255992184413548 -0.11730154926539781 0 0.28721398294742878 -0.13035474923543569 0 0.28255992184413548 -0.11730154926539781 0 0.26776517015272971 -0.1222840496799191 0 0.28721398294742878 -0.13035474923543569 0 0.28255992184413548 -0.11730154926539781 0 0.26776517015272971 -0.1222840496799191 0 0.27267591943638608 -0.1048970298088977 0 0.26776517015272971 -0.1222840496799191 0 0.27267591943638608 -0.1048970298088977 0 0.26047800574605201 -0.11084537767631369 0 0.28879183359809052 -0.10393054527906551 0 0.27267591943638608 -0.1048970298088977 0 0.27734124638624891 -0.089737863242296378 0 0.27267591943638608 -0.1048970298088977 0 0.27734124638624891 -0.089737863242296378 0 0.26256105175446781 -0.092679464148907056 0 0.25771864553297669 -0.099620140202181948 0 0.26047800574605201 -0.11084537767631369 0 0.24375228786211539 -0.116580291014256 0 0.27267591943638608 -0.1048970298088977 0 0.25771864553297669 -0.099620140202181948 0 0.26256105175446781 -0.092679464148907056 0 0.25771864553297669 -0.099620140202181948 0 0.25304747237378489 -0.090741332181114118 0 0.24292322406264641 -0.096552741650977186 0 0.25771864553297669 -0.099620140202181948 0 0.26256105175446781 -0.092679464148907056 0 0.25304747237378489 -0.090741332181114118 0 0.27267591943638608 -0.1048970298088977 0 0.25771864553297669 -0.099620140202181948 0 0.26047800574605201 -0.11084537767631369 0 0.26776517015272971 -0.1222840496799191 0 0.26153006621115998 -0.13421007507225571 0 0.24375228786211539 -0.116580291014256 0 0.26776517015272971 -0.1222840496799191 0 0.24375228786211539 -0.116580291014256 0 0.26776517015272971 -0.1222840496799191 0 0.26047800574605201 -0.11084537767631369 0 0.24375228786211539 -0.116580291014256 0 0.27927949511770961 -0.070851454938488739 0 0.25811154610651499 -0.066123023671663908 0 0.26329678137076351 -0.053405898285071182 0 0.27927949511770961 -0.070851454938488739 0 0.25811154610651499 -0.066123023671663908 0 0.26883802324883782 -0.077063641498024305 0 0.27927949511770961 -0.070851454938488739 0 0.25811154610651499 -0.066123023671663908 0 0.26883802324883782 -0.077063641498024305 0 0.27927949511770961 -0.070851454938488739 0 0.27809334201771629 -0.079209584513290715 0 0.26883802324883782 -0.077063641498024305 0 0.27809334201771629 -0.079209584513290715 0 0.27734124638624891 -0.089737863242296378 0 0.26883802324883782 -0.077063641498024305 0 0.27734124638624891 -0.089737863242296378 0 0.25202197504294188 -0.078400955310045109 0 0.28691460331806928 -0.079185378374353493 0 0.27809334201771629 -0.079209584513290715 0 0.27734124638624891 -0.089737863242296378 0 0.27734124638624891 -0.089737863242296378 0 0.26256105175446781 -0.092679464148907056 0 0.25202197504294188 -0.078400955310045109 0 0.27734124638624891 -0.089737863242296378 0 0.25202197504294188 -0.078400955310045109 0 0.26256105175446781 -0.092679464148907056 0 0.25304747237378489 -0.090741332181114118 0 0.25202197504294188 -0.078400955310045109 0 0.25304747237378489 -0.090741332181114118 0 0.25202197504294188 -0.078400955310045109 0 0.24624903761231479 -0.086847438891893419 0 0.26883802324883782 -0.077063641498024305 0 0.25202197504294188 -0.078400955310045109 0 0.25811154610651499 -0.066123023671663908 0 0.25811154610651499 -0.066123023671663908 0 0.26329678137076351 -0.053405898285071182 0 0.24870160087168189 -0.052882304334001928 0 0.26329678137076351 -0.053405898285071182 0 0.24870160087168189 -0.052882304334001928 0 0.24731406762381819 -0.035960341631652723 0 0.27927949511770961 -0.070851454938488739 0 0.26329678137076351 -0.053405898285071182 0 0.27868582307562201 -0.055886184139343542 0 0.27927949511770961 -0.070851454938488739 0 0.26329678137076351 -0.053405898285071182 0 0.26329678137076351 -0.053405898285071182 0 0.27868582307562201 -0.055886184139343542 0 0.27337213238318842 -0.044040078526876879 0 0.27868582307562201 -0.055886184139343542 0 0.27337213238318842 -0.044040078526876879 0 0.28525528160713332 -0.050154543613187753 0 0.26329678137076351 -0.053405898285071182 0 0.27337213238318842 -0.044040078526876879 0 0.26311483972878968 -0.036713614733010089 0 0.27337213238318842 -0.044040078526876879 0 0.27217486102646721 -0.027861542379398439 0 0.28494473946257981 -0.034556038004921102 0 0.27337213238318842 -0.044040078526876879 0 0.26311483972878968 -0.036713614733010089 0 0.27217486102646721 -0.027861542379398439 0 0.27337213238318842 -0.044040078526876879 0 0.28525528160713332 -0.050154543613187753 0 0.28494473946257981 -0.034556038004921102 0 0.26311483972878968 -0.036713614733010089 0 0.25941635623971138 -0.02230021284205122 0 0.24731406762381819 -0.035960341631652723 0 0.26329678137076351 -0.053405898285071182 0 0.24731406762381819 -0.035960341631652723 0 0.26329678137076351 -0.053405898285071182 0 0.26311483972878968 -0.036713614733010089 0 0.24731406762381819 -0.035960341631652723 0 0.25941635623971138 -0.02230021284205122 0 0.24731406762381819 -0.035960341631652723 0 0.2482857443068576 -0.021714794414400052 0 0.25941635623971138 -0.02230021284205122 0 0.25508119948702751 -0.010083838205662381 0 0.2482857443068576 -0.021714794414400052 0 0.26311483972878968 -0.036713614733010089 0 0.25941635623971138 -0.02230021284205122 0 0.27217486102646721 -0.027861542379398439 0 0.2541426920980116 -0.0036136263454906951 0 0.25508119948702751 -0.010083838205662381 0 0.24138147174972829 -0.0061427828714447699 0 0.2541426920980116 -0.0036136263454906951 0 0.25508119948702751 -0.010083838205662381 0 0.26047117107291767 -0.0019720443344692288 0 0.25446675038947358 0.0029162606258486688 0 0.2541426920980116 -0.0036136263454906951 0 0.26047117107291767 -0.0019720443344692288 0 0.25941635623971138 -0.02230021284205122 0 0.25508119948702751 -0.010083838205662381 0 0.26474460583379889 -0.01023883548432745 0 0.25941635623971138 -0.02230021284205122 0 0.26474460583379889 -0.01023883548432745 0 0.27166734417845928 -0.01430021117376327 0 0.25508119948702751 -0.010083838205662381 0 0.26474460583379889 -0.01023883548432745 0 0.26047117107291767 -0.0019720443344692288 0 0.26474460583379889 -0.01023883548432745 0 0.26047117107291767 -0.0019720443344692288 0 0.27708695819087842 -0.0025378708656911609 0 0.26474460583379889 -0.01023883548432745 0 0.27166734417845928 -0.01430021117376327 0 0.27708695819087842 -0.0025378708656911609 0 0.27166734417845928 -0.01430021117376327 0 0.27708695819087842 -0.0025378708656911609 0 0.28469269166600031 -0.01545933141113482 0 0.27217486102646721 -0.027861542379398439 0 0.28469269166600031 -0.01545933141113482 0 0.28494473946257981 -0.034556038004921102 0 0.25941635623971138 -0.02230021284205122 0 0.27166734417845928 -0.01430021117376327 0 0.27217486102646721 -0.027861542379398439 0 0.27166734417845928 -0.01430021117376327 0 0.27217486102646721 -0.027861542379398439 0 0.28469269166600031 -0.01545933141113482 0 0.28469269166600031 -0.01545933141113482 0 0.29727596499766062 -0.023933315692393788 0 0.28494473946257981 -0.034556038004921102 0 0.30352242257352219 0.0039185454548519476 0 0.28469269166600031 -0.01545933141113482 0 0.29727596499766062 -0.023933315692393788 0 0.30352242257352219 0.0039185454548519476 0 0.27708695819087842 -0.0025378708656911609 0 0.28469269166600031 -0.01545933141113482 0 0.30352242257352219 0.0039185454548519476 0 0.32469666258817742 -0.019557632270551 0 0.29727596499766062 -0.023933315692393788 0 0.32469666258817742 -0.019557632270551 0 0.31326255248553708 -0.043768501277314603 0 0.29727596499766062 -0.023933315692393788 0 0.31326255248553708 -0.043768501277314603 0 0.29727596499766062 -0.023933315692393788 0 0.2968975050950291 -0.045887416406534938 0 0.31326255248553708 -0.043768501277314603 0 0.29727596499766062 -0.023933315692393788 0 0.31326255248553708 -0.043768501277314603 0 0.2968975050950291 -0.045887416406534938 0 0.31014365419524398 -0.06072536978512106 0 0.2968975050950291 -0.045887416406534938 0 0.31014365419524398 -0.06072536978512106 0 0.29222542489931519 -0.060978945333093171 0 0.2968975050950291 -0.045887416406534938 0 0.29222542489931519 -0.060978945333093171 0 0.28525528160713332 -0.050154543613187753 0 0.27868582307562201 -0.055886184139343542 0 0.29222542489931519 -0.060978945333093171 0 0.28525528160713332 -0.050154543613187753 0 0.2968975050950291 -0.045887416406534938 0 0.28525528160713332 -0.050154543613187753 0 0.28494473946257981 -0.034556038004921102 0 0.29727596499766062 -0.023933315692393788 0 0.2968975050950291 -0.045887416406534938 0 0.28494473946257981 -0.034556038004921102 0 0.29579617193404978 -0.19432558104056491 0 0.30588539897632072 -0.22256652654210629 0 0.2776594049058328 -0.2175861504380624 0 0.29579617193404978 -0.19432558104056491 0 0.2776594049058328 -0.2175861504380624 0 0.2764107852420567 -0.19644220614923899 0 0.29579617193404978 -0.19432558104056491 0 0.2764107852420567 -0.19644220614923899 0 0.2792899687438003 -0.18116405860585089 0 0.29579617193404978 -0.19432558104056491 0 0.31045946319455608 -0.20263901644370941 0 0.31057073564158039 -0.17760626025882659 0 0.29579617193404978 -0.19432558104056491 0 0.30588539897632072 -0.22256652654210629 0 0.31045946319455608 -0.20263901644370941 0 0.30588539897632072 -0.22256652654210629 0 0.32020032842118662 -0.2136972324735969 0 0.29579617193404978 -0.19432558104056491 0 0.31045946319455608 -0.20263901644370941 0 0.30588539897632072 -0.22256652654210629 0 0.29681701546221179 -0.23419681124085551 0 0.31597462601859122 -0.25080747204364812 0 0.30111904597271899 -0.2536098058489899 0 0.30588539897632072 -0.22256652654210629 0 0.29681701546221179 -0.23419681124085551 0 0.31597462601859122 -0.25080747204364812 0 0.30588539897632072 -0.22256652654210629 0 0.31597462601859122 -0.25080747204364812 0 0.29681701546221179 -0.23419681124085551 0 0.31597462601859122 -0.25080747204364812 0 0.29681701546221179 -0.23419681124085551 0 0.30111904597271899 -0.2536098058489899 0 0.28456511698073272 -0.25518130134833977 0 0.29681701546221179 -0.23419681124085551 0 0.27830026498091959 -0.23745462562099759 0 0.28456511698073272 -0.25518130134833977 0 0.30588539897632072 -0.22256652654210629 0 0.29681701546221179 -0.23419681124085551 0 0.2776594049058328 -0.2175861504380624 0 0.29681701546221179 -0.23419681124085551 0 0.27830026498091959 -0.23745462562099759 0 0.2776594049058328 -0.2175861504380624 0 0.29681701546221179 -0.23419681124085551 0 0.2776594049058328 -0.2175861504380624 0 0.26584409390649738 -0.23415831621220631 0 0.27830026498091959 -0.23745462562099759 0 0.2776594049058328 -0.2175861504380624 0 0.26584409390649738 -0.23415831621220631 0 0.25658827463044448 -0.2222138965281123 0 0.2776594049058328 -0.2175861504380624 0 0.27830026498091959 -0.23745462562099759 0 0.28456511698073272 -0.25518130134833977 0 0.26629969424128969 -0.25192769388052821 0 0.26584409390649738 -0.23415831621220631 0 0.27830026498091959 -0.23745462562099759 0 0.26629969424128969 -0.25192769388052821 0 0.26584409390649738 -0.23415831621220631 0 0.25037283077400019 -0.2416092145933311 0 0.26629969424128969 -0.25192769388052821 0 0.25037283077400019 -0.2416092145933311 0 0.25658827463044448 -0.2222138965281123 0 0.2446094219978813 -0.2276121794933563 0 0.26584409390649738 -0.23415831621220631 0 0.25037283077400019 -0.2416092145933311 0 0.25658827463044448 -0.2222138965281123 0 0.25658827463044448 -0.2222138965281123 0 0.2776594049058328 -0.2175861504380624 0 0.25850179434945381 -0.20097548963526929 0 0.25658827463044448 -0.2222138965281123 0 0.25850179434945381 -0.20097548963526929 0 0.23907695871134879 -0.21289681242661959 0 0.2776594049058328 -0.2175861504380624 0 0.25850179434945381 -0.20097548963526929 0 0.2776594049058328 -0.2175861504380624 0 0.2764107852420567 -0.19644220614923899 0 0.25850179434945381 -0.20097548963526929 0 0.2764107852420567 -0.19644220614923899 0 0.25850179434945381 -0.20097548963526929 0 0.26539786460737957 -0.18100391429238191 0 0.25850179434945381 -0.20097548963526929 0 0.26539786460737957 -0.18100391429238191 0 0.23934418379307471 -0.18436482883247621 0 0.26539786460737957 -0.18100391429238191 0 0.25449645062408999 -0.16331052089379791 0 0.23934418379307471 -0.18436482883247621 0 0.26539786460737957 -0.18100391429238191 0 0.25449645062408999 -0.16331052089379791 0 0.27043371620885309 -0.16438603764101259 0 0.25449645062408999 -0.16331052089379791 0 0.27043371620885309 -0.16438603764101259 0 0.2633734196266177 -0.15149826902969399 0 0.27043371620885309 -0.16438603764101259 0 0.2792899687438003 -0.18116405860585089 0 0.28570694489177878 -0.1660846355390232 0 0.27043371620885309 -0.16438603764101259 0 0.27930784456020519 -0.15183985913025491 0 0.28570694489177878 -0.1660846355390232 0 0.26539786460737957 -0.18100391429238191 0 0.27043371620885309 -0.16438603764101259 0 0.2792899687438003 -0.18116405860585089 0 0.2764107852420567 -0.19644220614923899 0 0.26539786460737957 -0.18100391429238191 0 0.2792899687438003 -0.18116405860585089 0 0.26153006621115998 -0.13421007507225571 0 0.24375228786211539 -0.116580291014256 0 0.24955680073527009 -0.143898101237383 0 0.26153006621115998 -0.13421007507225571 0 0.24375228786211539 -0.116580291014256 0 0.25449645062408999 -0.16331052089379791 0 0.2633734196266177 -0.15149826902969399 0 0.24955680073527009 -0.143898101237383 0 0.26153006621115998 -0.13421007507225571 0 0.2633734196266177 -0.15149826902969399 0 0.24955680073527009 -0.143898101237383 0 0.27043371620885309 -0.16438603764101259 0 0.2633734196266177 -0.15149826902969399 0 0.27930784456020519 -0.15183985913025491 0 0.27561771784950778 -0.13784369003748159 0 0.28570694489177878 -0.1660846355390232 0 0.26153006621115998 -0.13421007507225571 0 0.27930784456020519 -0.15183985913025491 0 0.27561771784950778 -0.13784369003748159 0 0.27930784456020519 -0.15183985913025491 0 0.27561771784950778 -0.13784369003748159 0 0.28570694489177878 -0.1660846355390232 0 0.26153006621115998 -0.13421007507225571 0 0.2633734196266177 -0.15149826902969399 0 0.27930784456020519 -0.15183985913025491 0 0.26153006621115998 -0.13421007507225571 0 0.27930784456020519 -0.15183985913025491 0 0.26776517015272971 -0.1222840496799191 0 0.27561771784950778 -0.13784369003748159 0 0.28721398294742878 -0.13035474923543569 0 0.26776517015272971 -0.1222840496799191 0 0.26153006621115998 -0.13421007507225571 0 0.27561771784950778 -0.13784369003748159 0 0.27561771784950778 -0.13784369003748159 0 0.28721398294742878 -0.13035474923543569 0 0.28891568690104508 -0.14625428249578579 0 0.28721398294742878 -0.13035474923543569 0 0.28891568690104508 -0.14625428249578579 0 0.29920842625061578 -0.1386190615635868 0 0.28891568690104508 -0.14625428249578579 0 0.29920842625061578 -0.1386190615635868 0 0.29789574789403661 -0.15876522012859751 0 0.27561771784950778 -0.13784369003748159 0 0.28891568690104508 -0.14625428249578579 0 0.28570694489177878 -0.1660846355390232 0 0.30985117626407932 -0.1486491484402036 0 0.29920842625061578 -0.1386190615635868 0 0.29789574789403661 -0.15876522012859751 0 0.30985117626407932 -0.1486491484402036 0 0.29789574789403661 -0.15876522012859751 0 0.3134799250960158 -0.16133035304856411 0 0.30985117626407932 -0.1486491484402036 0 0.29920842625061578 -0.1386190615635868 0 0.31980994510895661 -0.13408045692276491 0 0.3092169746865393 -0.1198258623704429 0 0.28721398294742878 -0.13035474923543569 0 0.29920842625061578 -0.1386190615635868 0 0.3092169746865393 -0.1198258623704429 0 0.29920842625061578 -0.1386190615635868 0 0.31980994510895661 -0.13408045692276491 0 0.29579617193404978 -0.19432558104056491 0 0.2792899687438003 -0.18116405860585089 0 0.28570694489177878 -0.1660846355390232 0 0.29579617193404978 -0.19432558104056491 0 0.28570694489177878 -0.1660846355390232 0 0.29579617193404978 -0.19432558104056491 0 0.28570694489177878 -0.1660846355390232 0 0.29784246694311001 -0.17248502473641619 0 0.28891568690104508 -0.14625428249578579 0 0.28570694489177878 -0.1660846355390232 0 0.29789574789403661 -0.15876522012859751 0 0.28570694489177878 -0.1660846355390232 0 0.29789574789403661 -0.15876522012859751 0 0.29784246694311001 -0.17248502473641619 0 0.29789574789403661 -0.15876522012859751 0 0.31057073564158039 -0.17760626025882659 0 0.3134799250960158 -0.16133035304856411 0 0.29789574789403661 -0.15876522012859751 0 0.31057073564158039 -0.17760626025882659 0 0.29784246694311001 -0.17248502473641619 0 0.29789574789403661 -0.15876522012859751 0 0.31057073564158039 -0.17760626025882659 0 0.29579617193404978 -0.19432558104056491 0 0.31057073564158039 -0.17760626025882659 0 0.29784246694311001 -0.17248502473641619 0 0.31057073564158039 -0.17760626025882659 0 0.33117051957001492 -0.16690810347740409 0 0.33960500058918919 -0.18923554211963439 0 0.31057073564158039 -0.17760626025882659 0 0.32324572338912438 -0.19644730038905581 0 0.3134799250960158 -0.16133035304856411 0 0.33117051957001492 -0.16690810347740409 0 0.32297156368297691 -0.15191279281852399 0 0.31057073564158039 -0.17760626025882659 0 0.3134799250960158 -0.16133035304856411 0 0.33117051957001492 -0.16690810347740409 0 0.33117051957001492 -0.16690810347740409 0 0.34312821131240068 -0.1490342399984359 0 0.35150112372442083 -0.17432517416681301 0 0.33117051957001492 -0.16690810347740409 0 0.35150112372442083 -0.17432517416681301 0 0.33960500058918919 -0.18923554211963439 0 0.33587402752894302 -0.122350175475488 0 0.3092169746865393 -0.1198258623704429 0 0.31980994510895661 -0.13408045692276491 0 0.30985117626407932 -0.1486491484402036 0 0.31980994510895661 -0.13408045692276491 0 0.32297156368297691 -0.15191279281852399 0 0.30985117626407932 -0.1486491484402036 0 0.3134799250960158 -0.16133035304856411 0 0.32297156368297691 -0.15191279281852399 0 0.33117051957001492 -0.16690810347740409 0 0.32297156368297691 -0.15191279281852399 0 0.34312821131240068 -0.1490342399984359 0 0.31980994510895661 -0.13408045692276491 0 0.32297156368297691 -0.15191279281852399 0 0.34312821131240068 -0.1490342399984359 0 0.33587402752894302 -0.122350175475488 0 0.31980994510895661 -0.13408045692276491 0 0.34312821131240068 -0.1490342399984359 0 0.36253108037134668 -0.1248744885805331 0 0.33587402752894302 -0.122350175475488 0 0.3555623608711499 -0.1359942506039106 0 0.33587402752894302 -0.122350175475488 0 0.34312821131240068 -0.1490342399984359 0 0.3555623608711499 -0.1359942506039106 0 0.34312821131240068 -0.1490342399984359 0 0.3555623608711499 -0.1359942506039106 0 0.36858459771950869 -0.15733985743645959 0 0.3555623608711499 -0.1359942506039106 0 0.36652086356581781 -0.12946943863695781 0 0.36858459771950869 -0.15733985743645959 0 0.36652086356581781 -0.12946943863695781 0 0.36858459771950869 -0.15733985743645959 0 0.36652086356581781 -0.12946943863695781 0 0.36858459771950869 -0.15733985743645959 0 0.3787995421462832 -0.1425544525875144 0 0.36652086356581781 -0.12946943863695781 0 0.37808333446084269 -0.1309391893982525 0 0.3787995421462832 -0.1425544525875144 0 0.36253108037134668 -0.1248744885805331 0 0.36652086356581781 -0.12946943863695781 0 0.37808333446084269 -0.1309391893982525 0 0.36253108037134668 -0.1248744885805331 0 0.3555623608711499 -0.1359942506039106 0 0.36652086356581781 -0.12946943863695781 0 0.35150112372442083 -0.17432517416681301 0 0.37064833187319962 -0.1852102762359614 0 0.35587008128221181 -0.19822302573298239 0 0.35150112372442083 -0.17432517416681301 0 0.35587008128221181 -0.19822302573298239 0 0.33960500058918919 -0.18923554211963439 0 0.34312821131240068 -0.1490342399984359 0 0.35150112372442083 -0.17432517416681301 0 0.36858459771950869 -0.15733985743645959 0 0.36858459771950869 -0.15733985743645959 0 0.37064833187319962 -0.1852102762359614 0 0.35150112372442083 -0.17432517416681301 0 0.36858459771950869 -0.15733985743645959 0 0.37064833187319962 -0.1852102762359614 0 0.36858459771950869 -0.15733985743645959 0 0.37064833187319962 -0.1852102762359614 0 0.3834788620725188 -0.17954848884060079 0 0.37064833187319962 -0.1852102762359614 0 0.37271206602689039 -0.21308069503546309 0 0.38139900114097952 -0.20469292352659629 0 0.37064833187319962 -0.1852102762359614 0 0.37271206602689039 -0.21308069503546309 0 0.37064833187319962 -0.1852102762359614 0 0.37271206602689039 -0.21308069503546309 0 0.35587008128221181 -0.19822302573298239 0 0.37271206602689039 -0.21308069503546309 0 0.35603419272415182 -0.2169366224123114 0 0.35587008128221181 -0.19822302573298239 0 0.35603419272415182 -0.2169366224123114 0 0.35587008128221181 -0.19822302573298239 0 0.33592071113666833 -0.21528834051928489 0 0.35587008128221181 -0.19822302573298239 0 0.33960500058918919 -0.18923554211963439 0 0.33592071113666833 -0.21528834051928489 0 0.33960500058918919 -0.18923554211963439 0 0.33592071113666833 -0.21528834051928489 0 0.32324572338912438 -0.19644730038905581 0 0.33592071113666833 -0.21528834051928489 0 0.32324572338912438 -0.19644730038905581 0 0.33592071113666833 -0.21528834051928489 0 0.32020032842118662 -0.2136972324735969 0 0.32324572338912438 -0.19644730038905581 0 0.31045946319455608 -0.20263901644370941 0 0.32020032842118662 -0.2136972324735969 0 0.32324572338912438 -0.19644730038905581 0 0.31057073564158039 -0.17760626025882659 0 0.33960500058918919 -0.18923554211963439 0 0.32324572338912438 -0.19644730038905581 0 0.31045946319455608 -0.20263901644370941 0 0.31057073564158039 -0.17760626025882659 0 0.32324572338912438 -0.19644730038905581 0 0.32549034540926353 -0.23154497847382799 0 0.33517615116993849 -0.24743488902137309 0 0.31597462601859122 -0.25080747204364812 0 0.30588539897632072 -0.22256652654210629 0 0.32549034540926353 -0.23154497847382799 0 0.31597462601859122 -0.25080747204364812 0 0.30588539897632072 -0.22256652654210629 0 0.32020032842118662 -0.2136972324735969 0 0.32549034540926353 -0.23154497847382799 0 0.33592071113666833 -0.21528834051928489 0 0.32020032842118662 -0.2136972324735969 0 0.32549034540926353 -0.23154497847382799 0 0.33592071113666833 -0.21528834051928489 0 0.32549034540926353 -0.23154497847382799 0 0.34859569888421221 -0.23412938064951411 0 0.33592071113666833 -0.21528834051928489 0 0.34859569888421221 -0.23412938064951411 0 0.32549034540926353 -0.23154497847382799 0 0.33517615116993849 -0.24743488902137309 0 0.34859569888421221 -0.23412938064951411 0 0.33517615116993849 -0.24743488902137309 0 0.34859569888421221 -0.23412938064951411 0 0.35185333732921159 -0.25428502110151557 0 0.34859569888421221 -0.23412938064951411 0 0.36075586336603621 -0.2426037127049111 0 0.35185333732921159 -0.25428502110151557 0 0.34859569888421221 -0.23412938064951411 0 0.36291464790978972 -0.22902601310760301 0 0.36075586336603621 -0.2426037127049111 0 0.35603419272415182 -0.2169366224123114 0 0.34859569888421221 -0.23412938064951411 0 0.36291464790978972 -0.22902601310760301 0 0.35603419272415182 -0.2169366224123114 0 0.33592071113666833 -0.21528834051928489 0 0.34859569888421221 -0.23412938064951411 0 0.37271206602689039 -0.21308069503546309 0 0.35603419272415182 -0.2169366224123114 0 0.36291464790978972 -0.22902601310760301 0 0.37271206602689039 -0.21308069503546309 0 0.37477580018058132 -0.24095111383496479 0 0.37555308153547928 -0.22286467051027881 0 0.37271206602689039 -0.21308069503546309 0 0.37477580018058132 -0.24095111383496479 0 0.37271206602689039 -0.21308069503546309 0 0.36291464790978972 -0.22902601310760301 0 0.37477580018058132 -0.24095111383496479 0 0.36075586336603621 -0.2426037127049111 0 0.37477580018058132 -0.24095111383496479 0 0.36563983252638571 -0.25462703483095822 0 0.36291464790978972 -0.22902601310760301 0 0.36075586336603621 -0.2426037127049111 0 0.37477580018058132 -0.24095111383496479 0 0.37477580018058132 -0.24095111383496479 0 0.39321551516580561 -0.23618023300957031 0 0.38725375881062551 -0.25185160038302579 0 0.39321551516580561 -0.23618023300957031 0 0.41087794879613182 -0.2494957955088617 0 0.40741230325918792 -0.23450562481703699 0 0.39321551516580561 -0.23618023300957031 0 0.41087794879613182 -0.2494957955088617 0 0.39321551516580561 -0.23618023300957031 0 0.38725375881062551 -0.25185160038302579 0 0.39640803358832022 -0.25154779433757402 0 0.39321551516580561 -0.23618023300957031 0 0.41087794879613182 -0.2494957955088617 0 0.39640803358832022 -0.25154779433757402 0 0.4055308246994358 -0.22407667781788709 0 0.39424069285124719 -0.22310079746779379 0 0.40434357831770951 -0.21487406561090469 0 0.4055308246994358 -0.22407667781788709 0 0.39424069285124719 -0.22310079746779379 0 0.40741230325918792 -0.23450562481703699 0 0.39321551516580561 -0.23618023300957031 0 0.39424069285124719 -0.22310079746779379 0 0.40741230325918792 -0.23450562481703699 0 0.37477580018058132 -0.24095111383496479 0 0.39321551516580561 -0.23618023300957031 0 0.37555308153547928 -0.22286467051027881 0 0.39424069285124719 -0.22310079746779379 0 0.37555308153547928 -0.22286467051027881 0 0.38300691860546521 -0.21527996176244341 0 0.39321551516580561 -0.23618023300957031 0 0.37555308153547928 -0.22286467051027881 0 0.39321551516580561 -0.23618023300957031 0 0.39424069285124719 -0.22310079746779379 0 0.37555308153547928 -0.22286467051027881 0 0.37271206602689039 -0.21308069503546309 0 0.37555308153547928 -0.22286467051027881 0 0.38300691860546521 -0.21527996176244341 0 0.37271206602689039 -0.21308069503546309 0 0.38139900114097952 -0.20469292352659629 0 0.38300691860546521 -0.21527996176244341 0 0.38139900114097952 -0.20469292352659629 0 0.39078770323730427 -0.19674260859680251 0 0.39112975147272949 -0.2126607222720846 0 0.38139900114097952 -0.20469292352659629 0 0.38300691860546521 -0.21527996176244341 0 0.39112975147272949 -0.2126607222720846 0 0.39424069285124719 -0.22310079746779379 0 0.38300691860546521 -0.21527996176244341 0 0.39112975147272949 -0.2126607222720846 0 0.37064833187319962 -0.1852102762359614 0 0.38139900114097952 -0.20469292352659629 0 0.39078770323730427 -0.19674260859680251 0 0.39078770323730427 -0.19674260859680251 0 0.40475141021500721 -0.1910589369573561 0 0.39510197637232292 -0.1839605883432579 0 0.39078770323730427 -0.19674260859680251 0 0.40426546228868082 -0.20108352786525729 0 0.397631623829106 -0.20634023108626229 0 0.39078770323730427 -0.19674260859680251 0 0.40426546228868082 -0.20108352786525729 0 0.40475141021500721 -0.1910589369573561 0 0.39078770323730427 -0.19674260859680251 0 0.39112975147272949 -0.2126607222720846 0 0.397631623829106 -0.20634023108626229 0 0.39112975147272949 -0.2126607222720846 0 0.397631623829106 -0.20634023108626229 0 0.40434357831770951 -0.21487406561090469 0 0.39424069285124719 -0.22310079746779379 0 0.39112975147272949 -0.2126607222720846 0 0.40434357831770951 -0.21487406561090469 0 0.40426546228868082 -0.20108352786525729 0 0.397631623829106 -0.20634023108626229 0 0.40434357831770951 -0.21487406561090469 0 0.40434357831770951 -0.21487406561090469 0 0.41713092845542321 -0.20900944133272009 0 0.41612672436959858 -0.22382622337581301 0 0.40426546228868082 -0.20108352786525729 0 0.40434357831770951 -0.21487406561090469 0 0.41713092845542321 -0.20900944133272009 0 0.41713092845542321 -0.20900944133272009 0 0.42330136258736267 -0.2174116668913772 0 0.41612672436959858 -0.22382622337581301 0 0.40475141021500721 -0.1910589369573561 0 0.41487892771890261 -0.19826025474908979 0 0.4146572714410397 -0.186958864794112 0 0.40426546228868082 -0.20108352786525729 0 0.41713092845542321 -0.20900944133272009 0 0.41487892771890261 -0.19826025474908979 0 0.40426546228868082 -0.20108352786525729 0 0.40475141021500721 -0.1910589369573561 0 0.41487892771890261 -0.19826025474908979 0 0.41713092845542321 -0.20900944133272009 0 0.41487892771890261 -0.19826025474908979 0 0.42701217502226602 -0.19751647228806199 0 0.41487892771890261 -0.19826025474908979 0 0.42053294087941678 -0.1923617771039739 0 0.42701217502226602 -0.19751647228806199 0 0.42053294087941678 -0.1923617771039739 0 0.4146572714410397 -0.186958864794112 0 0.42558338933545942 -0.1867115165846317 0 0.41487892771890261 -0.19826025474908979 0 0.42053294087941678 -0.1923617771039739 0 0.4146572714410397 -0.186958864794112 0 0.42701217502226602 -0.19751647228806199 0 0.43844209377108118 -0.18689286854296691 0 0.44355474576021348 -0.2050869029196882 0 0.42053294087941678 -0.1923617771039739 0 0.42701217502226602 -0.19751647228806199 0 0.42558338933545942 -0.1867115165846317 0 0.42701217502226602 -0.19751647228806199 0 0.42558338933545942 -0.1867115165846317 0 0.43844209377108118 -0.18689286854296691 0 0.42701217502226602 -0.19751647228806199 0 0.43006687167525981 -0.21185300334864521 0 0.44355474576021348 -0.2050869029196882 0 0.41713092845542321 -0.20900944133272009 0 0.42330136258736267 -0.2174116668913772 0 0.43006687167525981 -0.21185300334864521 0 0.42330136258736267 -0.2174116668913772 0 0.43006687167525981 -0.21185300334864521 0 0.42988092584916948 -0.2249579995083304 0 0.41713092845542321 -0.20900944133272009 0 0.42701217502226602 -0.19751647228806199 0 0.43006687167525981 -0.21185300334864521 0 0.43006687167525981 -0.21185300334864521 0 0.42988092584916948 -0.2249579995083304 0 0.44009267276725389 -0.2176624614444449 0 0.42330136258736267 -0.2174116668913772 0 0.42988092584916948 -0.2249579995083304 0 0.41612672436959858 -0.22382622337581301 0 0.42988092584916948 -0.2249579995083304 0 0.43458399188612801 -0.2397076170126072 0 0.42159465327244361 -0.23640953485310751 0 0.42988092584916948 -0.2249579995083304 0 0.42159465327244361 -0.23640953485310751 0 0.41612672436959858 -0.22382622337581301 0 0.42988092584916948 -0.2249579995083304 0 0.43458399188612801 -0.2397076170126072 0 0.44416109061426973 -0.22983272991065171 0 0.43458399188612801 -0.2397076170126072 0 0.42656562700980838 -0.24831468624349931 0 0.4372088962240912 -0.25169219704383999 0 0.43458399188612801 -0.2397076170126072 0 0.42656562700980838 -0.24831468624349931 0 0.42159465327244361 -0.23640953485310751 0 0.42656562700980838 -0.24831468624349931 0 0.42159465327244361 -0.23640953485310751 0 0.41087794879613182 -0.2494957955088617 0 0.42159465327244361 -0.23640953485310751 0 0.41087794879613182 -0.2494957955088617 0 0.40741230325918792 -0.23450562481703699 0 0.4055308246994358 -0.22407667781788709 0 0.40741230325918792 -0.23450562481703699 0 0.41612672436959858 -0.22382622337581301 0 0.4055308246994358 -0.22407667781788709 0 0.40434357831770951 -0.21487406561090469 0 0.41612672436959858 -0.22382622337581301 0 0.42159465327244361 -0.23640953485310751 0 0.40741230325918792 -0.23450562481703699 0 0.41612672436959858 -0.22382622337581301 0 0.39823574772599779 -0.11763079726210079 0 0.40257569972698831 -0.13396225485532559 0 0.38918813321375051 -0.12739880168557821 0 0.40257569972698831 -0.13396225485532559 0 0.38918813321375051 -0.12739880168557821 0 0.39017348084279901 -0.13955387731924049 0 0.38918813321375051 -0.12739880168557821 0 0.37808333446084269 -0.1309391893982525 0 0.39017348084279901 -0.13955387731924049 0 0.37720890243704291 -0.12310924361699779 0 0.36253108037134668 -0.1248744885805331 0 0.38918813321375051 -0.12739880168557821 0 0.36253108037134668 -0.1248744885805331 0 0.38918813321375051 -0.12739880168557821 0 0.37808333446084269 -0.1309391893982525 0 0.36253108037134668 -0.1248744885805331 0 0.38918813321375051 -0.12739880168557821 0 0.37808333446084269 -0.1309391893982525 0 0.39017348084279901 -0.13955387731924049 0 0.3787995421462832 -0.1425544525875144 0 0.36858459771950869 -0.15733985743645959 0 0.3787995421462832 -0.1425544525875144 0 0.38535727780346091 -0.1527557998392445 0 0.39017348084279901 -0.13955387731924049 0 0.3787995421462832 -0.1425544525875144 0 0.38535727780346091 -0.1527557998392445 0 0.40257569972698831 -0.13396225485532559 0 0.39822107621443897 -0.1501202070538992 0 0.41732028123257531 -0.14286435439753159 0 0.40257569972698831 -0.13396225485532559 0 0.39017348084279901 -0.13955387731924049 0 0.39822107621443897 -0.1501202070538992 0 0.39017348084279901 -0.13955387731924049 0 0.38535727780346091 -0.1527557998392445 0 0.39822107621443897 -0.1501202070538992 0 0.39822107621443897 -0.1501202070538992 0 0.39107178753907162 -0.16851380255406381 0 0.40713652226246821 -0.16744863749245631 0 0.39107178753907162 -0.16851380255406381 0 0.40713652226246821 -0.16744863749245631 0 0.38535727780346091 -0.1527557998392445 0 0.39822107621443897 -0.1501202070538992 0 0.39107178753907162 -0.16851380255406381 0 0.39107178753907162 -0.16851380255406381 0 0.40460499843718001 -0.17902112385493851 0 0.40713652226246821 -0.16744863749245631 0 0.36858459771950869 -0.15733985743645959 0 0.38535727780346091 -0.1527557998392445 0 0.39107178753907162 -0.16851380255406381 0 0.36858459771950869 -0.15733985743645959 0 0.39107178753907162 -0.16851380255406381 0 0.3834788620725188 -0.17954848884060079 0 0.39107178753907162 -0.16851380255406381 0 0.3834788620725188 -0.17954848884060079 0 0.39510197637232292 -0.1839605883432579 0 0.39078770323730427 -0.19674260859680251 0 0.3834788620725188 -0.17954848884060079 0 0.39510197637232292 -0.1839605883432579 0 0.37064833187319962 -0.1852102762359614 0 0.39078770323730427 -0.19674260859680251 0 0.3834788620725188 -0.17954848884060079 0 0.39107178753907162 -0.16851380255406381 0 0.39510197637232292 -0.1839605883432579 0 0.40460499843718001 -0.17902112385493851 0 0.40475141021500721 -0.1910589369573561 0 0.39510197637232292 -0.1839605883432579 0 0.40460499843718001 -0.17902112385493851 0 0.40475141021500721 -0.1910589369573561 0 0.40460499843718001 -0.17902112385493851 0 0.4146572714410397 -0.186958864794112 0 0.40460499843718001 -0.17902112385493851 0 0.41491102279317088 -0.17618591298838529 0 0.4146572714410397 -0.186958864794112 0 0.40460499843718001 -0.17902112385493851 0 0.41491102279317088 -0.17618591298838529 0 0.40713652226246821 -0.16744863749245631 0 0.41491102279317088 -0.17618591298838529 0 0.42527009306055918 -0.1746571334479238 0 0.4232012569858648 -0.16638347243084889 0 0.41491102279317088 -0.17618591298838529 0 0.42095079563492938 -0.18072636251124541 0 0.42527009306055918 -0.1746571334479238 0 0.41491102279317088 -0.17618591298838529 0 0.42095079563492938 -0.18072636251124541 0 0.4146572714410397 -0.186958864794112 0 0.42095079563492938 -0.18072636251124541 0 0.4146572714410397 -0.186958864794112 0 0.42558338933545942 -0.1867115165846317 0 0.43180268423531071 -0.1802632517690351 0 0.42527009306055918 -0.1746571334479238 0 0.44880083799057491 -0.164686103644653 0 0.42095079563492938 -0.18072636251124541 0 0.42558338933545942 -0.1867115165846317 0 0.43180268423531071 -0.1802632517690351 0 0.42558338933545942 -0.1867115165846317 0 0.43180268423531071 -0.1802632517690351 0 0.43844209377108118 -0.18689286854296691 0 0.42095079563492938 -0.18072636251124541 0 0.43180268423531071 -0.1802632517690351 0 0.42527009306055918 -0.1746571334479238 0 0.42527009306055918 -0.1746571334479238 0 0.4232012569858648 -0.16638347243084889 0 0.44880083799057491 -0.164686103644653 0 0.4232012569858648 -0.16638347243084889 0 0.43334283997313311 -0.15135273030925811 0 0.44880083799057491 -0.164686103644653 0 0.4232012569858648 -0.16638347243084889 0 0.44880083799057491 -0.164686103644653 0 0.42527009306055918 -0.1746571334479238 0 0.4232012569858648 -0.16638347243084889 0 0.4232012569858648 -0.16638347243084889 0 0.40713652226246821 -0.16744863749245631 0 0.41732028123257531 -0.14286435439753159 0 0.41491102279317088 -0.17618591298838529 0 0.4232012569858648 -0.16638347243084889 0 0.40713652226246821 -0.16744863749245631 0 0.4232012569858648 -0.16638347243084889 0 0.40713652226246821 -0.16744863749245631 0 0.4232012569858648 -0.16638347243084889 0 0.41732028123257531 -0.14286435439753159 0 0.39822107621443897 -0.1501202070538992 0 0.40713652226246821 -0.16744863749245631 0 0.41732028123257531 -0.14286435439753159 0 0.41732028123257531 -0.14286435439753159 0 0.43334283997313311 -0.15135273030925811 0 0.43763345530417341 -0.13584027725706749 0 0.4232012569858648 -0.16638347243084889 0 0.41732028123257531 -0.14286435439753159 0 0.43334283997313311 -0.15135273030925811 0 0.42916935431308728 -0.1205456085246996 0 0.41732028123257531 -0.14286435439753159 0 0.43763345530417341 -0.13584027725706749 0 0.42916935431308728 -0.1205456085246996 0 0.4435038969132965 -0.12540022695152131 0 0.43763345530417341 -0.13584027725706749 0 0.41143930547928681 -0.11934523636421419 0 0.42916935431308728 -0.1205456085246996 0 0.41732028123257531 -0.14286435439753159 0 0.41143930547928681 -0.11934523636421419 0 0.40257569972698831 -0.13396225485532559 0 0.41732028123257531 -0.14286435439753159 0 0.41143930547928681 -0.11934523636421419 0 0.41732028123257531 -0.14286435439753159 0 0.46257396642688631 -0.12529077885077469 0 0.46381730130484328 -0.1363472541609663 0 0.4585659370706795 -0.1308283620105129 0 0.46381730130484328 -0.1363472541609663 0 0.4585659370706795 -0.1308283620105129 0 0.45274550479158487 -0.1345999168850856 0 0.46381730130484328 -0.1363472541609663 0 0.45274550479158487 -0.1345999168850856 0 0.46138481906560302 -0.14686228775601681 0 0.46257396642688631 -0.12529077885077469 0 0.4585659370706795 -0.1308283620105129 0 0.45239247298790419 -0.125419693033265 0 0.4585659370706795 -0.1308283620105129 0 0.45239247298790419 -0.125419693033265 0 0.45274550479158487 -0.1345999168850856 0 0.45239247298790419 -0.125419693033265 0 0.4435038969132965 -0.12540022695152131 0 0.45274550479158487 -0.1345999168850856 0 0.4435038969132965 -0.12540022695152131 0 0.43763345530417341 -0.13584027725706749 0 0.45274550479158487 -0.1345999168850856 0 0.43763345530417341 -0.13584027725706749 0 0.45274550479158487 -0.1345999168850856 0 0.44678149142501389 -0.1466682631704162 0 0.43334283997313311 -0.15135273030925811 0 0.44678149142501389 -0.1466682631704162 0 0.44880083799057491 -0.164686103644653 0 0.44678149142501389 -0.1466682631704162 0 0.46138481906560302 -0.14686228775601681 0 0.44880083799057491 -0.164686103644653 0 0.43334283997313311 -0.15135273030925811 0 0.43763345530417341 -0.13584027725706749 0 0.44678149142501389 -0.1466682631704162 0 0.45274550479158487 -0.1345999168850856 0 0.44678149142501389 -0.1466682631704162 0 0.46138481906560302 -0.14686228775601681 0 0.46138481906560302 -0.14686228775601681 0 0.44880083799057491 -0.164686103644653 0 0.47440041899528501 -0.16298873485845719 0 0.44880083799057491 -0.164686103644653 0 0.46834799031954211 -0.17915452781490099 0 0.47440041899528501 -0.16298873485845719 0 0.44880083799057491 -0.164686103644653 0 0.47440041899528501 -0.16298873485845719 0 0.43180268423531071 -0.1802632517690351 0 0.44880083799057491 -0.164686103644653 0 0.43844209377108118 -0.18689286854296691 0 0.44880083799057491 -0.164686103644653 0 0.43844209377108118 -0.18689286854296691 0 0.45508032593701309 -0.1914137801830845 0 0.44880083799057491 -0.164686103644653 0 0.46834799031954211 -0.17915452781490099 0 0.45508032593701309 -0.1914137801830845 0 0.46834799031954211 -0.17915452781490099 0 0.48419704391512092 -0.17843144908975531 0 0.47440041899528501 -0.16298873485845719 0 0.46834799031954211 -0.17915452781490099 0 0.48419704391512092 -0.17843144908975531 0 0.47823681026078202 -0.19812675643970101 0 0.48419704391512092 -0.17843144908975531 0 0.49999999999999523 -0.16129136607226169 0 0.5 -0.1905958602634561 0 0.49999999999999523 -0.16129136607226169 0 0.47440041899528501 -0.16298873485845719 0 0.50000000000000067 -0.1547763741112759 0 0.48419704391512092 -0.17843144908975531 0 0.49999999999999523 -0.16129136607226169 0 0.47440041899528501 -0.16298873485845719 0 0.49999999999999523 -0.16129136607226169 0 0.47440041899528501 -0.16298873485845719 0 0.46138481906560302 -0.14686228775601681 0 0.47440041899528501 -0.16298873485845719 0 0.48128698321344371 -0.14003357648102521 0 0.46381730130484328 -0.1363472541609663 0 0.46138481906560302 -0.14686228775601681 0 0.48128698321344371 -0.14003357648102521 0 0.50000000000000067 -0.1547763741112759 0 0.48128698321344371 -0.14003357648102521 0 0.50000000000000067 -0.1547763741112759 0 0.5 -0.13349841451636779 0 0.48128698321344371 -0.14003357648102521 0 0.47440041899528501 -0.16298873485845719 0 0.50000000000000067 -0.1547763741112759 0 0.48128698321344371 -0.14003357648102521 0 0.48087269318342413 -0.1216818802472065 0 0.5 -0.13349841451636779 0 0.48128698321344371 -0.14003357648102521 0 0.46257396642688631 -0.12529077885077469 0 0.48128698321344371 -0.14003357648102521 0 0.46257396642688631 -0.12529077885077469 0 0.46381730130484328 -0.1363472541609663 0 0.48128698321344371 -0.14003357648102521 0 0.47129126618897188 -0.1223351355815797 0 0.48087269318342413 -0.1216818802472065 0 0.48128698321344371 -0.14003357648102521 0 0.47129126618897188 -0.1223351355815797 0 0.46257396642688631 -0.12529077885077469 0 0.48128698321344371 -0.14003357648102521 0 0.46029750420545162 -0.23134667767863379 0 0.45079963313025367 -0.219495204315066 0 0.46126535540865482 -0.21094244298034759 0 0.46029750420545162 -0.23134667767863379 0 0.46126535540865482 -0.21094244298034759 0 0.47937109712497578 -0.22608105856418539 0 0.46029750420545162 -0.23134667767863379 0 0.44856132313442931 -0.24393079079591279 0 0.47387431588802909 -0.25499376211151131 0 0.46029750420545162 -0.23134667767863379 0 0.44856132313442931 -0.24393079079591279 0 0.44416109061426973 -0.22983272991065171 0 0.43458399188612801 -0.2397076170126072 0 0.44856132313442931 -0.24393079079591279 0 0.4372088962240912 -0.25169219704383999 0 0.43458399188612801 -0.2397076170126072 0 0.44856132313442931 -0.24393079079591279 0 0.44416109061426973 -0.22983272991065171 0 0.46029750420545162 -0.23134667767863379 0 0.44416109061426973 -0.22983272991065171 0 0.45079963313025367 -0.219495204315066 0 0.44416109061426973 -0.22983272991065171 0 0.45079963313025367 -0.219495204315066 0 0.44009267276725389 -0.2176624614444449 0 0.42988092584916948 -0.2249579995083304 0 0.44416109061426973 -0.22983272991065171 0 0.44009267276725389 -0.2176624614444449 0 0.45079963313025367 -0.219495204315066 0 0.44355474576021348 -0.2050869029196882 0 0.46126535540865482 -0.21094244298034759 0 0.43006687167525981 -0.21185300334864521 0 0.44009267276725389 -0.2176624614444449 0 0.44355474576021348 -0.2050869029196882 0 0.45079963313025367 -0.219495204315066 0 0.44009267276725389 -0.2176624614444449 0 0.44355474576021348 -0.2050869029196882 0 0.43844209377108118 -0.18689286854296691 0 0.44355474576021348 -0.2050869029196882 0 0.45508032593701309 -0.1914137801830845 0 0.46834799031954211 -0.17915452781490099 0 0.45508032593701309 -0.1914137801830845 0 0.47823681026078202 -0.19812675643970101 0 0.44355474576021348 -0.2050869029196882 0 0.45508032593701309 -0.1914137801830845 0 0.46126535540865482 -0.21094244298034759 0 0.45508032593701309 -0.1914137801830845 0 0.46126535540865482 -0.21094244298034759 0 0.47823681026078202 -0.19812675643970101 0 0.46126535540865482 -0.21094244298034759 0 0.47823681026078202 -0.19812675643970101 0 0.47937109712497578 -0.22608105856418539 0 0.48419704391512092 -0.17843144908975531 0 0.47823681026078202 -0.19812675643970101 0 0.5 -0.1905958602634561 0 0.47823681026078202 -0.19812675643970101 0 0.5 -0.1905958602634561 0 0.5 -0.21990035445465039 0 0.47823681026078202 -0.19812675643970101 0 0.5 -0.21990035445465039 0 0.47937109712497578 -0.22608105856418539 0 0.5 -0.21990035445465039 0 0.47937109712497578 -0.22608105856418539 0 0.50000000000000444 -0.24920484864584491 0 0.46029750420545162 -0.23134667767863379 0 0.47937109712497578 -0.22608105856418539 0 0.47387431588802909 -0.25499376211151131 0 0.47937109712497578 -0.22608105856418539 0 0.50000000000000444 -0.24920484864584491 0 0.47387431588802909 -0.25499376211151131 0 0.50000000000000444 -0.24920484864584491 0 0.4915669900217115 -0.25615479242606781 0 0.5 -0.27170772691138367 0 0.50000000000000444 -0.24920484864584491 0 0.4915669900217115 -0.25615479242606781 0 0.47387431588802909 -0.25499376211151131 0 0.50000000000000444 -0.24920484864584491 0 0.47387431588802909 -0.25499376211151131 0 0.4915669900217115 -0.25615479242606781 0 0.48280749151585822 -0.27129304150170008 0 0.47954864786353962 -0.26301133191085868 0 0.4915669900217115 -0.25615479242606781 0 0.5 -0.27170772691138367 0 0.48280749151585822 -0.27129304150170008 0 0.5 -0.27170772691138367 0 0.48280749151585822 -0.27129304150170008 0 0.48951500520952212 -0.28458010338455908 0 0.48280749151585822 -0.27129304150170008 0 0.47474596181800061 -0.28621450290334632 0 0.48951500520952212 -0.28458010338455908 0 0.48280749151585822 -0.27129304150170008 0 0.47416229901770612 -0.26612875971404459 0 0.47954864786353962 -0.26301133191085868 0 0.48280749151585822 -0.27129304150170008 0 0.47416229901770612 -0.26612875971404459 0 0.47052118473631321 -0.27447720361836658 0 0.47416229901770612 -0.26612875971404459 0 0.47052118473631321 -0.27447720361836658 0 0.46319689217890331 -0.26835660325056299 0 0.48280749151585822 -0.27129304150170008 0 0.47052118473631321 -0.27447720361836658 0 0.47474596181800061 -0.28621450290334632 0 0.4915669900217115 -0.25615479242606781 0 0.46965781089888248 -0.25846873400162218 0 0.4915669900217115 -0.25615479242606781 0 0.47387431588802909 -0.25499376211151131 0 0.46965781089888248 -0.25846873400162218 0 0.4915669900217115 -0.25615479242606781 0 0.47954864786353962 -0.26301133191085868 0 0.46965781089888248 -0.25846873400162218 0 0.47416229901770612 -0.26612875971404459 0 0.47954864786353962 -0.26301133191085868 0 0.46965781089888248 -0.25846873400162218 0 0.47416229901770612 -0.26612875971404459 0 0.46965781089888248 -0.25846873400162218 0 0.46319689217890331 -0.26835660325056299 0 0.46965781089888248 -0.25846873400162218 0 0.46319689217890331 -0.26835660325056299 0 0.4477486317760534 -0.26078267557717671 0 0.44856132313442931 -0.24393079079591279 0 0.47387431588802909 -0.25499376211151131 0 0.4477486317760534 -0.26078267557717671 0 0.47387431588802909 -0.25499376211151131 0 0.4477486317760534 -0.26078267557717671 0 0.46965781089888248 -0.25846873400162218 0 0.4477486317760534 -0.26078267557717671 0 0.47387431588802909 -0.25499376211151131 0 0.46965781089888248 -0.25846873400162218 0 0.4477486317760534 -0.26078267557717671 0 0.47052118473631321 -0.27447720361836658 0 0.45389453446556111 -0.28192564334160541 0 0.47474596181800061 -0.28621450290334632 0 0.47052118473631321 -0.27447720361836658 0 0.46319689217890331 -0.26835660325056299 0 0.45389453446556111 -0.28192564334160541 0 0.46319689217890331 -0.26835660325056299 0 0.4477486317760534 -0.26078267557717671 0 0.45389453446556111 -0.28192564334160541 0 0.45389453446556111 -0.28192564334160541 0 0.430823863629894 -0.26453285558412298 0 0.45389453446556111 -0.28192564334160541 0 0.430823863629894 -0.26453285558412298 0 0.43570592202634773 -0.28205449164250063 0 0.4477486317760534 -0.26078267557717671 0 0.45389453446556111 -0.28192564334160541 0 0.430823863629894 -0.26453285558412298 0 0.4477486317760534 -0.26078267557717671 0 0.42854038242645709 -0.26281135800815408 0 0.44856132313442931 -0.24393079079591279 0 0.4477486317760534 -0.26078267557717671 0 0.4372088962240912 -0.25169219704383999 0 0.4477486317760534 -0.26078267557717671 0 0.42854038242645709 -0.26281135800815408 0 0.4372088962240912 -0.25169219704383999 0 0.4477486317760534 -0.26078267557717671 0 0.430823863629894 -0.26453285558412298 0 0.44815314542162782 -0.30273998798419938 0 0.44271266904340639 -0.31513600928105973 0 0.43092107089682352 -0.30573631325696571 0 0.44815314542162782 -0.30273998798419938 0 0.43874415768382158 -0.29310671547163403 0 0.43092107089682352 -0.30573631325696571 0 0.43874415768382158 -0.29310671547163403 0 0.45389453446556111 -0.28192564334160541 0 0.43570592202634773 -0.28205449164250063 0 0.44815314542162782 -0.30273998798419938 0 0.43874415768382158 -0.29310671547163403 0 0.45389453446556111 -0.28192564334160541 0 0.45389453446556111 -0.28192564334160541 0 0.46668010371271101 -0.29937682325086112 0 0.47474596181800061 -0.28621450290334632 0 0.44815314542162782 -0.30273998798419938 0 0.45389453446556111 -0.28192564334160541 0 0.46668010371271101 -0.29937682325086112 0 0.46668010371271101 -0.29937682325086112 0 0.45907432653114449 -0.32014896664993769 0 0.44815314542162782 -0.30273998798419938 0 0.46668010371271101 -0.29937682325086112 0 0.45907432653114449 -0.32014896664993769 0 0.46668010371271101 -0.29937682325086112 0 0.48375110351916628 -0.30725513966339157 0 0.45907432653114449 -0.32014896664993769 0 0.46668010371271101 -0.29937682325086112 0 0.48375110351916628 -0.30725513966339157 0 0.47474596181800061 -0.28621450290334632 0 0.48375110351916628 -0.30725513966339157 0 0.47474596181800061 -0.28621450290334632 0 0.48951500520952212 -0.28458010338455908 0 0.48375110351916628 -0.30725513966339157 0 0.5 -0.29421060517692271 0 0.48951500520952212 -0.28458010338455908 0 0.5 -0.27170772691138367 0 0.5 -0.29421060517692271 0 0.48951500520952212 -0.28458010338455908 0 0.48375110351916628 -0.30725513966339157 0 0.5 -0.29421060517692271 0 0.49999999999999972 -0.31671348344246159 0 0.48375110351916628 -0.30725513966339157 0 0.49999999999999972 -0.31671348344246159 0 0.48658745812515303 -0.32591538654610069 0 0.49999999999999972 -0.31671348344246159 0 0.49107839048707969 -0.33844651150006611 0 0.49999999999999972 -0.31671348344246159 0 0.48658745812515303 -0.32591538654610069 0 0.49107839048707969 -0.33844651150006611 0 0.49999999999999972 -0.31671348344246159 0 0.5 -0.34354646621870782 0 0.49107839048707969 -0.33844651150006611 0 0.48658745812515303 -0.32591538654610069 0 0.49107839048707969 -0.33844651150006611 0 0.48013111160135669 -0.33592777501669763 0 0.48658745812515303 -0.32591538654610069 0 0.48013111160135669 -0.33592777501669763 0 0.47588582758327369 -0.32632043512378739 0 0.48013111160135669 -0.33592777501669763 0 0.46883970942210401 -0.33989811375075968 0 0.47588582758327369 -0.32632043512378739 0 0.48375110351916628 -0.30725513966339157 0 0.48658745812515303 -0.32591538654610069 0 0.47588582758327369 -0.32632043512378739 0 0.48375110351916628 -0.30725513966339157 0 0.47588582758327369 -0.32632043512378739 0 0.45907432653114449 -0.32014896664993769 0 0.5 -0.37037944899495368 0 0.48466784746851571 -0.3739080713738358 0 0.48215678097416009 -0.36017953955767068 0 0.5 -0.34354646621870782 0 0.49107839048707969 -0.33844651150006611 0 0.48215678097416009 -0.36017953955767068 0 0.49107839048707969 -0.33844651150006611 0 0.48013111160135669 -0.33592777501669763 0 0.48215678097416009 -0.36017953955767068 0 0.5 -0.34354646621870782 0 0.5 -0.37037944899495368 0 0.48215678097416009 -0.36017953955767068 0 0.49107839048707969 -0.33844651150006611 0 0.48215678097416009 -0.36017953955767068 0 0.48013111160135669 -0.33592777501669763 0 0.46883970942210401 -0.33989811375075968 0 0.48215678097416009 -0.36017953955767068 0 0.46883970942210401 -0.33989811375075968 0 0.48215678097416009 -0.36017953955767068 0 0.46166172922915721 -0.35810144835948332 0 0.48215678097416009 -0.36017953955767068 0 0.47323517146124039 -0.38191256761527542 0 0.48215678097416009 -0.36017953955767068 0 0.4671179630262795 -0.37324494563770522 0 0.47323517146124039 -0.38191256761527542 0 0.48466784746851571 -0.3739080713738358 0 0.48215678097416009 -0.36017953955767068 0 0.47323517146124039 -0.38191256761527542 0 0.48215678097416009 -0.36017953955767068 0 0.4671179630262795 -0.37324494563770522 0 0.46166172922915721 -0.35810144835948332 0 0.45652460043480969 -0.37267172771365881 0 0.46166172922915721 -0.35810144835948332 0 0.44386277216801179 -0.36169325344809122 0 0.45652460043480969 -0.37267172771365881 0 0.4671179630262795 -0.37324494563770522 0 0.46166172922915721 -0.35810144835948332 0 0.46883970942210401 -0.33989811375075968 0 0.46166172922915721 -0.35810144835948332 0 0.45146854934957792 -0.34092111004901438 0 0.43963091224731599 -0.34751792105314822 0 0.44386277216801179 -0.36169325344809122 0 0.45146854934957792 -0.34092111004901438 0 0.44386277216801179 -0.36169325344809122 0 0.45146854934957792 -0.34092111004901438 0 0.46166172922915721 -0.35810144835948332 0 0.44386277216801179 -0.36169325344809122 0 0.45146854934957792 -0.34092111004901438 0 0.44386277216801179 -0.36169325344809122 0 0.43376943787959182 -0.36708850497004442 0 0.43808065797110041 -0.37748478958974491 0 0.45652460043480969 -0.37267172771365881 0 0.44386277216801179 -0.36169325344809122 0 0.44783900322824399 -0.38008781189722518 0 0.44386277216801179 -0.36169325344809122 0 0.43808065797110041 -0.37748478958974491 0 0.44386277216801179 -0.36169325344809122 0 0.43808065797110041 -0.37748478958974491 0 0.44783900322824399 -0.38008781189722518 0 0.45652460043480969 -0.37267172771365881 0 0.44386277216801179 -0.36169325344809122 0 0.46883970942210401 -0.33989811375075968 0 0.45907432653114449 -0.32014896664993769 0 0.45146854934957792 -0.34092111004901438 0 0.45907432653114449 -0.32014896664993769 0 0.45146854934957792 -0.34092111004901438 0 0.46883970942210401 -0.33989811375075968 0 0.47588582758327369 -0.32632043512378739 0 0.45907432653114449 -0.32014896664993769 0 0.43963091224731599 -0.34751792105314822 0 0.45146854934957792 -0.34092111004901438 0 0.43565299676263758 -0.3352386806192425 0 0.45146854934957792 -0.34092111004901438 0 0.44493724809618768 -0.32603283426431229 0 0.43565299676263758 -0.3352386806192425 0 0.45907432653114449 -0.32014896664993769 0 0.45146854934957792 -0.34092111004901438 0 0.44493724809618768 -0.32603283426431229 0 0.45907432653114449 -0.32014896664993769 0 0.44493724809618768 -0.32603283426431229 0 0.44271266904340639 -0.31513600928105973 0 0.44493724809618768 -0.32603283426431229 0 0.44271266904340639 -0.31513600928105973 0 0.43047755427124879 -0.32102194424988317 0 0.44815314542162782 -0.30273998798419938 0 0.45907432653114449 -0.32014896664993769 0 0.44271266904340639 -0.31513600928105973 0 0.44271266904340639 -0.31513600928105973 0 0.43047755427124879 -0.32102194424988317 0 0.43092107089682352 -0.30573631325696571 0 0.43047755427124879 -0.32102194424988317 0 0.41919911313656122 -0.31385112706466711 0 0.41739686236043672 -0.32199345155319897 0 0.43047755427124879 -0.32102194424988317 0 0.41919911313656122 -0.31385112706466711 0 0.43092107089682352 -0.30573631325696571 0 0.43047755427124879 -0.32102194424988317 0 0.42053718701310799 -0.32957674384091618 0 0.41739686236043672 -0.32199345155319897 0 0.44493724809618768 -0.32603283426431229 0 0.43047755427124879 -0.32102194424988317 0 0.43565299676263758 -0.3352386806192425 0 0.43565299676263758 -0.3352386806192425 0 0.42053718701310799 -0.32957674384091618 0 0.4250793590774925 -0.34540704162396091 0 0.43963091224731599 -0.34751792105314822 0 0.43565299676263758 -0.3352386806192425 0 0.4250793590774925 -0.34540704162396091 0 0.43047755427124879 -0.32102194424988317 0 0.43565299676263758 -0.3352386806192425 0 0.42053718701310799 -0.32957674384091618 0 0.4062959459869725 -0.32912082979983148 0 0.4250793590774925 -0.34540704162396091 0 0.41055923831377589 -0.34398547157316572 0 0.42053718701310799 -0.32957674384091618 0 0.4062959459869725 -0.32912082979983148 0 0.4250793590774925 -0.34540704162396091 0 0.4062959459869725 -0.32912082979983148 0 0.4250793590774925 -0.34540704162396091 0 0.42053718701310799 -0.32957674384091618 0 0.4062959459869725 -0.32912082979983148 0 0.40802480504278882 -0.32457497099322458 0 0.4062959459869725 -0.32912082979983148 0 0.40802480504278882 -0.32457497099322458 0 0.4062959459869725 -0.32912082979983148 0 0.40802480504278882 -0.32457497099322458 0 0.40572459905769331 -0.31910551143285631 0 0.40802480504278882 -0.32457497099322458 0 0.4119015194344513 -0.31818912214386269 0 0.41739686236043672 -0.32199345155319897 0 0.40802480504278882 -0.32457497099322458 0 0.4119015194344513 -0.31818912214386269 0 0.40572459905769331 -0.31910551143285631 0 0.4119015194344513 -0.31818912214386269 0 0.41919911313656122 -0.31385112706466711 0 0.40916221757477672 -0.31142054967536659 0 0.4119015194344513 -0.31818912214386269 0 0.40572459905769331 -0.31910551143285631 0 0.40916221757477672 -0.31142054967536659 0 0.4119015194344513 -0.31818912214386269 0 0.41919911313656122 -0.31385112706466711 0 0.41739686236043672 -0.32199345155319897 0 0.42053718701310799 -0.32957674384091618 0 0.40802480504278882 -0.32457497099322458 0 0.41739686236043672 -0.32199345155319897 0 0.44386277216801179 -0.36169325344809122 0 0.43376943787959182 -0.36708850497004442 0 0.42728564025893462 -0.35958684797927032 0 0.42489657602010461 -0.37065940299189432 0 0.43376943787959182 -0.36708850497004442 0 0.43808065797110041 -0.37748478958974491 0 0.42489657602010461 -0.37065940299189432 0 0.43376943787959182 -0.36708850497004442 0 0.42728564025893462 -0.35958684797927032 0 0.44386277216801179 -0.36169325344809122 0 0.4250793590774925 -0.34540704162396091 0 0.43963091224731599 -0.34751792105314822 0 0.44386277216801179 -0.36169325344809122 0 0.4250793590774925 -0.34540704162396091 0 0.44386277216801179 -0.36169325344809122 0 0.42728564025893462 -0.35958684797927032 0 0.4250793590774925 -0.34540704162396091 0 0.42728564025893462 -0.35958684797927032 0 0.4250793590774925 -0.34540704162396091 0 0.41069622259092692 -0.35617360609135817 0 0.4250793590774925 -0.34540704162396091 0 0.41055923831377589 -0.34398547157316572 0 0.41069622259092692 -0.35617360609135817 0 0.41055923831377589 -0.34398547157316572 0 0.41069622259092692 -0.35617360609135817 0 0.40016542559971202 -0.34524040877751239 0 0.42489657602010461 -0.37065940299189432 0 0.42728564025893462 -0.35958684797927032 0 0.41069622259092692 -0.35617360609135817 0 0.42489657602010461 -0.37065940299189432 0 0.41069622259092692 -0.35617360609135817 0 0.4070765621089808 -0.37107032214525337 0 0.42489657602010461 -0.37065940299189432 0 0.41069622259092692 -0.35617360609135817 0 0.39585190457779329 -0.37201308858561799 0 0.3940349052124521 -0.36135998775519362 0 0.38601585554704992 -0.38244526212700758 0 0.41069622259092692 -0.35617360609135817 0 0.4070765621089808 -0.37107032214525337 0 0.3940349052124521 -0.36135998775519362 0 0.4070765621089808 -0.37107032214525337 0 0.39585190457779329 -0.37201308858561799 0 0.3940349052124521 -0.36135998775519362 0 0.39585190457779329 -0.37201308858561799 0 0.3940349052124521 -0.36135998775519362 0 0.3940349052124521 -0.36135998775519362 0 0.40016542559971202 -0.34524040877751239 0 0.38974443050024338 -0.33620485529262373 0 0.3940349052124521 -0.36135998775519362 0 0.38974443050024338 -0.33620485529262373 0 0.3940349052124521 -0.36135998775519362 0 0.40016542559971202 -0.34524040877751239 0 0.41069622259092692 -0.35617360609135817 0 0.3940349052124521 -0.36135998775519362 0 0.40016542559971202 -0.34524040877751239 0 0.3940349052124521 -0.36135998775519362 0 0.38974443050024338 -0.33620485529262373 0 0.37368731816096312 -0.34897020548070451 0 0.3940349052124521 -0.36135998775519362 0 0.38601585554704992 -0.38244526212700758 0 0.3940349052124521 -0.36135998775519362 0 0.38601585554704992 -0.38244526212700758 0 0.3689120952668708 -0.37284951495870189 0 0.3940349052124521 -0.36135998775519362 0 0.3689120952668708 -0.37284951495870189 0 0.37368731816096312 -0.34897020548070451 0 0.4062959459869725 -0.32912082979983148 0 0.40572459905769331 -0.31910551143285631 0 0.39816778062817881 -0.31191488097197773 0 0.4062959459869725 -0.32912082979983148 0 0.38974443050024338 -0.33620485529262373 0 0.38545395578803499 -0.31104972283005378 0 0.4062959459869725 -0.32912082979983148 0 0.38545395578803499 -0.31104972283005378 0 0.4062959459869725 -0.32912082979983148 0 0.38545395578803499 -0.31104972283005378 0 0.39816778062817881 -0.31191488097197773 0 0.40572459905769331 -0.31910551143285631 0 0.39816778062817881 -0.31191488097197773 0 0.40916221757477672 -0.31142054967536659 0 0.4062959459869725 -0.32912082979983148 0 0.40016542559971202 -0.34524040877751239 0 0.38974443050024338 -0.33620485529262373 0 0.4062959459869725 -0.32912082979983148 0 0.40016542559971202 -0.34524040877751239 0 0.4062959459869725 -0.32912082979983148 0 0.41055923831377589 -0.34398547157316572 0 0.40016542559971202 -0.34524040877751239 0 0.38974443050024338 -0.33620485529262373 0 0.36945761595668469 -0.32738841673247931 0 0.37368731816096312 -0.34897020548070451 0 0.38974443050024338 -0.33620485529262373 0 0.38545395578803499 -0.31104972283005378 0 0.36945761595668469 -0.32738841673247931 0 0.38974443050024338 -0.33620485529262373 0 0.38545395578803499 -0.31104972283005378 0 0.38545395578803499 -0.31104972283005378 0 0.38245755150739558 -0.29348174920317632 0 0.37101427446782781 -0.29852975601036341 0 0.38545395578803499 -0.31104972283005378 0 0.38245755150739558 -0.29348174920317632 0 0.38545395578803499 -0.31104972283005378 0 0.37101427446782781 -0.29852975601036341 0 0.38545395578803499 -0.31104972283005378 0 0.39567659353887108 -0.29306988619604551 0 0.38245755150739558 -0.29348174920317632 0 0.39816778062817881 -0.31191488097197773 0 0.40563314249086863 -0.30155395497769039 0 0.39567659353887108 -0.29306988619604551 0 0.38545395578803499 -0.31104972283005378 0 0.39816778062817881 -0.31191488097197773 0 0.39567659353887108 -0.29306988619604551 0 0.39816778062817881 -0.31191488097197773 0 0.40563314249086863 -0.30155395497769039 0 0.40916221757477672 -0.31142054967536659 0 0.39567659353887108 -0.29306988619604551 0 0.40514250542832608 -0.27022331558021301 0 0.41160024963212011 -0.28933460066763711 0 0.40563314249086863 -0.30155395497769039 0 0.39567659353887108 -0.29306988619604551 0 0.41160024963212011 -0.28933460066763711 0 0.38245755150739558 -0.29348174920317632 0 0.37946114722675722 -0.27591377557629859 0 0.39567659353887108 -0.29306988619604551 0 0.38245755150739558 -0.29348174920317632 0 0.37946114722675722 -0.27591377557629859 0 0.38245755150739558 -0.29348174920317632 0 0.37795999762798671 -0.28395322059410122 0 0.37946114722675722 -0.27591377557629859 0 0.37519981906117678 -0.29055939022370142 0 0.38245755150739558 -0.29348174920317632 0 0.37101427446782781 -0.29852975601036341 0 0.37519981906117678 -0.29055939022370142 0 0.38245755150739558 -0.29348174920317632 0 0.37795999762798671 -0.28395322059410122 0 0.37795999762798671 -0.28395322059410122 0 0.37946114722675722 -0.27591377557629859 0 0.37739853904771847 -0.27637080706343392 0 0.37739853904771847 -0.27637080706343392 0 0.37683953433427181 -0.26882153263446662 0 0.37273728942595791 -0.27740364396778311 0 0.37795999762798671 -0.28395322059410122 0 0.37739853904771847 -0.27637080706343392 0 0.37273728942595791 -0.27740364396778311 0 0.37946114722675722 -0.27591377557629859 0 0.38774772661347989 -0.26664574742688191 0 0.3964002279028962 -0.26984905957103239 0 0.37946114722675722 -0.27591377557629859 0 0.3964002279028962 -0.26984905957103239 0 0.37795999762798671 -0.28395322059410122 0 0.37739853904771847 -0.27637080706343392 0 0.37739853904771847 -0.27637080706343392 0 0.37273728942595791 -0.27740364396778311 0 0.37946114722675722 -0.27591377557629859 0 0.37739853904771847 -0.27637080706343392 0 0.37683953433427181 -0.26882153263446662 0 0.37946114722675722 -0.27591377557629859 0 0.37739853904771847 -0.27637080706343392 0 0.37946114722675722 -0.27591377557629859 0 0.37843581040967561 -0.26746760801825881 0 0.38284686623937531 -0.26497045393317709 0 0.37946114722675722 -0.27591377557629859 0 0.37683953433427181 -0.26882153263446662 0 0.37843581040967561 -0.26746760801825881 0 0.37739853904771847 -0.27637080706343392 0 0.37683953433427181 -0.26882153263446662 0 0.37683953433427181 -0.26882153263446662 0 0.37843581040967561 -0.26746760801825881 0 0.37946114722675722 -0.27591377557629859 0 0.38774772661347989 -0.26664574742688191 0 0.38284686623937531 -0.26497045393317709 0 0.37477580018058132 -0.24095111383496479 0 0.37683953433427181 -0.26882153263446662 0 0.38107906364546162 -0.25934379353391329 0 0.37477580018058132 -0.24095111383496479 0 0.37683953433427181 -0.26882153263446662 0 0.37477580018058132 -0.24095111383496479 0 0.38107906364546162 -0.25934379353391329 0 0.38725375881062551 -0.25185160038302579 0 0.37843581040967561 -0.26746760801825881 0 0.38107906364546162 -0.25934379353391329 0 0.38284686623937531 -0.26497045393317709 0 0.37683953433427181 -0.26882153263446662 0 0.37843581040967561 -0.26746760801825881 0 0.38107906364546162 -0.25934379353391329 0 0.38107906364546162 -0.25934379353391329 0 0.38632261189823958 -0.26200045239958702 0 0.38284686623937531 -0.26497045393317709 0 0.38774772661347989 -0.26664574742688191 0 0.38632261189823958 -0.26200045239958702 0 0.38284686623937531 -0.26497045393317709 0 0.38774772661347989 -0.26664574742688191 0 0.38955528694719099 -0.2630172622662057 0 0.39295554709344072 -0.26445586107842978 0 0.38774772661347989 -0.26664574742688191 0 0.38632261189823958 -0.26200045239958702 0 0.38955528694719099 -0.2630172622662057 0 0.38632261189823958 -0.26200045239958702 0 0.38955528694719099 -0.2630172622662057 0 0.39119526218360401 -0.25896698815992442 0 0.38632261189823958 -0.26200045239958702 0 0.38725375881062551 -0.25185160038302579 0 0.39119526218360401 -0.25896698815992442 0 0.38107906364546162 -0.25934379353391329 0 0.38632261189823958 -0.26200045239958702 0 0.38725375881062551 -0.25185160038302579 0 0.40314688718896508 -0.2619981766022052 0 0.39707581272688741 -0.26613449373937459 0 0.41345304600685079 -0.26440480953867462 0 0.39707581272688741 -0.26613449373937459 0 0.41345304600685079 -0.26440480953867462 0 0.38725375881062551 -0.25185160038302579 0 0.39640803358832022 -0.25154779433757402 0 0.39119526218360401 -0.25896698815992442 0 0.39640803358832022 -0.25154779433757402 0 0.39702034872720737 -0.26014738253762237 0 0.39119526218360401 -0.25896698815992442 0 0.39702034872720737 -0.26014738253762237 0 0.39119526218360401 -0.25896698815992442 0 0.39295554709344072 -0.26445586107842978 0 0.38955528694719099 -0.2630172622662057 0 0.39119526218360401 -0.25896698815992442 0 0.39295554709344072 -0.26445586107842978 0 0.39702034872720737 -0.26014738253762237 0 0.39295554709344072 -0.26445586107842978 0 0.39707581272688741 -0.26613449373937459 0 0.39702034872720737 -0.26014738253762237 0 0.40314688718896508 -0.2619981766022052 0 0.39707581272688741 -0.26613449373937459 0 0.40314688718896508 -0.2619981766022052 0 0.40257909468765629 -0.25704117102420471 0 0.40998094690083942 -0.2590606397541646 0 0.39702034872720737 -0.26014738253762237 0 0.40314688718896508 -0.2619981766022052 0 0.40257909468765629 -0.25704117102420471 0 0.39640803358832022 -0.25154779433757402 0 0.39702034872720737 -0.26014738253762237 0 0.40257909468765629 -0.25704117102420471 0 0.41087794879613182 -0.2494957955088617 0 0.39640803358832022 -0.25154779433757402 0 0.40257909468765629 -0.25704117102420471 0 0.40514250542832608 -0.27022331558021301 0 0.3964002279028962 -0.26984905957103239 0 0.41345304600685079 -0.26440480953867462 0 0.37946114722675722 -0.27591377557629859 0 0.40514250542832608 -0.27022331558021301 0 0.3964002279028962 -0.26984905957103239 0 0.39707581272688741 -0.26613449373937459 0 0.3964002279028962 -0.26984905957103239 0 0.41345304600685079 -0.26440480953867462 0 0.37946114722675722 -0.27591377557629859 0 0.40514250542832608 -0.27022331558021301 0 0.3964002279028962 -0.26984905957103239 0 0.41345304600685079 -0.26440480953867462 0 0.39567659353887108 -0.29306988619604551 0 0.37946114722675722 -0.27591377557629859 0 0.40514250542832608 -0.27022331558021301 0 0.38774772661347989 -0.26664574742688191 0 0.39295554709344072 -0.26445586107842978 0 0.3964002279028962 -0.26984905957103239 0 0.39295554709344072 -0.26445586107842978 0 0.39707581272688741 -0.26613449373937459 0 0.3964002279028962 -0.26984905957103239 0 0.40514250542832608 -0.27022331558021301 0 0.41345304600685079 -0.26440480953867462 0 0.430823863629894 -0.26453285558412298 0 0.40514250542832608 -0.27022331558021301 0 0.430823863629894 -0.26453285558412298 0 0.40514250542832608 -0.27022331558021301 0 0.42166373126508722 -0.27984448092147479 0 0.41160024963212011 -0.28933460066763711 0 0.40514250542832608 -0.27022331558021301 0 0.42166373126508722 -0.27984448092147479 0 0.430823863629894 -0.26453285558412298 0 0.41087794879613182 -0.2494957955088617 0 0.41984775782459283 -0.2623632460968765 0 0.42854038242645709 -0.26281135800815408 0 0.41087794879613182 -0.2494957955088617 0 0.42854038242645709 -0.26281135800815408 0 0.41087794879613182 -0.2494957955088617 0 0.40257909468765629 -0.25704117102420471 0 0.40998094690083942 -0.2590606397541646 0 0.41087794879613182 -0.2494957955088617 0 0.40998094690083942 -0.2590606397541646 0 0.41984775782459283 -0.2623632460968765 0 0.40314688718896508 -0.2619981766022052 0 0.40998094690083942 -0.2590606397541646 0 0.41345304600685079 -0.26440480953867462 0 0.41345304600685079 -0.26440480953867462 0 0.41984775782459283 -0.2623632460968765 0 0.42854038242645709 -0.26281135800815408 0 0.40998094690083942 -0.2590606397541646 0 0.41345304600685079 -0.26440480953867462 0 0.41984775782459283 -0.2623632460968765 0 0.41345304600685079 -0.26440480953867462 0 0.42854038242645709 -0.26281135800815408 0 0.41345304600685079 -0.26440480953867462 0 0.41984775782459283 -0.2623632460968765 0 0.42656562700980838 -0.24831468624349931 0 0.41087794879613182 -0.2494957955088617 0 0.42854038242645709 -0.26281135800815408 0 0.4477486317760534 -0.26078267557717671 0 0.42854038242645709 -0.26281135800815408 0 0.430823863629894 -0.26453285558412298 0 0.41345304600685079 -0.26440480953867462 0 0.42854038242645709 -0.26281135800815408 0 0.430823863629894 -0.26453285558412298 0 0.42854038242645709 -0.26281135800815408 0 0.430823863629894 -0.26453285558412298 0 0.42656562700980838 -0.24831468624349931 0 0.42854038242645709 -0.26281135800815408 0 0.4372088962240912 -0.25169219704383999 0 0.42166373126508722 -0.27984448092147479 0 0.430823863629894 -0.26453285558412298 0 0.43570592202634773 -0.28205449164250063 0 0.42166373126508722 -0.27984448092147479 0 0.43570592202634773 -0.28205449164250063 0 0.42504611560874761 -0.29307714113289868 0 0.43874415768382158 -0.29310671547163403 0 0.43570592202634773 -0.28205449164250063 0 0.42504611560874761 -0.29307714113289868 0 0.43874415768382158 -0.29310671547163403 0 0.42504611560874761 -0.29307714113289868 0 0.43092107089682352 -0.30573631325696571 0 0.41919911313656122 -0.31385112706466711 0 0.43092107089682352 -0.30573631325696571 0 0.41692698488998292 -0.30249561446253759 0 0.42504611560874761 -0.29307714113289868 0 0.43092107089682352 -0.30573631325696571 0 0.41692698488998292 -0.30249561446253759 0 0.41919911313656122 -0.31385112706466711 0 0.41692698488998292 -0.30249561446253759 0 0.40916221757477672 -0.31142054967536659 0 0.40563314249086863 -0.30155395497769039 0 0.41692698488998292 -0.30249561446253759 0 0.40916221757477672 -0.31142054967536659 0 0.40563314249086863 -0.30155395497769039 0 0.41692698488998292 -0.30249561446253759 0 0.41160024963212011 -0.28933460066763711 0 0.42166373126508722 -0.27984448092147479 0 0.42504611560874761 -0.29307714113289868 0 0.41160024963212011 -0.28933460066763711 0 0.42504611560874761 -0.29307714113289868 0 0.41692698488998292 -0.30249561446253759 0 0.41160024963212011 -0.28933460066763711 0 0.5 -0.5 0 0.47532784176218862 -0.47257481327436679 0 0.43264288253940292 -0.48275234633568048 0 0.5 -0.5 0 0.41749257905485199 -0.50000000000000033 0 0.43264288253940292 -0.48275234633568048 0 0.47532784176218862 -0.47257481327436679 0 0.44779318602395363 -0.46550469267136052 0 0.43264288253940292 -0.48275234633568048 0 0.44779318602395363 -0.46550469267136052 0 0.43264288253940292 -0.48275234633568048 0 0.5 -0.5 0 0.47532784176218862 -0.47257481327436679 0 0.49999999999999828 -0.44642064777577001 0 0.47532784176218862 -0.47257481327436679 0 0.47918453573141367 -0.4495963838019249 0 0.46294348950850428 -0.44825703900704061 0 0.47532784176218862 -0.47257481327436679 0 0.49999999999999828 -0.44642064777577001 0 0.47918453573141367 -0.4495963838019249 0 0.49999999999999828 -0.44642064777577001 0 0.47846681165496419 -0.4311330351505217 0 0.49999999999999828 -0.44642064777577001 0 0.47918453573141367 -0.4495963838019249 0 0.47846681165496419 -0.4311330351505217 0 0.47918453573141367 -0.4495963838019249 0 0.46294348950850428 -0.44825703900704061 0 0.47846681165496419 -0.4311330351505217 0 0.46294348950850428 -0.44825703900704061 0 0.44442683605218691 -0.44583817528272968 0 0.45721208074107311 -0.43281318479414382 0 0.46294348950850428 -0.44825703900704061 0 0.44779318602395363 -0.46550469267136052 0 0.47532784176218862 -0.47257481327436679 0 0.46294348950850428 -0.44825703900704061 0 0.44779318602395363 -0.46550469267136052 0 0.44779318602395363 -0.46550469267136052 0 0.44442683605218691 -0.44583817528272968 0 0.43057418754349119 -0.46211781715143319 0 0.46294348950850428 -0.44825703900704061 0 0.44779318602395363 -0.46550469267136052 0 0.44442683605218691 -0.44583817528272968 0 0.44442683605218691 -0.44583817528272968 0 0.44324354583686831 -0.42153379012121539 0 0.45721208074107311 -0.43281318479414382 0 0.44442683605218691 -0.44583817528272968 0 0.44324354583686831 -0.42153379012121539 0 0.42653452723640378 -0.44279137365393179 0 0.44324354583686831 -0.42153379012121539 0 0.45693362330993059 -0.41584542252527262 0 0.45721208074107311 -0.43281318479414382 0 0.45693362330993059 -0.41584542252527262 0 0.4354004349648965 -0.40055780990002432 0 0.44324354583686831 -0.42153379012121539 0 0.45693362330993059 -0.41584542252527262 0 0.4354004349648965 -0.40055780990002432 0 0.45693362330993059 -0.41584542252527262 0 0.46461049463358839 -0.41117161714406408 0 0.47846681165496419 -0.4311330351505217 0 0.45693362330993059 -0.41584542252527262 0 0.46461049463358839 -0.41117161714406408 0 0.45329728287846061 -0.39963099679296588 0 0.46294348950850428 -0.44825703900704061 0 0.45721208074107311 -0.43281318479414382 0 0.47846681165496419 -0.4311330351505217 0 0.45693362330993059 -0.41584542252527262 0 0.45721208074107311 -0.43281318479414382 0 0.47846681165496419 -0.4311330351505217 0 0.45693362330993059 -0.41584542252527262 0 0.47846681165496419 -0.4311330351505217 0 0.49999999999999828 -0.44642064777577001 0 0.47846681165496419 -0.4311330351505217 0 0.5 -0.42181653977348488 0 0.5 -0.42181653977348488 0 0.48394518954555588 -0.41195106762427058 0 0.49999999999999789 -0.3972124317711998 0 0.47846681165496419 -0.4311330351505217 0 0.5 -0.42181653977348488 0 0.48394518954555588 -0.41195106762427058 0 0.46461049463358839 -0.41117161714406408 0 0.47846681165496419 -0.4311330351505217 0 0.48394518954555588 -0.41195106762427058 0 0.46461049463358839 -0.41117161714406408 0 0.48394518954555588 -0.41195106762427058 0 0.47664864143922919 -0.39842171428208217 0 0.47664864143922919 -0.39842171428208217 0 0.47975395238035062 -0.3854291032725421 0 0.46812846895096999 -0.38912968091376021 0 0.47664864143922919 -0.39842171428208217 0 0.49999999999999789 -0.3972124317711998 0 0.48779058149940679 -0.38751051868815611 0 0.48394518954555588 -0.41195106762427058 0 0.47664864143922919 -0.39842171428208217 0 0.49999999999999789 -0.3972124317711998 0 0.47664864143922919 -0.39842171428208217 0 0.49999999999999789 -0.3972124317711998 0 0.5 -0.37037944899495368 0 0.49999999999999789 -0.3972124317711998 0 0.48779058149940679 -0.38751051868815611 0 0.5 -0.37037944899495368 0 0.48466784746851571 -0.3739080713738358 0 0.48779058149940679 -0.38751051868815611 0 0.48466784746851571 -0.3739080713738358 0 0.47975395238035062 -0.3854291032725421 0 0.47323517146124039 -0.38191256761527542 0 0.48466784746851571 -0.3739080713738358 0 0.48779058149940679 -0.38751051868815611 0 0.47975395238035062 -0.3854291032725421 0 0.47664864143922919 -0.39842171428208217 0 0.48779058149940679 -0.38751051868815611 0 0.47975395238035062 -0.3854291032725421 0 0.47975395238035062 -0.3854291032725421 0 0.47323517146124039 -0.38191256761527542 0 0.46812846895096999 -0.38912968091376021 0 0.46918642870160698 -0.38365020197922722 0 0.47323517146124039 -0.38191256761527542 0 0.46812846895096999 -0.38912968091376021 0 0.4671179630262795 -0.37324494563770522 0 0.46918642870160698 -0.38365020197922722 0 0.47323517146124039 -0.38191256761527542 0 0.45652460043480969 -0.37267172771365881 0 0.4671179630262795 -0.37324494563770522 0 0.46918642870160698 -0.38365020197922722 0 0.45652460043480969 -0.37267172771365881 0 0.46918642870160698 -0.38365020197922722 0 0.45652460043480969 -0.37267172771365881 0 0.45606522570456098 -0.38599652494351028 0 0.44783900322824399 -0.38008781189722518 0 0.45652460043480969 -0.37267172771365881 0 0.46918642870160698 -0.38365020197922722 0 0.45606522570456098 -0.38599652494351028 0 0.46918642870160698 -0.38365020197922722 0 0.45606522570456098 -0.38599652494351028 0 0.46812846895096999 -0.38912968091376021 0 0.46461049463358839 -0.41117161714406408 0 0.47664864143922919 -0.39842171428208217 0 0.45329728287846061 -0.39963099679296588 0 0.47664864143922919 -0.39842171428208217 0 0.45329728287846061 -0.39963099679296588 0 0.47664864143922919 -0.39842171428208217 0 0.46812846895096999 -0.38912968091376021 0 0.45329728287846061 -0.39963099679296588 0 0.46461049463358839 -0.41117161714406408 0 0.45329728287846061 -0.39963099679296588 0 0.45606522570456098 -0.38599652494351028 0 0.46812846895096999 -0.38912968091376021 0 0.45329728287846061 -0.39963099679296588 0 0.45693362330993059 -0.41584542252527262 0 0.45329728287846061 -0.39963099679296588 0 0.4354004349648965 -0.40055780990002432 0 0.45329728287846061 -0.39963099679296588 0 0.4354004349648965 -0.40055780990002432 0 0.45329728287846061 -0.39963099679296588 0 0.4390969294492823 -0.3851451998924304 0 0.4354004349648965 -0.40055780990002432 0 0.45329728287846061 -0.39963099679296588 0 0.4390969294492823 -0.3851451998924304 0 0.45606522570456098 -0.38599652494351028 0 0.4390969294492823 -0.3851451998924304 0 0.44783900322824399 -0.38008781189722518 0 0.45606522570456098 -0.38599652494351028 0 0.45329728287846061 -0.39963099679296588 0 0.4390969294492823 -0.3851451998924304 0 0.4390969294492823 -0.3851451998924304 0 0.43808065797110041 -0.37748478958974491 0 0.44783900322824399 -0.38008781189722518 0 0.42782015831496062 -0.38505662608606978 0 0.4354004349648965 -0.40055780990002432 0 0.41188669282555868 -0.38386409155992901 0 0.42489657602010461 -0.37065940299189432 0 0.4390969294492823 -0.3851451998924304 0 0.42782015831496062 -0.38505662608606978 0 0.42489657602010461 -0.37065940299189432 0 0.4390969294492823 -0.3851451998924304 0 0.43808065797110041 -0.37748478958974491 0 0.42489657602010461 -0.37065940299189432 0 0.4390969294492823 -0.3851451998924304 0 0.4390969294492823 -0.3851451998924304 0 0.42782015831496062 -0.38505662608606978 0 0.4354004349648965 -0.40055780990002432 0 0.4354004349648965 -0.40055780990002432 0 0.41188669282555868 -0.38386409155992901 0 0.4354004349648965 -0.40055780990002432 0 0.40669862042327182 -0.40204417319942209 0 0.4354004349648965 -0.40055780990002432 0 0.40669862042327182 -0.40204417319942209 0 0.41188669282555868 -0.38386409155992901 0 0.42489657602010461 -0.37065940299189432 0 0.42782015831496062 -0.38505662608606978 0 0.41188669282555868 -0.38386409155992901 0 0.42489657602010461 -0.37065940299189432 0 0.4070765621089808 -0.37107032214525337 0 0.41188669282555868 -0.38386409155992901 0 0.4070765621089808 -0.37107032214525337 0 0.39585190457779329 -0.37201308858561799 0 0.39886607975096749 -0.38470810625682389 0 0.40669862042327182 -0.40204417319942209 0 0.41188669282555868 -0.38386409155992901 0 0.39886607975096749 -0.38470810625682389 0 0.4070765621089808 -0.37107032214525337 0 0.41188669282555868 -0.38386409155992901 0 0.39886607975096749 -0.38470810625682389 0 0.39585190457779329 -0.37201308858561799 0 0.39886607975096749 -0.38470810625682389 0 0.38601585554704992 -0.38244526212700758 0 0.39886607975096749 -0.38470810625682389 0 0.38601585554704992 -0.38244526212700758 0 0.37799680588164719 -0.40353053649882148 0 0.38601585554704992 -0.38244526212700758 0 0.37799680588164719 -0.40353053649882148 0 0.38601585554704992 -0.38244526212700758 0 0.37799680588164719 -0.40353053649882148 0 0.36816388811638329 -0.39545065246060412 0 0.37799680588164719 -0.40353053649882148 0 0.37635446215448021 -0.40784891206015261 0 0.37799680588164719 -0.40353053649882148 0 0.37505152225636262 -0.40368306209891941 0 0.37635446215448021 -0.40784891206015261 0 0.37799680588164719 -0.40353053649882148 0 0.37505152225636262 -0.40368306209891941 0 0.40669862042327182 -0.40204417319942209 0 0.39886607975096749 -0.38470810625682389 0 0.37799680588164719 -0.40353053649882148 0 0.40669862042327182 -0.40204417319942209 0 0.37799680588164719 -0.40353053649882148 0 0.40669862042327182 -0.40204417319942209 0 0.38553791301154328 -0.41840677215457472 0 0.40567792500840172 -0.4277251834563135 0 0.40669862042327182 -0.40204417319942209 0 0.37799680588164719 -0.40353053649882148 0 0.38553791301154328 -0.41840677215457472 0 0.38553791301154328 -0.41840677215457472 0 0.36905142820508552 -0.42917232846767789 0 0.37241381966677689 -0.417360225696081 0 0.38553791301154328 -0.41840677215457472 0 0.37635446215448021 -0.40784891206015261 0 0.37241381966677689 -0.417360225696081 0 0.37799680588164719 -0.40353053649882148 0 0.38553791301154328 -0.41840677215457472 0 0.37635446215448021 -0.40784891206015261 0 0.38553791301154328 -0.41840677215457472 0 0.38807715457860831 -0.4388905332329941 0 0.36905142820508552 -0.42917232846767789 0 0.38553791301154328 -0.41840677215457472 0 0.40567792500840172 -0.4277251834563135 0 0.38807715457860831 -0.4388905332329941 0 0.40567792500840172 -0.4277251834563135 0 0.42351101069396863 -0.41893046606618117 0 0.42653452723640378 -0.44279137365393179 0 0.4354004349648965 -0.40055780990002432 0 0.40669862042327182 -0.40204417319942209 0 0.42351101069396863 -0.41893046606618117 0 0.40669862042327182 -0.40204417319942209 0 0.40567792500840172 -0.4277251834563135 0 0.42351101069396863 -0.41893046606618117 0 0.44324354583686831 -0.42153379012121539 0 0.4354004349648965 -0.40055780990002432 0 0.42351101069396863 -0.41893046606618117 0 0.44324354583686831 -0.42153379012121539 0 0.42653452723640378 -0.44279137365393179 0 0.44324354583686831 -0.42153379012121539 0 0.42351101069396863 -0.41893046606618117 0 0.42653452723640378 -0.44279137365393179 0 0.44442683605218691 -0.44583817528272968 0 0.42653452723640378 -0.44279137365393179 0 0.43057418754349119 -0.46211781715143319 0 0.42653452723640378 -0.44279137365393179 0 0.43057418754349119 -0.46211781715143319 0 0.40982550863593931 -0.46404895718664829 0 0.42653452723640378 -0.44279137365393179 0 0.40982550863593931 -0.46404895718664829 0 0.42653452723640378 -0.44279137365393179 0 0.40982550863593931 -0.46404895718664829 0 0.4036378289262339 -0.44671034290208689 0 0.40567792500840172 -0.4277251834563135 0 0.42653452723640378 -0.44279137365393179 0 0.4036378289262339 -0.44671034290208689 0 0.40567792500840172 -0.4277251834563135 0 0.4036378289262339 -0.44671034290208689 0 0.38807715457860831 -0.4388905332329941 0 0.4036378289262339 -0.44671034290208689 0 0.38807715457860831 -0.4388905332329941 0 0.38807402917181633 -0.46009566698054732 0 0.38807715457860831 -0.4388905332329941 0 0.3733961412993268 -0.45022493016754961 0 0.36905142820508552 -0.42917232846767789 0 0.38807715457860831 -0.4388905332329941 0 0.38807402917181633 -0.46009566698054732 0 0.3733961412993268 -0.45022493016754961 0 0.38807402917181633 -0.46009566698054732 0 0.36593927904035028 -0.47432204071884282 0 0.3733961412993268 -0.45022493016754961 0 0.40982550863593931 -0.46404895718664829 0 0.4036378289262339 -0.44671034290208689 0 0.38807402917181633 -0.46009566698054732 0 0.40982550863593931 -0.46404895718664829 0 0.39311649003547477 -0.48530654071936469 0 0.40982550863593931 -0.46404895718664829 0 0.38807402917181633 -0.46009566698054732 0 0.39311649003547477 -0.48530654071936469 0 0.38807402917181633 -0.46009566698054732 0 0.39311649003547477 -0.48530654071936469 0 0.36593927904035028 -0.47432204071884282 0 0.37603974257992701 -0.49999999999999978 0 0.39311649003547477 -0.48530654071936469 0 0.36593927904035028 -0.47432204071884282 0 0.37603974257992701 -0.49999999999999978 0 0.39676616081738958 -0.5 0 0.39311649003547477 -0.48530654071936469 0 0.39676616081738958 -0.5 0 0.39311649003547477 -0.48530654071936469 0 0.41749257905485199 -0.50000000000000033 0 0.40982550863593931 -0.46404895718664829 0 0.41749257905485199 -0.50000000000000033 0 0.43264288253940292 -0.48275234633568048 0 0.40982550863593931 -0.46404895718664829 0 0.39311649003547477 -0.48530654071936469 0 0.41749257905485199 -0.50000000000000033 0 0.43057418754349119 -0.46211781715143319 0 0.40982550863593931 -0.46404895718664829 0 0.43264288253940292 -0.48275234633568048 0 0.44779318602395363 -0.46550469267136052 0 0.43057418754349119 -0.46211781715143319 0 0.43264288253940292 -0.48275234633568048 0 0.41749257905485199 -0.50000000000000033 0 0.43264288253940292 -0.48275234633568048 0 0.32215468257820618 -0.5 0 0.33760568703239408 -0.47417818032706111 0 0.31005432530219129 -0.48106067464861729 0 0.33760568703239408 -0.47417818032706111 0 0.3189449745883719 -0.46117016543644002 0 0.31005432530219129 -0.48106067464861729 0 0.32215468257820618 -0.5 0 0.33760568703239408 -0.47417818032706111 0 0.34909721257906662 -0.5 0 0.37603974257992701 -0.49999999999999978 0 0.34909721257906662 -0.5 0 0.36593927904035028 -0.47432204071884282 0 0.37603974257992701 -0.49999999999999978 0 0.36593927904035028 -0.47432204071884282 0 0.33760568703239408 -0.47417818032706111 0 0.34909721257906662 -0.5 0 0.36593927904035028 -0.47432204071884282 0 0.33760568703239408 -0.47417818032706111 0 0.36593927904035028 -0.47432204071884282 0 0.35583881550077368 -0.44864408143768569 0 0.36593927904035028 -0.47432204071884282 0 0.35583881550077368 -0.44864408143768569 0 0.36593927904035028 -0.47432204071884282 0 0.3733961412993268 -0.45022493016754961 0 0.35583881550077368 -0.44864408143768569 0 0.3733961412993268 -0.45022493016754961 0 0.35583881550077368 -0.44864408143768569 0 0.36905142820508552 -0.42917232846767789 0 0.35583881550077368 -0.44864408143768569 0 0.33540415989768779 -0.44905252560006492 0 0.34573835196119679 -0.42296612215652868 0 0.33760568703239408 -0.47417818032706111 0 0.35583881550077368 -0.44864408143768569 0 0.33540415989768779 -0.44905252560006492 0 0.33760568703239408 -0.47417818032706111 0 0.33540415989768779 -0.44905252560006492 0 0.3189449745883719 -0.46117016543644002 0 0.33540415989768779 -0.44905252560006492 0 0.3189449745883719 -0.46117016543644002 0 0.32126124445813709 -0.43429719032362252 0 0.3189449745883719 -0.46117016543644002 0 0.32126124445813709 -0.43429719032362252 0 0.30480654487456732 -0.44641521679941309 0 0.32126124445813709 -0.43429719032362252 0 0.3193156137706864 -0.40941365839269389 0 0.29937418247959258 -0.41817563384508599 0 0.3193156137706864 -0.40941365839269389 0 0.34573835196119679 -0.42296612215652868 0 0.33563788842162012 -0.39728816287537172 0 0.34573835196119679 -0.42296612215652868 0 0.33563788842162012 -0.39728816287537172 0 0.33540415989768779 -0.44905252560006492 0 0.32126124445813709 -0.43429719032362252 0 0.34573835196119679 -0.42296612215652868 0 0.32126124445813709 -0.43429719032362252 0 0.3193156137706864 -0.40941365839269389 0 0.34573835196119679 -0.42296612215652868 0 0.35583881550077368 -0.44864408143768569 0 0.34573835196119679 -0.42296612215652868 0 0.36905142820508552 -0.42917232846767789 0 0.35583881550077368 -0.44864408143768569 0 0.34573835196119679 -0.42296612215652868 0 0.36905142820508552 -0.42917232846767789 0 0.37241381966677689 -0.417360225696081 0 0.36195200988480669 -0.41065981681110758 0 0.36990343230398692 -0.40830781576793279 0 0.37241381966677689 -0.417360225696081 0 0.36195200988480669 -0.41065981681110758 0 0.37635446215448021 -0.40784891206015261 0 0.36990343230398692 -0.40830781576793279 0 0.37241381966677689 -0.417360225696081 0 0.37505152225636262 -0.40368306209891941 0 0.37635446215448021 -0.40784891206015261 0 0.36990343230398692 -0.40830781576793279 0 0.36990343230398692 -0.40830781576793279 0 0.36195200988480669 -0.41065981681110758 0 0.36876771314038492 -0.40452533678464098 0 0.34573835196119679 -0.42296612215652868 0 0.36195200988480669 -0.41065981681110758 0 0.35211107663302149 -0.40015425695529971 0 0.34573835196119679 -0.42296612215652868 0 0.36905142820508552 -0.42917232846767789 0 0.36195200988480669 -0.41065981681110758 0 0.34573835196119679 -0.42296612215652868 0 0.35211107663302149 -0.40015425695529971 0 0.33563788842162012 -0.39728816287537172 0 0.35211107663302149 -0.40015425695529971 0 0.35352794608594401 -0.38791341326287138 0 0.33563788842162012 -0.39728816287537172 0 0.35211107663302149 -0.40015425695529971 0 0.36816388811638329 -0.39545065246060412 0 0.35352794608594401 -0.38791341326287138 0 0.36195200988480669 -0.41065981681110758 0 0.36816388811638329 -0.39545065246060412 0 0.36876771314038492 -0.40452533678464098 0 0.36195200988480669 -0.41065981681110758 0 0.35211107663302149 -0.40015425695529971 0 0.36816388811638329 -0.39545065246060412 0 0.37505152225636262 -0.40368306209891941 0 0.36816388811638329 -0.39545065246060412 0 0.36876771314038492 -0.40452533678464098 0 0.37799680588164719 -0.40353053649882148 0 0.37505152225636262 -0.40368306209891941 0 0.36816388811638329 -0.39545065246060412 0 0.37505152225636262 -0.40368306209891941 0 0.36990343230398692 -0.40830781576793279 0 0.36876771314038492 -0.40452533678464098 0 0.38601585554704992 -0.38244526212700758 0 0.36816388811638329 -0.39545065246060412 0 0.3689120952668708 -0.37284951495870189 0 0.36816388811638329 -0.39545065246060412 0 0.35352794608594401 -0.38791341326287138 0 0.3689120952668708 -0.37284951495870189 0 0.35352794608594401 -0.38791341326287138 0 0.33563788842162012 -0.39728816287537172 0 0.34467783115022588 -0.37252705130409253 0 0.35352794608594401 -0.38791341326287138 0 0.3689120952668708 -0.37284951495870189 0 0.34467783115022588 -0.37252705130409253 0 0.33563788842162012 -0.39728816287537172 0 0.3255374248820434 -0.37161020359421471 0 0.33563788842162012 -0.39728816287537172 0 0.34467783115022588 -0.37252705130409253 0 0.3255374248820434 -0.37161020359421471 0 0.3193156137706864 -0.40941365839269389 0 0.33563788842162012 -0.39728816287537172 0 0.30534853388527528 -0.38930881101125692 0 0.33563788842162012 -0.39728816287537172 0 0.30534853388527528 -0.38930881101125692 0 0.3255374248820434 -0.37161020359421471 0 0.30534853388527528 -0.38930881101125692 0 0.3255374248820434 -0.37161020359421471 0 0.30525369772634148 -0.37164386163485291 0 0.30534853388527528 -0.38930881101125692 0 0.28783989868818821 -0.37644057584389279 0 0.30525369772634148 -0.37164386163485291 0 0.3193156137706864 -0.40941365839269389 0 0.30534853388527528 -0.38930881101125692 0 0.29937418247959258 -0.41817563384508599 0 0.30534853388527528 -0.38930881101125692 0 0.28922044672054198 -0.39637746652331562 0 0.29937418247959258 -0.41817563384508599 0 0.28922044672054198 -0.39637746652331562 0 0.27510086349567708 -0.39798721671617321 0 0.28320928432356041 -0.41012407252970262 0 0.28922044672054198 -0.39637746652331562 0 0.28783989868818821 -0.37644057584389279 0 0.27924907625512951 -0.38731579260330862 0 0.30534853388527528 -0.38930881101125692 0 0.28922044672054198 -0.39637746652331562 0 0.28783989868818821 -0.37644057584389279 0 0.30534853388527528 -0.38930881101125692 0 0.28783989868818821 -0.37644057584389279 0 0.28783989868818821 -0.37644057584389279 0 0.27447250226623809 -0.37821124143188289 0 0.27924907625512951 -0.38731579260330862 0 0.27447250226623809 -0.37821124143188289 0 0.27924907625512951 -0.38731579260330862 0 0.26961167010500181 -0.38756246250127813 0 0.27447250226623809 -0.37821124143188289 0 0.26961167010500181 -0.38756246250127813 0 0.26423397132697279 -0.37890457124200982 0 0.26961167010500181 -0.38756246250127813 0 0.26423397132697279 -0.37890457124200982 0 0.25687819372407023 -0.38903915957053298 0 0.26423397132697279 -0.37890457124200982 0 0.25687819372407023 -0.38903915957053298 0 0.24987622704845311 -0.37613765202982719 0 0.25108303853213881 -0.40002667887407228 0 0.26390234922262928 -0.39930308446362528 0 0.256136481120742 -0.41447562176841068 0 0.25687819372407023 -0.38903915957053298 0 0.25108303853213881 -0.40002667887407228 0 0.24309899287842279 -0.39271330151873202 0 0.25687819372407023 -0.38903915957053298 0 0.25108303853213881 -0.40002667887407228 0 0.26390234922262928 -0.39930308446362528 0 0.26961167010500181 -0.38756246250127813 0 0.25687819372407023 -0.38903915957053298 0 0.26390234922262928 -0.39930308446362528 0 0.26390234922262928 -0.39930308446362528 0 0.27510086349567708 -0.39798721671617321 0 0.2708804648698091 -0.41009655218672442 0 0.26961167010500181 -0.38756246250127813 0 0.26390234922262928 -0.39930308446362528 0 0.27510086349567708 -0.39798721671617321 0 0.28922044672054198 -0.39637746652331562 0 0.27924907625512951 -0.38731579260330862 0 0.27510086349567708 -0.39798721671617321 0 0.27924907625512951 -0.38731579260330862 0 0.26961167010500181 -0.38756246250127813 0 0.27510086349567708 -0.39798721671617321 0 0.27510086349567708 -0.39798721671617321 0 0.2708804648698091 -0.41009655218672442 0 0.28320928432356041 -0.41012407252970262 0 0.2708804648698091 -0.41009655218672442 0 0.256136481120742 -0.41447562176841068 0 0.27433621812851161 -0.42550461519375637 0 0.2708804648698091 -0.41009655218672442 0 0.27433621812851161 -0.42550461519375637 0 0.28320928432356041 -0.41012407252970262 0 0.26390234922262928 -0.39930308446362528 0 0.2708804648698091 -0.41009655218672442 0 0.256136481120742 -0.41447562176841068 0 0.25108303853213881 -0.40002667887407228 0 0.256136481120742 -0.41447562176841068 0 0.24629253832767661 -0.41022035877505542 0 0.256136481120742 -0.41447562176841068 0 0.25513396950241118 -0.43290986753561628 0 0.2453827316299185 -0.42192330194190181 0 0.256136481120742 -0.41447562176841068 0 0.25513396950241118 -0.43290986753561628 0 0.27433621812851161 -0.42550461519375637 0 0.25513396950241118 -0.43290986753561628 0 0.27433621812851161 -0.42550461519375637 0 0.26752346795397081 -0.44788636482661331 0 0.27433621812851161 -0.42550461519375637 0 0.29937418247959258 -0.41817563384508599 0 0.28546596250580908 -0.44246723239800262 0 0.29937418247959258 -0.41817563384508599 0 0.30480654487456732 -0.44641521679941309 0 0.28546596250580908 -0.44246723239800262 0 0.28922044672054198 -0.39637746652331562 0 0.28320928432356041 -0.41012407252970262 0 0.29937418247959258 -0.41817563384508599 0 0.27433621812851161 -0.42550461519375637 0 0.28320928432356041 -0.41012407252970262 0 0.29937418247959258 -0.41817563384508599 0 0.32126124445813709 -0.43429719032362252 0 0.29937418247959258 -0.41817563384508599 0 0.30480654487456732 -0.44641521679941309 0 0.3189449745883719 -0.46117016543644002 0 0.30480654487456732 -0.44641521679941309 0 0.28880919487484108 -0.4658549053918814 0 0.30480654487456732 -0.44641521679941309 0 0.28880919487484108 -0.4658549053918814 0 0.28546596250580908 -0.44246723239800262 0 0.27433621812851161 -0.42550461519375637 0 0.28546596250580908 -0.44246723239800262 0 0.26752346795397081 -0.44788636482661331 0 0.28880919487484108 -0.4658549053918814 0 0.28546596250580908 -0.44246723239800262 0 0.26752346795397081 -0.44788636482661331 0 0.25513396950241118 -0.43290986753561628 0 0.26752346795397081 -0.44788636482661331 0 0.24480843210435321 -0.45079661158300749 0 0.26752346795397081 -0.44788636482661331 0 0.2588368117714554 -0.46700690363883102 0 0.24480843210435321 -0.45079661158300749 0 0.28880919487484108 -0.4658549053918814 0 0.26752346795397081 -0.44788636482661331 0 0.2588368117714554 -0.46700690363883102 0 0.28880919487484108 -0.4658549053918814 0 0.2588368117714554 -0.46700690363883102 0 0.27227655507569209 -0.48076744006000099 0 0.2588368117714554 -0.46700690363883102 0 0.27227655507569209 -0.48076744006000099 0 0.25270961841775552 -0.48460016746525392 0 0.2588368117714554 -0.46700690363883102 0 0.25270961841775552 -0.48460016746525392 0 0.23949561189523169 -0.47426551941090739 0 0.25270961841775552 -0.48460016746525392 0 0.26826962257648529 -0.5 0 0.2413270925756249 -0.5 0 0.27227655507569209 -0.48076744006000099 0 0.25270961841775552 -0.48460016746525392 0 0.26826962257648529 -0.5 0 0.27227655507569209 -0.48076744006000099 0 0.26826962257648529 -0.5 0 0.29521215257734579 -0.5 0 0.28880919487484108 -0.4658549053918814 0 0.27227655507569209 -0.48076744006000099 0 0.29521215257734579 -0.5 0 0.28880919487484108 -0.4658549053918814 0 0.29521215257734579 -0.5 0 0.31005432530219129 -0.48106067464861729 0 0.3189449745883719 -0.46117016543644002 0 0.28880919487484108 -0.4658549053918814 0 0.31005432530219129 -0.48106067464861729 0 0.32215468257820618 -0.5 0 0.29521215257734579 -0.5 0 0.31005432530219129 -0.48106067464861729 0 0.33463237856908817 -0.28956894479377399 0 0.33485830675890288 -0.30442904333306592 0 0.35657459314761941 -0.2860097891906741 0 0.33463237856908817 -0.28956894479377399 0 0.32894302133540282 -0.28710755170783531 0 0.35195887039823659 -0.28200771363307098 0 0.32894302133540282 -0.28710755170783531 0 0.35195887039823659 -0.28200771363307098 0 0.32894302133540282 -0.28710755170783531 0 0.33255663915089151 -0.29722249741805129 0 0.33463237856908817 -0.28956894479377399 0 0.32894302133540282 -0.28710755170783531 0 0.33255663915089151 -0.29722249741805129 0 0.32894302133540282 -0.28710755170783531 0 0.33255663915089151 -0.29722249741805129 0 0.32301709761150521 -0.2972128627914089 0 0.33485830675890288 -0.30442904333306592 0 0.34824447571033601 -0.30253517369681238 0 0.34533870308018377 -0.31598934501886372 0 0.33485830675890288 -0.30442904333306592 0 0.33255663915089151 -0.29722249741805129 0 0.32434770264142349 -0.30499280498860082 0 0.33463237856908817 -0.28956894479377399 0 0.33485830675890288 -0.30442904333306592 0 0.33255663915089151 -0.29722249741805129 0 0.32301709761150521 -0.2972128627914089 0 0.32434770264142349 -0.30499280498860082 0 0.3171485971304504 -0.30589952111326829 0 0.32434770264142349 -0.30499280498860082 0 0.3171485971304504 -0.30589952111326829 0 0.31314202037018413 -0.32284829747545468 0 0.33485830675890288 -0.30442904333306592 0 0.32434770264142349 -0.30499280498860082 0 0.31314202037018413 -0.32284829747545468 0 0.33255663915089151 -0.29722249741805129 0 0.32301709761150521 -0.2972128627914089 0 0.32434770264142349 -0.30499280498860082 0 0.3171485971304504 -0.30589952111326829 0 0.31208952779935789 -0.2908419387292881 0 0.30833746379913463 -0.30503745501229762 0 0.32301709761150521 -0.2972128627914089 0 0.3171485971304504 -0.30589952111326829 0 0.31208952779935789 -0.2908419387292881 0 0.32894302133540282 -0.28710755170783531 0 0.31611371382327402 -0.28007222207304999 0 0.31208952779935789 -0.2908419387292881 0 0.32894302133540282 -0.28710755170783531 0 0.32301709761150521 -0.2972128627914089 0 0.31208952779935789 -0.2908419387292881 0 0.32894302133540282 -0.28710755170783531 0 0.31208952779935789 -0.2908419387292881 0 0.32894302133540282 -0.28710755170783531 0 0.32245882367699719 -0.26895751187574157 0 0.32894302133540282 -0.28710755170783531 0 0.31611371382327402 -0.28007222207304999 0 0.32245882367699719 -0.26895751187574157 0 0.31611371382327402 -0.28007222207304999 0 0.32245882367699719 -0.26895751187574157 0 0.30706455279928557 -0.27339796693147528 0 0.32245882367699719 -0.26895751187574157 0 0.30981211567343969 -0.26250129009931661 0 0.30706455279928557 -0.27339796693147528 0 0.32245882367699719 -0.26895751187574157 0 0.31597462601859122 -0.25080747204364812 0 0.32245882367699719 -0.26895751187574157 0 0.31597462601859122 -0.25080747204364812 0 0.30981211567343969 -0.26250129009931661 0 0.32245882367699719 -0.26895751187574157 0 0.31597462601859122 -0.25080747204364812 0 0.33396674820841349 -0.26640759283836002 0 0.31597462601859122 -0.25080747204364812 0 0.33396674820841349 -0.26640759283836002 0 0.33517615116993849 -0.24743488902137309 0 0.33396674820841349 -0.26640759283836002 0 0.35185333732921159 -0.25428502110151557 0 0.33517615116993849 -0.24743488902137309 0 0.31597462601859122 -0.25080747204364812 0 0.33396674820841349 -0.26640759283836002 0 0.32894302133540282 -0.28710755170783531 0 0.32245882367699719 -0.26895751187574157 0 0.33396674820841349 -0.26640759283836002 0 0.33396674820841349 -0.26640759283836002 0 0.35195887039823659 -0.28200771363307098 0 0.32894302133540282 -0.28710755170783531 0 0.33396674820841349 -0.26640759283836002 0 0.35195887039823659 -0.28200771363307098 0 0.33396674820841349 -0.26640759283836002 0 0.35159414215374007 -0.26901089914998932 0 0.35195887039823659 -0.28200771363307098 0 0.35159414215374007 -0.26901089914998932 0 0.36459381448795669 -0.2792080702757721 0 0.35195887039823659 -0.28200771363307098 0 0.36459381448795669 -0.2792080702757721 0 0.35195887039823659 -0.28200771363307098 0 0.33396674820841349 -0.26640759283836002 0 0.35159414215374007 -0.26901089914998932 0 0.35185333732921159 -0.25428502110151557 0 0.35159414215374007 -0.26901089914998932 0 0.35185333732921159 -0.25428502110151557 0 0.36435388824524378 -0.26651308148643732 0 0.37477580018058132 -0.24095111383496479 0 0.37683953433427181 -0.26882153263446662 0 0.36563983252638571 -0.25462703483095822 0 0.36075586336603621 -0.2426037127049111 0 0.35185333732921159 -0.25428502110151557 0 0.36563983252638571 -0.25462703483095822 0 0.35185333732921159 -0.25428502110151557 0 0.36563983252638571 -0.25462703483095822 0 0.36435388824524378 -0.26651308148643732 0 0.37683953433427181 -0.26882153263446662 0 0.36563983252638571 -0.25462703483095822 0 0.36435388824524378 -0.26651308148643732 0 0.36459381448795669 -0.2792080702757721 0 0.36308990924476459 -0.28048364807874221 0 0.35195887039823659 -0.28200771363307098 0 0.36459381448795669 -0.2792080702757721 0 0.36308990924476459 -0.28048364807874221 0 0.37273728942595791 -0.27740364396778311 0 0.36459381448795669 -0.2792080702757721 0 0.36308990924476459 -0.28048364807874221 0 0.35159414215374007 -0.26901089914998932 0 0.36459381448795669 -0.2792080702757721 0 0.36435388824524378 -0.26651308148643732 0 0.37683953433427181 -0.26882153263446662 0 0.36459381448795669 -0.2792080702757721 0 0.36435388824524378 -0.26651308148643732 0 0.36459381448795669 -0.2792080702757721 0 0.37273728942595791 -0.27740364396778311 0 0.37683953433427181 -0.26882153263446662 0 0.36459381448795669 -0.2792080702757721 0 0.37273728942595791 -0.27740364396778311 0 0.37683953433427181 -0.26882153263446662 0 0.36459381448795669 -0.2792080702757721 0 0.36308990924476459 -0.28048364807874221 0 0.37273728942595791 -0.27740364396778311 0 0.37795999762798671 -0.28395322059410122 0 0.37273728942595791 -0.27740364396778311 0 0.36936745264149701 -0.28627283508716472 0 0.35657459314761941 -0.2860097891906741 0 0.35620629985463748 -0.30371251724464648 0 0.37101427446782781 -0.29852975601036341 0 0.36308990924476459 -0.28048364807874221 0 0.37273728942595791 -0.27740364396778311 0 0.36936745264149701 -0.28627283508716472 0 0.37519981906117678 -0.29055939022370142 0 0.37795999762798671 -0.28395322059410122 0 0.36936745264149701 -0.28627283508716472 0 0.37519981906117678 -0.29055939022370142 0 0.36936745264149701 -0.28627283508716472 0 0.37101427446782781 -0.29852975601036341 0 0.36936745264149701 -0.28627283508716472 0 0.35657459314761941 -0.2860097891906741 0 0.37101427446782781 -0.29852975601036341 0 0.35657459314761941 -0.2860097891906741 0 0.37101427446782781 -0.29852975601036341 0 0.36308990924476459 -0.28048364807874221 0 0.36936745264149701 -0.28627283508716472 0 0.35657459314761941 -0.2860097891906741 0 0.36308990924476459 -0.28048364807874221 0 0.35657459314761941 -0.2860097891906741 0 0.36308990924476459 -0.28048364807874221 0 0.35366972758071469 -0.28349111722646431 0 0.33463237856908817 -0.28956894479377399 0 0.35366972758071469 -0.28349111722646431 0 0.33463237856908817 -0.28956894479377399 0 0.35366972758071469 -0.28349111722646431 0 0.35195887039823659 -0.28200771363307098 0 0.36308990924476459 -0.28048364807874221 0 0.35366972758071469 -0.28349111722646431 0 0.35195887039823659 -0.28200771363307098 0 0.33485830675890288 -0.30442904333306592 0 0.35657459314761941 -0.2860097891906741 0 0.36308990924476459 -0.28048364807874221 0 0.35366972758071469 -0.28349111722646431 0 0.35657459314761941 -0.2860097891906741 0 0.33463237856908817 -0.28956894479377399 0 0.35366972758071469 -0.28349111722646431 0 0.35657459314761941 -0.2860097891906741 0 0.35366972758071469 -0.28349111722646431 0 0.35657459314761941 -0.2860097891906741 0 0.35366972758071469 -0.28349111722646431 0 0.35195887039823659 -0.28200771363307098 0 0.35620629985463748 -0.30371251724464648 0 0.36380134767337091 -0.31365371592763602 0 0.34533870308018377 -0.31598934501886372 0 0.35657459314761941 -0.2860097891906741 0 0.34824447571033601 -0.30253517369681238 0 0.35620629985463748 -0.30371251724464648 0 0.33485830675890288 -0.30442904333306592 0 0.35657459314761941 -0.2860097891906741 0 0.34824447571033601 -0.30253517369681238 0 0.34824447571033601 -0.30253517369681238 0 0.35620629985463748 -0.30371251724464648 0 0.34533870308018377 -0.31598934501886372 0 0.38545395578803499 -0.31104972283005378 0 0.37101427446782781 -0.29852975601036341 0 0.36380134767337091 -0.31365371592763602 0 0.35620629985463748 -0.30371251724464648 0 0.37101427446782781 -0.29852975601036341 0 0.36380134767337091 -0.31365371592763602 0 0.38545395578803499 -0.31104972283005378 0 0.36380134767337091 -0.31365371592763602 0 0.36945761595668469 -0.32738841673247931 0 0.36380134767337091 -0.31365371592763602 0 0.36945761595668469 -0.32738841673247931 0 0.35533723689285712 -0.32525253772940937 0 0.36945761595668469 -0.32738841673247931 0 0.35618710249729552 -0.34088690244721892 0 0.35533723689285712 -0.32525253772940937 0 0.36945761595668469 -0.32738841673247931 0 0.35618710249729552 -0.34088690244721892 0 0.37368731816096312 -0.34897020548070451 0 0.35618710249729552 -0.34088690244721892 0 0.33810128782584858 -0.35072533414536311 0 0.34064131712366241 -0.33181983138849169 0 0.35618710249729552 -0.34088690244721892 0 0.35533723689285712 -0.32525253772940937 0 0.34064131712366241 -0.33181983138849169 0 0.34533870308018377 -0.31598934501886372 0 0.35533723689285712 -0.32525253772940937 0 0.34064131712366241 -0.33181983138849169 0 0.36380134767337091 -0.31365371592763602 0 0.34533870308018377 -0.31598934501886372 0 0.35533723689285712 -0.32525253772940937 0 0.3689120952668708 -0.37284951495870189 0 0.37368731816096312 -0.34897020548070451 0 0.35738528973841999 -0.35772904562383351 0 0.35618710249729552 -0.34088690244721892 0 0.37368731816096312 -0.34897020548070451 0 0.35738528973841999 -0.35772904562383351 0 0.35618710249729552 -0.34088690244721892 0 0.35738528973841999 -0.35772904562383351 0 0.33810128782584858 -0.35072533414536311 0 0.35738528973841999 -0.35772904562383351 0 0.34467783115022588 -0.37252705130409253 0 0.33810128782584858 -0.35072533414536311 0 0.3689120952668708 -0.37284951495870189 0 0.35738528973841999 -0.35772904562383351 0 0.34467783115022588 -0.37252705130409253 0 0.34467783115022588 -0.37252705130409253 0 0.33810128782584858 -0.35072533414536311 0 0.3255374248820434 -0.37161020359421471 0 0.31543696134246668 -0.34593224431305769 0 0.3255374248820434 -0.37161020359421471 0 0.30900602422585888 -0.35865430802761772 0 0.31543696134246668 -0.34593224431305769 0 0.3255374248820434 -0.37161020359421471 0 0.33810128782584858 -0.35072533414536311 0 0.31543696134246668 -0.34593224431305769 0 0.3255374248820434 -0.37161020359421471 0 0.3255374248820434 -0.37161020359421471 0 0.30525369772634148 -0.37164386163485291 0 0.30900602422585888 -0.35865430802761772 0 0.34533870308018377 -0.31598934501886372 0 0.33130220335757699 -0.32186248444176119 0 0.34064131712366241 -0.33181983138849169 0 0.33485830675890288 -0.30442904333306592 0 0.34533870308018377 -0.31598934501886372 0 0.33130220335757699 -0.32186248444176119 0 0.33810128782584858 -0.35072533414536311 0 0.34064131712366241 -0.33181983138849169 0 0.3268430880468266 -0.33457206034663262 0 0.33130220335757699 -0.32186248444176119 0 0.34064131712366241 -0.33181983138849169 0 0.3268430880468266 -0.33457206034663262 0 0.31543696134246668 -0.34593224431305769 0 0.3268430880468266 -0.33457206034663262 0 0.31314202037018413 -0.32284829747545468 0 0.33810128782584858 -0.35072533414536311 0 0.31543696134246668 -0.34593224431305769 0 0.3268430880468266 -0.33457206034663262 0 0.33130220335757699 -0.32186248444176119 0 0.3268430880468266 -0.33457206034663262 0 0.31314202037018413 -0.32284829747545468 0 0.33485830675890288 -0.30442904333306592 0 0.31314202037018413 -0.32284829747545468 0 0.3171485971304504 -0.30589952111326829 0 0.31314202037018413 -0.32284829747545468 0 0.3109911447756647 -0.31350988965823029 0 0.33485830675890288 -0.30442904333306592 0 0.33130220335757699 -0.32186248444176119 0 0.31314202037018413 -0.32284829747545468 0 0.31314202037018413 -0.32284829747545468 0 0.30533649780288991 -0.32025428503190068 0 0.3109911447756647 -0.31350988965823029 0 0.30533649780288991 -0.32025428503190068 0 0.3109911447756647 -0.31350988965823029 0 0.30833746379913463 -0.30503745501229762 0 0.31543696134246668 -0.34593224431305769 0 0.30533649780288991 -0.32025428503190068 0 0.30314188851555429 -0.3464145030398364 0 0.30533649780288991 -0.32025428503190068 0 0.29792146783109758 -0.32077626486014349 0 0.30314188851555429 -0.3464145030398364 0 0.31543696134246668 -0.34593224431305769 0 0.31314202037018413 -0.32284829747545468 0 0.30533649780288991 -0.32025428503190068 0 0.29792146783109758 -0.32077626486014349 0 0.30314188851555429 -0.3464145030398364 0 0.31543696134246668 -0.34593224431305769 0 0.30533649780288991 -0.32025428503190068 0 0.29792146783109758 -0.32077626486014349 0 0.29422135484035322 -0.33366994296298719 0 0.30314188851555429 -0.3464145030398364 0 0.29422135484035322 -0.33366994296298719 0 0.29546103181119637 -0.34185893253319311 0 0.30314188851555429 -0.3464145030398364 0 0.29422135484035322 -0.33366994296298719 0 0.29546103181119637 -0.34185893253319311 0 0.28827175492889229 -0.34275780055790278 0 0.29546103181119637 -0.34185893253319311 0 0.28827175492889229 -0.34275780055790278 0 0.29811044553331972 -0.34650788457159087 0 0.29422135484035322 -0.33366994296298719 0 0.28827175492889229 -0.34275780055790278 0 0.27955848846152698 -0.33666113426449551 0 0.29422135484035322 -0.33366994296298719 0 0.28744860979629389 -0.32474860906702402 0 0.27955848846152698 -0.33666113426449551 0 0.28744860979629389 -0.32474860906702402 0 0.29019889155513462 -0.31620785207956748 0 0.28097437988070417 -0.31138482246715898 0 0.29792146783109758 -0.32077626486014349 0 0.29019889155513462 -0.31620785207956748 0 0.29244758100571983 -0.32385066724243061 0 0.29422135484035322 -0.33366994296298719 0 0.28744860979629389 -0.32474860906702402 0 0.29244758100571983 -0.32385066724243061 0 0.29792146783109758 -0.32077626486014349 0 0.29422135484035322 -0.33366994296298719 0 0.29244758100571983 -0.32385066724243061 0 0.28744860979629389 -0.32474860906702402 0 0.29019889155513462 -0.31620785207956748 0 0.29244758100571983 -0.32385066724243061 0 0.30525369772634148 -0.37164386163485291 0 0.30031449930387721 -0.36082981960256849 0 0.30900602422585888 -0.35865430802761772 0 0.30525369772634148 -0.37164386163485291 0 0.30031449930387721 -0.36082981960256849 0 0.29483415024835152 -0.36747827247447862 0 0.30080593951138668 -0.35381036279877531 0 0.30900602422585888 -0.35865430802761772 0 0.30314188851555429 -0.3464145030398364 0 0.30080593951138668 -0.35381036279877531 0 0.29811044553331972 -0.34650788457159087 0 0.29345683997832372 -0.35664529875226292 0 0.30031449930387721 -0.36082981960256849 0 0.30080593951138668 -0.35381036279877531 0 0.30900602422585888 -0.35865430802761772 0 0.30031449930387721 -0.36082981960256849 0 0.30080593951138668 -0.35381036279877531 0 0.29345683997832372 -0.35664529875226292 0 0.31543696134246668 -0.34593224431305769 0 0.30900602422585888 -0.35865430802761772 0 0.30314188851555429 -0.3464145030398364 0 0.30080593951138668 -0.35381036279877531 0 0.30314188851555429 -0.3464145030398364 0 0.29811044553331972 -0.34650788457159087 0 0.29546103181119637 -0.34185893253319311 0 0.30314188851555429 -0.3464145030398364 0 0.29811044553331972 -0.34650788457159087 0 0.29811044553331972 -0.34650788457159087 0 0.29345683997832372 -0.35664529875226292 0 0.28122462644821988 -0.35688066365974619 0 0.28827175492889229 -0.34275780055790278 0 0.29811044553331972 -0.34650788457159087 0 0.28122462644821988 -0.35688066365974619 0 0.28827175492889229 -0.34275780055790278 0 0.28122462644821988 -0.35688066365974619 0 0.27955848846152698 -0.33666113426449551 0 0.29811044553331972 -0.34650788457159087 0 0.28122462644821988 -0.35688066365974619 0 0.29345683997832372 -0.35664529875226292 0 0.28676543400443838 -0.36101512068260139 0 0.28122462644821988 -0.35688066365974619 0 0.28676543400443838 -0.36101512068260139 0 0.28122462644821988 -0.35688066365974619 0 0.28783989868818821 -0.37644057584389279 0 0.30525369772634148 -0.37164386163485291 0 0.29483415024835152 -0.36747827247447862 0 0.28783989868818821 -0.37644057584389279 0 0.28676543400443838 -0.36101512068260139 0 0.27033126349110148 -0.36357234067652822 0 0.29357505063040601 -0.36145191270551408 0 0.28676543400443838 -0.36101512068260139 0 0.29483415024835152 -0.36747827247447862 0 0.30031449930387721 -0.36082981960256849 0 0.29357505063040601 -0.36145191270551408 0 0.29483415024835152 -0.36747827247447862 0 0.30031449930387721 -0.36082981960256849 0 0.29345683997832372 -0.35664529875226292 0 0.29357505063040601 -0.36145191270551408 0 0.29345683997832372 -0.35664529875226292 0 0.29357505063040601 -0.36145191270551408 0 0.28676543400443838 -0.36101512068260139 0 0.28783989868818821 -0.37644057584389279 0 0.28676543400443838 -0.36101512068260139 0 0.29483415024835152 -0.36747827247447862 0 0.28783989868818821 -0.37644057584389279 0 0.27033126349110148 -0.36357234067652822 0 0.28783989868818821 -0.37644057584389279 0 0.27447250226623809 -0.37821124143188289 0 0.27033126349110148 -0.36357234067652822 0 0.28676543400443838 -0.36101512068260139 0 0.27033126349110148 -0.36357234067652822 0 0.28122462644821988 -0.35688066365974619 0 0.27447250226623809 -0.37821124143188289 0 0.26423397132697279 -0.37890457124200982 0 0.27033126349110148 -0.36357234067652822 0 0.27033126349110148 -0.36357234067652822 0 0.28122462644821988 -0.35688066365974619 0 0.28122462644821988 -0.35688066365974619 0 0.26082083375001269 -0.34165569813656432 0 0.27033126349110148 -0.36357234067652822 0 0.28122462644821988 -0.35688066365974619 0 0.26082083375001269 -0.34165569813656432 0 0.28122462644821988 -0.35688066365974619 0 0.27955848846152698 -0.33666113426449551 0 0.26082083375001269 -0.34165569813656432 0 0.27033126349110148 -0.36357234067652822 0 0.25099839141978419 -0.34936335514031408 0 0.27033126349110148 -0.36357234067652822 0 0.25099839141978419 -0.34936335514031408 0 0.26082083375001269 -0.34165569813656432 0 0.27033126349110148 -0.36357234067652822 0 0.25099839141978419 -0.34936335514031408 0 0.24534349961555019 -0.36253701182870851 0 0.26423397132697279 -0.37890457124200982 0 0.27033126349110148 -0.36357234067652822 0 0.24987622704845311 -0.37613765202982719 0 0.27033126349110148 -0.36357234067652822 0 0.24534349961555019 -0.36253701182870851 0 0.24987622704845311 -0.37613765202982719 0 0.27033126349110148 -0.36357234067652822 0 0.24987622704845311 -0.37613765202982719 0 0.28744860979629389 -0.32474860906702402 0 0.26598899428458778 -0.32103793389256657 0 0.27955848846152698 -0.33666113426449551 0 0.28744860979629389 -0.32474860906702402 0 0.26598899428458778 -0.32103793389256657 0 0.28097437988070417 -0.31138482246715898 0 0.26598899428458778 -0.32103793389256657 0 0.27955848846152698 -0.33666113426449551 0 0.26082083375001269 -0.34165569813656432 0 0.26082083375001269 -0.34165569813656432 0 0.2404170410518052 -0.32643073261338312 0 0.26598899428458778 -0.32103793389256657 0 0.26082083375001269 -0.34165569813656432 0 0.2404170410518052 -0.32643073261338312 0 0.25099839141978419 -0.34936335514031408 0 0.26082083375001269 -0.34165569813656432 0 0.2404170410518052 -0.32643073261338312 0 0.26598899428458778 -0.32103793389256657 0 0.24423538898563429 -0.30587701823941071 0 0.2404170410518052 -0.32643073261338312 0 0.26846821806613752 -0.30050752245993012 0 0.24423538898563429 -0.30587701823941071 0 0.25301376652256202 -0.2892367573709661 0 0.26846821806613752 -0.30050752245993012 0 0.24423538898563429 -0.30587701823941071 0 0.26598899428458778 -0.32103793389256657 0 0.26846821806613752 -0.30050752245993012 0 0.24423538898563429 -0.30587701823941071 0 0.25301376652256202 -0.2892367573709661 0 0.26500420865911251 -0.28331687632378699 0 0.26846821806613752 -0.30050752245993012 0 0.25301376652256202 -0.2892367573709661 0 0.26500420865911251 -0.28331687632378699 0 0.2507153324002197 -0.27704953531328702 0 0.26500420865911251 -0.28331687632378699 0 0.27805302037335089 -0.28584974436810762 0 0.26846821806613752 -0.30050752245993012 0 0.27805302037335089 -0.28584974436810762 0 0.26846821806613752 -0.30050752245993012 0 0.29270104714664102 -0.29513802668045069 0 0.26500420865911251 -0.28331687632378699 0 0.27805302037335089 -0.28584974436810762 0 0.27342558025451552 -0.27498979272208851 0 0.26598899428458778 -0.32103793389256657 0 0.26846821806613752 -0.30050752245993012 0 0.28097437988070417 -0.31138482246715898 0 0.26846821806613752 -0.30050752245993012 0 0.28097437988070417 -0.31138482246715898 0 0.29270104714664102 -0.29513802668045069 0 0.26846821806613752 -0.30050752245993012 0 0.29270104714664102 -0.29513802668045069 0 0.29792146783109758 -0.32077626486014349 0 0.29270104714664102 -0.29513802668045069 0 0.29019889155513462 -0.31620785207956748 0 0.28097437988070417 -0.31138482246715898 0 0.29270104714664102 -0.29513802668045069 0 0.29792146783109758 -0.32077626486014349 0 0.29019889155513462 -0.31620785207956748 0 0.29270104714664102 -0.29513802668045069 0 0.29792146783109758 -0.32077626486014349 0 0.29270104714664102 -0.29513802668045069 0 0.29523603426331357 -0.29457632575074338 0 0.27805302037335089 -0.28584974436810762 0 0.29026987947112831 -0.28319821192468808 0 0.29270104714664102 -0.29513802668045069 0 0.27805302037335089 -0.28584974436810762 0 0.29026987947112831 -0.28319821192468808 0 0.28863308206368682 -0.27515966401439529 0 0.29026987947112831 -0.28319821192468808 0 0.29523603426331357 -0.29457632575074338 0 0.29026987947112831 -0.28319821192468808 0 0.29523603426331357 -0.29457632575074338 0 0.30320790951940702 -0.28313078900162059 0 0.29026987947112831 -0.28319821192468808 0 0.29270104714664102 -0.29513802668045069 0 0.29523603426331357 -0.29457632575074338 0 0.29026987947112831 -0.28319821192468808 0 0.29270104714664102 -0.29513802668045069 0 0.29270104714664102 -0.29513802668045069 0 0.29523603426331357 -0.29457632575074338 0 0.29523603426331357 -0.29457632575074338 0 0.31208952779935789 -0.2908419387292881 0 0.29523603426331357 -0.29457632575074338 0 0.30320790951940702 -0.28313078900162059 0 0.31208952779935789 -0.2908419387292881 0 0.29523603426331357 -0.29457632575074338 0 0.31208952779935789 -0.2908419387292881 0 0.30833746379913463 -0.30503745501229762 0 0.31611371382327402 -0.28007222207304999 0 0.30320790951940702 -0.28313078900162059 0 0.31208952779935789 -0.2908419387292881 0 0.30533649780288991 -0.32025428503190068 0 0.29523603426331357 -0.29457632575074338 0 0.30833746379913463 -0.30503745501229762 0 0.30533649780288991 -0.32025428503190068 0 0.29792146783109758 -0.32077626486014349 0 0.29523603426331357 -0.29457632575074338 0 0.30533649780288991 -0.32025428503190068 0 0.29523603426331357 -0.29457632575074338 0 0.3171485971304504 -0.30589952111326829 0 0.3109911447756647 -0.31350988965823029 0 0.30833746379913463 -0.30503745501229762 0 0.29812220868357159 -0.26533402464574418 0 0.30111904597271899 -0.2536098058489899 0 0.30981211567343969 -0.26250129009931661 0 0.31597462601859122 -0.25080747204364812 0 0.30111904597271899 -0.2536098058489899 0 0.30981211567343969 -0.26250129009931661 0 0.29812220868357159 -0.26533402464574418 0 0.30981211567343969 -0.26250129009931661 0 0.30706455279928557 -0.27339796693147528 0 0.31611371382327402 -0.28007222207304999 0 0.30320790951940702 -0.28313078900162059 0 0.30706455279928557 -0.27339796693147528 0 0.29026987947112831 -0.28319821192468808 0 0.30320790951940702 -0.28313078900162059 0 0.29755036247591721 -0.27602563541609298 0 0.30320790951940702 -0.28313078900162059 0 0.30706455279928557 -0.27339796693147528 0 0.29755036247591721 -0.27602563541609298 0 0.29812220868357159 -0.26533402464574418 0 0.30706455279928557 -0.27339796693147528 0 0.29755036247591721 -0.27602563541609298 0 0.29812220868357159 -0.26533402464574418 0 0.29755036247591721 -0.27602563541609298 0 0.28863308206368682 -0.27515966401439529 0 0.29026987947112831 -0.28319821192468808 0 0.28863308206368682 -0.27515966401439529 0 0.29026987947112831 -0.28319821192468808 0 0.29755036247591721 -0.27602563541609298 0 0.28863308206368682 -0.27515966401439529 0 0.28863308206368682 -0.27515966401439529 0 0.28456511698073272 -0.25518130134833977 0 0.29812220868357159 -0.26533402464574418 0 0.28863308206368682 -0.27515966401439529 0 0.28456511698073272 -0.25518130134833977 0 0.29812220868357159 -0.26533402464574418 0 0.30111904597271899 -0.2536098058489899 0 0.28456511698073272 -0.25518130134833977 0 0.28863308206368682 -0.27515966401439529 0 0.28456511698073272 -0.25518130134833977 0 0.27223885194073971 -0.26265851400849172 0 0.28456511698073272 -0.25518130134833977 0 0.27223885194073971 -0.26265851400849172 0 0.26629969424128969 -0.25192769388052821 0 0.27223885194073971 -0.26265851400849172 0 0.26629969424128969 -0.25192769388052821 0 0.2629172406837702 -0.26740365320709081 0 0.26500420865911251 -0.28331687632378699 0 0.27342558025451552 -0.27498979272208851 0 0.2629172406837702 -0.26740365320709081 0 0.28863308206368682 -0.27515966401439529 0 0.27223885194073971 -0.26265851400849172 0 0.27342558025451552 -0.27498979272208851 0 0.27805302037335089 -0.28584974436810762 0 0.28863308206368682 -0.27515966401439529 0 0.27342558025451552 -0.27498979272208851 0 0.27223885194073971 -0.26265851400849172 0 0.27342558025451552 -0.27498979272208851 0 0.2629172406837702 -0.26740365320709081 0 0.26500420865911251 -0.28331687632378699 0 0.2629172406837702 -0.26740365320709081 0 0.2507153324002197 -0.27704953531328702 0 0.2629172406837702 -0.26740365320709081 0 0.2507153324002197 -0.27704953531328702 0 0.2466218950091964 -0.26012473444713258 0 0.25037283077400019 -0.2416092145933311 0 0.26629969424128969 -0.25192769388052821 0 0.2466218950091964 -0.26012473444713258 0 0.26629969424128969 -0.25192769388052821 0 0.2629172406837702 -0.26740365320709081 0 0.2466218950091964 -0.26012473444713258 0 0.25037283077400019 -0.2416092145933311 0 0.2466218950091964 -0.26012473444713258 0 0.2339549802858914 -0.24933471903745599 0 0.2466218950091964 -0.26012473444713258 0 0.22717476572977791 -0.26325637954660608 0 0.2339549802858914 -0.24933471903745599 0 0.2466218950091964 -0.26012473444713258 0 0.23628574795648369 -0.27498419313581679 0 0.22717476572977791 -0.26325637954660608 0 0.2507153324002197 -0.27704953531328702 0 0.2466218950091964 -0.26012473444713258 0 0.23628574795648369 -0.27498419313581679 0 0.2507153324002197 -0.27704953531328702 0 0.23628574795648369 -0.27498419313581679 0 0.24044913557019401 -0.28723099739492908 0 0.2247339410531527 -0.27667652802353632 0 0.21554844428562811 -0.26491471108287651 0 0.21653111649902579 -0.28712771180040292 0 0.23628574795648369 -0.27498419313581679 0 0.2247339410531527 -0.27667652802353632 0 0.22717476572977791 -0.26325637954660608 0 0.2247339410531527 -0.27667652802353632 0 0.22717476572977791 -0.26325637954660608 0 0.21554844428562811 -0.26491471108287651 0 0.22717476572977791 -0.26325637954660608 0 0.22331750647786899 -0.25281133177650322 0 0.2339549802858914 -0.24933471903745599 0 0.22717476572977791 -0.26325637954660608 0 0.22331750647786899 -0.25281133177650322 0 0.21554844428562811 -0.26491471108287651 0 0.2084475354763706 -0.25511513831035743 0 0.21554844428562811 -0.26491471108287651 0 0.1982966667633215 -0.26354120971092698 0 0.21554844428562811 -0.26491471108287651 0 0.21456577207223029 -0.24270171036535029 0 0.22331750647786899 -0.25281133177650322 0 0.21554844428562811 -0.26491471108287651 0 0.21456577207223029 -0.24270171036535029 0 0.2084475354763706 -0.25511513831035743 0 0.21554844428562811 -0.26491471108287651 0 0.21336353465090491 -0.24693864317134839 0 0.21554844428562811 -0.26491471108287651 0 0.21336353465090491 -0.24693864317134839 0 0.21456577207223029 -0.24270171036535029 0 0.2084475354763706 -0.25511513831035743 0 0.1982966667633215 -0.26354120971092698 0 0.2080714594183444 -0.2424179483002232 0 0.1982966667633215 -0.26354120971092698 0 0.2080714594183444 -0.2424179483002232 0 0.21554844428562811 -0.26491471108287651 0 0.21653111649902579 -0.28712771180040292 0 0.21554844428562811 -0.26491471108287651 0 0.20859607852913339 -0.28093905456482821 0 0.21653111649902579 -0.28712771180040292 0 0.21554844428562811 -0.26491471108287651 0 0.20859607852913339 -0.28093905456482821 0 0.2011380539128553 -0.27767933622792518 0 0.21554844428562811 -0.26491471108287651 0 0.2011380539128553 -0.27767933622792518 0 0.1982966667633215 -0.26354120971092698 0 0.1982966667633215 -0.26354120971092698 0 0.18852187410829821 -0.28466447112163068 0 0.1982966667633215 -0.26354120971092698 0 0.18852187410829821 -0.28466447112163068 0 0.1845366839674035 -0.26640487959885623 0 0.2011380539128553 -0.27767933622792518 0 0.1982966667633215 -0.26354120971092698 0 0.18852187410829821 -0.28466447112163068 0 0.1982966667633215 -0.26354120971092698 0 0.2080714594183444 -0.2424179483002232 0 0.19254414318066221 -0.24961624770678509 0 0.1982966667633215 -0.26354120971092698 0 0.18706352147094041 -0.25756661524031438 0 0.1845366839674035 -0.26640487959885623 0 0.1982966667633215 -0.26354120971092698 0 0.18706352147094041 -0.25756661524031438 0 0.19254414318066221 -0.24961624770678509 0 0.18706352147094041 -0.25756661524031438 0 0.19254414318066221 -0.24961624770678509 0 0.18399505531774341 -0.24981832115951039 0 0.20249447748908611 -0.29813355613580778 0 0.1976485991634879 -0.30796138879627621 0 0.19462594870140809 -0.30164723750547567 0 0.20249447748908611 -0.29813355613580778 0 0.19462594870140809 -0.30164723750547567 0 0.19392418081794471 -0.29575522021664652 0 0.20249447748908611 -0.29813355613580778 0 0.1976485991634879 -0.30796138879627621 0 0.20782414549410869 -0.30817847155873718 0 0.1976485991634879 -0.30796138879627621 0 0.20782414549410869 -0.30817847155873718 0 0.20282381327660201 -0.31505297042611552 0 0.1976485991634879 -0.30796138879627621 0 0.19009702279388629 -0.3064242775921906 0 0.18802618722583669 -0.31833181955932999 0 0.1976485991634879 -0.30796138879627621 0 0.19009702279388629 -0.3064242775921906 0 0.19462594870140809 -0.30164723750547567 0 0.19009702279388629 -0.3064242775921906 0 0.19462594870140809 -0.30164723750547567 0 0.1880606218677118 -0.30022154946313712 0 0.19462594870140809 -0.30164723750547567 0 0.19110113081553529 -0.29631368747161629 0 0.19392418081794471 -0.29575522021664652 0 0.1880606218677118 -0.30022154946313712 0 0.19110113081553529 -0.29631368747161629 0 0.18734834214976739 -0.29514628785519947 0 0.19462594870140809 -0.30164723750547567 0 0.1880606218677118 -0.30022154946313712 0 0.19110113081553529 -0.29631368747161629 0 0.20249447748908611 -0.29813355613580778 0 0.18747516626574931 -0.28692639975368628 0 0.20249447748908611 -0.29813355613580778 0 0.19392418081794471 -0.29575522021664652 0 0.18747516626574931 -0.28692639975368628 0 0.19110113081553529 -0.29631368747161629 0 0.19392418081794471 -0.29575522021664652 0 0.18747516626574931 -0.28692639975368628 0 0.19110113081553529 -0.29631368747161629 0 0.18747516626574931 -0.28692639975368628 0 0.18734834214976739 -0.29514628785519947 0 0.18852187410829821 -0.28466447112163068 0 0.19787122383615691 -0.29172525818392958 0 0.18852187410829821 -0.28466447112163068 0 0.19731262536099689 -0.28481999283041842 0 0.19787122383615691 -0.29172525818392958 0 0.18852187410829821 -0.28466447112163068 0 0.19787122383615691 -0.29172525818392958 0 0.18747516626574931 -0.28692639975368628 0 0.18852187410829821 -0.28466447112163068 0 0.18747516626574931 -0.28692639975368628 0 0.2011380539128553 -0.27767933622792518 0 0.18852187410829821 -0.28466447112163068 0 0.19731262536099689 -0.28481999283041842 0 0.201719349586677 -0.2852109057881882 0 0.19787122383615691 -0.29172525818392958 0 0.206049533411369 -0.28982701925762389 0 0.19731262536099689 -0.28481999283041842 0 0.201719349586677 -0.2852109057881882 0 0.19787122383615691 -0.29172525818392958 0 0.2011380539128553 -0.27767933622792518 0 0.19731262536099689 -0.28481999283041842 0 0.201719349586677 -0.2852109057881882 0 0.20249447748908611 -0.29813355613580778 0 0.19787122383615691 -0.29172525818392958 0 0.18747516626574931 -0.28692639975368628 0 0.20249447748908611 -0.29813355613580778 0 0.19787122383615691 -0.29172525818392958 0 0.206049533411369 -0.28982701925762389 0 0.20249447748908611 -0.29813355613580778 0 0.206049533411369 -0.28982701925762389 0 0.20903552332543929 -0.29406903275804652 0 0.206049533411369 -0.28982701925762389 0 0.20903552332543929 -0.29406903275804652 0 0.21653111649902579 -0.28712771180040292 0 0.20249447748908611 -0.29813355613580778 0 0.20903552332543929 -0.29406903275804652 0 0.2123558614978226 -0.29827812898856709 0 0.20859607852913339 -0.28093905456482821 0 0.206049533411369 -0.28982701925762389 0 0.21653111649902579 -0.28712771180040292 0 0.20859607852913339 -0.28093905456482821 0 0.201719349586677 -0.2852109057881882 0 0.206049533411369 -0.28982701925762389 0 0.20859607852913339 -0.28093905456482821 0 0.2011380539128553 -0.27767933622792518 0 0.201719349586677 -0.2852109057881882 0 0.20903552332543929 -0.29406903275804652 0 0.21653111649902579 -0.28712771180040292 0 0.2123558614978226 -0.29827812898856709 0 0.21653111649902579 -0.28712771180040292 0 0.2175137887124228 -0.30934071251792922 0 0.21653111649902579 -0.28712771180040292 0 0.2123558614978226 -0.29827812898856709 0 0.2175137887124228 -0.30934071251792922 0 0.20249447748908611 -0.29813355613580778 0 0.2123558614978226 -0.29827812898856709 0 0.2175137887124228 -0.30934071251792922 0 0.20249447748908611 -0.29813355613580778 0 0.2175137887124228 -0.30934071251792922 0 0.20782414549410869 -0.30817847155873718 0 0.2176214393273678 -0.31177412129290383 0 0.20282381327660201 -0.31505297042611552 0 0.20249447748908611 -0.29813355613580778 0 0.20782414549410869 -0.30817847155873718 0 0.2175137887124228 -0.30934071251792922 0 0.20782414549410869 -0.30817847155873718 0 0.2175137887124228 -0.30934071251792922 0 0.2176214393273678 -0.31177412129290383 0 0.2175137887124228 -0.30934071251792922 0 0.2176214393273678 -0.31177412129290383 0 0.2175137887124228 -0.30934071251792922 0 0.2176214393273678 -0.31177412129290383 0 0.21999804566891551 -0.31122614102315033 0 0.21999804566891551 -0.31122614102315033 0 0.24423538898563429 -0.30587701823941071 0 0.2175137887124228 -0.30934071251792922 0 0.21999804566891551 -0.31122614102315033 0 0.22812963079484819 -0.29309964455197901 0 0.21999804566891551 -0.31122614102315033 0 0.22812963079484819 -0.29309964455197901 0 0.21999804566891551 -0.31122614102315033 0 0.22812963079484819 -0.29309964455197901 0 0.24423538898563429 -0.30587701823941071 0 0.2176214393273678 -0.31177412129290383 0 0.21999804566891551 -0.31122614102315033 0 0.2175137887124228 -0.30934071251792922 0 0.21999804566891551 -0.31122614102315033 0 0.23628574795648369 -0.27498419313581679 0 0.22812963079484819 -0.29309964455197901 0 0.2247339410531527 -0.27667652802353632 0 0.21653111649902579 -0.28712771180040292 0 0.22812963079484819 -0.29309964455197901 0 0.23628574795648369 -0.27498419313581679 0 0.2247339410531527 -0.27667652802353632 0 0.22812963079484819 -0.29309964455197901 0 0.21653111649902579 -0.28712771180040292 0 0.2175137887124228 -0.30934071251792922 0 0.22812963079484819 -0.29309964455197901 0 0.23628574795648369 -0.27498419313581679 0 0.22812963079484819 -0.29309964455197901 0 0.24044913557019401 -0.28723099739492908 0 0.25301376652256202 -0.2892367573709661 0 0.24044913557019401 -0.28723099739492908 0 0.24423538898563429 -0.30587701823941071 0 0.22812963079484819 -0.29309964455197901 0 0.24044913557019401 -0.28723099739492908 0 0.24423538898563429 -0.30587701823941071 0 0.25301376652256202 -0.2892367573709661 0 0.2507153324002197 -0.27704953531328702 0 0.24044913557019401 -0.28723099739492908 0 0.21999804566891551 -0.31122614102315033 0 0.24423538898563429 -0.30587701823941071 0 0.2404170410518052 -0.32643073261338312 0 0.25099839141978419 -0.34936335514031408 0 0.2316655193484673 -0.33515436960409939 0 0.25099839141978419 -0.34936335514031408 0 0.2404170410518052 -0.32643073261338312 0 0.2316655193484673 -0.33515436960409939 0 0.2404170410518052 -0.32643073261338312 0 0.2316655193484673 -0.33515436960409939 0 0.2247705650129608 -0.32491873692320528 0 0.2316655193484673 -0.33515436960409939 0 0.22208049410379579 -0.34309390150507102 0 0.22867514261462599 -0.34782526071452929 0 0.2316655193484673 -0.33515436960409939 0 0.22208049410379579 -0.34309390150507102 0 0.220555537226792 -0.33578323097752499 0 0.22208049410379579 -0.34309390150507102 0 0.220555537226792 -0.33578323097752499 0 0.21451162402718699 -0.34512658597487872 0 0.220555537226792 -0.33578323097752499 0 0.2247705650129608 -0.32491873692320528 0 0.21820242441149371 -0.32490710899175251 0 0.2316655193484673 -0.33515436960409939 0 0.220555537226792 -0.33578323097752499 0 0.2247705650129608 -0.32491873692320528 0 0.21999804566891551 -0.31122614102315033 0 0.2404170410518052 -0.32643073261338312 0 0.2247705650129608 -0.32491873692320528 0 0.21999804566891551 -0.31122614102315033 0 0.2404170410518052 -0.32643073261338312 0 0.2247705650129608 -0.32491873692320528 0 0.21780935440599439 -0.31602188338433101 0 0.21820242441149371 -0.32490710899175251 0 0.21999804566891551 -0.31122614102315033 0 0.2247705650129608 -0.32491873692320528 0 0.21780935440599439 -0.31602188338433101 0 0.21999804566891551 -0.31122614102315033 0 0.21780935440599439 -0.31602188338433101 0 0.23679608458568241 -0.3713456781615978 0 0.24534349961555019 -0.36253701182870851 0 0.24987622704845311 -0.37613765202982719 0 0.23679608458568241 -0.3713456781615978 0 0.24534349961555019 -0.36253701182870851 0 0.23133102347449649 -0.35950822589080189 0 0.25099839141978419 -0.34936335514031408 0 0.2316655193484673 -0.33515436960409939 0 0.23760271529458479 -0.35087764463569071 0 0.24534349961555019 -0.36253701182870851 0 0.23760271529458479 -0.35087764463569071 0 0.23133102347449649 -0.35950822589080189 0 0.25099839141978419 -0.34936335514031408 0 0.24534349961555019 -0.36253701182870851 0 0.23760271529458479 -0.35087764463569071 0 0.2316655193484673 -0.33515436960409939 0 0.23760271529458479 -0.35087764463569071 0 0.22867514261462599 -0.34782526071452929 0 0.22208049410379579 -0.34309390150507102 0 0.22076837523631451 -0.35267920974236072 0 0.21451162402718699 -0.34512658597487872 0 0.22208049410379579 -0.34309390150507102 0 0.22867514261462599 -0.34782526071452929 0 0.22076837523631451 -0.35267920974236072 0 0.22076837523631451 -0.35267920974236072 0 0.22341137818785181 -0.36337688942730773 0 0.21609027172906259 -0.36087537471117581 0 0.22076837523631451 -0.35267920974236072 0 0.23133102347449649 -0.35950822589080189 0 0.22341137818785181 -0.36337688942730773 0 0.22867514261462599 -0.34782526071452929 0 0.22076837523631451 -0.35267920974236072 0 0.23133102347449649 -0.35950822589080189 0 0.23760271529458479 -0.35087764463569071 0 0.22867514261462599 -0.34782526071452929 0 0.23133102347449649 -0.35950822589080189 0 0.23133102347449649 -0.35950822589080189 0 0.22341137818785181 -0.36337688942730773 0 0.22699371624108439 -0.37103399677892651 0 0.22341137818785181 -0.36337688942730773 0 0.22699371624108439 -0.37103399677892651 0 0.21663927632257499 -0.37152038636996992 0 0.22699371624108439 -0.37103399677892651 0 0.21663927632257499 -0.37152038636996992 0 0.22189277223980711 -0.38054577212349588 0 0.23679608458568241 -0.3713456781615978 0 0.22699371624108439 -0.37103399677892651 0 0.23010576568282681 -0.37607478874810818 0 0.23679608458568241 -0.3713456781615978 0 0.23133102347449649 -0.35950822589080189 0 0.22699371624108439 -0.37103399677892651 0 0.21663927632257499 -0.37152038636996992 0 0.20683644217058031 -0.36558797855932218 0 0.20576161095015591 -0.37595213443190167 0 0.22341137818785181 -0.36337688942730773 0 0.21663927632257499 -0.37152038636996992 0 0.21609027172906259 -0.36087537471117581 0 0.21609027172906259 -0.36087537471117581 0 0.20683644217058031 -0.36558797855932218 0 0.21089823393406021 -0.35324530101306001 0 0.21663927632257499 -0.37152038636996992 0 0.21609027172906259 -0.36087537471117581 0 0.20683644217058031 -0.36558797855932218 0 0.19940837682496099 -0.35689206815154528 0 0.20777431361625601 -0.33831058893907762 0 0.21089823393406021 -0.35324530101306001 0 0.19940837682496099 -0.35689206815154528 0 0.20777431361625601 -0.33831058893907762 0 0.20683644217058031 -0.36558797855932218 0 0.21089823393406021 -0.35324530101306001 0 0.19940837682496099 -0.35689206815154528 0 0.22076837523631451 -0.35267920974236072 0 0.21609027172906259 -0.36087537471117581 0 0.21089823393406021 -0.35324530101306001 0 0.21089823393406021 -0.35324530101306001 0 0.21451162402718699 -0.34512658597487872 0 0.20777431361625601 -0.33831058893907762 0 0.22076837523631451 -0.35267920974236072 0 0.21089823393406021 -0.35324530101306001 0 0.21451162402718699 -0.34512658597487872 0 0.1971616983813648 -0.34495631128618592 0 0.19940837682496099 -0.35689206815154528 0 0.20777431361625601 -0.33831058893907762 0 0.1971616983813648 -0.34495631128618592 0 0.18787137947787569 -0.35180034780069419 0 0.18864170350563411 -0.33720407153827198 0 0.1971616983813648 -0.34495631128618592 0 0.18787137947787569 -0.35180034780069419 0 0.19940837682496099 -0.35689206815154528 0 0.20683644217058031 -0.36558797855932218 0 0.20576161095015591 -0.37595213443190167 0 0.1910424400336663 -0.37547354736401328 0 0.18787137947787569 -0.35180034780069419 0 0.19940837682496099 -0.35689206815154528 0 0.1910424400336663 -0.37547354736401328 0 0.19940837682496099 -0.35689206815154528 0 0.1910424400336663 -0.37547354736401328 0 0.20683644217058031 -0.36558797855932218 0 0.19940837682496099 -0.35689206815154528 0 0.1910424400336663 -0.37547354736401328 0 0.21780935440599439 -0.31602188338433101 0 0.20777431361625601 -0.33831058893907762 0 0.21780935440599439 -0.31602188338433101 0 0.20777431361625601 -0.33831058893907762 0 0.20282381327660201 -0.31505297042611552 0 0.21780935440599439 -0.31602188338433101 0 0.21820242441149371 -0.32490710899175251 0 0.20777431361625601 -0.33831058893907762 0 0.2176214393273678 -0.31177412129290383 0 0.20282381327660201 -0.31505297042611552 0 0.2176214393273678 -0.31177412129290383 0 0.21780935440599439 -0.31602188338433101 0 0.20282381327660201 -0.31505297042611552 0 0.2176214393273678 -0.31177412129290383 0 0.21780935440599439 -0.31602188338433101 0 0.2176214393273678 -0.31177412129290383 0 0.21999804566891551 -0.31122614102315033 0 0.21780935440599439 -0.31602188338433101 0 0.21780935440599439 -0.31602188338433101 0 0.21820242441149371 -0.32490710899175251 0 0.220555537226792 -0.33578323097752499 0 0.21820242441149371 -0.32490710899175251 0 0.20777431361625601 -0.33831058893907762 0 0.220555537226792 -0.33578323097752499 0 0.21451162402718699 -0.34512658597487872 0 0.20777431361625601 -0.33831058893907762 0 0.21451162402718699 -0.34512658597487872 0 0.20777431361625601 -0.33831058893907762 0 0.1971616983813648 -0.34495631128618592 0 0.20777431361625601 -0.33831058893907762 0 0.18864170350563411 -0.33720407153827198 0 0.20777431361625601 -0.33831058893907762 0 0.18802618722583669 -0.31833181955932999 0 0.20777431361625601 -0.33831058893907762 0 0.18864170350563411 -0.33720407153827198 0 0.18802618722583669 -0.31833181955932999 0 0.20777431361625601 -0.33831058893907762 0 0.20282381327660201 -0.31505297042611552 0 0.18802618722583669 -0.31833181955932999 0 0.20282381327660201 -0.31505297042611552 0 0.18802618722583669 -0.31833181955932999 0 0.1976485991634879 -0.30796138879627621 0 0.20282381327660201 -0.31505297042611552 0 0.18802618722583669 -0.31833181955932999 0 0.18802618722583669 -0.31833181955932999 0 0.1791507244663583 -0.32983729973660558 0 0.16791254130802971 -0.3227885891963716 0 0.18802618722583669 -0.31833181955932999 0 0.17151825735526699 -0.31325416760549368 0 0.16791254130802971 -0.3227885891963716 0 0.18802618722583669 -0.31833181955932999 0 0.16791254130802971 -0.3227885891963716 0 0.18864170350563411 -0.33720407153827198 0 0.18802618722583669 -0.31833181955932999 0 0.1791507244663583 -0.32983729973660558 0 0.17202246582593331 -0.34102471865244838 0 0.1791507244663583 -0.32983729973660558 0 0.16791254130802971 -0.3227885891963716 0 0.18787137947787569 -0.35180034780069419 0 0.18864170350563411 -0.33720407153827198 0 0.17202246582593331 -0.34102471865244838 0 0.18864170350563411 -0.33720407153827198 0 0.17202246582593331 -0.34102471865244838 0 0.1791507244663583 -0.32983729973660558 0 0.17202246582593331 -0.34102471865244838 0 0.1546435437787094 -0.34381338892778002 0 0.1557586906108582 -0.32786840018592928 0 0.17202246582593331 -0.34102471865244838 0 0.16791254130802971 -0.3227885891963716 0 0.1557586906108582 -0.32786840018592928 0 0.16791254130802971 -0.3227885891963716 0 0.1557586906108582 -0.32786840018592928 0 0.1602411687519314 -0.31190927739118429 0 0.17151825735526699 -0.31325416760549368 0 0.16791254130802971 -0.3227885891963716 0 0.1602411687519314 -0.31190927739118429 0 0.18787137947787569 -0.35180034780069419 0 0.17662324672053431 -0.35795823269279659 0 0.1910424400336663 -0.37547354736401328 0 0.17662324672053431 -0.35795823269279659 0 0.17035242753357599 -0.36877211446365682 0 0.1910424400336663 -0.37547354736401328 0 0.17035242753357599 -0.36877211446365682 0 0.1910424400336663 -0.37547354736401328 0 0.1737051017910701 -0.38004230502140057 0 0.18787137947787569 -0.35180034780069419 0 0.17202246582593331 -0.34102471865244838 0 0.17662324672053431 -0.35795823269279659 0 0.17202246582593331 -0.34102471865244838 0 0.17662324672053431 -0.35795823269279659 0 0.16265844046108829 -0.35526087104265458 0 0.17202246582593331 -0.34102471865244838 0 0.16265844046108829 -0.35526087104265458 0 0.1546435437787094 -0.34381338892778002 0 0.17662324672053431 -0.35795823269279659 0 0.16265844046108829 -0.35526087104265458 0 0.17035242753357599 -0.36877211446365682 0 0.16265844046108829 -0.35526087104265458 0 0.1569593121701936 -0.36832063090657668 0 0.17035242753357599 -0.36877211446365682 0 0.1569593121701936 -0.36832063090657668 0 0.17035242753357599 -0.36877211446365682 0 0.16307541855137739 -0.37743582412871929 0 0.14536400873927011 -0.3681220756701501 0 0.1426630499740982 -0.35652090160864008 0 0.13524945632583441 -0.37311377610700652 0 0.16265844046108829 -0.35526087104265458 0 0.1569593121701936 -0.36832063090657668 0 0.1426630499740982 -0.35652090160864008 0 0.14536400873927011 -0.3681220756701501 0 0.13524945632583441 -0.37311377610700652 0 0.14973869037300869 -0.38096853745143089 0 0.1569593121701936 -0.36832063090657668 0 0.14536400873927011 -0.3681220756701501 0 0.14973869037300869 -0.38096853745143089 0 0.1569593121701936 -0.36832063090657668 0 0.14536400873927011 -0.3681220756701501 0 0.1426630499740982 -0.35652090160864008 0 0.1546435437787094 -0.34381338892778002 0 0.1426630499740982 -0.35652090160864008 0 0.1424354920479888 -0.33775294740649747 0 0.16265844046108829 -0.35526087104265458 0 0.1546435437787094 -0.34381338892778002 0 0.1426630499740982 -0.35652090160864008 0 0.13449730155472761 -0.34743155680512378 0 0.12784456261830821 -0.36308533366748658 0 0.123981461538115 -0.35128285539313481 0 0.1426630499740982 -0.35652090160864008 0 0.13449730155472761 -0.34743155680512378 0 0.1424354920479888 -0.33775294740649747 0 0.1426630499740982 -0.35652090160864008 0 0.13449730155472761 -0.34743155680512378 0 0.12784456261830821 -0.36308533366748658 0 0.13449730155472761 -0.34743155680512378 0 0.13051916655351839 -0.33696304048325831 0 0.123981461538115 -0.35128285539313481 0 0.1426630499740982 -0.35652090160864008 0 0.12784456261830821 -0.36308533366748658 0 0.13524945632583441 -0.37311377610700652 0 0.12784456261830821 -0.36308533366748658 0 0.13524945632583441 -0.37311377610700652 0 0.12609635470998201 -0.38402791619100712 0 0.14855409589738661 -0.31441038212804873 0 0.1557586906108582 -0.32786840018592928 0 0.1602411687519314 -0.31190927739118429 0 0.1445015266660287 -0.32337949759917511 0 0.14855409589738661 -0.31441038212804873 0 0.13871327718005111 -0.31332369293528212 0 0.1445015266660287 -0.32337949759917511 0 0.14855409589738661 -0.31441038212804873 0 0.1557586906108582 -0.32786840018592928 0 0.1546435437787094 -0.34381338892778002 0 0.1557586906108582 -0.32786840018592928 0 0.1424354920479888 -0.33775294740649747 0 0.1445015266660287 -0.32337949759917511 0 0.1557586906108582 -0.32786840018592928 0 0.1424354920479888 -0.33775294740649747 0 0.1445015266660287 -0.32337949759917511 0 0.1424354920479888 -0.33775294740649747 0 0.13219802669416811 -0.32498852212276208 0 0.1424354920479888 -0.33775294740649747 0 0.13051916655351839 -0.33696304048325831 0 0.13219802669416811 -0.32498852212276208 0 0.13449730155472761 -0.34743155680512378 0 0.1424354920479888 -0.33775294740649747 0 0.13051916655351839 -0.33696304048325831 0 0.13051916655351839 -0.33696304048325831 0 0.13219802669416811 -0.32498852212276208 0 0.12260601330919629 -0.33072698382653798 0 0.1445015266660287 -0.32337949759917511 0 0.13219802669416811 -0.32498852212276208 0 0.13871327718005111 -0.31332369293528212 0 0.13219802669416811 -0.32498852212276208 0 0.1265219532001009 -0.3124330460259736 0 0.1192961391526948 -0.32261879728377291 0 0.13219802669416811 -0.32498852212276208 0 0.13871327718005111 -0.31332369293528212 0 0.1265219532001009 -0.3124330460259736 0 0.1265219532001009 -0.3124330460259736 0 0.1332586495603032 -0.30031372317270688 0 0.1198701537204314 -0.30089140532399938 0 0.1332586495603032 -0.30031372317270688 0 0.1242383748246253 -0.29131174999725179 0 0.1198701537204314 -0.30089140532399938 0 0.13871327718005111 -0.31332369293528212 0 0.1265219532001009 -0.3124330460259736 0 0.1332586495603032 -0.30031372317270688 0 0.13871327718005111 -0.31332369293528212 0 0.1332586495603032 -0.30031372317270688 0 0.147245411062319 -0.30441698656302629 0 0.14855409589738661 -0.31441038212804873 0 0.13871327718005111 -0.31332369293528212 0 0.147245411062319 -0.30441698656302629 0 0.147245411062319 -0.30441698656302629 0 0.15432967412725099 -0.29846298066074151 0 0.14327492933615671 -0.29425024746867751 0 0.1332586495603032 -0.30031372317270688 0 0.147245411062319 -0.30441698656302629 0 0.14327492933615671 -0.29425024746867751 0 0.147245411062319 -0.30441698656302629 0 0.15432967412725099 -0.29846298066074151 0 0.1602411687519314 -0.31190927739118429 0 0.14855409589738661 -0.31441038212804873 0 0.147245411062319 -0.30441698656302629 0 0.1602411687519314 -0.31190927739118429 0 0.15432967412725099 -0.29846298066074151 0 0.1517600770447052 -0.28164214899084639 0 0.14327492933615671 -0.29425024746867751 0 0.1517600770447052 -0.28164214899084639 0 0.14327492933615671 -0.29425024746867751 0 0.13646338677899769 -0.28546266283427663 0 0.1332586495603032 -0.30031372317270688 0 0.14327492933615671 -0.29425024746867751 0 0.13646338677899769 -0.28546266283427663 0 0.1332586495603032 -0.30031372317270688 0 0.13646338677899769 -0.28546266283427663 0 0.1242383748246253 -0.29131174999725179 0 0.13646338677899769 -0.28546266283427663 0 0.1233023238440631 -0.28097148456094378 0 0.1242383748246253 -0.29131174999725179 0 0.1517600770447052 -0.28164214899084639 0 0.13646338677899769 -0.28546266283427663 0 0.1311170075682456 -0.27142576198599933 0 0.1517600770447052 -0.28164214899084639 0 0.1311170075682456 -0.27142576198599933 0 0.1364827709165429 -0.26618641562940759 0 0.13646338677899769 -0.28546266283427663 0 0.1311170075682456 -0.27142576198599933 0 0.1233023238440631 -0.28097148456094378 0 0.1311170075682456 -0.27142576198599933 0 0.1364827709165429 -0.26618641562940759 0 0.1212054647883809 -0.25073068226796852 0 0.1364827709165429 -0.26618641562940759 0 0.13217397618885759 -0.25462043987800831 0 0.1212054647883809 -0.25073068226796852 0 0.1364827709165429 -0.26618641562940759 0 0.1212054647883809 -0.25073068226796852 0 0.1364827709165429 -0.26618641562940759 0 0.13217397618885759 -0.25462043987800831 0 0.14275904560399111 -0.25945725309375861 0 0.13217397618885759 -0.25462043987800831 0 0.1429630926125974 -0.2502577086919005 0 0.14275904560399111 -0.25945725309375861 0 0.1429630926125974 -0.2502577086919005 0 0.16574248336044761 -0.26746108990676593 0 0.1429630926125974 -0.2502577086919005 0 0.15128247879849499 -0.26292486595599002 0 0.16574248336044761 -0.26746108990676593 0 0.1429630926125974 -0.2502577086919005 0 0.16574248336044761 -0.26746108990676593 0 0.16001236861667459 -0.2513654190734112 0 0.1429630926125974 -0.2502577086919005 0 0.14275904560399111 -0.25945725309375861 0 0.15128247879849499 -0.26292486595599002 0 0.1364827709165429 -0.26618641562940759 0 0.14275904560399111 -0.25945725309375861 0 0.15128247879849499 -0.26292486595599002 0 0.1517600770447052 -0.28164214899084639 0 0.1364827709165429 -0.26618641562940759 0 0.15128247879849499 -0.26292486595599002 0 0.1517600770447052 -0.28164214899084639 0 0.15128247879849499 -0.26292486595599002 0 0.15776774232478771 -0.26956647822523339 0 0.1517600770447052 -0.28164214899084639 0 0.1311170075682456 -0.27142576198599933 0 0.1517600770447052 -0.28164214899084639 0 0.1364827709165429 -0.26618641562940759 0 0.1517600770447052 -0.28164214899084639 0 0.16209364730358741 -0.27452888323759039 0 0.16594555478614451 -0.28284233368471318 0 0.1517600770447052 -0.28164214899084639 0 0.16209364730358741 -0.27452888323759039 0 0.15776774232478771 -0.26956647822523339 0 0.16209364730358741 -0.27452888323759039 0 0.15776774232478771 -0.26956647822523339 0 0.16574248336044761 -0.26746108990676593 0 0.15128247879849499 -0.26292486595599002 0 0.15776774232478771 -0.26956647822523339 0 0.16574248336044761 -0.26746108990676593 0 0.16209364730358741 -0.27452888323759039 0 0.16574248336044761 -0.26746108990676593 0 0.16920230535812411 -0.27329149954452342 0 0.16209364730358741 -0.27452888323759039 0 0.16920230535812411 -0.27329149954452342 0 0.16594555478614451 -0.28284233368471318 0 0.16920230535812411 -0.27329149954452342 0 0.1710222018321049 -0.28124575318360368 0 0.16594555478614451 -0.28284233368471318 0 0.16574248336044761 -0.26746108990676593 0 0.16001236861667459 -0.2513654190734112 0 0.16988601458932601 -0.2589500224365659 0 0.16574248336044761 -0.26746108990676593 0 0.16988601458932601 -0.2589500224365659 0 0.17628584543496439 -0.26683535894776161 0 0.16001236861667459 -0.2513654190734112 0 0.16988601458932601 -0.2589500224365659 0 0.16978669848249819 -0.25098739912941831 0 0.1767458594742066 -0.25730285456071711 0 0.17619278994504239 -0.24587918172992959 0 0.18399505531774341 -0.24981832115951039 0 0.16978669848249819 -0.25098739912941831 0 0.1767458594742066 -0.25730285456071711 0 0.17619278994504239 -0.24587918172992959 0 0.16988601458932601 -0.2589500224365659 0 0.16978669848249819 -0.25098739912941831 0 0.1767458594742066 -0.25730285456071711 0 0.16988601458932601 -0.2589500224365659 0 0.1767458594742066 -0.25730285456071711 0 0.17628584543496439 -0.26683535894776161 0 0.1767458594742066 -0.25730285456071711 0 0.17628584543496439 -0.26683535894776161 0 0.1845366839674035 -0.26640487959885623 0 0.1767458594742066 -0.25730285456071711 0 0.18706352147094041 -0.25756661524031438 0 0.1845366839674035 -0.26640487959885623 0 0.1767458594742066 -0.25730285456071711 0 0.18706352147094041 -0.25756661524031438 0 0.18399505531774341 -0.24981832115951039 0 0.18852187410829821 -0.28466447112163068 0 0.17628584543496439 -0.26683535894776161 0 0.1845366839674035 -0.26640487959885623 0 0.18852187410829821 -0.28466447112163068 0 0.16574248336044761 -0.26746108990676593 0 0.18852187410829821 -0.28466447112163068 0 0.16574248336044761 -0.26746108990676593 0 0.17628584543496439 -0.26683535894776161 0 0.16920230535812411 -0.27329149954452342 0 0.18747516626574931 -0.28692639975368628 0 0.17602993407772211 -0.2832030986568283 0 0.18852187410829821 -0.28466447112163068 0 0.16574248336044761 -0.26746108990676593 0 0.16920230535812411 -0.27329149954452342 0 0.16920230535812411 -0.27329149954452342 0 0.18747516626574931 -0.28692639975368628 0 0.16920230535812411 -0.27329149954452342 0 0.1710222018321049 -0.28124575318360368 0 0.17602993407772211 -0.2832030986568283 0 0.18747516626574931 -0.28692639975368628 0 0.1806905449634813 -0.28832929748571318 0 0.17602993407772211 -0.2832030986568283 0 0.18852187410829821 -0.28466447112163068 0 0.16920230535812411 -0.27329149954452342 0 0.18747516626574931 -0.28692639975368628 0 0.18747516626574931 -0.28692639975368628 0 0.1806905449634813 -0.28832929748571318 0 0.18301660310609241 -0.29114958545392738 0 0.17291101310642881 -0.28564608084835003 0 0.17864991096044419 -0.29495009963706692 0 0.16594555478614451 -0.28284233368471318 0 0.1806905449634813 -0.28832929748571318 0 0.17602993407772211 -0.2832030986568283 0 0.17673138357400531 -0.28840876668861409 0 0.17602993407772211 -0.2832030986568283 0 0.17673138357400531 -0.28840876668861409 0 0.17291101310642881 -0.28564608084835003 0 0.1710222018321049 -0.28124575318360368 0 0.17602993407772211 -0.2832030986568283 0 0.17291101310642881 -0.28564608084835003 0 0.17673138357400531 -0.28840876668861409 0 0.17291101310642881 -0.28564608084835003 0 0.17864991096044419 -0.29495009963706692 0 0.17673138357400531 -0.28840876668861409 0 0.17909088347012619 -0.29088019083727579 0 0.17864991096044419 -0.29495009963706692 0 0.1806905449634813 -0.28832929748571318 0 0.17673138357400531 -0.28840876668861409 0 0.17909088347012619 -0.29088019083727579 0 0.17909088347012619 -0.29088019083727579 0 0.17864991096044419 -0.29495009963706692 0 0.18114425154506539 -0.29221912984395187 0 0.18747516626574931 -0.28692639975368628 0 0.18734834214976739 -0.29514628785519947 0 0.1827564496500734 -0.29712351473235832 0 0.18747516626574931 -0.28692639975368628 0 0.18301660310609241 -0.29114958545392738 0 0.1827564496500734 -0.29712351473235832 0 0.18114425154506539 -0.29221912984395187 0 0.18301660310609241 -0.29114958545392738 0 0.1827564496500734 -0.29712351473235832 0 0.17864991096044419 -0.29495009963706692 0 0.18114425154506539 -0.29221912984395187 0 0.1827564496500734 -0.29712351473235832 0 0.18747516626574931 -0.28692639975368628 0 0.1827564496500734 -0.29712351473235832 0 0.1806905449634813 -0.28832929748571318 0 0.18114425154506539 -0.29221912984395187 0 0.18301660310609241 -0.29114958545392738 0 0.1806905449634813 -0.28832929748571318 0 0.17909088347012619 -0.29088019083727579 0 0.18114425154506539 -0.29221912984395187 0 0.18802618722583669 -0.31833181955932999 0 0.18221347423979239 -0.30458962683289892 0 0.1698931321352706 -0.29998698427508858 0 0.1880606218677118 -0.30022154946313712 0 0.18734834214976739 -0.29514628785519947 0 0.1827564496500734 -0.29712351473235832 0 0.19009702279388629 -0.3064242775921906 0 0.1880606218677118 -0.30022154946313712 0 0.18221347423979239 -0.30458962683289892 0 0.18802618722583669 -0.31833181955932999 0 0.17151825735526699 -0.31325416760549368 0 0.1698931321352706 -0.29998698427508858 0 0.1880606218677118 -0.30022154946313712 0 0.18221347423979239 -0.30458962683289892 0 0.1827564496500734 -0.29712351473235832 0 0.18802618722583669 -0.31833181955932999 0 0.1698931321352706 -0.29998698427508858 0 0.17864991096044419 -0.29495009963706692 0 0.1827564496500734 -0.29712351473235832 0 0.17837824174639511 -0.29916255636935318 0 0.18221347423979239 -0.30458962683289892 0 0.1827564496500734 -0.29712351473235832 0 0.17837824174639511 -0.29916255636935318 0 0.19009702279388629 -0.3064242775921906 0 0.18802618722583669 -0.31833181955932999 0 0.18221347423979239 -0.30458962683289892 0 0.18221347423979239 -0.30458962683289892 0 0.17837824174639511 -0.29916255636935318 0 0.1698931321352706 -0.29998698427508858 0 0.17864991096044419 -0.29495009963706692 0 0.17837824174639511 -0.29916255636935318 0 0.1698931321352706 -0.29998698427508858 0 0.17151825735526699 -0.31325416760549368 0 0.1698931321352706 -0.29998698427508858 0 0.1602411687519314 -0.31190927739118429 0 0.15432967412725099 -0.29846298066074151 0 0.1698931321352706 -0.29998698427508858 0 0.1602411687519314 -0.31190927739118429 0 0.1517600770447052 -0.28164214899084639 0 0.17864991096044419 -0.29495009963706692 0 0.1698931321352706 -0.29998698427508858 0 0.1517600770447052 -0.28164214899084639 0 0.1698931321352706 -0.29998698427508858 0 0.15432967412725099 -0.29846298066074151 0 0.1517600770447052 -0.28164214899084639 0 0.1698931321352706 -0.29998698427508858 0 0.1517600770447052 -0.28164214899084639 0 0.17864991096044419 -0.29495009963706692 0 0.1517600770447052 -0.28164214899084639 0 0.17864991096044419 -0.29495009963706692 0 0.16594555478614451 -0.28284233368471318 0 0.1710222018321049 -0.28124575318360368 0 0.17291101310642881 -0.28564608084835003 0 0.16594555478614451 -0.28284233368471318 0 0.21438456257476449 -0.5 0 0.2048745361024723 -0.48472171768082351 0 0.18744203257390391 -0.5 0 0.19122796324104871 -0.48466606029959602 0 0.2048745361024723 -0.48472171768082351 0 0.18744203257390391 -0.5 0 0.19122796324104871 -0.48466606029959602 0 0.20365346230900849 -0.47086657296764728 0 0.1938641377332887 -0.4633108835168005 0 0.19122796324104871 -0.48466606029959602 0 0.20365346230900849 -0.47086657296764728 0 0.2048745361024723 -0.48472171768082351 0 0.21766866328091511 -0.47157360957620892 0 0.2048745361024723 -0.48472171768082351 0 0.22288060450936709 -0.48400008360299168 0 0.20365346230900849 -0.47086657296764728 0 0.21766866328091511 -0.47157360957620892 0 0.2048745361024723 -0.48472171768082351 0 0.21438456257476449 -0.5 0 0.2048745361024723 -0.48472171768082351 0 0.22288060450936709 -0.48400008360299168 0 0.21438456257476449 -0.5 0 0.23633351028628971 -0.48712361601618398 0 0.2413270925756249 -0.5 0 0.21438456257476449 -0.5 0 0.23633351028628971 -0.48712361601618398 0 0.22288060450936709 -0.48400008360299168 0 0.25270961841775552 -0.48460016746525392 0 0.23633351028628971 -0.48712361601618398 0 0.2413270925756249 -0.5 0 0.25270961841775552 -0.48460016746525392 0 0.23633351028628971 -0.48712361601618398 0 0.23949561189523169 -0.47426551941090739 0 0.23949561189523169 -0.47426551941090739 0 0.22288060450936709 -0.48400008360299168 0 0.22545312399173489 -0.46028769725088831 0 0.21766866328091511 -0.47157360957620892 0 0.22288060450936709 -0.48400008360299168 0 0.22545312399173489 -0.46028769725088831 0 0.23633351028628971 -0.48712361601618398 0 0.23949561189523169 -0.47426551941090739 0 0.22288060450936709 -0.48400008360299168 0 0.22288060450936709 -0.48400008360299168 0 0.22545312399173489 -0.46028769725088831 0 0.21766866328091511 -0.47157360957620892 0 0.22545312399173489 -0.46028769725088831 0 0.2186728293425339 -0.44755637628226819 0 0.2588368117714554 -0.46700690363883102 0 0.23949561189523169 -0.47426551941090739 0 0.2409729068143365 -0.46262444708906358 0 0.22545312399173489 -0.46028769725088831 0 0.2409729068143365 -0.46262444708906358 0 0.24480843210435321 -0.45079661158300749 0 0.2588368117714554 -0.46700690363883102 0 0.2409729068143365 -0.46262444708906358 0 0.24480843210435321 -0.45079661158300749 0 0.23949561189523169 -0.47426551941090739 0 0.22545312399173489 -0.46028769725088831 0 0.2409729068143365 -0.46262444708906358 0 0.24480843210435321 -0.45079661158300749 0 0.22802564347410281 -0.43657531089878487 0 0.2418992233321238 -0.43333026798624508 0 0.25513396950241118 -0.43290986753561628 0 0.24480843210435321 -0.45079661158300749 0 0.2418992233321238 -0.43333026798624508 0 0.22545312399173489 -0.46028769725088831 0 0.22802564347410281 -0.43657531089878487 0 0.2186728293425339 -0.44755637628226819 0 0.21246462128442831 -0.43168381348743168 0 0.22802564347410281 -0.43657531089878487 0 0.22545312399173489 -0.46028769725088831 0 0.2186728293425339 -0.44755637628226819 0 0.22802564347410281 -0.43657531089878487 0 0.22545312399173489 -0.46028769725088831 0 0.24480843210435321 -0.45079661158300749 0 0.22802564347410281 -0.43657531089878487 0 0.20442019459899149 -0.44533796874460208 0 0.2186728293425339 -0.44755637628226819 0 0.21246462128442831 -0.43168381348743168 0 0.21766866328091511 -0.47157360957620892 0 0.20442019459899149 -0.44533796874460208 0 0.21766866328091511 -0.47157360957620892 0 0.20442019459899149 -0.44533796874460208 0 0.2186728293425339 -0.44755637628226819 0 0.20365346230900849 -0.47086657296764728 0 0.21766866328091511 -0.47157360957620892 0 0.20442019459899149 -0.44533796874460208 0 0.20365346230900849 -0.47086657296764728 0 0.20442019459899149 -0.44533796874460208 0 0.1938641377332887 -0.4633108835168005 0 0.20442019459899149 -0.44533796874460208 0 0.18484232774876749 -0.43033534366960768 0 0.18590039067086719 -0.44115637567916172 0 0.20442019459899149 -0.44533796874460208 0 0.18923595964957429 -0.45067509688328122 0 0.18590039067086719 -0.44115637567916172 0 0.20442019459899149 -0.44533796874460208 0 0.1938641377332887 -0.4633108835168005 0 0.18923595964957429 -0.45067509688328122 0 0.20442019459899149 -0.44533796874460208 0 0.1911717259170673 -0.41910232791299562 0 0.20473537155931409 -0.42802668409371708 0 0.20442019459899149 -0.44533796874460208 0 0.1911717259170673 -0.41910232791299562 0 0.20442019459899149 -0.44533796874460208 0 0.1911717259170673 -0.41910232791299562 0 0.18484232774876749 -0.43033534366960768 0 0.1911717259170673 -0.41910232791299562 0 0.21088494443676881 -0.41598262622983972 0 0.20473537155931409 -0.42802668409371708 0 0.18851111772050869 -0.41383358608972459 0 0.208966154163157 -0.40126827473642579 0 0.1911717259170673 -0.41910232791299562 0 0.21088494443676881 -0.41598262622983972 0 0.1911717259170673 -0.41910232791299562 0 0.18851111772050869 -0.41383358608972459 0 0.21088494443676881 -0.41598262622983972 0 0.18851111772050869 -0.41383358608972459 0 0.21088494443676881 -0.41598262622983972 0 0.208966154163157 -0.40126827473642579 0 0.1911717259170673 -0.41910232791299562 0 0.18851111772050869 -0.41383358608972459 0 0.21088494443676881 -0.41598262622983972 0 0.22155668588658281 -0.40529615173032069 0 0.208966154163157 -0.40126827473642579 0 0.21088494443676881 -0.41598262622983972 0 0.20473537155931409 -0.42802668409371708 0 0.21246462128442831 -0.43168381348743168 0 0.21088494443676881 -0.41598262622983972 0 0.21246462128442831 -0.43168381348743168 0 0.21959695705502991 -0.42408781639437282 0 0.20442019459899149 -0.44533796874460208 0 0.20473537155931409 -0.42802668409371708 0 0.21246462128442831 -0.43168381348743168 0 0.21246462128442831 -0.43168381348743168 0 0.21959695705502991 -0.42408781639437282 0 0.22802564347410281 -0.43657531089878487 0 0.22802564347410281 -0.43657531089878487 0 0.23614533994983331 -0.4244462479719151 0 0.23059816295646979 -0.4128629245466815 0 0.22802564347410281 -0.43657531089878487 0 0.23059816295646979 -0.4128629245466815 0 0.21959695705502991 -0.42408781639437282 0 0.22802564347410281 -0.43657531089878487 0 0.23059816295646979 -0.4128629245466815 0 0.22802564347410281 -0.43657531089878487 0 0.2418992233321238 -0.43333026798624508 0 0.23614533994983331 -0.4244462479719151 0 0.2418992233321238 -0.43333026798624508 0 0.23614533994983331 -0.4244462479719151 0 0.2453827316299185 -0.42192330194190181 0 0.25513396950241118 -0.43290986753561628 0 0.2418992233321238 -0.43333026798624508 0 0.2453827316299185 -0.42192330194190181 0 0.256136481120742 -0.41447562176841068 0 0.2453827316299185 -0.42192330194190181 0 0.24629253832767661 -0.41022035877505542 0 0.2453827316299185 -0.42192330194190181 0 0.24629253832767661 -0.41022035877505542 0 0.2366098857920339 -0.41191154353144788 0 0.23614533994983331 -0.4244462479719151 0 0.2366098857920339 -0.41191154353144788 0 0.23059816295646979 -0.4128629245466815 0 0.23614533994983331 -0.4244462479719151 0 0.2453827316299185 -0.42192330194190181 0 0.2366098857920339 -0.41191154353144788 0 0.24629253832767661 -0.41022035877505542 0 0.2366098857920339 -0.41191154353144788 0 0.2422505545635501 -0.40276464775944387 0 0.21088494443676881 -0.41598262622983972 0 0.23059816295646979 -0.4128629245466815 0 0.2366098857920339 -0.41191154353144788 0 0.23059816295646979 -0.4128629245466815 0 0.23156745731421779 -0.4039283829592023 0 0.23059816295646979 -0.4128629245466815 0 0.22155668588658281 -0.40529615173032069 0 0.23156745731421779 -0.4039283829592023 0 0.23059816295646979 -0.4128629245466815 0 0.23156745731421779 -0.4039283829592023 0 0.21088494443676881 -0.41598262622983972 0 0.23059816295646979 -0.4128629245466815 0 0.22155668588658281 -0.40529615173032069 0 0.21088494443676881 -0.41598262622983972 0 0.21959695705502991 -0.42408781639437282 0 0.23059816295646979 -0.4128629245466815 0 0.2366098857920339 -0.41191154353144788 0 0.23059816295646979 -0.4128629245466815 0 0.22155668588658281 -0.40529615173032069 0 0.22942119060580499 -0.38870296338312649 0 0.208966154163157 -0.40126827473642579 0 0.22155668588658281 -0.40529615173032069 0 0.23156745731421779 -0.4039283829592023 0 0.22942119060580499 -0.38870296338312649 0 0.22942119060580499 -0.38870296338312649 0 0.208966154163157 -0.40126827473642579 0 0.23156745731421779 -0.4039283829592023 0 0.24309899287842279 -0.39271330151873202 0 0.2422505545635501 -0.40276464775944387 0 0.2366098857920339 -0.41191154353144788 0 0.23156745731421779 -0.4039283829592023 0 0.2422505545635501 -0.40276464775944387 0 0.23156745731421779 -0.4039283829592023 0 0.24309899287842279 -0.39271330151873202 0 0.22942119060580499 -0.38870296338312649 0 0.25108303853213881 -0.40002667887407228 0 0.24629253832767661 -0.41022035877505542 0 0.2422505545635501 -0.40276464775944387 0 0.25108303853213881 -0.40002667887407228 0 0.24309899287842279 -0.39271330151873202 0 0.2422505545635501 -0.40276464775944387 0 0.24987622704845311 -0.37613765202982719 0 0.22942119060580499 -0.38870296338312649 0 0.24309899287842279 -0.39271330151873202 0 0.24987622704845311 -0.37613765202982719 0 0.22942119060580499 -0.38870296338312649 0 0.24987622704845311 -0.37613765202982719 0 0.23474048966473349 -0.38137370792841258 0 0.22942119060580499 -0.38870296338312649 0 0.25687819372407023 -0.38903915957053298 0 0.24309899287842279 -0.39271330151873202 0 0.24987622704845311 -0.37613765202982719 0 0.23679608458568241 -0.3713456781615978 0 0.24987622704845311 -0.37613765202982719 0 0.23474048966473349 -0.38137370792841258 0 0.23474048966473349 -0.38137370792841258 0 0.23010576568282681 -0.37607478874810818 0 0.22189277223980711 -0.38054577212349588 0 0.23474048966473349 -0.38137370792841258 0 0.22189277223980711 -0.38054577212349588 0 0.20961824525516401 -0.3936281247522696 0 0.23474048966473349 -0.38137370792841258 0 0.22942119060580499 -0.38870296338312649 0 0.20961824525516401 -0.3936281247522696 0 0.23679608458568241 -0.3713456781615978 0 0.23474048966473349 -0.38137370792841258 0 0.23010576568282681 -0.37607478874810818 0 0.23474048966473349 -0.38137370792841258 0 0.20961824525516401 -0.3936281247522696 0 0.22699371624108439 -0.37103399677892651 0 0.23010576568282681 -0.37607478874810818 0 0.22189277223980711 -0.38054577212349588 0 0.21663927632257499 -0.37152038636996992 0 0.22189277223980711 -0.38054577212349588 0 0.21119602619295649 -0.38157571206759561 0 0.21663927632257499 -0.37152038636996992 0 0.21119602619295649 -0.38157571206759561 0 0.20576161095015591 -0.37595213443190167 0 0.21119602619295649 -0.38157571206759561 0 0.20576161095015591 -0.37595213443190167 0 0.20229958674085519 -0.38616776423662919 0 0.21119602619295649 -0.38157571206759561 0 0.20961824525516401 -0.3936281247522696 0 0.20229958674085519 -0.38616776423662919 0 0.22189277223980711 -0.38054577212349588 0 0.21119602619295649 -0.38157571206759561 0 0.20961824525516401 -0.3936281247522696 0 0.22942119060580499 -0.38870296338312649 0 0.208966154163157 -0.40126827473642579 0 0.20961824525516401 -0.3936281247522696 0 0.20961824525516401 -0.3936281247522696 0 0.18449600084559339 -0.40588254157612419 0 0.20961824525516401 -0.3936281247522696 0 0.19262774622386039 -0.39991289132556063 0 0.20229958674085519 -0.38616776423662919 0 0.18851111772050869 -0.41383358608972459 0 0.20961824525516401 -0.3936281247522696 0 0.18449600084559339 -0.40588254157612419 0 0.19262774622386039 -0.39991289132556063 0 0.193172237845981 -0.38760648281860499 0 0.20229958674085519 -0.38616776423662919 0 0.20961824525516401 -0.3936281247522696 0 0.19262774622386039 -0.39991289132556063 0 0.18449600084559339 -0.40588254157612419 0 0.18851111772050869 -0.41383358608972459 0 0.208966154163157 -0.40126827473642579 0 0.20961824525516401 -0.3936281247522696 0 0.19262774622386039 -0.39991289132556063 0 0.18963514604776821 -0.39361523539988952 0 0.193172237845981 -0.38760648281860499 0 0.19262774622386039 -0.39991289132556063 0 0.18963514604776821 -0.39361523539988952 0 0.18221634088723479 -0.40136818287387582 0 0.18963514604776821 -0.39361523539988952 0 0.193172237845981 -0.38760648281860499 0 0.18267650324237161 -0.39405502657648112 0 0.193172237845981 -0.38760648281860499 0 0.1910424400336663 -0.37547354736401328 0 0.18267650324237161 -0.39405502657648112 0 0.20576161095015591 -0.37595213443190167 0 0.1910424400336663 -0.37547354736401328 0 0.20229958674085519 -0.38616776423662919 0 0.193172237845981 -0.38760648281860499 0 0.1910424400336663 -0.37547354736401328 0 0.20229958674085519 -0.38616776423662919 0 0.1910424400336663 -0.37547354736401328 0 0.17822948803450961 -0.38676940160015832 0 0.1737051017910701 -0.38004230502140057 0 0.1910424400336663 -0.37547354736401328 0 0.18267650324237161 -0.39405502657648112 0 0.1910424400336663 -0.37547354736401328 0 0.17822948803450961 -0.38676940160015832 0 0.18267650324237161 -0.39405502657648112 0 0.17822948803450961 -0.38676940160015832 0 0.17910183421640119 -0.39520059623836468 0 0.1646215608890387 -0.38907553280053181 0 0.17822948803450961 -0.38676940160015832 0 0.1737051017910701 -0.38004230502140057 0 0.1646215608890387 -0.38907553280053181 0 0.17822948803450961 -0.38676940160015832 0 0.18267650324237161 -0.39405502657648112 0 0.17910183421640119 -0.39520059623836468 0 0.18221634088723479 -0.40136818287387582 0 0.17910183421640119 -0.39520059623836468 0 0.15805845094365739 -0.40474493864538458 0 0.18963514604776821 -0.39361523539988952 0 0.18267650324237161 -0.39405502657648112 0 0.18221634088723479 -0.40136818287387582 0 0.18267650324237161 -0.39405502657648112 0 0.18221634088723479 -0.40136818287387582 0 0.17910183421640119 -0.39520059623836468 0 0.18221634088723479 -0.40136818287387582 0 0.17910183421640119 -0.39520059623836468 0 0.19262774622386039 -0.39991289132556063 0 0.18221634088723479 -0.40136818287387582 0 0.19262774622386039 -0.39991289132556063 0 0.18449600084559339 -0.40588254157612419 0 0.18221634088723479 -0.40136818287387582 0 0.18449600084559339 -0.40588254157612419 0 0.18221634088723479 -0.40136818287387582 0 0.17910183421640119 -0.39520059623836468 0 0.15805845094365739 -0.40474493864538458 0 0.1646215608890387 -0.38907553280053181 0 0.18221634088723479 -0.40136818287387582 0 0.15805845094365739 -0.40474493864538458 0 0.15805845094365739 -0.40474493864538458 0 0.1646215608890387 -0.38907553280053181 0 0.14706277844018539 -0.39464292458295508 0 0.1737051017910701 -0.38004230502140057 0 0.1646215608890387 -0.38907553280053181 0 0.16307541855137739 -0.37743582412871929 0 0.17035242753357599 -0.36877211446365682 0 0.1737051017910701 -0.38004230502140057 0 0.16307541855137739 -0.37743582412871929 0 0.1569593121701936 -0.36832063090657668 0 0.16307541855137739 -0.37743582412871929 0 0.14973869037300869 -0.38096853745143089 0 0.1646215608890387 -0.38907553280053181 0 0.16307541855137739 -0.37743582412871929 0 0.14973869037300869 -0.38096853745143089 0 0.1646215608890387 -0.38907553280053181 0 0.14973869037300869 -0.38096853745143089 0 0.14706277844018539 -0.39464292458295508 0 0.14973869037300869 -0.38096853745143089 0 0.1375772795987745 -0.38493757303029391 0 0.14706277844018539 -0.39464292458295508 0 0.13524945632583441 -0.37311377610700652 0 0.14973869037300869 -0.38096853745143089 0 0.1375772795987745 -0.38493757303029391 0 0.13524945632583441 -0.37311377610700652 0 0.1375772795987745 -0.38493757303029391 0 0.12609635470998201 -0.38402791619100712 0 0.1375772795987745 -0.38493757303029391 0 0.12609635470998201 -0.38402791619100712 0 0.13569313113510631 -0.39589912548093298 0 0.12645644117523869 -0.39722706905544619 0 0.13569313113510631 -0.39589912548093298 0 0.1339005610000801 -0.40812169441689322 0 0.12645644117523869 -0.39722706905544619 0 0.1339005610000801 -0.40812169441689322 0 0.1250254850364893 -0.40936224001308058 0 0.12609635470998201 -0.38402791619100712 0 0.12645644117523869 -0.39722706905544619 0 0.13569313113510631 -0.39589912548093298 0 0.1375772795987745 -0.38493757303029391 0 0.13569313113510631 -0.39589912548093298 0 0.14706277844018539 -0.39464292458295508 0 0.13569313113510631 -0.39589912548093298 0 0.14706277844018539 -0.39464292458295508 0 0.1339005610000801 -0.40812169441689322 0 0.13569313113510631 -0.39589912548093298 0 0.1339005610000801 -0.40812169441689322 0 0.15805845094365739 -0.40474493864538458 0 0.14706277844018539 -0.39464292458295508 0 0.1339005610000801 -0.40812169441689322 0 0.15805845094365739 -0.40474493864538458 0 0.1339005610000801 -0.40812169441689322 0 0.15805845094365739 -0.40474493864538458 0 0.15398562739609989 -0.414436145328195 0 0.14500783119440661 -0.41410657591589572 0 0.15805845094365739 -0.40474493864538458 0 0.14500783119440661 -0.41410657591589572 0 0.1339005610000801 -0.40812169441689322 0 0.15398562739609989 -0.414436145328195 0 0.15088002640467921 -0.42009116626417142 0 0.14500783119440661 -0.41410657591589572 0 0.15088002640467921 -0.42009116626417142 0 0.15979138776423191 -0.42406840149736191 0 0.15636365466176849 -0.41960526040447821 0 0.15398562739609989 -0.414436145328195 0 0.15088002640467921 -0.42009116626417142 0 0.15636365466176849 -0.41960526040447821 0 0.15088002640467921 -0.42009116626417142 0 0.14500783119440661 -0.41410657591589572 0 0.14354831806896931 -0.42663893719234869 0 0.14500783119440661 -0.41410657591589572 0 0.1339005610000801 -0.40812169441689322 0 0.13212255532719441 -0.42024495614079282 0 0.14500783119440661 -0.41410657591589572 0 0.13212255532719441 -0.42024495614079282 0 0.14354831806896931 -0.42663893719234869 0 0.1339005610000801 -0.40812169441689322 0 0.13212255532719441 -0.42024495614079282 0 0.13212255532719441 -0.42024495614079282 0 0.1250254850364893 -0.40936224001308058 0 0.117866085899093 -0.41583132647739651 0 0.13212255532719441 -0.42024495614079282 0 0.1250254850364893 -0.40936224001308058 0 0.1339005610000801 -0.40812169441689322 0 0.13212255532719441 -0.42024495614079282 0 0.1250254850364893 -0.40936224001308058 0 0.1339005610000801 -0.40812169441689322 0 0.1250254850364893 -0.40936224001308058 0 0.13212255532719441 -0.42024495614079282 0 0.14354831806896931 -0.42663893719234869 0 0.1460535583969573 -0.44160689079445481 0 0.13212255532719441 -0.42024495614079282 0 0.128223579302082 -0.44682997076052833 0 0.13212255532719441 -0.42024495614079282 0 0.128223579302082 -0.44682997076052833 0 0.1159996351348133 -0.43474120747525058 0 0.13212255532719441 -0.42024495614079282 0 0.1460535583969573 -0.44160689079445481 0 0.13212255532719441 -0.42024495614079282 0 0.1460535583969573 -0.44160689079445481 0 0.128223579302082 -0.44682997076052833 0 0.15088002640467921 -0.42009116626417142 0 0.14354831806896931 -0.42663893719234869 0 0.15979138776423191 -0.42406840149736191 0 0.14354831806896931 -0.42663893719234869 0 0.15979138776423191 -0.42406840149736191 0 0.14354831806896931 -0.42663893719234869 0 0.15423293294423909 -0.43386412417913311 0 0.1460535583969573 -0.44160689079445481 0 0.14354831806896931 -0.42663893719234869 0 0.15423293294423909 -0.43386412417913311 0 0.15979138776423191 -0.42406840149736191 0 0.15423293294423909 -0.43386412417913311 0 0.16088991666547389 -0.43196094602310392 0 0.16557730454712019 -0.44172028084172121 0 0.1713980071398 -0.42434598792645378 0 0.15979138776423191 -0.42406840149736191 0 0.1760344574594947 -0.42149786580237669 0 0.15423293294423909 -0.43386412417913311 0 0.16088991666547389 -0.43196094602310392 0 0.15979138776423191 -0.42406840149736191 0 0.15979138776423191 -0.42406840149736191 0 0.1760344574594947 -0.42149786580237669 0 0.16626302434537371 -0.43076979168845952 0 0.17509911994716071 -0.43336510097506958 0 0.16557730454712019 -0.44172028084172121 0 0.16088991666547389 -0.43196094602310392 0 0.16626302434537371 -0.43076979168845952 0 0.16557730454712019 -0.44172028084172121 0 0.16626302434537371 -0.43076979168845952 0 0.1713980071398 -0.42434598792645378 0 0.17509911994716071 -0.43336510097506958 0 0.16626302434537371 -0.43076979168845952 0 0.1713980071398 -0.42434598792645378 0 0.15979138776423191 -0.42406840149736191 0 0.16088991666547389 -0.43196094602310392 0 0.16626302434537371 -0.43076979168845952 0 0.15979138776423191 -0.42406840149736191 0 0.15636365466176849 -0.41960526040447821 0 0.16176651730702801 -0.41283252991975622 0 0.17042982775368151 -0.41274390099030239 0 0.18221634088723479 -0.40136818287387582 0 0.15805845094365739 -0.40474493864538458 0 0.17042982775368151 -0.41274390099030239 0 0.15979138776423191 -0.42406840149736191 0 0.15636365466176849 -0.41960526040447821 0 0.17042982775368151 -0.41274390099030239 0 0.15636365466176849 -0.41960526040447821 0 0.17042982775368151 -0.41274390099030239 0 0.15979138776423191 -0.42406840149736191 0 0.17042982775368151 -0.41274390099030239 0 0.1760344574594947 -0.42149786580237669 0 0.15398562739609989 -0.414436145328195 0 0.15636365466176849 -0.41960526040447821 0 0.16176651730702801 -0.41283252991975622 0 0.15805845094365739 -0.40474493864538458 0 0.15398562739609989 -0.414436145328195 0 0.16176651730702801 -0.41283252991975622 0 0.15805845094365739 -0.40474493864538458 0 0.16176651730702801 -0.41283252991975622 0 0.17042982775368151 -0.41274390099030239 0 0.17042982775368151 -0.41274390099030239 0 0.1760344574594947 -0.42149786580237669 0 0.17986785094481991 -0.4134894736146324 0 0.18449600084559339 -0.40588254157612419 0 0.17042982775368151 -0.41274390099030239 0 0.18449600084559339 -0.40588254157612419 0 0.18221634088723479 -0.40136818287387582 0 0.17042982775368151 -0.41274390099030239 0 0.18449600084559339 -0.40588254157612419 0 0.17042982775368151 -0.41274390099030239 0 0.17986785094481991 -0.4134894736146324 0 0.18851111772050869 -0.41383358608972459 0 0.18449600084559339 -0.40588254157612419 0 0.18851111772050869 -0.41383358608972459 0 0.18449600084559339 -0.40588254157612419 0 0.17986785094481991 -0.4134894736146324 0 0.18851111772050869 -0.41383358608972459 0 0.1760344574594947 -0.42149786580237669 0 0.1911717259170673 -0.41910232791299562 0 0.1760344574594947 -0.42149786580237669 0 0.18851111772050869 -0.41383358608972459 0 0.1760344574594947 -0.42149786580237669 0 0.17986785094481991 -0.4134894736146324 0 0.1911717259170673 -0.41910232791299562 0 0.18851111772050869 -0.41383358608972459 0 0.1760344574594947 -0.42149786580237669 0 0.1911717259170673 -0.41910232791299562 0 0.1760344574594947 -0.42149786580237669 0 0.18484232774876749 -0.43033534366960768 0 0.18484232774876749 -0.43033534366960768 0 0.17509911994716071 -0.43336510097506958 0 0.18590039067086719 -0.44115637567916172 0 0.18484232774876749 -0.43033534366960768 0 0.17509911994716071 -0.43336510097506958 0 0.17653319474121221 -0.42750765242104072 0 0.1713980071398 -0.42434598792645378 0 0.17509911994716071 -0.43336510097506958 0 0.17653319474121221 -0.42750765242104072 0 0.1760344574594947 -0.42149786580237669 0 0.18484232774876749 -0.43033534366960768 0 0.17653319474121221 -0.42750765242104072 0 0.1713980071398 -0.42434598792645378 0 0.1760344574594947 -0.42149786580237669 0 0.17653319474121221 -0.42750765242104072 0 0.1713980071398 -0.42434598792645378 0 0.1760344574594947 -0.42149786580237669 0 0.17791556380287959 -0.4455361086535346 0 0.17376504419967539 -0.46076368888843938 0 0.16557730454712019 -0.44172028084172121 0 0.17509911994716071 -0.43336510097506958 0 0.17791556380287959 -0.4455361086535346 0 0.18590039067086719 -0.44115637567916172 0 0.17509911994716071 -0.43336510097506958 0 0.17791556380287959 -0.4455361086535346 0 0.16557730454712019 -0.44172028084172121 0 0.18923595964957429 -0.45067509688328122 0 0.17791556380287959 -0.4455361086535346 0 0.18590039067086719 -0.44115637567916172 0 0.18923595964957429 -0.45067509688328122 0 0.17791556380287959 -0.4455361086535346 0 0.17376504419967539 -0.46076368888843938 0 0.1938641377332887 -0.4633108835168005 0 0.18923595964957429 -0.45067509688328122 0 0.17376504419967539 -0.46076368888843938 0 0.1938641377332887 -0.4633108835168005 0 0.17376504419967539 -0.46076368888843938 0 0.17718182015316611 -0.48165544175840053 0 0.17376504419967539 -0.46076368888843938 0 0.15550290350416551 -0.45157236434768988 0 0.1539044029471725 -0.46809795184702829 0 0.17376504419967539 -0.46076368888843938 0 0.16557730454712019 -0.44172028084172121 0 0.15550290350416551 -0.45157236434768988 0 0.15423293294423909 -0.43386412417913311 0 0.16557730454712019 -0.44172028084172121 0 0.15550290350416551 -0.45157236434768988 0 0.15423293294423909 -0.43386412417913311 0 0.15550290350416551 -0.45157236434768988 0 0.1460535583969573 -0.44160689079445481 0 0.15550290350416551 -0.45157236434768988 0 0.1460535583969573 -0.44160689079445481 0 0.14153074802588431 -0.45654190970348868 0 0.1460535583969573 -0.44160689079445481 0 0.128223579302082 -0.44682997076052833 0 0.14153074802588431 -0.45654190970348868 0 0.128223579302082 -0.44682997076052833 0 0.12432460327697011 -0.47341498538026422 0 0.128223579302082 -0.44682997076052833 0 0.14153074802588431 -0.45654190970348868 0 0.12432460327697011 -0.47341498538026422 0 0.1539044029471725 -0.46809795184702829 0 0.14153074802588431 -0.45654190970348868 0 0.12432460327697011 -0.47341498538026422 0 0.15550290350416551 -0.45157236434768988 0 0.1539044029471725 -0.46809795184702829 0 0.14153074802588431 -0.45654190970348868 0 0.1539044029471725 -0.46809795184702829 0 0.15048103374274721 -0.48484579871078243 0 0.12432460327697011 -0.47341498538026422 0 0.1404625649124509 -0.5 0 0.15048103374274721 -0.48484579871078243 0 0.12432460327697011 -0.47341498538026422 0 0.1404625649124509 -0.5 0 0.12042562725185831 -0.49999999999999989 0 0.12432460327697011 -0.47341498538026422 0 0.1404625649124509 -0.5 0 0.15048103374274721 -0.48484579871078243 0 0.16049950257304349 -0.50000000000000033 0 0.16049950257304349 -0.50000000000000033 0 0.17718182015316611 -0.48165544175840053 0 0.15048103374274721 -0.48484579871078243 0 0.16049950257304349 -0.50000000000000033 0 0.17718182015316611 -0.48165544175840053 0 0.17376504419967539 -0.46076368888843938 0 0.1539044029471725 -0.46809795184702829 0 0.17718182015316611 -0.48165544175840053 0 0.1539044029471725 -0.46809795184702829 0 0.15048103374274721 -0.48484579871078243 0 0.17718182015316611 -0.48165544175840053 0 0.1938641377332887 -0.4633108835168005 0 0.17718182015316611 -0.48165544175840053 0 0.19122796324104871 -0.48466606029959602 0 0.1938641377332887 -0.4633108835168005 0 0.17718182015316611 -0.48165544175840053 0 0.16049950257304349 -0.50000000000000033 0 0.17718182015316611 -0.48165544175840053 0 0.18744203257390391 -0.5 0 0.19122796324104871 -0.48466606029959602 0 0.17718182015316611 -0.48165544175840053 0 0.18744203257390391 -0.5 0 0.072018957471098571 -0.48629524479662273 0 0.069142552082564368 -0.5 0 0.082735946582200875 -0.4892045976485363 0 0.072018957471098571 -0.48629524479662273 0 0.079568506083734697 -0.4785915255016745 0 0.082735946582200875 -0.4892045976485363 0 0.072018957471098571 -0.48629524479662273 0 0.062670741706174135 -0.48944359682069549 0 0.064881374578912687 -0.4815757870058418 0 0.072018957471098571 -0.48629524479662273 0 0.069142552082564368 -0.5 0 0.062670741706174135 -0.48944359682069549 0 0.073180054077148754 -0.46968413697177741 0 0.079568506083734697 -0.4785915255016745 0 0.081395248040860374 -0.46160025678040811 0 0.067447632246636219 -0.45716428258124142 0 0.05849497948899289 -0.47642287528831911 0 0.061758178687080389 -0.47580514524370598 0 0.072018957471098571 -0.48629524479662273 0 0.064881374578912687 -0.4815757870058418 0 0.070673492561877091 -0.4782128222507579 0 0.064881374578912687 -0.4815757870058418 0 0.066280053791524171 -0.47680462027284459 0 0.061758178687080389 -0.47580514524370598 0 0.064881374578912687 -0.4815757870058418 0 0.066280053791524171 -0.47680462027284459 0 0.070673492561877091 -0.4782128222507579 0 0.066280053791524171 -0.47680462027284459 0 0.067807169338226503 -0.47162472659107291 0 0.061758178687080389 -0.47580514524370598 0 0.066280053791524171 -0.47680462027284459 0 0.067807169338226503 -0.47162472659107291 0 0.070673492561877091 -0.4782128222507579 0 0.067807169338226503 -0.47162472659107291 0 0.073180054077148754 -0.46968413697177741 0 0.070673492561877091 -0.4782128222507579 0 0.073180054077148754 -0.46968413697177741 0 0.070673492561877091 -0.4782128222507579 0 0.079568506083734697 -0.4785915255016745 0 0.072018957471098571 -0.48629524479662273 0 0.070673492561877091 -0.4782128222507579 0 0.079568506083734697 -0.4785915255016745 0 0.096876661376123455 -0.48080012839020431 0 0.081395248040860374 -0.46160025678040811 0 0.096876661376123455 -0.48080012839020431 0 0.095349939854524335 -0.46404107218864848 0 0.081395248040860374 -0.46160025678040811 0 0.079568506083734697 -0.4785915255016745 0 0.082735946582200875 -0.4892045976485363 0 0.096876661376123455 -0.48080012839020431 0 0.079568506083734697 -0.4785915255016745 0 0.096876661376123455 -0.48080012839020431 0 0.081395248040860374 -0.46160025678040811 0 0.090750313396975479 -0.5 0 0.082735946582200875 -0.4892045976485363 0 0.096876661376123455 -0.48080012839020431 0 0.069142552082564368 -0.5 0 0.090750313396975479 -0.5 0 0.082735946582200875 -0.4892045976485363 0 0.1123580747113867 -0.50000000000000033 0 0.1124728586670535 -0.48406595427175642 0 0.096876661376123455 -0.48080012839020431 0 0.090750313396975479 -0.5 0 0.1123580747113867 -0.50000000000000033 0 0.096876661376123455 -0.48080012839020431 0 0.1123580747113867 -0.50000000000000033 0 0.096876661376123455 -0.48080012839020431 0 0.1123580747113867 -0.50000000000000033 0 0.12042562725185831 -0.49999999999999989 0 0.1124728586670535 -0.48406595427175642 0 0.12042562725185831 -0.49999999999999989 0 0.1124728586670535 -0.48406595427175642 0 0.12432460327697011 -0.47341498538026422 0 0.12042562725185831 -0.49999999999999989 0 0.12432460327697011 -0.47341498538026422 0 0.1124728586670535 -0.48406595427175642 0 0.12432460327697011 -0.47341498538026422 0 0.1082250197838846 -0.46311527911574241 0 0.096876661376123455 -0.48080012839020431 0 0.095349939854524335 -0.46404107218864848 0 0.1082250197838846 -0.46311527911574241 0 0.1124728586670535 -0.48406595427175642 0 0.096876661376123455 -0.48080012839020431 0 0.1082250197838846 -0.46311527911574241 0 0.095349939854524335 -0.46404107218864848 0 0.1082250197838846 -0.46311527911574241 0 0.094902830217228867 -0.45064862446823939 0 0.128223579302082 -0.44682997076052833 0 0.12432460327697011 -0.47341498538026422 0 0.1082250197838846 -0.46311527911574241 0 0.128223579302082 -0.44682997076052833 0 0.1069391861142964 -0.44299064961396012 0 0.1159996351348133 -0.43474120747525058 0 0.128223579302082 -0.44682997076052833 0 0.1082250197838846 -0.46311527911574241 0 0.1069391861142964 -0.44299064961396012 0 0.1082250197838846 -0.46311527911574241 0 0.1069391861142964 -0.44299064961396012 0 0.094902830217228867 -0.45064862446823939 0 0.1069391861142964 -0.44299064961396012 0 0.091812697424993442 -0.4386357446441016 0 0.098414951810672224 -0.43233268446502993 0 0.1069391861142964 -0.44299064961396012 0 0.094902830217228867 -0.45064862446823939 0 0.091812697424993442 -0.4386357446441016 0 0.094902830217228867 -0.45064862446823939 0 0.091812697424993442 -0.4386357446441016 0 0.082434724511159588 -0.44537142502386151 0 0.094902830217228867 -0.45064862446823939 0 0.082434724511159588 -0.44537142502386151 0 0.081395248040860374 -0.46160025678040811 0 0.091812697424993442 -0.4386357446441016 0 0.082434724511159588 -0.44537142502386151 0 0.078149012167117934 -0.43357211405594609 0 0.095349939854524335 -0.46404107218864848 0 0.094902830217228867 -0.45064862446823939 0 0.081395248040860374 -0.46160025678040811 0 0.067447632246636219 -0.45716428258124142 0 0.065913834705597293 -0.44240038517061198 0 0.057068655694905858 -0.46015288389510001 0 0.067447632246636219 -0.45716428258124142 0 0.05849497948899289 -0.47642287528831911 0 0.067807169338226503 -0.47162472659107291 0 0.067447632246636219 -0.45716428258124142 0 0.061758178687080389 -0.47580514524370598 0 0.081395248040860374 -0.46160025678040811 0 0.067447632246636219 -0.45716428258124142 0 0.065913834705597293 -0.44240038517061198 0 0.073180054077148754 -0.46968413697177741 0 0.081395248040860374 -0.46160025678040811 0 0.067447632246636219 -0.45716428258124142 0 0.067807169338226503 -0.47162472659107291 0 0.073180054077148754 -0.46968413697177741 0 0.067447632246636219 -0.45716428258124142 0 0.081395248040860374 -0.46160025678040811 0 0.065913834705597293 -0.44240038517061198 0 0.082434724511159588 -0.44537142502386151 0 0.081395248040860374 -0.46160025678040811 0 0.065913834705597293 -0.44240038517061198 0 0.082434724511159588 -0.44537142502386151 0 0.065913834705597293 -0.44240038517061198 0 0.078149012167117934 -0.43357211405594609 0 0.065921365320016911 -0.4273577277455588 0 0.073982485551444349 -0.42005290588181732 0 0.078149012167117934 -0.43357211405594609 0 0.065913834705597293 -0.44240038517061198 0 0.065921365320016911 -0.4273577277455588 0 0.078149012167117934 -0.43357211405594609 0 0.073982485551444349 -0.42005290588181732 0 0.069775570718114244 -0.40426700169235308 0 0.060774245729122177 -0.41691050055794487 0 0.065921365320016911 -0.4273577277455588 0 0.073982485551444349 -0.42005290588181732 0 0.060774245729122177 -0.41691050055794487 0 0.073982485551444349 -0.42005290588181732 0 0.086447448161059384 -0.41120764722282821 0 0.069775570718114244 -0.40426700169235308 0 0.073982485551444349 -0.42005290588181732 0 0.086447448161059384 -0.41120764722282821 0 0.088692331433278357 -0.42535053834926723 0 0.086447448161059384 -0.41120764722282821 0 0.093827427438274241 -0.41775801958915132 0 0.099702730965631758 -0.41290181884877419 0 0.086447448161059384 -0.41120764722282821 0 0.088692331433278357 -0.42535053834926723 0 0.093827427438274241 -0.41775801958915132 0 0.088692331433278357 -0.42535053834926723 0 0.097645949564215143 -0.42435504664253748 0 0.093827427438274241 -0.41775801958915132 0 0.073982485551444349 -0.42005290588181732 0 0.088692331433278357 -0.42535053834926723 0 0.078149012167117934 -0.43357211405594609 0 0.091812697424993442 -0.4386357446441016 0 0.088692331433278357 -0.42535053834926723 0 0.078149012167117934 -0.43357211405594609 0 0.091812697424993442 -0.4386357446441016 0 0.088692331433278357 -0.42535053834926723 0 0.098414951810672224 -0.43233268446502993 0 0.098414951810672224 -0.43233268446502993 0 0.097645949564215143 -0.42435504664253748 0 0.1061961683754654 -0.43004895598907111 0 0.088692331433278357 -0.42535053834926723 0 0.098414951810672224 -0.43233268446502993 0 0.097645949564215143 -0.42435504664253748 0 0.1061961683754654 -0.43004895598907111 0 0.11152958735588871 -0.42539382439527612 0 0.1045809803654715 -0.42051706085107571 0 0.097645949564215143 -0.42435504664253748 0 0.1061961683754654 -0.43004895598907111 0 0.1045809803654715 -0.42051706085107571 0 0.1069391861142964 -0.44299064961396012 0 0.098414951810672224 -0.43233268446502993 0 0.1061961683754654 -0.43004895598907111 0 0.1061961683754654 -0.43004895598907111 0 0.1159996351348133 -0.43474120747525058 0 0.11152958735588871 -0.42539382439527612 0 0.13212255532719441 -0.42024495614079282 0 0.1159996351348133 -0.43474120747525058 0 0.11851153239627241 -0.42275952171654291 0 0.1069391861142964 -0.44299064961396012 0 0.1061961683754654 -0.43004895598907111 0 0.1159996351348133 -0.43474120747525058 0 0.1159996351348133 -0.43474120747525058 0 0.11152958735588871 -0.42539382439527612 0 0.11851153239627241 -0.42275952171654291 0 0.11152958735588871 -0.42539382439527612 0 0.11851153239627241 -0.42275952171654291 0 0.1123596205074209 -0.41890237594444008 0 0.1250254850364893 -0.40936224001308058 0 0.117866085899093 -0.41583132647739651 0 0.1096180349996463 -0.41151587164058129 0 0.1250254850364893 -0.40936224001308058 0 0.1096180349996463 -0.41151587164058129 0 0.13212255532719441 -0.42024495614079282 0 0.11851153239627241 -0.42275952171654291 0 0.117866085899093 -0.41583132647739651 0 0.117866085899093 -0.41583132647739651 0 0.1123596205074209 -0.41890237594444008 0 0.1096180349996463 -0.41151587164058129 0 0.11851153239627241 -0.42275952171654291 0 0.117866085899093 -0.41583132647739651 0 0.1123596205074209 -0.41890237594444008 0 0.11152958735588871 -0.42539382439527612 0 0.1123596205074209 -0.41890237594444008 0 0.1045809803654715 -0.42051706085107571 0 0.1123596205074209 -0.41890237594444008 0 0.1096180349996463 -0.41151587164058129 0 0.1065506547415149 -0.41613106226330793 0 0.1096180349996463 -0.41151587164058129 0 0.1065506547415149 -0.41613106226330793 0 0.099702730965631758 -0.41290181884877419 0 0.1096180349996463 -0.41151587164058129 0 0.099702730965631758 -0.41290181884877419 0 0.1096180349996463 -0.41151587164058129 0 0.099702730965631758 -0.41290181884877419 0 0.1041447551606165 -0.40305668800175581 0 0.1123596205074209 -0.41890237594444008 0 0.1065506547415149 -0.41613106226330793 0 0.1045809803654715 -0.42051706085107571 0 0.1065506547415149 -0.41613106226330793 0 0.1045809803654715 -0.42051706085107571 0 0.099702730965631758 -0.41290181884877419 0 0.1045809803654715 -0.42051706085107571 0 0.093827427438274241 -0.41775801958915132 0 0.099702730965631758 -0.41290181884877419 0 0.097645949564215143 -0.42435504664253748 0 0.1045809803654715 -0.42051706085107571 0 0.093827427438274241 -0.41775801958915132 0 0.086447448161059384 -0.41120764722282821 0 0.099702730965631758 -0.41290181884877419 0 0.095691580682652475 -0.39908469234235189 0 0.095691580682652475 -0.39908469234235189 0 0.1041447551606165 -0.40305668800175581 0 0.1115666739945345 -0.38872436917531578 0 0.099702730965631758 -0.41290181884877419 0 0.095691580682652475 -0.39908469234235189 0 0.1041447551606165 -0.40305668800175581 0 0.1096180349996463 -0.41151587164058129 0 0.1041447551606165 -0.40305668800175581 0 0.1115666739945345 -0.38872436917531578 0 0.1250254850364893 -0.40936224001308058 0 0.1115666739945345 -0.38872436917531578 0 0.1096180349996463 -0.41151587164058129 0 0.1115666739945345 -0.38872436917531578 0 0.1250254850364893 -0.40936224001308058 0 0.1096180349996463 -0.41151587164058129 0 0.1115666739945345 -0.38872436917531578 0 0.12645644117523869 -0.39722706905544619 0 0.1250254850364893 -0.40936224001308058 0 0.1115666739945345 -0.38872436917531578 0 0.12609635470998201 -0.38402791619100712 0 0.1115666739945345 -0.38872436917531578 0 0.113745377556003 -0.36324200547299851 0 0.1115666739945345 -0.38872436917531578 0 0.113745377556003 -0.36324200547299851 0 0.12609635470998201 -0.38402791619100712 0 0.12645644117523869 -0.39722706905544619 0 0.1115666739945345 -0.38872436917531578 0 0.1115666739945345 -0.38872436917531578 0 0.096372132326470572 -0.36542491223168638 0 0.1115666739945345 -0.38872436917531578 0 0.089853218628298884 -0.38394717958202601 0 0.096372132326470572 -0.36542491223168638 0 0.095691580682652475 -0.39908469234235189 0 0.1115666739945345 -0.38872436917531578 0 0.089853218628298884 -0.38394717958202601 0 0.089853218628298884 -0.38394717958202601 0 0.082924844884061683 -0.39714926844771359 0 0.072939106935086151 -0.38728773006234168 0 0.089853218628298884 -0.38394717958202601 0 0.072939106935086151 -0.38728773006234168 0 0.07582030708563034 -0.37256671738353597 0 0.095691580682652475 -0.39908469234235189 0 0.089853218628298884 -0.38394717958202601 0 0.082924844884061683 -0.39714926844771359 0 0.086447448161059384 -0.41120764722282821 0 0.082924844884061683 -0.39714926844771359 0 0.069775570718114244 -0.40426700169235308 0 0.086447448161059384 -0.41120764722282821 0 0.095691580682652475 -0.39908469234235189 0 0.082924844884061683 -0.39714926844771359 0 0.069775570718114244 -0.40426700169235308 0 0.072939106935086151 -0.38728773006234168 0 0.058313699768321348 -0.39007371912844929 0 0.082924844884061683 -0.39714926844771359 0 0.069775570718114244 -0.40426700169235308 0 0.072939106935086151 -0.38728773006234168 0 0.072939106935086151 -0.38728773006234168 0 0.05933500968155693 -0.37671477575793533 0 0.058313699768321348 -0.39007371912844929 0 0.072939106935086151 -0.38728773006234168 0 0.05933500968155693 -0.37671477575793533 0 0.07582030708563034 -0.37256671738353597 0 0.05933500968155693 -0.37671477575793533 0 0.043300396670470892 -0.38581293046691678 0 0.039079294002052851 -0.37065651216905859 0 0.05933500968155693 -0.37671477575793533 0 0.058313699768321348 -0.39007371912844929 0 0.043300396670470892 -0.38581293046691678 0 0.058313699768321348 -0.39007371912844929 0 0.0466875803122518 -0.39705513158652528 0 0.054373060569327003 -0.40663711634463268 0 0.069775570718114244 -0.40426700169235308 0 0.058313699768321348 -0.39007371912844929 0 0.054373060569327003 -0.40663711634463268 0 0.058313699768321348 -0.39007371912844929 0 0.054373060569327003 -0.40663711634463268 0 0.0466875803122518 -0.39705513158652528 0 0.042121557959679479 -0.40689397827368962 0 0.054373060569327003 -0.40663711634463268 0 0.058313699768321348 -0.39007371912844929 0 0.0466875803122518 -0.39705513158652528 0 0.043300396670470892 -0.38581293046691678 0 0.0466875803122518 -0.39705513158652528 0 0.032645317368698572 -0.39721328630736241 0 0.043300396670470892 -0.38581293046691678 0 0.0466875803122518 -0.39705513158652528 0 0.032645317368698572 -0.39721328630736241 0 0.042121557959679479 -0.40689397827368962 0 0.032645317368698572 -0.39721328630736241 0 0.043300396670470892 -0.38581293046691678 0 0.025542853711361019 -0.38384675294920401 0 0.043300396670470892 -0.38581293046691678 0 0.025542853711361019 -0.38384675294920401 0 0.039079294002052851 -0.37065651216905859 0 0.025542853711361019 -0.38384675294920401 0 0.009690974369139977 -0.39295199195252922 0 0.016784443680880379 -0.36713146693108112 0 -0.0064694903547723136 -0.38059021958606692 0 0.009690974369139977 -0.39295199195252922 0 0.016784443680880379 -0.36713146693108112 0 0.032645317368698572 -0.39721328630736241 0 0.009690974369139977 -0.39295199195252922 0 0.030062121183744069 -0.41560348860952728 0 0.032645317368698572 -0.39721328630736241 0 0.025542853711361019 -0.38384675294920401 0 0.009690974369139977 -0.39295199195252922 0 0.009690974369139977 -0.39295199195252922 0 0.030062121183744069 -0.41560348860952728 0 0.01224976062295041 -0.42183763890738629 0 -0.0080625817845775948 -0.40608726553411861 0 0.009690974369139977 -0.39295199195252922 0 0.01224976062295041 -0.42183763890738629 0 0.009690974369139977 -0.39295199195252922 0 0.01224976062295041 -0.42183763890738629 0 0.01224976062295041 -0.42183763890738629 0 0.01480854687676085 -0.45072328586224342 0 0.030062121183744069 -0.41560348860952728 0 0.01224976062295041 -0.42183763890738629 0 0.028535899264767479 -0.43733174884408438 0 0.01224976062295041 -0.42183763890738629 0 0.028535899264767479 -0.43733174884408438 0 0.01480854687676085 -0.45072328586224342 0 0.030062121183744069 -0.41560348860952728 0 0.028535899264767479 -0.43733174884408438 0 0.039909128579099777 -0.42893709763038412 0 0.039909128579099777 -0.42893709763038412 0 0.050432421370333713 -0.42320051356081623 0 0.04400553312424714 -0.45021417746364167 0 0.039909128579099777 -0.42893709763038412 0 0.046509667952406512 -0.41833555967385072 0 0.050432421370333713 -0.42320051356081623 0 0.032645317368698572 -0.39721328630736241 0 0.030062121183744069 -0.41560348860952728 0 0.042121557959679479 -0.40689397827368962 0 0.030062121183744069 -0.41560348860952728 0 0.039909128579099777 -0.42893709763038412 0 0.046509667952406512 -0.41833555967385072 0 0.030062121183744069 -0.41560348860952728 0 0.042121557959679479 -0.40689397827368962 0 0.046509667952406512 -0.41833555967385072 0 0.054373060569327003 -0.40663711634463268 0 0.050432421370333713 -0.42320051356081623 0 0.046509667952406512 -0.41833555967385072 0 0.054373060569327003 -0.40663711634463268 0 0.050432421370333713 -0.42320051356081623 0 0.054373060569327003 -0.40663711634463268 0 0.060774245729122177 -0.41691050055794487 0 0.050432421370333713 -0.42320051356081623 0 0.046509667952406512 -0.41833555967385072 0 0.050432421370333713 -0.42320051356081623 0 0.042121557959679479 -0.40689397827368962 0 0.046509667952406512 -0.41833555967385072 0 0.054373060569327003 -0.40663711634463268 0 0.069775570718114244 -0.40426700169235308 0 0.054373060569327003 -0.40663711634463268 0 0.060774245729122177 -0.41691050055794487 0 0.050432421370333713 -0.42320051356081623 0 0.04400553312424714 -0.45021417746364167 0 0.065913834705597293 -0.44240038517061198 0 0.050432421370333713 -0.42320051356081623 0 0.065913834705597293 -0.44240038517061198 0 0.065921365320016911 -0.4273577277455588 0 0.050432421370333713 -0.42320051356081623 0 0.065921365320016911 -0.4273577277455588 0 0.060774245729122177 -0.41691050055794487 0 0.050432421370333713 -0.42320051356081623 0 0.065913834705597293 -0.44240038517061198 0 0.050432421370333713 -0.42320051356081623 0 0.04400553312424714 -0.45021417746364167 0 0.065913834705597293 -0.44240038517061198 0 0.057068655694905858 -0.46015288389510001 0 0.04400553312424714 -0.45021417746364167 0 0.057068655694905858 -0.46015288389510001 0 0.048043393468649283 -0.46676160836513853 0 0.04400553312424714 -0.45021417746364167 0 0.067447632246636219 -0.45716428258124142 0 0.057068655694905858 -0.46015288389510001 0 0.05849497948899289 -0.47642287528831911 0 0.057068655694905858 -0.46015288389510001 0 0.048043393468649283 -0.46676160836513853 0 0.052635520687858477 -0.47072247146996382 0 0.04400553312424714 -0.45021417746364167 0 0.037578644878161642 -0.47722784136646751 0 0.048043393468649283 -0.46676160836513853 0 0.04400553312424714 -0.45021417746364167 0 0.037578644878161642 -0.47722784136646751 0 0.04400553312424714 -0.45021417746364167 0 0.030366658319331299 -0.45781827645911538 0 0.037578644878161642 -0.47722784136646751 0 0.028535899264767479 -0.43733174884408438 0 0.039909128579099777 -0.42893709763038412 0 0.04400553312424714 -0.45021417746364167 0 0.028535899264767479 -0.43733174884408438 0 0.04400553312424714 -0.45021417746364167 0 0.030366658319331299 -0.45781827645911538 0 0.028535899264767479 -0.43733174884408438 0 0.01480854687676085 -0.45072328586224342 0 0.030366658319331299 -0.45781827645911538 0 -0.008216644178786571 -0.4466179140804285 0 0.01224976062295041 -0.42183763890738629 0 0.01480854687676085 -0.45072328586224342 0 0.01480854687676085 -0.45072328586224342 0 0.017367333130571299 -0.47960893281710049 0 0.0084119176919832291 -0.471974008478943 0 -0.0021957942935651631 -0.46571035637089769 0 0.01480854687676085 -0.45072328586224342 0 0.0084119176919832291 -0.471974008478943 0 -0.008216644178786571 -0.4466179140804285 0 -0.0021957942935651631 -0.46571035637089769 0 0.01480854687676085 -0.45072328586224342 0 0.01480854687676085 -0.45072328586224342 0 0.017367333130571299 -0.47960893281710049 0 0.01480854687676085 -0.45072328586224342 0 0.030366658319331299 -0.45781827645911538 0 0.0269046674527194 -0.47359432875914009 0 0.01480854687676085 -0.45072328586224342 0 0.0269046674527194 -0.47359432875914009 0 0.017367333130571299 -0.47960893281710049 0 0.017367333130571299 -0.47960893281710049 0 0.012735562036971701 -0.48508522326900949 0 0.035615270762982369 -0.48075404927866472 0 0.012735562036971701 -0.48508522326900949 0 0.035615270762982369 -0.48075404927866472 0 0.0269046674527194 -0.47359432875914009 0 0.017367333130571299 -0.47960893281710049 0 0.035615270762982369 -0.48075404927866472 0 0.017367333130571299 -0.47960893281710049 0 0.0084119176919832291 -0.471974008478943 0 0.012735562036971701 -0.48508522326900949 0 -0.00065605929082254884 -0.47874224407546379 0 0.0084119176919832291 -0.471974008478943 0 0.012735562036971701 -0.48508522326900949 0 -0.0021957942935651631 -0.46571035637089769 0 -0.00065605929082254884 -0.47874224407546379 0 0.0084119176919832291 -0.471974008478943 0 -0.010144146689038991 -0.48941639725935437 0 -0.00065605929082254884 -0.47874224407546379 0 0.012735562036971701 -0.48508522326900949 0 -0.010144146689038991 -0.48941639725935437 0 0.012735562036971701 -0.48508522326900949 0 -0.011489863113854141 -0.5 0 0.012735562036971701 -0.48508522326900949 0 0.01802246382714956 -0.5 0 0.01802246382714956 -0.5 0 0.025329369399590369 -0.48901546815995378 0 0.047534790768153173 -0.50000000000000044 0 0.012735562036971701 -0.48508522326900949 0 0.025329369399590369 -0.48901546815995378 0 0.035615270762982369 -0.48075404927866472 0 0.012735562036971701 -0.48508522326900949 0 0.01802246382714956 -0.5 0 0.025329369399590369 -0.48901546815995378 0 0.025329369399590369 -0.48901546815995378 0 0.035615270762982369 -0.48075404927866472 0 0.047534790768153173 -0.50000000000000044 0 0.030366658319331299 -0.45781827645911538 0 0.0269046674527194 -0.47359432875914009 0 0.037578644878161642 -0.47722784136646751 0 0.0269046674527194 -0.47359432875914009 0 0.037578644878161642 -0.47722784136646751 0 0.035615270762982369 -0.48075404927866472 0 0.048043393468649283 -0.46676160836513853 0 0.037578644878161642 -0.47722784136646751 0 0.046296380844488463 -0.47463440362945558 0 0.035615270762982369 -0.48075404927866472 0 0.046296380844488463 -0.47463440362945558 0 0.049693011087844949 -0.4756354888466594 0 0.037578644878161642 -0.47722784136646751 0 0.035615270762982369 -0.48075404927866472 0 0.046296380844488463 -0.47463440362945558 0 0.057068655694905858 -0.46015288389510001 0 0.052635520687858477 -0.47072247146996382 0 0.05849497948899289 -0.47642287528831911 0 0.035615270762982369 -0.48075404927866472 0 0.049693011087844949 -0.4756354888466594 0 0.05849497948899289 -0.47642287528831911 0 0.035615270762982369 -0.48075404927866472 0 0.05849497948899289 -0.47642287528831911 0 0.048043393468649283 -0.46676160836513853 0 0.046296380844488463 -0.47463440362945558 0 0.052635520687858477 -0.47072247146996382 0 0.049693011087844949 -0.4756354888466594 0 0.052635520687858477 -0.47072247146996382 0 0.05849497948899289 -0.47642287528831911 0 0.046296380844488463 -0.47463440362945558 0 0.049693011087844949 -0.4756354888466594 0 0.052635520687858477 -0.47072247146996382 0 0.05849497948899289 -0.47642287528831911 0 0.061758178687080389 -0.47580514524370598 0 0.062670741706174135 -0.48944359682069549 0 0.064881374578912687 -0.4815757870058418 0 0.05849497948899289 -0.47642287528831911 0 0.064881374578912687 -0.4815757870058418 0 0.05849497948899289 -0.47642287528831911 0 0.061758178687080389 -0.47580514524370598 0 0.069142552082564368 -0.5 0 0.062670741706174135 -0.48944359682069549 0 0.047534790768153173 -0.50000000000000044 0 0.05849497948899289 -0.47642287528831911 0 0.047534790768153173 -0.50000000000000044 0 0.035615270762982369 -0.48075404927866472 0 0.05849497948899289 -0.47642287528831911 0 0.047534790768153173 -0.50000000000000044 0 0.062670741706174135 -0.48944359682069549 0 0.05849497948899289 -0.47642287528831911 0 0.047534790768153173 -0.50000000000000044 0 0.089727975817252392 -0.29646224842349211 0 0.069967983226982527 -0.30495776272600778 0 0.075483032258224086 -0.28815868119130272 0 0.089727975817252392 -0.29646224842349211 0 0.088503230311337153 -0.27716835087377989 0 0.101883582619993 -0.28460947857741209 0 0.089727975817252392 -0.29646224842349211 0 0.075483032258224086 -0.28815868119130272 0 0.088503230311337153 -0.27716835087377989 0 0.089727975817252392 -0.29646224842349211 0 0.086214248119208581 -0.31193359067875348 0 0.069967983226982527 -0.30495776272600778 0 0.089727975817252392 -0.29646224842349211 0 0.086214248119208581 -0.31193359067875348 0 0.10049372866807189 -0.31082656242210721 0 0.069967983226982527 -0.30495776272600778 0 0.075483032258224086 -0.28815868119130272 0 0.059449054433483903 -0.28956707473318272 0 0.075483032258224086 -0.28815868119130272 0 0.0646939085167762 -0.2722383315448984 0 0.059449054433483903 -0.28956707473318272 0 0.0646939085167762 -0.2722383315448984 0 0.077350866508299074 -0.27549126298099152 0 0.080723294946858856 -0.26439968831398508 0 0.075483032258224086 -0.28815868119130272 0 0.0646939085167762 -0.2722383315448984 0 0.077350866508299074 -0.27549126298099152 0 0.0646939085167762 -0.2722383315448984 0 0.070005134957367529 -0.25889031236374099 0 0.080723294946858856 -0.26439968831398508 0 0.070005134957367529 -0.25889031236374099 0 0.061490933840310687 -0.25382890142296882 0 0.070069103552599196 -0.24823964670048029 0 0.0646939085167762 -0.2722383315448984 0 0.070005134957367529 -0.25889031236374099 0 0.060614126731859473 -0.2624009925450973 0 0.070005134957367529 -0.25889031236374099 0 0.061490933840310687 -0.25382890142296882 0 0.060614126731859473 -0.2624009925450973 0 0.070005134957367529 -0.25889031236374099 0 0.080071368274292315 -0.25145738896057979 0 0.080723294946858856 -0.26439968831398508 0 0.070005134957367529 -0.25889031236374099 0 0.080071368274292315 -0.25145738896057979 0 0.070069103552599196 -0.24823964670048029 0 0.080071368274292315 -0.25145738896057979 0 0.080723294946858856 -0.26439968831398508 0 0.090706365013478091 -0.25245448435890872 0 0.080723294946858856 -0.26439968831398508 0 0.090706365013478091 -0.25245448435890872 0 0.095060577752172304 -0.26241188567384149 0 0.075483032258224086 -0.28815868119130272 0 0.077350866508299074 -0.27549126298099152 0 0.088503230311337153 -0.27716835087377989 0 0.077350866508299074 -0.27549126298099152 0 0.080723294946858856 -0.26439968831398508 0 0.088503230311337153 -0.27716835087377989 0 0.080723294946858856 -0.26439968831398508 0 0.088503230311337153 -0.27716835087377989 0 0.095060577752172304 -0.26241188567384149 0 0.088503230311337153 -0.27716835087377989 0 0.1016952336099234 -0.27235330725820578 0 0.101883582619993 -0.28460947857741209 0 0.088503230311337153 -0.27716835087377989 0 0.1016952336099234 -0.27235330725820578 0 0.095060577752172304 -0.26241188567384149 0 0.1016952336099234 -0.27235330725820578 0 0.1104739380917857 -0.2612093749811526 0 0.1125548392743288 -0.27636744618484282 0 0.1016952336099234 -0.27235330725820578 0 0.1125548392743288 -0.27636744618484282 0 0.101883582619993 -0.28460947857741209 0 0.090706365013478091 -0.25245448435890872 0 0.099550463170151926 -0.25262580003909579 0 0.095060577752172304 -0.26241188567384149 0 0.1016952336099234 -0.27235330725820578 0 0.095060577752172304 -0.26241188567384149 0 0.1104739380917857 -0.2612093749811526 0 0.099550463170151926 -0.25262580003909579 0 0.095060577752172304 -0.26241188567384149 0 0.1104739380917857 -0.2612093749811526 0 0.099550463170151926 -0.25262580003909579 0 0.1104739380917857 -0.2612093749811526 0 0.1078238037173969 -0.24832262031645649 0 0.1311170075682456 -0.27142576198599933 0 0.1104739380917857 -0.2612093749811526 0 0.1212054647883809 -0.25073068226796852 0 0.1104739380917857 -0.2612093749811526 0 0.1212054647883809 -0.25073068226796852 0 0.1078238037173969 -0.24832262031645649 0 0.1311170075682456 -0.27142576198599933 0 0.1104739380917857 -0.2612093749811526 0 0.1311170075682456 -0.27142576198599933 0 0.1104739380917857 -0.2612093749811526 0 0.1193620271946058 -0.27249351692823448 0 0.1104739380917857 -0.2612093749811526 0 0.1125548392743288 -0.27636744618484282 0 0.1193620271946058 -0.27249351692823448 0 0.1125548392743288 -0.27636744618484282 0 0.1193620271946058 -0.27249351692823448 0 0.1233023238440631 -0.28097148456094378 0 0.1311170075682456 -0.27142576198599933 0 0.1193620271946058 -0.27249351692823448 0 0.1233023238440631 -0.28097148456094378 0 0.1233023238440631 -0.28097148456094378 0 0.1242383748246253 -0.29131174999725179 0 0.1141297936923768 -0.28878453930630188 0 0.1242383748246253 -0.29131174999725179 0 0.1141297936923768 -0.28878453930630188 0 0.1198701537204314 -0.30089140532399938 0 0.1141297936923768 -0.28878453930630188 0 0.10622170970645189 -0.29895353846799488 0 0.1198701537204314 -0.30089140532399938 0 0.1125548392743288 -0.27636744618484282 0 0.1233023238440631 -0.28097148456094378 0 0.1141297936923768 -0.28878453930630188 0 0.1125548392743288 -0.27636744618484282 0 0.1141297936923768 -0.28878453930630188 0 0.101883582619993 -0.28460947857741209 0 0.089727975817252392 -0.29646224842349211 0 0.101883582619993 -0.28460947857741209 0 0.10622170970645189 -0.29895353846799488 0 0.1141297936923768 -0.28878453930630188 0 0.101883582619993 -0.28460947857741209 0 0.10622170970645189 -0.29895353846799488 0 0.089727975817252392 -0.29646224842349211 0 0.10049372866807189 -0.31082656242210721 0 0.10622170970645189 -0.29895353846799488 0 0.10049372866807189 -0.31082656242210721 0 0.10622170970645189 -0.29895353846799488 0 0.1134387524627216 -0.31086840579325631 0 0.10622170970645189 -0.29895353846799488 0 0.1134387524627216 -0.31086840579325631 0 0.1198701537204314 -0.30089140532399938 0 0.1265219532001009 -0.3124330460259736 0 0.1134387524627216 -0.31086840579325631 0 0.1198701537204314 -0.30089140532399938 0 0.1265219532001009 -0.3124330460259736 0 0.1134387524627216 -0.31086840579325631 0 0.1192961391526948 -0.32261879728377291 0 0.1134387524627216 -0.31086840579325631 0 0.1192961391526948 -0.32261879728377291 0 0.1082288303285789 -0.31948708523568958 0 0.1192961391526948 -0.32261879728377291 0 0.1093748658769356 -0.32997486192450581 0 0.1082288303285789 -0.31948708523568958 0 0.1192961391526948 -0.32261879728377291 0 0.1168506625355451 -0.3296807312869221 0 0.1093748658769356 -0.32997486192450581 0 0.1192961391526948 -0.32261879728377291 0 0.12260601330919629 -0.33072698382653798 0 0.1168506625355451 -0.3296807312869221 0 0.13219802669416811 -0.32498852212276208 0 0.1192961391526948 -0.32261879728377291 0 0.12260601330919629 -0.33072698382653798 0 0.13051916655351839 -0.33696304048325831 0 0.12260601330919629 -0.33072698382653798 0 0.1159240811174677 -0.33775964177068091 0 0.12260601330919629 -0.33072698382653798 0 0.1159240811174677 -0.33775964177068091 0 0.1161256318033537 -0.33540228211287182 0 0.12260601330919629 -0.33072698382653798 0 0.1168506625355451 -0.3296807312869221 0 0.1161256318033537 -0.33540228211287182 0 0.13051916655351839 -0.33696304048325831 0 0.1159240811174677 -0.33775964177068091 0 0.13051916655351839 -0.33696304048325831 0 0.1159240811174677 -0.33775964177068091 0 0.123981461538115 -0.35128285539313481 0 0.1159240811174677 -0.33775964177068091 0 0.1161256318033537 -0.33540228211287182 0 0.1168506625355451 -0.3296807312869221 0 0.1161256318033537 -0.33540228211287182 0 0.1093748658769356 -0.32997486192450581 0 0.1159240811174677 -0.33775964177068091 0 0.1161256318033537 -0.33540228211287182 0 0.1093748658769356 -0.32997486192450581 0 0.1159240811174677 -0.33775964177068091 0 0.092335912071574502 -0.33904708650077298 0 0.1159240811174677 -0.33775964177068091 0 0.1093748658769356 -0.32997486192450581 0 0.092335912071574502 -0.33904708650077298 0 0.1093748658769356 -0.32997486192450581 0 0.096347407600029022 -0.32440529872184809 0 0.092335912071574502 -0.33904708650077298 0 0.1159240811174677 -0.33775964177068091 0 0.10211321446004019 -0.35101158716873732 0 0.092335912071574502 -0.33904708650077298 0 0.086214248119208581 -0.31193359067875348 0 0.10049372866807189 -0.31082656242210721 0 0.096347407600029022 -0.32440529872184809 0 0.10049372866807189 -0.31082656242210721 0 0.1134387524627216 -0.31086840579325631 0 0.1082288303285789 -0.31948708523568958 0 0.10049372866807189 -0.31082656242210721 0 0.096347407600029022 -0.32440529872184809 0 0.1082288303285789 -0.31948708523568958 0 0.1093748658769356 -0.32997486192450581 0 0.096347407600029022 -0.32440529872184809 0 0.1082288303285789 -0.31948708523568958 0 0.12784456261830821 -0.36308533366748658 0 0.12609635470998201 -0.38402791619100712 0 0.113745377556003 -0.36324200547299851 0 0.1159240811174677 -0.33775964177068091 0 0.113745377556003 -0.36324200547299851 0 0.123981461538115 -0.35128285539313481 0 0.1159240811174677 -0.33775964177068091 0 0.113745377556003 -0.36324200547299851 0 0.1159240811174677 -0.33775964177068091 0 0.113745377556003 -0.36324200547299851 0 0.10211321446004019 -0.35101158716873732 0 0.12784456261830821 -0.36308533366748658 0 0.113745377556003 -0.36324200547299851 0 0.123981461538115 -0.35128285539313481 0 0.1115666739945345 -0.38872436917531578 0 0.113745377556003 -0.36324200547299851 0 0.096372132326470572 -0.36542491223168638 0 0.113745377556003 -0.36324200547299851 0 0.10211321446004019 -0.35101158716873732 0 0.096372132326470572 -0.36542491223168638 0 0.089853218628298884 -0.38394717958202601 0 0.096372132326470572 -0.36542491223168638 0 0.07582030708563034 -0.37256671738353597 0 0.096372132326470572 -0.36542491223168638 0 0.082110249222110576 -0.35466523699539548 0 0.07582030708563034 -0.37256671738353597 0 0.10211321446004019 -0.35101158716873732 0 0.096372132326470572 -0.36542491223168638 0 0.082110249222110576 -0.35466523699539548 0 0.082110249222110576 -0.35466523699539548 0 0.092335912071574502 -0.33904708650077298 0 0.068747743025681235 -0.34033453123086538 0 0.10211321446004019 -0.35101158716873732 0 0.082110249222110576 -0.35466523699539548 0 0.092335912071574502 -0.33904708650077298 0 0.082110249222110576 -0.35466523699539548 0 0.068747743025681235 -0.34033453123086538 0 0.057272186363266697 -0.35960658745677498 0 0.082110249222110576 -0.35466523699539548 0 0.07582030708563034 -0.37256671738353597 0 0.057272186363266697 -0.35960658745677498 0 0.05933500968155693 -0.37671477575793533 0 0.07582030708563034 -0.37256671738353597 0 0.057272186363266697 -0.35960658745677498 0 0.086214248119208581 -0.31193359067875348 0 0.096347407600029022 -0.32440529872184809 0 0.078030795921920637 -0.32434601069550512 0 0.092335912071574502 -0.33904708650077298 0 0.068747743025681235 -0.34033453123086538 0 0.078030795921920637 -0.32434601069550512 0 0.092335912071574502 -0.33904708650077298 0 0.068747743025681235 -0.34033453123086538 0 0.096347407600029022 -0.32440529872184809 0 0.092335912071574502 -0.33904708650077298 0 0.078030795921920637 -0.32434601069550512 0 0.068747743025681235 -0.34033453123086538 0 0.078030795921920637 -0.32434601069550512 0 0.053863538987460123 -0.3232816795844588 0 0.069967983226982527 -0.30495776272600778 0 0.078030795921920637 -0.32434601069550512 0 0.053863538987460123 -0.3232816795844588 0 0.086214248119208581 -0.31193359067875348 0 0.069967983226982527 -0.30495776272600778 0 0.078030795921920637 -0.32434601069550512 0 0.068747743025681235 -0.34033453123086538 0 0.045159573979787898 -0.34162197596095778 0 0.068747743025681235 -0.34033453123086538 0 0.053863538987460123 -0.3232816795844588 0 0.045159573979787898 -0.34162197596095778 0 0.053863538987460123 -0.3232816795844588 0 0.034832013842728909 -0.33032259781876938 0 0.045159573979787898 -0.34162197596095778 0 0.034832013842728909 -0.33032259781876938 0 0.045159573979787898 -0.34162197596095778 0 0.02157140493389462 -0.34290942069105018 0 0.045159573979787898 -0.34162197596095778 0 0.02157140493389462 -0.34290942069105018 0 0.053863538987460123 -0.3232816795844588 0 0.034832013842728909 -0.33032259781876938 0 0.03621734991660093 -0.31670946998547028 0 0.053863538987460123 -0.3232816795844588 0 0.03621734991660093 -0.31670946998547028 0 0.048768037075517537 -0.30442990221103089 0 0.05933500968155693 -0.37671477575793533 0 0.057272186363266697 -0.35960658745677498 0 0.039079294002052851 -0.37065651216905859 0 0.068747743025681235 -0.34033453123086538 0 0.045159573979787898 -0.34162197596095778 0 0.057272186363266697 -0.35960658745677498 0 0.045159573979787898 -0.34162197596095778 0 0.034512899630155462 -0.3545258348651717 0 0.02157140493389462 -0.34290942069105018 0 0.045159573979787898 -0.34162197596095778 0 0.057272186363266697 -0.35960658745677498 0 0.034512899630155462 -0.3545258348651717 0 0.057272186363266697 -0.35960658745677498 0 0.034512899630155462 -0.3545258348651717 0 0.039079294002052851 -0.37065651216905859 0 0.025542853711361019 -0.38384675294920401 0 0.039079294002052851 -0.37065651216905859 0 0.016784443680880379 -0.36713146693108112 0 0.034512899630155462 -0.3545258348651717 0 0.039079294002052851 -0.37065651216905859 0 0.016784443680880379 -0.36713146693108112 0 0.034512899630155462 -0.3545258348651717 0 0.016784443680880379 -0.36713146693108112 0 0.02157140493389462 -0.34290942069105018 0 -0.0043130761299947744 -0.35643483176966217 0 0.016784443680880379 -0.36713146693108112 0 0.02157140493389462 -0.34290942069105018 0 -0.0038616663111063101 -0.33241552487502413 0 -0.0043130761299947744 -0.35643483176966217 0 0.02157140493389462 -0.34290942069105018 0 -0.0043130761299947744 -0.35643483176966217 0 -0.0064694903547723136 -0.38059021958606692 0 0.016784443680880379 -0.36713146693108112 0 0.03621734991660093 -0.31670946998547028 0 0.020048637459846991 -0.32439583124448262 0 0.029165048793799431 -0.30349547286963757 0 0.034832013842728909 -0.33032259781876938 0 0.03621734991660093 -0.31670946998547028 0 0.020048637459846991 -0.32439583124448262 0 0.020048637459846991 -0.32439583124448262 0 0.0094652366165251054 -0.31053241408104548 0 0.029165048793799431 -0.30349547286963757 0 0.034832013842728909 -0.33032259781876938 0 0.020048637459846991 -0.32439583124448262 0 0.02157140493389462 -0.34290942069105018 0 -0.0038616663111063101 -0.33241552487502413 0 0.020048637459846991 -0.32439583124448262 0 0.02157140493389462 -0.34290942069105018 0 -0.0038616663111063101 -0.33241552487502413 0 0.020048637459846991 -0.32439583124448262 0 0.0094652366165251054 -0.31053241408104548 0 -0.01007927323019326 -0.3103345258507364 0 0.0094652366165251054 -0.31053241408104548 0 0.0017563221397047381 -0.2997067901486577 0 0.0094652366165251054 -0.31053241408104548 0 0.0017563221397047381 -0.2997067901486577 0 0.017453688627786131 -0.29322190620108468 0 0.0017563221397047381 -0.2997067901486577 0 0.0066437179820165657 -0.2861171845936395 0 0.017453688627786131 -0.29322190620108468 0 -0.0080748459131490501 -0.2914060437848453 0 0.0017563221397047381 -0.2997067901486577 0 0.0066437179820165657 -0.2861171845936395 0 0.0066437179820165657 -0.2861171845936395 0 0.017453688627786131 -0.29322190620108468 0 0.01908241754038794 -0.28073467218482329 0 0.017453688627786131 -0.29322190620108468 0 0.029398966714908509 -0.28692964748338379 0 0.029165048793799431 -0.30349547286963757 0 0.017453688627786131 -0.29322190620108468 0 0.029398966714908509 -0.28692964748338379 0 0.01908241754038794 -0.28073467218482329 0 0.0094652366165251054 -0.31053241408104548 0 0.017453688627786131 -0.29322190620108468 0 0.029165048793799431 -0.30349547286963757 0 0.03621734991660093 -0.31670946998547028 0 0.029165048793799431 -0.30349547286963757 0 0.048768037075517537 -0.30442990221103089 0 0.029165048793799431 -0.30349547286963757 0 0.043029943860180789 -0.28970337243015992 0 0.048768037075517537 -0.30442990221103089 0 0.029398966714908509 -0.28692964748338379 0 0.029165048793799431 -0.30349547286963757 0 0.043029943860180789 -0.28970337243015992 0 0.029398966714908509 -0.28692964748338379 0 0.043029943860180789 -0.28970337243015992 0 0.038396769586432553 -0.27977596087564799 0 0.043029943860180789 -0.28970337243015992 0 0.051749435803858171 -0.27840569125857739 0 0.038396769586432553 -0.27977596087564799 0 0.043029943860180789 -0.28970337243015992 0 0.059449054433483903 -0.28956707473318272 0 0.051749435803858171 -0.27840569125857739 0 0.043029943860180789 -0.28970337243015992 0 0.059449054433483903 -0.28956707473318272 0 0.048768037075517537 -0.30442990221103089 0 0.069967983226982527 -0.30495776272600778 0 0.059449054433483903 -0.28956707473318272 0 0.048768037075517537 -0.30442990221103089 0 0.069967983226982527 -0.30495776272600778 0 0.053863538987460123 -0.3232816795844588 0 0.048768037075517537 -0.30442990221103089 0 0.053380735395516472 -0.25867595766617779 0 0.04428054005230446 -0.26275141268032309 0 0.045372505498807933 -0.25408090721008542 0 0.053380735395516472 -0.25867595766617779 0 0.053158010572478251 -0.26777612517812432 0 0.04428054005230446 -0.26275141268032309 0 0.053380735395516472 -0.25867595766617779 0 0.045372505498807933 -0.25408090721008542 0 0.05268811686830014 -0.24901610311096159 0 0.053380735395516472 -0.25867595766617779 0 0.061490933840310687 -0.25382890142296882 0 0.05268811686830014 -0.24901610311096159 0 0.053380735395516472 -0.25867595766617779 0 0.060614126731859473 -0.2624009925450973 0 0.053158010572478251 -0.26777612517812432 0 0.053380735395516472 -0.25867595766617779 0 0.061490933840310687 -0.25382890142296882 0 0.060614126731859473 -0.2624009925450973 0 0.0646939085167762 -0.2722383315448984 0 0.060614126731859473 -0.2624009925450973 0 0.053158010572478251 -0.26777612517812432 0 0.0646939085167762 -0.2722383315448984 0 0.059449054433483903 -0.28956707473318272 0 0.051749435803858171 -0.27840569125857739 0 0.0646939085167762 -0.2722383315448984 0 0.051749435803858171 -0.27840569125857739 0 0.053158010572478251 -0.26777612517812432 0 0.053158010572478251 -0.26777612517812432 0 0.044229316934554799 -0.27218436537367241 0 0.04428054005230446 -0.26275141268032309 0 0.051749435803858171 -0.27840569125857739 0 0.053158010572478251 -0.26777612517812432 0 0.044229316934554799 -0.27218436537367241 0 0.044229316934554799 -0.27218436537367241 0 0.031885251388666561 -0.26470215361104171 0 0.04428054005230446 -0.26275141268032309 0 0.051749435803858171 -0.27840569125857739 0 0.044229316934554799 -0.27218436537367241 0 0.038396769586432553 -0.27977596087564799 0 0.044229316934554799 -0.27218436537367241 0 0.038396769586432553 -0.27977596087564799 0 0.029696712261103771 -0.27487286106778819 0 0.029398966714908509 -0.28692964748338379 0 0.038396769586432553 -0.27977596087564799 0 0.029696712261103771 -0.27487286106778819 0 0.044229316934554799 -0.27218436537367241 0 0.031885251388666561 -0.26470215361104171 0 0.029696712261103771 -0.27487286106778819 0 0.037315510146954597 -0.25849363249326118 0 0.031885251388666561 -0.26470215361104171 0 0.04428054005230446 -0.26275141268032309 0 0.037315510146954597 -0.25849363249326118 0 0.031885251388666561 -0.26470215361104171 0 0.03069464768829987 -0.25176037071845259 0 0.037315510146954597 -0.25849363249326118 0 0.04428054005230446 -0.26275141268032309 0 0.045372505498807933 -0.25408090721008542 0 0.045372505498807933 -0.25408090721008542 0 0.03069464768829987 -0.25176037071845259 0 0.042588116356466379 -0.2448823624008481 0 0.037315510146954597 -0.25849363249326118 0 0.045372505498807933 -0.25408090721008542 0 0.03069464768829987 -0.25176037071845259 0 0.031885251388666561 -0.26470215361104171 0 0.021199614426200629 -0.26114166245967918 0 0.019908913466960752 -0.27058631964059482 0 0.031885251388666561 -0.26470215361104171 0 0.03069464768829987 -0.25176037071845259 0 0.021199614426200629 -0.26114166245967918 0 0.03069464768829987 -0.25176037071845259 0 0.021199614426200629 -0.26114166245967918 0 0.016145176335298529 -0.25210595968411048 0 0.029398966714908509 -0.28692964748338379 0 0.029696712261103771 -0.27487286106778819 0 0.01908241754038794 -0.28073467218482329 0 0.031885251388666561 -0.26470215361104171 0 0.029696712261103771 -0.27487286106778819 0 0.019908913466960752 -0.27058631964059482 0 0.019908913466960752 -0.27058631964059482 0 0.01908241754038794 -0.28073467218482329 0 0.01128192931255503 -0.27464126756021451 0 0.029696712261103771 -0.27487286106778819 0 0.019908913466960752 -0.27058631964059482 0 0.01908241754038794 -0.28073467218482329 0 -0.01145854626600548 -0.26602311564559261 0 0.01128192931255503 -0.27464126756021451 0 0.0057158633005241696 -0.26337829885565528 0 0.0066437179820165657 -0.2861171845936395 0 0.01908241754038794 -0.28073467218482329 0 0.01128192931255503 -0.27464126756021451 0 0.019908913466960752 -0.27058631964059482 0 0.01128192931255503 -0.27464126756021451 0 0.0057158633005241696 -0.26337829885565528 0 -0.002848760243290064 -0.27761611820401882 0 0.0066437179820165657 -0.2861171845936395 0 0.01128192931255503 -0.27464126756021451 0 0.016145176335298529 -0.25210595968411048 0 0.0057158633005241696 -0.26337829885565528 0 0.0054759062840018038 -0.25064707341720888 0 0.021199614426200629 -0.26114166245967918 0 0.019908913466960752 -0.27058631964059482 0 0.0057158633005241696 -0.26337829885565528 0 0.021199614426200629 -0.26114166245967918 0 0.016145176335298529 -0.25210595968411048 0 0.0057158633005241696 -0.26337829885565528 0 -0.0009620894167222515 -0.25496392916579452 0 0.0057158633005241696 -0.26337829885565528 0 0.0054759062840018038 -0.25064707341720888 0 -0.0009620894167222515 -0.25496392916579452 0 -0.0029313858115674811 -0.24854412401401971 0 0.0054759062840018038 -0.25064707341720888 0 0.0054759062840018038 -0.25064707341720888 0 0.0026199421412959989 -0.2430643023623929 0 0.011589873569895199 -0.24127835128668559 0 -0.0029313858115674811 -0.24854412401401971 0 0.0054759062840018038 -0.25064707341720888 0 0.0026199421412959989 -0.2430643023623929 0 0.016145176335298529 -0.25210595968411048 0 0.0054759062840018038 -0.25064707341720888 0 0.011589873569895199 -0.24127835128668559 0 0.011589873569895199 -0.24127835128668559 0 0.010668172172219499 -0.2272828987723072 0 0.020574075722817331 -0.2351284197632682 0 0.0026199421412959989 -0.2430643023623929 0 0.011589873569895199 -0.24127835128668559 0 0.0017465435191736189 -0.23378549097037141 0 -0.00080535468136348092 -0.21995366459000901 0 0.010668172172219499 -0.2272828987723072 0 0.01016515501406726 -0.20926501301563591 0 -0.00080535468136348092 -0.21995366459000901 0 0.0017465435191736189 -0.23378549097037141 0 0.010668172172219499 -0.2272828987723072 0 0.010668172172219499 -0.2272828987723072 0 0.02170661161633574 -0.22145314359659171 0 0.01016515501406726 -0.20926501301563591 0 0.011589873569895199 -0.24127835128668559 0 0.0017465435191736189 -0.23378549097037141 0 0.010668172172219499 -0.2272828987723072 0 0.010668172172219499 -0.2272828987723072 0 0.02170661161633574 -0.22145314359659171 0 0.020574075722817331 -0.2351284197632682 0 0.02170661161633574 -0.22145314359659171 0 0.02866695829179056 -0.22960637228307629 0 0.036392787169896093 -0.22322562645731159 0 0.02170661161633574 -0.22145314359659171 0 0.02866695829179056 -0.22960637228307629 0 0.020574075722817331 -0.2351284197632682 0 0.02866695829179056 -0.22960637228307629 0 0.020574075722817331 -0.2351284197632682 0 0.032071787069821417 -0.24054619649286721 0 0.022195152742869501 -0.2444300013669817 0 0.020574075722817331 -0.2351284197632682 0 0.032071787069821417 -0.24054619649286721 0 0.03069464768829987 -0.25176037071845259 0 0.022195152742869501 -0.2444300013669817 0 0.032071787069821417 -0.24054619649286721 0 0.03069464768829987 -0.25176037071845259 0 0.016145176335298529 -0.25210595968411048 0 0.022195152742869501 -0.2444300013669817 0 0.016145176335298529 -0.25210595968411048 0 0.011589873569895199 -0.24127835128668559 0 0.022195152742869501 -0.2444300013669817 0 0.011589873569895199 -0.24127835128668559 0 0.022195152742869501 -0.2444300013669817 0 0.020574075722817331 -0.2351284197632682 0 -0.003739977245034012 -0.19168309442994089 0 0.010514116253606281 -0.1925853606064957 0 0.01016515501406726 -0.20926501301563591 0 0.010514116253606281 -0.1925853606064957 0 0.01016515501406726 -0.20926501301563591 0 0.018596641755985681 -0.20049862993462389 0 0.02170661161633574 -0.22145314359659171 0 0.01016515501406726 -0.20926501301563591 0 0.028304225500431591 -0.20785134554231141 0 0.01016515501406726 -0.20926501301563591 0 0.028304225500431591 -0.20785134554231141 0 0.018596641755985681 -0.20049862993462389 0 0.02170661161633574 -0.22145314359659171 0 0.028304225500431591 -0.20785134554231141 0 0.036392787169896093 -0.22322562645731159 0 0.028304225500431591 -0.20785134554231141 0 0.018596641755985681 -0.20049862993462389 0 0.02540307025583758 -0.19229280057405279 0 0.010514116253606281 -0.1925853606064957 0 0.018596641755985681 -0.20049862993462389 0 0.02540307025583758 -0.19229280057405279 0 0.010514116253606281 -0.1925853606064957 0 0.02540307025583758 -0.19229280057405279 0 0.015764016274472759 -0.1812646672695073 0 0.02540307025583758 -0.19229280057405279 0 0.041440672425083092 -0.19607701236864419 0 0.030421272951226121 -0.1778391783376792 0 0.028304225500431591 -0.20785134554231141 0 0.02540307025583758 -0.19229280057405279 0 0.041440672425083092 -0.19607701236864419 0 0.041440672425083092 -0.19607701236864419 0 0.042310424588804782 -0.2140630995529598 0 0.055497750511994078 -0.2086068857692274 0 0.028304225500431591 -0.20785134554231141 0 0.041440672425083092 -0.19607701236864419 0 0.042310424588804782 -0.2140630995529598 0 0.028304225500431591 -0.20785134554231141 0 0.042310424588804782 -0.2140630995529598 0 0.036392787169896093 -0.22322562645731159 0 0.042310424588804782 -0.2140630995529598 0 0.055497750511994078 -0.2086068857692274 0 0.052955454276687589 -0.2198291654371925 0 0.062338921595789062 -0.21792006704763969 0 0.055497750511994078 -0.2086068857692274 0 0.052955454276687589 -0.2198291654371925 0 0.062338921595789062 -0.21792006704763969 0 0.055497750511994078 -0.2086068857692274 0 0.067863046951983474 -0.20503048868511209 0 0.055497750511994078 -0.2086068857692274 0 0.056257937900538298 -0.19577788601322099 0 0.067863046951983474 -0.20503048868511209 0 0.041440672425083092 -0.19607701236864419 0 0.056257937900538298 -0.19577788601322099 0 0.051449240160577621 -0.1762857105508405 0 0.041440672425083092 -0.19607701236864419 0 0.055497750511994078 -0.2086068857692274 0 0.056257937900538298 -0.19577788601322099 0 0.040491861427302538 -0.2355872617630255 0 0.042588116356466379 -0.2448823624008481 0 0.052307832003780613 -0.23884346229351339 0 0.040491861427302538 -0.2355872617630255 0 0.045866106706223042 -0.22907627795895011 0 0.052307832003780613 -0.23884346229351339 0 0.03069464768829987 -0.25176037071845259 0 0.042588116356466379 -0.2448823624008481 0 0.032071787069821417 -0.24054619649286721 0 0.040491861427302538 -0.2355872617630255 0 0.042588116356466379 -0.2448823624008481 0 0.032071787069821417 -0.24054619649286721 0 0.02866695829179056 -0.22960637228307629 0 0.040491861427302538 -0.2355872617630255 0 0.032071787069821417 -0.24054619649286721 0 0.02866695829179056 -0.22960637228307629 0 0.040491861427302538 -0.2355872617630255 0 0.036392787169896093 -0.22322562645731159 0 0.042310424588804782 -0.2140630995529598 0 0.036392787169896093 -0.22322562645731159 0 0.045866106706223042 -0.22907627795895011 0 0.040491861427302538 -0.2355872617630255 0 0.036392787169896093 -0.22322562645731159 0 0.045866106706223042 -0.22907627795895011 0 0.045866106706223042 -0.22907627795895011 0 0.058764067980626958 -0.22947949685718549 0 0.052307832003780613 -0.23884346229351339 0 0.045866106706223042 -0.22907627795895011 0 0.052955454276687589 -0.2198291654371925 0 0.058764067980626958 -0.22947949685718549 0 0.042310424588804782 -0.2140630995529598 0 0.045866106706223042 -0.22907627795895011 0 0.052955454276687589 -0.2198291654371925 0 0.062338921595789062 -0.21792006704763969 0 0.058764067980626958 -0.22947949685718549 0 0.065719467571416057 -0.22489822263154319 0 0.062338921595789062 -0.21792006704763969 0 0.052955454276687589 -0.2198291654371925 0 0.058764067980626958 -0.22947949685718549 0 0.058764067980626958 -0.22947949685718549 0 0.062159259289524899 -0.2368834247622158 0 0.052307832003780613 -0.23884346229351339 0 0.062159259289524899 -0.2368834247622158 0 0.052307832003780613 -0.23884346229351339 0 0.061229972926465738 -0.2445427902389527 0 0.045372505498807933 -0.25408090721008542 0 0.042588116356466379 -0.2448823624008481 0 0.05268811686830014 -0.24901610311096159 0 0.042588116356466379 -0.2448823624008481 0 0.052307832003780613 -0.23884346229351339 0 0.05268811686830014 -0.24901610311096159 0 0.061490933840310687 -0.25382890142296882 0 0.05268811686830014 -0.24901610311096159 0 0.061229972926465738 -0.2445427902389527 0 0.052307832003780613 -0.23884346229351339 0 0.05268811686830014 -0.24901610311096159 0 0.061229972926465738 -0.2445427902389527 0 0.061490933840310687 -0.25382890142296882 0 0.061229972926465738 -0.2445427902389527 0 0.070069103552599196 -0.24823964670048029 0 0.061229972926465738 -0.2445427902389527 0 0.070069103552599196 -0.24823964670048029 0 0.069856411684105391 -0.23913895996007839 0 0.062159259289524899 -0.2368834247622158 0 0.061229972926465738 -0.2445427902389527 0 0.069856411684105391 -0.23913895996007839 0 0.062159259289524899 -0.2368834247622158 0 0.069856411684105391 -0.23913895996007839 0 0.067142239376285745 -0.23139328163069281 0 0.069856411684105391 -0.23913895996007839 0 0.077788170153509889 -0.24196191377257101 0 0.076767606518392539 -0.23187249677345001 0 0.080071368274292315 -0.25145738896057979 0 0.070069103552599196 -0.24823964670048029 0 0.077788170153509889 -0.24196191377257101 0 0.070069103552599196 -0.24823964670048029 0 0.069856411684105391 -0.23913895996007839 0 0.077788170153509889 -0.24196191377257101 0 0.080071368274292315 -0.25145738896057979 0 0.090706365013478091 -0.25245448435890872 0 0.085906732882507178 -0.24385162082211831 0 0.080071368274292315 -0.25145738896057979 0 0.077788170153509889 -0.24196191377257101 0 0.085906732882507178 -0.24385162082211831 0 0.077788170153509889 -0.24196191377257101 0 0.085906732882507178 -0.24385162082211831 0 0.083256636250354649 -0.23616880796388259 0 0.077788170153509889 -0.24196191377257101 0 0.083256636250354649 -0.23616880796388259 0 0.076767606518392539 -0.23187249677345001 0 0.085906732882507178 -0.24385162082211831 0 0.089657973372422345 -0.23730775202069579 0 0.094006026236525903 -0.2441335510050745 0 0.085906732882507178 -0.24385162082211831 0 0.083256636250354649 -0.23616880796388259 0 0.089657973372422345 -0.23730775202069579 0 0.083256636250354649 -0.23616880796388259 0 0.089657973372422345 -0.23730775202069579 0 0.089763789457938253 -0.2306791647953326 0 0.089657973372422345 -0.23730775202069579 0 0.089763789457938253 -0.2306791647953326 0 0.096012267649498176 -0.23702186761809721 0 0.089657973372422345 -0.23730775202069579 0 0.094006026236525903 -0.2441335510050745 0 0.096012267649498176 -0.23702186761809721 0 0.090706365013478091 -0.25245448435890872 0 0.085906732882507178 -0.24385162082211831 0 0.094006026236525903 -0.2441335510050745 0 0.086446736705125371 -0.22420087797706609 0 0.091303359373345411 -0.22339335178318359 0 0.089763789457938253 -0.2306791647953326 0 0.086446736705125371 -0.22420087797706609 0 0.091303359373345411 -0.22339335178318359 0 0.086853981468707001 -0.2185547472363609 0 0.091303359373345411 -0.22339335178318359 0 0.086853981468707001 -0.2185547472363609 0 0.09077468002378962 -0.21857675351640271 0 0.091303359373345411 -0.22339335178318359 0 0.09077468002378962 -0.21857675351640271 0 0.094530837428433365 -0.22086489816084981 0 0.091303359373345411 -0.22339335178318359 0 0.089763789457938253 -0.2306791647953326 0 0.098670227838192195 -0.22970514568366851 0 0.086446736705125371 -0.22420087797706609 0 0.089763789457938253 -0.2306791647953326 0 0.083020570332336119 -0.22791650227557511 0 0.083256636250354649 -0.23616880796388259 0 0.083020570332336119 -0.22791650227557511 0 0.076767606518392539 -0.23187249677345001 0 0.083256636250354649 -0.23616880796388259 0 0.089763789457938253 -0.2306791647953326 0 0.083020570332336119 -0.22791650227557511 0 0.083020570332336119 -0.22791650227557511 0 0.077930889523722374 -0.22519622511208121 0 0.076767606518392539 -0.23187249677345001 0 0.083020570332336119 -0.22791650227557511 0 0.081291982893300085 -0.22046062379487821 0 0.077930889523722374 -0.22519622511208121 0 0.086446736705125371 -0.22420087797706609 0 0.083020570332336119 -0.22791650227557511 0 0.081291982893300085 -0.22046062379487821 0 0.086446736705125371 -0.22420087797706609 0 0.081291982893300085 -0.22046062379487821 0 0.086853981468707001 -0.2185547472363609 0 0.081291982893300085 -0.22046062379487821 0 0.077930889523722374 -0.22519622511208121 0 0.073706539318973169 -0.21796036257100029 0 0.072234091795087663 -0.22574485878751241 0 0.065719467571416057 -0.22489822263154319 0 0.073706539318973169 -0.21796036257100029 0 0.077930889523722374 -0.22519622511208121 0 0.072234091795087663 -0.22574485878751241 0 0.073706539318973169 -0.21796036257100029 0 0.069856411684105391 -0.23913895996007839 0 0.076767606518392539 -0.23187249677345001 0 0.067142239376285745 -0.23139328163069281 0 0.072234091795087663 -0.22574485878751241 0 0.076767606518392539 -0.23187249677345001 0 0.067142239376285745 -0.23139328163069281 0 0.077930889523722374 -0.22519622511208121 0 0.072234091795087663 -0.22574485878751241 0 0.076767606518392539 -0.23187249677345001 0 0.058764067980626958 -0.22947949685718549 0 0.062159259289524899 -0.2368834247622158 0 0.067142239376285745 -0.23139328163069281 0 0.058764067980626958 -0.22947949685718549 0 0.067142239376285745 -0.23139328163069281 0 0.065719467571416057 -0.22489822263154319 0 0.072234091795087663 -0.22574485878751241 0 0.067142239376285745 -0.23139328163069281 0 0.065719467571416057 -0.22489822263154319 0 0.062338921595789062 -0.21792006704763969 0 0.065719467571416057 -0.22489822263154319 0 0.073706539318973169 -0.21796036257100029 0 0.062338921595789062 -0.21792006704763969 0 0.067863046951983474 -0.20503048868511209 0 0.073706539318973169 -0.21796036257100029 0 0.067863046951983474 -0.20503048868511209 0 0.073706539318973169 -0.21796036257100029 0 0.079094442607528917 -0.20913243433380641 0 0.067863046951983474 -0.20503048868511209 0 0.081482512553192915 -0.1953056794767786 0 0.079094442607528917 -0.20913243433380641 0 0.056257937900538298 -0.19577788601322099 0 0.067863046951983474 -0.20503048868511209 0 0.066040058368007956 -0.18964665730407451 0 0.067863046951983474 -0.20503048868511209 0 0.066040058368007956 -0.18964665730407451 0 0.081482512553192915 -0.1953056794767786 0 0.081482512553192915 -0.1953056794767786 0 0.095454742848087734 -0.19451486061966669 0 0.093505174579280592 -0.1731787749771625 0 0.081482512553192915 -0.1953056794767786 0 0.08833530696517819 -0.21036332105093219 0 0.095454742848087734 -0.19451486061966669 0 0.08833530696517819 -0.21036332105093219 0 0.097404311116896569 -0.21585094626217091 0 0.095454742848087734 -0.19451486061966669 0 0.081291982893300085 -0.22046062379487821 0 0.073706539318973169 -0.21796036257100029 0 0.082946926161669862 -0.2149195339015407 0 0.082946926161669862 -0.2149195339015407 0 0.079094442607528917 -0.20913243433380641 0 0.08833530696517819 -0.21036332105093219 0 0.073706539318973169 -0.21796036257100029 0 0.082946926161669862 -0.2149195339015407 0 0.079094442607528917 -0.20913243433380641 0 0.081291982893300085 -0.22046062379487821 0 0.082946926161669862 -0.2149195339015407 0 0.086853981468707001 -0.2185547472363609 0 0.081482512553192915 -0.1953056794767786 0 0.079094442607528917 -0.20913243433380641 0 0.08833530696517819 -0.21036332105093219 0 0.082946926161669862 -0.2149195339015407 0 0.08833530696517819 -0.21036332105093219 0 0.086853981468707001 -0.2185547472363609 0 0.08833530696517819 -0.21036332105093219 0 0.086853981468707001 -0.2185547472363609 0 0.09077468002378962 -0.21857675351640271 0 0.08833530696517819 -0.21036332105093219 0 0.09077468002378962 -0.21857675351640271 0 0.092213447725184278 -0.21529843562297729 0 0.08833530696517819 -0.21036332105093219 0 0.092213447725184278 -0.21529843562297729 0 0.097404311116896569 -0.21585094626217091 0 0.09077468002378962 -0.21857675351640271 0 0.094501608789943028 -0.21679829355882299 0 0.094530837428433365 -0.22086489816084981 0 0.09077468002378962 -0.21857675351640271 0 0.092213447725184278 -0.21529843562297729 0 0.094501608789943028 -0.21679829355882299 0 0.094501608789943028 -0.21679829355882299 0 0.097404311116896569 -0.21585094626217091 0 0.094530837428433365 -0.22086489816084981 0 0.092213447725184278 -0.21529843562297729 0 0.094501608789943028 -0.21679829355882299 0 0.097404311116896569 -0.21585094626217091 0 0.097404311116896569 -0.21585094626217091 0 0.095454742848087734 -0.19451486061966669 0 0.097404311116896569 -0.21585094626217091 0 0.1059898830346106 -0.20430933332548051 0 0.095454742848087734 -0.19451486061966669 0 0.097404311116896569 -0.21585094626217091 0 0.1089347031997706 -0.21297733173581901 0 0.1146171121197104 -0.21980430615730401 0 0.097404311116896569 -0.21585094626217091 0 0.1059898830346106 -0.20430933332548051 0 0.1089347031997706 -0.21297733173581901 0 0.095454742848087734 -0.19451486061966669 0 0.1128143282819509 -0.19216489626002589 0 0.10772522460311169 -0.17968171223372481 0 0.1059898830346106 -0.20430933332548051 0 0.095454742848087734 -0.19451486061966669 0 0.1128143282819509 -0.19216489626002589 0 0.1128143282819509 -0.19216489626002589 0 0.1237689835273371 -0.19605207676116951 0 0.1178461100078927 -0.20838697738218431 0 0.1059898830346106 -0.20430933332548051 0 0.1128143282819509 -0.19216489626002589 0 0.1178461100078927 -0.20838697738218431 0 0.1128143282819509 -0.19216489626002589 0 0.1237689835273371 -0.19605207676116951 0 0.1232013989280239 -0.1819146573535104 0 0.1089347031997706 -0.21297733173581901 0 0.1178461100078927 -0.20838697738218431 0 0.1146171121197104 -0.21980430615730401 0 0.1059898830346106 -0.20430933332548051 0 0.1089347031997706 -0.21297733173581901 0 0.1178461100078927 -0.20838697738218431 0 0.1178461100078927 -0.20838697738218431 0 0.1146171121197104 -0.21980430615730401 0 0.12895394136930069 -0.22163642029703709 0 0.1146171121197104 -0.21980430615730401 0 0.12018370186474731 -0.23305432747703519 0 0.12895394136930069 -0.22163642029703709 0 0.097404311116896569 -0.21585094626217091 0 0.1146171121197104 -0.21980430615730401 0 0.12018370186474731 -0.23305432747703519 0 0.1212054647883809 -0.25073068226796852 0 0.12018370186474731 -0.23305432747703519 0 0.1059281586602189 -0.23527494890652931 0 0.13217397618885759 -0.25462043987800831 0 0.1212054647883809 -0.25073068226796852 0 0.12018370186474731 -0.23305432747703519 0 0.1212054647883809 -0.25073068226796852 0 0.1059281586602189 -0.23527494890652931 0 0.1078238037173969 -0.24832262031645649 0 0.1212054647883809 -0.25073068226796852 0 0.1059281586602189 -0.23527494890652931 0 0.099550463170151926 -0.25262580003909579 0 0.1078238037173969 -0.24832262031645649 0 0.10103467245524091 -0.24298905409433241 0 0.1059281586602189 -0.23527494890652931 0 0.1078238037173969 -0.24832262031645649 0 0.10103467245524091 -0.24298905409433241 0 0.099550463170151926 -0.25262580003909579 0 0.10103467245524091 -0.24298905409433241 0 0.094006026236525903 -0.2441335510050745 0 0.090706365013478091 -0.25245448435890872 0 0.099550463170151926 -0.25262580003909579 0 0.094006026236525903 -0.2441335510050745 0 0.1059281586602189 -0.23527494890652931 0 0.10103467245524091 -0.24298905409433241 0 0.096012267649498176 -0.23702186761809721 0 0.10103467245524091 -0.24298905409433241 0 0.094006026236525903 -0.2441335510050745 0 0.096012267649498176 -0.23702186761809721 0 0.1059281586602189 -0.23527494890652931 0 0.096012267649498176 -0.23702186761809721 0 0.098670227838192195 -0.22970514568366851 0 0.089763789457938253 -0.2306791647953326 0 0.096012267649498176 -0.23702186761809721 0 0.098670227838192195 -0.22970514568366851 0 0.097404311116896569 -0.21585094626217091 0 0.12018370186474731 -0.23305432747703519 0 0.097404311116896569 -0.21585094626217091 0 0.12018370186474731 -0.23305432747703519 0 0.1059281586602189 -0.23527494890652931 0 0.097404311116896569 -0.21585094626217091 0 0.1059281586602189 -0.23527494890652931 0 0.098670227838192195 -0.22970514568366851 0 0.091303359373345411 -0.22339335178318359 0 0.098670227838192195 -0.22970514568366851 0 0.094530837428433365 -0.22086489816084981 0 0.097404311116896569 -0.21585094626217091 0 0.098670227838192195 -0.22970514568366851 0 0.094530837428433365 -0.22086489816084981 0 0.097404311116896569 -0.21585094626217091 0 0.098670227838192195 -0.22970514568366851 0 0.1071373084330472 -0.14482826815459701 0 0.1035248479174861 -0.15311019857333261 0 0.098760878024456711 -0.14050656481393209 0 0.1071373084330472 -0.14482826815459701 0 0.1035248479174861 -0.15311019857333261 0 0.1121477659277255 -0.1503271840913511 0 0.1035248479174861 -0.15311019857333261 0 0.098760878024456711 -0.14050656481393209 0 0.091560400862706559 -0.15189516094014111 0 0.098760878024456711 -0.14050656481393209 0 0.099399694252258627 -0.1328638184600745 0 0.089615627146132512 -0.13061154690311971 0 0.099399694252258627 -0.1328638184600745 0 0.099525338641528904 -0.12611341339503321 0 0.089615627146132512 -0.13061154690311971 0 0.099525338641528904 -0.12611341339503321 0 0.1096969331969164 -0.13422374872821319 0 0.1121708616464093 -0.1216807098986791 0 0.099399694252258627 -0.1328638184600745 0 0.099525338641528904 -0.12611341339503321 0 0.1096969331969164 -0.13422374872821319 0 0.098760878024456711 -0.14050656481393209 0 0.099399694252258627 -0.1328638184600745 0 0.1096969331969164 -0.13422374872821319 0 0.1071373084330472 -0.14482826815459701 0 0.098760878024456711 -0.14050656481393209 0 0.1096969331969164 -0.13422374872821319 0 0.1096969331969164 -0.13422374872821319 0 0.1155243526086871 -0.14484298486410191 0 0.12532898621889721 -0.13663811256420449 0 0.1096969331969164 -0.13422374872821319 0 0.11997683785091839 -0.1276371159963853 0 0.12532898621889721 -0.13663811256420449 0 0.1096969331969164 -0.13422374872821319 0 0.11997683785091839 -0.1276371159963853 0 0.1121708616464093 -0.1216807098986791 0 0.1217036921304827 -0.1482443959076799 0 0.1155243526086871 -0.14484298486410191 0 0.12532898621889721 -0.13663811256420449 0 0.1217036921304827 -0.1482443959076799 0 0.1155243526086871 -0.14484298486410191 0 0.1179114041550178 -0.15136128022523329 0 0.1071373084330472 -0.14482826815459701 0 0.1155243526086871 -0.14484298486410191 0 0.1121477659277255 -0.1503271840913511 0 0.1071373084330472 -0.14482826815459701 0 0.1096969331969164 -0.13422374872821319 0 0.1155243526086871 -0.14484298486410191 0 0.1035248479174861 -0.15311019857333261 0 0.1121477659277255 -0.1503271840913511 0 0.1169082366172023 -0.15609331882735419 0 0.1155243526086871 -0.14484298486410191 0 0.1121477659277255 -0.1503271840913511 0 0.1179114041550178 -0.15136128022523329 0 0.1121477659277255 -0.1503271840913511 0 0.1169082366172023 -0.15609331882735419 0 0.1179114041550178 -0.15136128022523329 0 0.1169082366172023 -0.15609331882735419 0 0.1179114041550178 -0.15136128022523329 0 0.12324902196630889 -0.15465793599018671 0 0.1217036921304827 -0.1482443959076799 0 0.1179114041550178 -0.15136128022523329 0 0.12324902196630889 -0.15465793599018671 0 0.1217036921304827 -0.1482443959076799 0 0.12324902196630889 -0.15465793599018671 0 0.12831016946945831 -0.1492440347933528 0 0.1035248479174861 -0.15311019857333261 0 0.12443417021765769 -0.1709717485187108 0 0.1227471198665283 -0.15880086614903269 0 0.12098675462827781 -0.16200852072179159 0 0.1290045142054978 -0.1612372837293575 0 0.1035248479174861 -0.15311019857333261 0 0.12443417021765769 -0.1709717485187108 0 0.12083528946942131 -0.1711597280255607 0 0.1035248479174861 -0.15311019857333261 0 0.12098675462827781 -0.16200852072179159 0 0.12443417021765769 -0.1709717485187108 0 0.1035248479174861 -0.15311019857333261 0 0.1169082366172023 -0.15609331882735419 0 0.12098675462827781 -0.16200852072179159 0 0.1169082366172023 -0.15609331882735419 0 0.1227471198665283 -0.15880086614903269 0 0.12098675462827781 -0.16200852072179159 0 0.1169082366172023 -0.15609331882735419 0 0.12324902196630889 -0.15465793599018671 0 0.1227471198665283 -0.15880086614903269 0 0.12098675462827781 -0.16200852072179159 0 0.12443417021765769 -0.1709717485187108 0 0.12715697753007521 -0.16591248018761531 0 0.1128143282819509 -0.19216489626002589 0 0.1232013989280239 -0.1819146573535104 0 0.1157139550245927 -0.18029465614444529 0 0.12083528946942131 -0.1711597280255607 0 0.1232013989280239 -0.1819146573535104 0 0.1157139550245927 -0.18029465614444529 0 0.12443417021765769 -0.1709717485187108 0 0.12083528946942131 -0.1711597280255607 0 0.1232013989280239 -0.1819146573535104 0 0.12083528946942131 -0.1711597280255607 0 0.1157139550245927 -0.18029465614444529 0 0.10772522460311169 -0.17968171223372481 0 0.1128143282819509 -0.19216489626002589 0 0.1157139550245927 -0.18029465614444529 0 0.10772522460311169 -0.17968171223372481 0 0.095454742848087734 -0.19451486061966669 0 0.10772522460311169 -0.17968171223372481 0 0.093505174579280592 -0.1731787749771625 0 0.12083528946942131 -0.1711597280255607 0 0.093505174579280592 -0.1731787749771625 0 0.095454742848087734 -0.19451486061966669 0 0.093505174579280592 -0.1731787749771625 0 0.12083528946942131 -0.1711597280255607 0 0.10772522460311169 -0.17968171223372481 0 0.093505174579280592 -0.1731787749771625 0 0.1035248479174861 -0.15311019857333261 0 0.093505174579280592 -0.1731787749771625 0 0.091560400862706559 -0.15189516094014111 0 0.1035248479174861 -0.15311019857333261 0 0.12083528946942131 -0.1711597280255607 0 0.093505174579280592 -0.1731787749771625 0 0.078133883947979807 -0.15717501910519549 0 0.093505174579280592 -0.1731787749771625 0 0.091560400862706559 -0.15189516094014111 0 0.078133883947979807 -0.15717501910519549 0 0.093505174579280592 -0.1731787749771625 0 0.072477207369929117 -0.17473224276400179 0 0.093505174579280592 -0.1731787749771625 0 0.091560400862706559 -0.15189516094014111 0 0.081482512553192915 -0.1953056794767786 0 0.093505174579280592 -0.1731787749771625 0 0.072477207369929117 -0.17473224276400179 0 0.093505174579280592 -0.1731787749771625 0 0.072477207369929117 -0.17473224276400179 0 0.066040058368007956 -0.18964665730407451 0 0.072477207369929117 -0.17473224276400179 0 0.051449240160577621 -0.1762857105508405 0 0.066040058368007956 -0.18964665730407451 0 0.081482512553192915 -0.1953056794767786 0 0.072477207369929117 -0.17473224276400179 0 0.078133883947979807 -0.15717501910519549 0 0.072477207369929117 -0.17473224276400179 0 0.063878974636528515 -0.16401540189567099 0 0.072477207369929117 -0.17473224276400179 0 0.063878974636528515 -0.16401540189567099 0 0.051449240160577621 -0.1762857105508405 0 0.078133883947979807 -0.15717501910519549 0 0.063878974636528515 -0.16401540189567099 0 0.06522271263887458 -0.15305574504012881 0 0.06522271263887458 -0.15305574504012881 0 0.069316279952888193 -0.14186668388360371 0 0.075278834721760557 -0.14616760919767161 0 0.06522271263887458 -0.15305574504012881 0 0.069316279952888193 -0.14186668388360371 0 0.05757515479497001 -0.1486962131740798 0 0.069316279952888193 -0.14186668388360371 0 0.075278834721760557 -0.14616760919767161 0 0.079765110473415279 -0.13788087003968491 0 0.078133883947979807 -0.15717501910519549 0 0.06522271263887458 -0.15305574504012881 0 0.075278834721760557 -0.14616760919767161 0 0.098760878024456711 -0.14050656481393209 0 0.091560400862706559 -0.15189516094014111 0 0.089615627146132512 -0.13061154690311971 0 0.078133883947979807 -0.15717501910519549 0 0.083611330147541921 -0.14459745320402559 0 0.091560400862706559 -0.15189516094014111 0 0.091560400862706559 -0.15189516094014111 0 0.089615627146132512 -0.13061154690311971 0 0.078133883947979807 -0.15717501910519549 0 0.075278834721760557 -0.14616760919767161 0 0.083611330147541921 -0.14459745320402559 0 0.083611330147541921 -0.14459745320402559 0 0.091560400862706559 -0.15189516094014111 0 0.089615627146132512 -0.13061154690311971 0 0.075278834721760557 -0.14616760919767161 0 0.083611330147541921 -0.14459745320402559 0 0.079765110473415279 -0.13788087003968491 0 0.099525338641528904 -0.12611341339503321 0 0.089615627146132512 -0.13061154690311971 0 0.081894058627025895 -0.12584863130967919 0 0.083611330147541921 -0.14459745320402559 0 0.089615627146132512 -0.13061154690311971 0 0.079765110473415279 -0.13788087003968491 0 0.089615627146132512 -0.13061154690311971 0 0.079765110473415279 -0.13788087003968491 0 0.081894058627025895 -0.12584863130967919 0 0.081894058627025895 -0.12584863130967919 0 0.065576399090336079 -0.13067912082877309 0 0.057907204523981459 -0.13951585418161591 0 0.081894058627025895 -0.12584863130967919 0 0.057907204523981459 -0.13951585418161591 0 0.069316279952888193 -0.14186668388360371 0 0.081894058627025895 -0.12584863130967919 0 0.057907204523981459 -0.13951585418161591 0 0.081894058627025895 -0.12584863130967919 0 0.068207364780656948 -0.12563827965844471 0 0.065576399090336079 -0.13067912082877309 0 0.069316279952888193 -0.14186668388360371 0 0.079765110473415279 -0.13788087003968491 0 0.081894058627025895 -0.12584863130967919 0 0.068207364780656948 -0.12563827965844471 0 0.065576399090336079 -0.13067912082877309 0 0.054296968429680029 -0.13171371816535249 0 0.054296968429680029 -0.13171371816535249 0 0.057907204523981459 -0.13951585418161591 0 0.034849001543539322 -0.1503583031021323 0 0.054296968429680029 -0.13171371816535249 0 0.045553716665441668 -0.12681104972785159 0 0.052448498866582129 -0.1166826243517366 0 0.065576399090336079 -0.13067912082877309 0 0.054296968429680029 -0.13171371816535249 0 0.057907204523981459 -0.13951585418161591 0 0.069316279952888193 -0.14186668388360371 0 0.057907204523981459 -0.13951585418161591 0 0.05757515479497001 -0.1486962131740798 0 0.06522271263887458 -0.15305574504012881 0 0.05757515479497001 -0.1486962131740798 0 0.052111829065281459 -0.15882829201818821 0 0.046808539919221563 -0.15014413002933799 0 0.052111829065281459 -0.15882829201818821 0 0.043031393960321331 -0.1571354857308308 0 0.05757515479497001 -0.1486962131740798 0 0.046808539919221563 -0.15014413002933799 0 0.052111829065281459 -0.15882829201818821 0 0.057907204523981459 -0.13951585418161591 0 0.05757515479497001 -0.1486962131740798 0 0.046808539919221563 -0.15014413002933799 0 0.057907204523981459 -0.13951585418161591 0 0.046808539919221563 -0.15014413002933799 0 0.033920350420936912 -0.1531830770535528 0 0.057907204523981459 -0.13951585418161591 0 0.034849001543539322 -0.1503583031021323 0 0.033920350420936912 -0.1531830770535528 0 0.054296968429680029 -0.13171371816535249 0 0.034849001543539322 -0.1503583031021323 0 0.038558521200612962 -0.14006542407622449 0 0.054296968429680029 -0.13171371816535249 0 0.034849001543539322 -0.1503583031021323 0 0.057907204523981459 -0.13951585418161591 0 0.033920350420936912 -0.1531830770535528 0 0.046808539919221563 -0.15014413002933799 0 0.040219483271594643 -0.15466785876887121 0 0.033920350420936912 -0.1531830770535528 0 0.046808539919221563 -0.15014413002933799 0 0.040219483271594643 -0.15466785876887121 0 0.043031393960321331 -0.1571354857308308 0 0.040219483271594643 -0.15466785876887121 0 0.033920350420936912 -0.1531830770535528 0 0.037117648785898759 -0.15820874226176301 0 0.034849001543539322 -0.1503583031021323 0 0.031672068294339203 -0.14528428076340441 0 0.030051573782975471 -0.15027594372919439 0 0.034849001543539322 -0.1503583031021323 0 0.033920350420936912 -0.1531830770535528 0 0.030051573782975471 -0.15027594372919439 0 0.034849001543539322 -0.1503583031021323 0 0.031672068294339203 -0.14528428076340441 0 0.038558521200612962 -0.14006542407622449 0 0.031672068294339203 -0.14528428076340441 0 0.038558521200612962 -0.14006542407622449 0 0.030566093298411881 -0.13865773310914861 0 0.054296968429680029 -0.13171371816535249 0 0.038558521200612962 -0.14006542407622449 0 0.040644455285911409 -0.1338393175667463 0 0.038558521200612962 -0.14006542407622449 0 0.040644455285911409 -0.1338393175667463 0 0.030566093298411881 -0.13865773310914861 0 0.034824944079593127 -0.12500853882757099 0 0.040644455285911409 -0.1338393175667463 0 0.030566093298411881 -0.13865773310914861 0 0.034824944079593127 -0.12500853882757099 0 0.045553716665441668 -0.12681104972785159 0 0.040644455285911409 -0.1338393175667463 0 0.054296968429680029 -0.13171371816535249 0 0.045553716665441668 -0.12681104972785159 0 0.040644455285911409 -0.1338393175667463 0 0.072477207369929117 -0.17473224276400179 0 0.051449240160577621 -0.1762857105508405 0 0.056257937900538298 -0.19577788601322099 0 0.066040058368007956 -0.18964665730407451 0 0.051449240160577621 -0.1762857105508405 0 0.063878974636528515 -0.16401540189567099 0 0.051449240160577621 -0.1762857105508405 0 0.052111829065281459 -0.15882829201818821 0 0.051449240160577621 -0.1762857105508405 0 0.052111829065281459 -0.15882829201818821 0 0.040502396519655252 -0.1663673850483231 0 0.063878974636528515 -0.16401540189567099 0 0.06522271263887458 -0.15305574504012881 0 0.052111829065281459 -0.15882829201818821 0 0.043031393960321331 -0.1571354857308308 0 0.037117648785898759 -0.15820874226176301 0 0.040502396519655252 -0.1663673850483231 0 0.052111829065281459 -0.15882829201818821 0 0.043031393960321331 -0.1571354857308308 0 0.040502396519655252 -0.1663673850483231 0 0.040219483271594643 -0.15466785876887121 0 0.043031393960321331 -0.1571354857308308 0 0.037117648785898759 -0.15820874226176301 0 0.033920350420936912 -0.1531830770535528 0 0.033509818979212957 -0.15868168045615499 0 0.027465449436243041 -0.1628752445715565 0 0.037117648785898759 -0.15820874226176301 0 0.034071859908748191 -0.1623715567021686 0 0.040502396519655252 -0.1663673850483231 0 0.033920350420936912 -0.1531830770535528 0 0.037117648785898759 -0.15820874226176301 0 0.033509818979212957 -0.15868168045615499 0 0.037117648785898759 -0.15820874226176301 0 0.033509818979212957 -0.15868168045615499 0 0.034071859908748191 -0.1623715567021686 0 0.033509818979212957 -0.15868168045615499 0 0.034071859908748191 -0.1623715567021686 0 0.027465449436243041 -0.1628752445715565 0 0.031586668938662611 -0.1691709391612749 0 0.040502396519655252 -0.1663673850483231 0 0.030421272951226121 -0.1778391783376792 0 0.034071859908748191 -0.1623715567021686 0 0.031586668938662611 -0.1691709391612749 0 0.040502396519655252 -0.1663673850483231 0 0.051449240160577621 -0.1762857105508405 0 0.040502396519655252 -0.1663673850483231 0 0.030421272951226121 -0.1778391783376792 0 0.041440672425083092 -0.19607701236864419 0 0.051449240160577621 -0.1762857105508405 0 0.030421272951226121 -0.1778391783376792 0 0.051449240160577621 -0.1762857105508405 0 0.030421272951226121 -0.1778391783376792 0 0.02540307025583758 -0.19229280057405279 0 0.015764016274472759 -0.1812646672695073 0 0.030421272951226121 -0.1778391783376792 0 0.031586668938662611 -0.1691709391612749 0 0.030421272951226121 -0.1778391783376792 0 0.021575687727073561 -0.1734893605992324 0 0.015764016274472759 -0.1812646672695073 0 0.021575687727073561 -0.1734893605992324 0 0.012676990919703311 -0.16924925594887871 0 0.015764016274472759 -0.1812646672695073 0 0.030421272951226121 -0.1778391783376792 0 0.021575687727073561 -0.1734893605992324 0 0.033920350420936912 -0.1531830770535528 0 0.009933496317892726 -0.16685029992549011 0 0.02294500892830088 -0.1542832107784407 0 0.033920350420936912 -0.1531830770535528 0 0.027465449436243041 -0.1628752445715565 0 0.009933496317892726 -0.16685029992549011 0 0.019596439448784399 -0.16744493330375371 0 0.027465449436243041 -0.1628752445715565 0 0.009933496317892726 -0.16685029992549011 0 0.033920350420936912 -0.1531830770535528 0 0.009933496317892726 -0.16685029992549011 0 0.021575687727073561 -0.1734893605992324 0 0.019596439448784399 -0.16744493330375371 0 0.012676990919703311 -0.16924925594887871 0 0.021575687727073561 -0.1734893605992324 0 0.019596439448784399 -0.16744493330375371 0 0.025540403417393751 -0.1677775419388785 0 0.031586668938662611 -0.1691709391612749 0 0.021575687727073561 -0.1734893605992324 0 0.025540403417393751 -0.1677775419388785 0 0.019596439448784399 -0.16744493330375371 0 0.025540403417393751 -0.1677775419388785 0 0.027465449436243041 -0.1628752445715565 0 0.034071859908748191 -0.1623715567021686 0 0.031586668938662611 -0.1691709391612749 0 0.027465449436243041 -0.1628752445715565 0 0.031586668938662611 -0.1691709391612749 0 0.025540403417393751 -0.1677775419388785 0 0.027465449436243041 -0.1628752445715565 0 0.009933496317892726 -0.16685029992549011 0 0.01648447247354291 -0.15404273338364399 0 0.02294500892830088 -0.1542832107784407 0 0.009933496317892726 -0.16685029992549011 0 0.01648447247354291 -0.15404273338364399 0 0.0068311679390763679 -0.1533437069849535 0 0.019596439448784399 -0.16744493330375371 0 0.009933496317892726 -0.16685029992549011 0 0.012676990919703311 -0.16924925594887871 0 0.009933496317892726 -0.16685029992549011 0 0.012676990919703311 -0.16924925594887871 0 0.0034571977838801569 -0.17702496179755631 0 0.009933496317892726 -0.16685029992549011 0 0.012676990919703311 -0.16924925594887871 0 -0.0085976242789068957 -0.177408956520272 0 0.009933496317892726 -0.16685029992549011 0 -0.0085976242789068957 -0.177408956520272 0 0.009933496317892726 -0.16685029992549011 0 0.0034571977838801569 -0.17702496179755631 0 0.015764016274472759 -0.1812646672695073 0 0.012676990919703311 -0.16924925594887871 0 0.0034571977838801569 -0.17702496179755631 0 -0.003739977245034012 -0.19168309442994089 0 0.010514116253606281 -0.1925853606064957 0 0.0034571977838801569 -0.17702496179755631 0 0.010514116253606281 -0.1925853606064957 0 0.015764016274472759 -0.1812646672695073 0 0.0034571977838801569 -0.17702496179755631 0 0.02166725362828328 -0.1398342401410575 0 0.019282665512654749 -0.1297026577714144 0 0.01241268948209219 -0.14437852502616319 0 0.034824944079593127 -0.12500853882757099 0 0.019282665512654749 -0.1297026577714144 0 0.030566093298411881 -0.13865773310914861 0 0.02166725362828328 -0.1398342401410575 0 0.019282665512654749 -0.1297026577714144 0 0.030566093298411881 -0.13865773310914861 0 0.031672068294339203 -0.14528428076340441 0 0.030566093298411881 -0.13865773310914861 0 0.024335151646156381 -0.14706399980032239 0 0.02166725362828328 -0.1398342401410575 0 0.030566093298411881 -0.13865773310914861 0 0.024335151646156381 -0.14706399980032239 0 0.031672068294339203 -0.14528428076340441 0 0.024335151646156381 -0.14706399980032239 0 0.030051573782975471 -0.15027594372919439 0 0.033920350420936912 -0.1531830770535528 0 0.030051573782975471 -0.15027594372919439 0 0.02294500892830088 -0.1542832107784407 0 0.024335151646156381 -0.14706399980032239 0 0.030051573782975471 -0.15027594372919439 0 0.02294500892830088 -0.1542832107784407 0 0.024335151646156381 -0.14706399980032239 0 0.01648447247354291 -0.15404273338364399 0 0.01241268948209219 -0.14437852502616319 0 0.024335151646156381 -0.14706399980032239 0 0.01648447247354291 -0.15404273338364399 0 0.02294500892830088 -0.1542832107784407 0 0.02166725362828328 -0.1398342401410575 0 0.024335151646156381 -0.14706399980032239 0 0.01241268948209219 -0.14437852502616319 0 -0.011505986517222349 -0.14810326960451681 0 0.01241268948209219 -0.14437852502616319 0 0.0068311679390763679 -0.1533437069849535 0 -0.011505986517222349 -0.14810326960451681 0 0.009933496317892726 -0.16685029992549011 0 0.0068311679390763679 -0.1533437069849535 0 -0.011505986517222349 -0.14810326960451681 0 0.01241268948209219 -0.14437852502616319 0 0.0027021066240326768 -0.1317064378292063 0 0.01648447247354291 -0.15404273338364399 0 0.01241268948209219 -0.14437852502616319 0 0.0068311679390763679 -0.1533437069849535 0 0.019282665512654749 -0.1297026577714144 0 0.01241268948209219 -0.14437852502616319 0 0.0027021066240326768 -0.1317064378292063 0 0.019282665512654749 -0.1297026577714144 0 0.0027021066240326768 -0.1317064378292063 0 0.005085065621477718 -0.1151057880332567 0 0.019282665512654749 -0.1297026577714144 0 0.005085065621477718 -0.1151057880332567 0 0.024129304522527751 -0.1089818526354679 0 0.034824944079593127 -0.12500853882757099 0 0.019282665512654749 -0.1297026577714144 0 0.024129304522527751 -0.1089818526354679 0 0.024129304522527751 -0.1089818526354679 0 0.01380815825635252 -0.094132232187142617 0 0.031293966725895003 -0.08518965294817829 0 -0.00044729776891663488 -0.1011528385718463 0 0.005085065621477718 -0.1151057880332567 0 0.01380815825635252 -0.094132232187142617 0 0.005085065621477718 -0.1151057880332567 0 0.024129304522527751 -0.1089818526354679 0 0.01380815825635252 -0.094132232187142617 0 0.01380815825635252 -0.094132232187142617 0 0.0042106568376920582 -0.081118225430045127 0 0.020039989671696231 -0.071989185162356889 0 -0.00044729776891663488 -0.1011528385718463 0 0.01380815825635252 -0.094132232187142617 0 0.0042106568376920582 -0.081118225430045127 0 0.0042106568376920582 -0.081118225430045127 0 0.0052181775422467033 -0.064346337314722044 0 0.020039989671696231 -0.071989185162356889 0 -0.0043762627118289626 -0.071729097412358583 0 0.0042106568376920582 -0.081118225430045127 0 0.0052181775422467033 -0.064346337314722044 0 0.0052181775422467033 -0.064346337314722044 0 0.020039989671696231 -0.071989185162356889 0 0.0052181775422467033 -0.064346337314722044 0 0.020039989671696231 -0.071989185162356889 0 0.017880224012190679 -0.058506375123621113 0 0.020039989671696231 -0.071989185162356889 0 0.017880224012190679 -0.058506375123621113 0 0.035073137211611732 -0.060365082031122411 0 0.020039989671696231 -0.071989185162356889 0 0.031293966725895003 -0.08518965294817829 0 0.035073137211611732 -0.060365082031122411 0 0.01380815825635252 -0.094132232187142617 0 0.020039989671696231 -0.071989185162356889 0 0.031293966725895003 -0.08518965294817829 0 0.031293966725895003 -0.08518965294817829 0 0.050629459546369923 -0.074776417317023003 0 0.042727201812981508 -0.099892478072297022 0 0.050629459546369923 -0.074776417317023003 0 0.042727201812981508 -0.099892478072297022 0 0.031293966725895003 -0.08518965294817829 0 0.050629459546369923 -0.074776417317023003 0 0.035073137211611732 -0.060365082031122411 0 0.050629459546369923 -0.074776417317023003 0 0.058531717279758283 -0.049660356561749108 0 0.072219385832792832 -0.066659644627356851 0 0.050629459546369923 -0.074776417317023003 0 0.042727201812981508 -0.099892478072297022 0 0.069701838591585213 -0.089386546866783212 0 0.059655618646742382 -0.10475769562984739 0 0.052448498866582129 -0.1166826243517366 0 0.042727201812981508 -0.099892478072297022 0 0.059655618646742382 -0.10475769562984739 0 0.042727201812981508 -0.099892478072297022 0 0.069701838591585213 -0.089386546866783212 0 0.054296968429680029 -0.13171371816535249 0 0.052448498866582129 -0.1166826243517366 0 0.073744935315820714 -0.1130691332285727 0 0.059655618646742382 -0.10475769562984739 0 0.052448498866582129 -0.1166826243517366 0 0.073744935315820714 -0.1130691332285727 0 0.034824944079593127 -0.12500853882757099 0 0.045553716665441668 -0.12681104972785159 0 0.052448498866582129 -0.1166826243517366 0 0.034824944079593127 -0.12500853882757099 0 0.052448498866582129 -0.1166826243517366 0 0.042727201812981508 -0.099892478072297022 0 0.034824944079593127 -0.12500853882757099 0 0.024129304522527751 -0.1089818526354679 0 0.042727201812981508 -0.099892478072297022 0 0.034824944079593127 -0.12500853882757099 0 0.042727201812981508 -0.099892478072297022 0 0.024129304522527751 -0.1089818526354679 0 0.031293966725895003 -0.08518965294817829 0 0.042727201812981508 -0.099892478072297022 0 0.034885408484197772 0.0062912350017927032 0 0.01265631079038235 -0.01012693536007268 0 0.042517259973231587 -0.011683923625132649 0 -0.00118246574067416 -0.01324232368796026 0 0.0012074066645448821 -0.00065723147797176382 0 0.01265631079038235 -0.01012693536007268 0 0.01265631079038235 -0.01012693536007268 0 0.02406773205363014 -0.026959444655171291 0 0.0015263381015913891 -0.033415212413580753 0 0.01265631079038235 -0.01012693536007268 0 0.0015263381015913891 -0.033415212413580753 0 -0.00118246574067416 -0.01324232368796026 0 0.01265631079038235 -0.01012693536007268 0 0.0015263381015913891 -0.033415212413580753 0 0.01265631079038235 -0.01012693536007268 0 0.02406773205363014 -0.026959444655171291 0 0.042517259973231587 -0.011683923625132649 0 0.02406773205363014 -0.026959444655171291 0 0.021771409900077709 -0.044354063799483319 0 0.04186734150286768 -0.035217088077587062 0 0.02406773205363014 -0.026959444655171291 0 0.021771409900077709 -0.044354063799483319 0 0.0015263381015913891 -0.033415212413580753 0 0.021771409900077709 -0.044354063799483319 0 0.0015263381015913891 -0.033415212413580753 0 0.007298405735321048 -0.051477207310420908 0 -0.0096036345872028556 -0.056703489467087059 0 0.0052181775422467033 -0.064346337314722044 0 0.007298405735321048 -0.051477207310420908 0 0.0052181775422467033 -0.064346337314722044 0 0.007298405735321048 -0.051477207310420908 0 0.017880224012190679 -0.058506375123621113 0 0.021771409900077709 -0.044354063799483319 0 0.017880224012190679 -0.058506375123621113 0 0.035073137211611732 -0.060365082031122411 0 0.021771409900077709 -0.044354063799483319 0 0.007298405735321048 -0.051477207310420908 0 0.017880224012190679 -0.058506375123621113 0 0.035073137211611732 -0.060365082031122411 0 0.058531717279758283 -0.049660356561749108 0 0.04186734150286768 -0.035217088077587062 0 0.050629459546369923 -0.074776417317023003 0 0.058531717279758283 -0.049660356561749108 0 0.050629459546369923 -0.074776417317023003 0 0.035073137211611732 -0.060365082031122411 0 0.058531717279758283 -0.049660356561749108 0 0.058531717279758283 -0.049660356561749108 0 0.066433975013146629 -0.02454429580647528 0 0.058531717279758283 -0.049660356561749108 0 0.04186734150286768 -0.035217088077587062 0 0.066433975013146629 -0.02454429580647528 0 0.021771409900077709 -0.044354063799483319 0 0.035073137211611732 -0.060365082031122411 0 0.04186734150286768 -0.035217088077587062 0 0.02406773205363014 -0.026959444655171291 0 0.04186734150286768 -0.035217088077587062 0 0.042517259973231587 -0.011683923625132649 0 0.04186734150286768 -0.035217088077587062 0 0.042517259973231587 -0.011683923625132649 0 0.066433975013146629 -0.02454429580647528 0 0.052968053050369737 0.0090809173488315582 0 0.042517259973231587 -0.011683923625132649 0 0.067492943165135169 -0.0019794682467893379 0 0.042517259973231587 -0.011683923625132649 0 0.067492943165135169 -0.0019794682467893379 0 0.066433975013146629 -0.02454429580647528 0 0.087040675587819916 -0.0096101539263870796 0 0.066433975013146629 -0.02454429580647528 0 0.098032226742104309 -0.02831505409649597 0 0.083930998993742512 0.0059737405228527038 0 0.087040675587819916 -0.0096101539263870796 0 0.067492943165135169 -0.0019794682467893379 0 0.083930998993742512 0.0059737405228527038 0 0.098495163759696414 0.0029673617968291321 0 0.087040675587819916 -0.0096101539263870796 0 0.087040675587819916 -0.0096101539263870796 0 0.067492943165135169 -0.0019794682467893379 0 0.066433975013146629 -0.02454429580647528 0 0.066433975013146629 -0.02454429580647528 0 0.080663194565618018 -0.042742664855397232 0 0.098032226742104309 -0.02831505409649597 0 0.080663194565618018 -0.042742664855397232 0 0.099119978598511321 -0.045144617550746849 0 0.098032226742104309 -0.02831505409649597 0 0.058531717279758283 -0.049660356561749108 0 0.066433975013146629 -0.02454429580647528 0 0.080663194565618018 -0.042742664855397232 0 0.058531717279758283 -0.049660356561749108 0 0.080663194565618018 -0.042742664855397232 0 0.072219385832792832 -0.066659644627356851 0 0.080663194565618018 -0.042742664855397232 0 0.091985945990252393 -0.059557823171565508 0 0.072219385832792832 -0.066659644627356851 0 0.080663194565618018 -0.042742664855397232 0 0.091985945990252393 -0.059557823171565508 0 0.099119978598511321 -0.045144617550746849 0 0.091985945990252393 -0.059557823171565508 0 0.109385226414503 -0.056941989317685793 0 0.099119978598511321 -0.045144617550746849 0 0.109385226414503 -0.056941989317685793 0 0.1174221699598199 -0.069046986946925279 0 0.12664898879935529 -0.055605769639440771 0 0.109385226414503 -0.056941989317685793 0 0.1155332992800789 -0.038165556312589707 0 0.12664898879935529 -0.055605769639440771 0 0.1155332992800789 -0.038165556312589707 0 0.12954193793015309 -0.041748568408345607 0 0.12664898879935529 -0.055605769639440771 0 0.1155332992800789 -0.038165556312589707 0 0.1294320674019063 -0.023146095115484211 0 0.12954193793015309 -0.041748568408345607 0 0.109385226414503 -0.056941989317685793 0 0.1155332992800789 -0.038165556312589707 0 0.099119978598511321 -0.045144617550746849 0 0.1155332992800789 -0.038165556312589707 0 0.099119978598511321 -0.045144617550746849 0 0.098032226742104309 -0.02831505409649597 0 0.1155332992800789 -0.038165556312589707 0 0.098032226742104309 -0.02831505409649597 0 0.1112777463759113 -0.012222875866518469 0 0.087040675587819916 -0.0096101539263870796 0 0.098032226742104309 -0.02831505409649597 0 0.1112777463759113 -0.012222875866518469 0 0.1155332992800789 -0.038165556312589707 0 0.1112777463759113 -0.012222875866518469 0 0.1294320674019063 -0.023146095115484211 0 0.1158546052028349 0.0064685721448778594 0 0.13464870039648349 0.00080453217212592717 0 0.1112777463759113 -0.012222875866518469 0 0.098495163759696414 0.0029673617968291321 0 0.087040675587819916 -0.0096101539263870796 0 0.1112777463759113 -0.012222875866518469 0 0.1158546052028349 0.0064685721448778594 0 0.098495163759696414 0.0029673617968291321 0 0.1112777463759113 -0.012222875866518469 0 0.093192902201961414 -0.094424548291792879 0 0.088899626305776192 -0.1113374325741409 0 0.073744935315820714 -0.1130691332285727 0 0.093192902201961414 -0.094424548291792879 0 0.073744935315820714 -0.1130691332285727 0 0.069701838591585213 -0.089386546866783212 0 0.093192902201961414 -0.094424548291792879 0 0.073744935315820714 -0.1130691332285727 0 0.081894058627025895 -0.12584863130967919 0 0.088899626305776192 -0.1113374325741409 0 0.09397493983509804 -0.11322330148444169 0 0.081894058627025895 -0.12584863130967919 0 0.079920122843727764 -0.11786127252462281 0 0.075141871126288284 -0.1211898929860986 0 0.081894058627025895 -0.12584863130967919 0 0.088899626305776192 -0.1113374325741409 0 0.079920122843727764 -0.11786127252462281 0 0.088899626305776192 -0.1113374325741409 0 0.079920122843727764 -0.11786127252462281 0 0.073744935315820714 -0.1130691332285727 0 0.068207364780656948 -0.12563827965844471 0 0.054296968429680029 -0.13171371816535249 0 0.073744935315820714 -0.1130691332285727 0 0.054296968429680029 -0.13171371816535249 0 0.073744935315820714 -0.1130691332285727 0 0.068207364780656948 -0.12563827965844471 0 0.073744935315820714 -0.1130691332285727 0 0.075141871126288284 -0.1211898929860986 0 0.079920122843727764 -0.11786127252462281 0 0.073744935315820714 -0.1130691332285727 0 0.075141871126288284 -0.1211898929860986 0 0.081894058627025895 -0.12584863130967919 0 0.068207364780656948 -0.12563827965844471 0 0.075141871126288284 -0.1211898929860986 0 0.059655618646742382 -0.10475769562984739 0 0.073744935315820714 -0.1130691332285727 0 0.069701838591585213 -0.089386546866783212 0 0.050629459546369923 -0.074776417317023003 0 0.069701838591585213 -0.089386546866783212 0 0.072219385832792832 -0.066659644627356851 0 0.069701838591585213 -0.089386546866783212 0 0.072219385832792832 -0.066659644627356851 0 0.089711563165187497 -0.078251462936863553 0 0.091985945990252393 -0.059557823171565508 0 0.072219385832792832 -0.066659644627356851 0 0.089711563165187497 -0.078251462936863553 0 0.093192902201961414 -0.094424548291792879 0 0.069701838591585213 -0.089386546866783212 0 0.089711563165187497 -0.078251462936863553 0 0.093192902201961414 -0.094424548291792879 0 0.089711563165187497 -0.078251462936863553 0 0.1048667032735431 -0.089595599910983495 0 0.089711563165187497 -0.078251462936863553 0 0.1048667032735431 -0.089595599910983495 0 0.1056935618466131 -0.072691272791708894 0 0.1048667032735431 -0.089595599910983495 0 0.1056935618466131 -0.072691272791708894 0 0.11564058922802831 -0.08068930143821873 0 0.091985945990252393 -0.059557823171565508 0 0.089711563165187497 -0.078251462936863553 0 0.1056935618466131 -0.072691272791708894 0 0.091985945990252393 -0.059557823171565508 0 0.109385226414503 -0.056941989317685793 0 0.1056935618466131 -0.072691272791708894 0 0.1174221699598199 -0.069046986946925279 0 0.12840026197867099 -0.078951386265116219 0 0.12664898879935529 -0.055605769639440771 0 0.109385226414503 -0.056941989317685793 0 0.1056935618466131 -0.072691272791708894 0 0.1174221699598199 -0.069046986946925279 0 0.1056935618466131 -0.072691272791708894 0 0.1174221699598199 -0.069046986946925279 0 0.11564058922802831 -0.08068930143821873 0 0.1174221699598199 -0.069046986946925279 0 0.11564058922802831 -0.08068930143821873 0 0.12840026197867099 -0.078951386265116219 0 0.1048667032735431 -0.089595599910983495 0 0.11564058922802831 -0.08068930143821873 0 0.1191358060176364 -0.092450830711447801 0 0.1191358060176364 -0.092450830711447801 0 0.12840026197867099 -0.078951386265116219 0 0.11564058922802831 -0.08068930143821873 0 0.1191358060176364 -0.092450830711447801 0 0.12840026197867099 -0.078951386265116219 0 0.1058809127300703 -0.11218140843774239 0 0.12023297736745781 -0.1110263554770618 0 0.12986776683311119 -0.098514185565799078 0 0.1058809127300703 -0.11218140843774239 0 0.12986776683311119 -0.098514185565799078 0 0.1048667032735431 -0.089595599910983495 0 0.1191358060176364 -0.092450830711447801 0 0.10987135005660249 -0.1059502751577799 0 0.10987135005660249 -0.1059502751577799 0 0.1058809127300703 -0.11218140843774239 0 0.12986776683311119 -0.098514185565799078 0 0.1191358060176364 -0.092450830711447801 0 0.10987135005660249 -0.1059502751577799 0 0.12986776683311119 -0.098514185565799078 0 0.1191358060176364 -0.092450830711447801 0 0.10987135005660249 -0.1059502751577799 0 0.093192902201961414 -0.094424548291792879 0 0.088899626305776192 -0.1113374325741409 0 0.099225161677519755 -0.1035257336162041 0 0.1048667032735431 -0.089595599910983495 0 0.10987135005660249 -0.1059502751577799 0 0.099225161677519755 -0.1035257336162041 0 0.10987135005660249 -0.1059502751577799 0 0.099225161677519755 -0.1035257336162041 0 0.1058809127300703 -0.11218140843774239 0 0.088899626305776192 -0.1113374325741409 0 0.099225161677519755 -0.1035257336162041 0 0.09397493983509804 -0.11322330148444169 0 0.093192902201961414 -0.094424548291792879 0 0.1048667032735431 -0.089595599910983495 0 0.099225161677519755 -0.1035257336162041 0 0.081894058627025895 -0.12584863130967919 0 0.1058809127300703 -0.11218140843774239 0 0.099525338641528904 -0.12611341339503321 0 0.081894058627025895 -0.12584863130967919 0 0.1058809127300703 -0.11218140843774239 0 0.081894058627025895 -0.12584863130967919 0 0.09397493983509804 -0.11322330148444169 0 0.1058809127300703 -0.11218140843774239 0 0.099225161677519755 -0.1035257336162041 0 0.09397493983509804 -0.11322330148444169 0 0.1058809127300703 -0.11218140843774239 0 0.099525338641528904 -0.12611341339503321 0 0.1058809127300703 -0.11218140843774239 0 0.1121708616464093 -0.1216807098986791 0 0.1058809127300703 -0.11218140843774239 0 0.1121708616464093 -0.1216807098986791 0 0.12023297736745781 -0.1110263554770618 0 0.11997683785091839 -0.1276371159963853 0 0.121067612134044 -0.1214532534018402 0 0.13188977167139071 -0.12546883223523481 0 0.12023297736745781 -0.1110263554770618 0 0.121067612134044 -0.1214532534018402 0 0.13188977167139071 -0.12546883223523481 0 0.11997683785091839 -0.1276371159963853 0 0.1121708616464093 -0.1216807098986791 0 0.121067612134044 -0.1214532534018402 0 0.1121708616464093 -0.1216807098986791 0 0.12023297736745781 -0.1110263554770618 0 0.121067612134044 -0.1214532534018402 0 0.12023297736745781 -0.1110263554770618 0 0.12986776683311119 -0.098514185565799078 0 0.13188977167139071 -0.12546883223523481 0 0.12986776683311119 -0.098514185565799078 0 0.13188977167139071 -0.12546883223523481 0 0.14925441928633251 -0.10969288085116551 0 0.13995942417209239 -0.1034127274713456 0 0.13188977167139071 -0.12546883223523481 0 0.14724036225017881 -0.1245170930860646 0 0.14925441928633251 -0.10969288085116551 0 0.13188977167139071 -0.12546883223523481 0 0.14925441928633251 -0.10969288085116551 0 0.15485465026004211 -0.11932571079310079 0 0.15999890680388329 -0.1096406796162286 0 0.14724036225017881 -0.1245170930860646 0 0.15485465026004211 -0.11932571079310079 0 0.15557261582888751 -0.13003178131142151 0 0.14724036225017881 -0.1245170930860646 0 0.14925441928633251 -0.10969288085116551 0 0.15485465026004211 -0.11932571079310079 0 0.14925441928633251 -0.10969288085116551 0 0.14348993397904131 -0.092765062884646393 0 0.1620153957752187 -0.097165399419701551 0 0.14348993397904131 -0.092765062884646393 0 0.1620153957752187 -0.097165399419701551 0 0.14925441928633251 -0.10969288085116551 0 0.13995942417209239 -0.1034127274713456 0 0.14348993397904131 -0.092765062884646393 0 0.13995942417209239 -0.1034127274713456 0 0.12986776683311119 -0.098514185565799078 0 0.13188977167139071 -0.12546883223523481 0 0.13995942417209239 -0.1034127274713456 0 0.12986776683311119 -0.098514185565799078 0 0.14348993397904131 -0.092765062884646393 0 0.12986776683311119 -0.098514185565799078 0 0.12840026197867099 -0.078951386265116219 0 0.1428482005174804 -0.076716741777837147 0 0.1191358060176364 -0.092450830711447801 0 0.12986776683311119 -0.098514185565799078 0 0.12840026197867099 -0.078951386265116219 0 0.12986776683311119 -0.098514185565799078 0 0.12840026197867099 -0.078951386265116219 0 0.12840026197867099 -0.078951386265116219 0 0.12664898879935529 -0.055605769639440771 0 0.12840026197867099 -0.078951386265116219 0 0.12664898879935529 -0.055605769639440771 0 0.14464694777039611 -0.055277979731059648 0 0.12840026197867099 -0.078951386265116219 0 0.1428482005174804 -0.076716741777837147 0 0.14464694777039611 -0.055277979731059648 0 0.12840026197867099 -0.078951386265116219 0 0.14464694777039611 -0.055277979731059648 0 0.1428482005174804 -0.076716741777837147 0 0.15680899227989839 -0.06637062400294011 0 0.14464694777039611 -0.055277979731059648 0 0.1428482005174804 -0.076716741777837147 0 0.15451703372532541 -0.084469533324270707 0 0.15680899227989839 -0.06637062400294011 0 0.12986776683311119 -0.098514185565799078 0 0.15451703372532541 -0.084469533324270707 0 0.12986776683311119 -0.098514185565799078 0 0.14348993397904131 -0.092765062884646393 0 0.15451703372532541 -0.084469533324270707 0 0.14348993397904131 -0.092765062884646393 0 0.15451703372532541 -0.084469533324270707 0 0.1620153957752187 -0.097165399419701551 0 0.12986776683311119 -0.098514185565799078 0 0.1428482005174804 -0.076716741777837147 0 0.15451703372532541 -0.084469533324270707 0 0.15451703372532541 -0.084469533324270707 0 0.1674193516126988 -0.088794767656503876 0 0.1620153957752187 -0.097165399419701551 0 0.15451703372532541 -0.084469533324270707 0 0.1674193516126988 -0.088794767656503876 0 0.16389165652408541 -0.076485311925560115 0 0.1674193516126988 -0.088794767656503876 0 0.16389165652408541 -0.076485311925560115 0 0.17613181446746839 -0.084287857658230353 0 0.15451703372532541 -0.084469533324270707 0 0.15680899227989839 -0.06637062400294011 0 0.16389165652408541 -0.076485311925560115 0 0.16389165652408541 -0.076485311925560115 0 0.1717227713635387 -0.067009979361705274 0 0.17613181446746839 -0.084287857658230353 0 0.15680899227989839 -0.06637062400294011 0 0.16389165652408541 -0.076485311925560115 0 0.1717227713635387 -0.067009979361705274 0 0.15680899227989839 -0.06637062400294011 0 0.1717227713635387 -0.067009979361705274 0 0.1652446184022294 -0.054500080927008407 0 0.1717227713635387 -0.067009979361705274 0 0.17613181446746839 -0.084287857658230353 0 0.1717227713635387 -0.067009979361705274 0 0.18346211879182289 -0.064955309332027283 0 0.18137547142311691 -0.085525622921553163 0 0.18346211879182289 -0.064955309332027283 0 0.18137547142311691 -0.085525622921553163 0 0.1952329782378138 -0.068464889048657496 0 0.1717227713635387 -0.067009979361705274 0 0.18137547142311691 -0.085525622921553163 0 0.1717227713635387 -0.067009979361705274 0 0.18346211879182289 -0.064955309332027283 0 0.1746283364613696 -0.057560297553190053 0 0.18137547142311691 -0.085525622921553163 0 0.17613181446746839 -0.084287857658230353 0 0.18054085757139629 -0.1015657359547559 0 0.17613181446746839 -0.084287857658230353 0 0.18054085757139629 -0.1015657359547559 0 0.1674193516126988 -0.088794767656503876 0 0.17613181446746839 -0.084287857658230353 0 0.18054085757139629 -0.1015657359547559 0 0.1717227713635387 -0.067009979361705274 0 0.18137547142311691 -0.085525622921553163 0 0.17613181446746839 -0.084287857658230353 0 0.18137547142311691 -0.085525622921553163 0 0.19100769245097829 -0.1040519139747048 0 0.18137547142311691 -0.085525622921553163 0 0.18054085757139629 -0.1015657359547559 0 0.19100769245097829 -0.1040519139747048 0 0.18054085757139629 -0.1015657359547559 0 0.1749190978293893 -0.1165979942053425 0 0.16884250162088479 -0.1080310140379921 0 0.18054085757139629 -0.1015657359547559 0 0.19100769245097829 -0.1040519139747048 0 0.18054085757139629 -0.1015657359547559 0 0.1862357176231304 -0.1238823921021804 0 0.1749190978293893 -0.1165979942053425 0 0.18054085757139629 -0.1015657359547559 0 0.1862357176231304 -0.1238823921021804 0 0.19100769245097829 -0.1040519139747048 0 0.18054085757139629 -0.1015657359547559 0 0.1862357176231304 -0.1238823921021804 0 0.1862357176231304 -0.1238823921021804 0 0.1749190978293893 -0.1165979942053425 0 0.17324983187337631 -0.13165498831909611 0 0.1749190978293893 -0.1165979942053425 0 0.16471491079178111 -0.1205264202314431 0 0.16884250162088479 -0.1080310140379921 0 0.16471491079178111 -0.1205264202314431 0 0.15999890680388329 -0.1096406796162286 0 0.16884250162088479 -0.1080310140379921 0 0.1749190978293893 -0.1165979942053425 0 0.16471491079178111 -0.1205264202314431 0 0.17324983187337631 -0.13165498831909611 0 0.15485465026004211 -0.11932571079310079 0 0.16471491079178111 -0.1205264202314431 0 0.15557261582888751 -0.13003178131142151 0 0.15485465026004211 -0.11932571079310079 0 0.16471491079178111 -0.1205264202314431 0 0.15999890680388329 -0.1096406796162286 0 0.18054085757139629 -0.1015657359547559 0 0.1620153957752187 -0.097165399419701551 0 0.1674193516126988 -0.088794767656503876 0 0.18054085757139629 -0.1015657359547559 0 0.1620153957752187 -0.097165399419701551 0 0.14925441928633251 -0.10969288085116551 0 0.15999890680388329 -0.1096406796162286 0 0.1620153957752187 -0.097165399419701551 0 0.15999890680388329 -0.1096406796162286 0 0.1620153957752187 -0.097165399419701551 0 0.16884250162088479 -0.1080310140379921 0 0.18054085757139629 -0.1015657359547559 0 0.1620153957752187 -0.097165399419701551 0 0.16884250162088479 -0.1080310140379921 0 0.13464870039648349 0.00080453217212592717 0 0.15480995508657039 -0.001084596553268768 0 0.14892696920713289 -0.018041582065753459 0 0.13464870039648349 0.00080453217212592717 0 0.1294320674019063 -0.023146095115484211 0 0.14892696920713289 -0.018041582065753459 0 0.13464870039648349 0.00080453217212592717 0 0.1112777463759113 -0.012222875866518469 0 0.1294320674019063 -0.023146095115484211 0 0.1294320674019063 -0.023146095115484211 0 0.14892696920713289 -0.018041582065753459 0 0.14270131340979469 -0.036531096068384838 0 0.14892696920713289 -0.018041582065753459 0 0.14270131340979469 -0.036531096068384838 0 0.16089363356212191 -0.031604573197003549 0 0.14270131340979469 -0.036531096068384838 0 0.14464694777039611 -0.055277979731059648 0 0.16089363356212191 -0.031604573197003549 0 0.14464694777039611 -0.055277979731059648 0 0.15561449558007559 -0.051164132387281437 0 0.16089363356212191 -0.031604573197003549 0 0.14464694777039611 -0.055277979731059648 0 0.16089363356212191 -0.031604573197003549 0 0.14270131340979469 -0.036531096068384838 0 0.12954193793015309 -0.041748568408345607 0 0.14464694777039611 -0.055277979731059648 0 0.1294320674019063 -0.023146095115484211 0 0.14270131340979469 -0.036531096068384838 0 0.12954193793015309 -0.041748568408345607 0 0.12954193793015309 -0.041748568408345607 0 0.12664898879935529 -0.055605769639440771 0 0.14464694777039611 -0.055277979731059648 0 0.15680899227989839 -0.06637062400294011 0 0.14464694777039611 -0.055277979731059648 0 0.15561449558007559 -0.051164132387281437 0 0.15680899227989839 -0.06637062400294011 0 0.15561449558007559 -0.051164132387281437 0 0.1652446184022294 -0.054500080927008407 0 0.15561449558007559 -0.051164132387281437 0 0.1652446184022294 -0.054500080927008407 0 0.1617942405007988 -0.043199732881276223 0 0.1652446184022294 -0.054500080927008407 0 0.1746283364613696 -0.057560297553190053 0 0.1617942405007988 -0.043199732881276223 0 0.1717227713635387 -0.067009979361705274 0 0.1652446184022294 -0.054500080927008407 0 0.1717227713635387 -0.067009979361705274 0 0.1652446184022294 -0.054500080927008407 0 0.1746283364613696 -0.057560297553190053 0 0.1746283364613696 -0.057560297553190053 0 0.1828119860636557 -0.050363577362968731 0 0.1617942405007988 -0.043199732881276223 0 0.18346211879182289 -0.064955309332027283 0 0.1746283364613696 -0.057560297553190053 0 0.1828119860636557 -0.050363577362968731 0 0.18346211879182289 -0.064955309332027283 0 0.1828119860636557 -0.050363577362968731 0 0.19188844298534441 -0.056659859735039647 0 0.1617942405007988 -0.043199732881276223 0 0.18853740735089011 -0.033706188378118708 0 0.1828119860636557 -0.050363577362968731 0 0.1617942405007988 -0.043199732881276223 0 0.18853740735089011 -0.033706188378118708 0 0.15561449558007559 -0.051164132387281437 0 0.16089363356212191 -0.031604573197003549 0 0.1617942405007988 -0.043199732881276223 0 0.16089363356212191 -0.031604573197003549 0 0.1617942405007988 -0.043199732881276223 0 0.18853740735089011 -0.033706188378118708 0 0.16089363356212191 -0.031604573197003549 0 0.17714031935384769 -0.0079311666629475405 0 0.14892696920713289 -0.018041582065753459 0 0.16089363356212191 -0.031604573197003549 0 0.17714031935384769 -0.0079311666629475405 0 0.16089363356212191 -0.031604573197003549 0 0.17714031935384769 -0.0079311666629475405 0 0.18853740735089011 -0.033706188378118708 0 0.1657030786406338 0.0084270166623369204 0 0.15480995508657039 -0.001084596553268768 0 0.17714031935384769 -0.0079311666629475405 0 0.15480995508657039 -0.001084596553268768 0 0.14892696920713289 -0.018041582065753459 0 0.17714031935384769 -0.0079311666629475405 0 0.21351355446813719 -0.0021103410187178909 0 0.2110126965438916 -0.012672932103663791 0 0.2228246624943325 -0.0092295053444410857 0 0.2110126965438916 -0.012672932103663791 0 0.21911622703360889 -0.015650702578479541 0 0.2228246624943325 -0.0092295053444410857 0 0.21351355446813719 -0.0021103410187178909 0 0.2110126965438916 -0.012672932103663791 0 0.19836939172364151 -0.01016904411482358 0 0.1998105265397013 0.00335350757378736 0 0.21351355446813719 -0.0021103410187178909 0 0.19836939172364151 -0.01016904411482358 0 0.1998105265397013 0.00335350757378736 0 0.17714031935384769 -0.0079311666629475405 0 0.19836939172364151 -0.01016904411482358 0 0.17714031935384769 -0.0079311666629475405 0 0.19836939172364151 -0.01016904411482358 0 0.18853740735089011 -0.033706188378118708 0 0.2110126965438916 -0.012672932103663791 0 0.19836939172364151 -0.01016904411482358 0 0.18853740735089011 -0.033706188378118708 0 0.21528057420098159 -0.024212643874961401 0 0.18853740735089011 -0.033706188378118708 0 0.2110126965438916 -0.012672932103663791 0 0.21528057420098159 -0.024212643874961401 0 0.18853740735089011 -0.033706188378118708 0 0.21528057420098159 -0.024212643874961401 0 0.20886364623554921 -0.031523512657201581 0 0.18853740735089011 -0.033706188378118708 0 0.2110126965438916 -0.012672932103663791 0 0.21528057420098159 -0.024212643874961401 0 0.21911622703360889 -0.015650702578479541 0 0.21528057420098159 -0.024212643874961401 0 0.2158000993154765 -0.027276596113623111 0 0.21360323626451261 -0.02858374534336202 0 0.21528057420098159 -0.024212643874961401 0 0.2158000993154765 -0.027276596113623111 0 0.21995729679401421 -0.029331280632926501 0 0.2158000993154765 -0.027276596113623111 0 0.21503400689837671 -0.030930810510401429 0 0.21995729679401421 -0.029331280632926501 0 0.2158000993154765 -0.027276596113623111 0 0.21503400689837671 -0.030930810510401429 0 0.21360323626451261 -0.02858374534336202 0 0.21528057420098159 -0.024212643874961401 0 0.21360323626451261 -0.02858374534336202 0 0.20886364623554921 -0.031523512657201581 0 0.21503400689837671 -0.030930810510401429 0 0.21360323626451261 -0.02858374534336202 0 0.20886364623554921 -0.031523512657201581 0 0.2128060919330283 -0.035124071741943173 0 0.2180191377477218 -0.035203133534298187 0 0.2167024847658664 -0.043974661413588162 0 0.21503400689837671 -0.030930810510401429 0 0.2128060919330283 -0.035124071741943173 0 0.20886364623554921 -0.031523512657201581 0 0.21503400689837671 -0.030930810510401429 0 0.2128060919330283 -0.035124071741943173 0 0.2180191377477218 -0.035203133534298187 0 0.21503400689837671 -0.030930810510401429 0 0.2180191377477218 -0.035203133534298187 0 0.21995729679401421 -0.029331280632926501 0 0.2167024847658664 -0.043974661413588162 0 0.20890374551960481 -0.040729144831228678 0 0.20897987019450001 -0.050060865146210963 0 0.2128060919330283 -0.035124071741943173 0 0.2167024847658664 -0.043974661413588162 0 0.20890374551960481 -0.040729144831228678 0 0.20890374551960481 -0.040729144831228678 0 0.19655169947710091 -0.043788383486002072 0 0.20897987019450001 -0.050060865146210963 0 0.2128060919330283 -0.035124071741943173 0 0.20890374551960481 -0.040729144831228678 0 0.20886364623554921 -0.031523512657201581 0 0.20890374551960481 -0.040729144831228678 0 0.20886364623554921 -0.031523512657201581 0 0.19655169947710091 -0.043788383486002072 0 0.1828119860636557 -0.050363577362968731 0 0.18853740735089011 -0.033706188378118708 0 0.19655169947710091 -0.043788383486002072 0 0.20886364623554921 -0.031523512657201581 0 0.18853740735089011 -0.033706188378118708 0 0.19655169947710091 -0.043788383486002072 0 0.19655169947710091 -0.043788383486002072 0 0.20138343235632811 -0.055727139445542639 0 0.20897987019450001 -0.050060865146210963 0 0.19655169947710091 -0.043788383486002072 0 0.19188844298534441 -0.056659859735039647 0 0.20138343235632811 -0.055727139445542639 0 0.1828119860636557 -0.050363577362968731 0 0.19655169947710091 -0.043788383486002072 0 0.19188844298534441 -0.056659859735039647 0 0.19188844298534441 -0.056659859735039647 0 0.20138343235632811 -0.055727139445542639 0 0.1952329782378138 -0.068464889048657496 0 0.20138343235632811 -0.055727139445542639 0 0.22670270369963491 -0.067064047377793826 0 0.20138343235632811 -0.055727139445542639 0 0.21577564808412511 -0.056666161138016313 0 0.22670270369963491 -0.067064047377793826 0 0.20138343235632811 -0.055727139445542639 0 0.20897987019450001 -0.050060865146210963 0 0.21577564808412511 -0.056666161138016313 0 0.2167024847658664 -0.043974661413588162 0 0.20897987019450001 -0.050060865146210963 0 0.21577564808412511 -0.056666161138016313 0 0.21577564808412511 -0.056666161138016313 0 0.23694359709532001 -0.061394592404840097 0 0.22670270369963491 -0.067064047377793826 0 0.21577564808412511 -0.056666161138016313 0 0.22648325856373289 -0.049317463857355977 0 0.23694359709532001 -0.061394592404840097 0 0.21577564808412511 -0.056666161138016313 0 0.23694359709532001 -0.061394592404840097 0 0.2167024847658664 -0.043974661413588162 0 0.21577564808412511 -0.056666161138016313 0 0.22648325856373289 -0.049317463857355977 0 0.22648325856373289 -0.049317463857355977 0 0.23694359709532001 -0.061394592404840097 0 0.23716366819637241 -0.046229271507985323 0 0.25811154610651499 -0.066123023671663908 0 0.23694359709532001 -0.061394592404840097 0 0.24870160087168189 -0.052882304334001928 0 0.23694359709532001 -0.061394592404840097 0 0.24870160087168189 -0.052882304334001928 0 0.23716366819637241 -0.046229271507985323 0 0.24870160087168189 -0.052882304334001928 0 0.23716366819637241 -0.046229271507985323 0 0.24731406762381819 -0.035960341631652723 0 0.23716366819637241 -0.046229271507985323 0 0.24731406762381819 -0.035960341631652723 0 0.23342582712955959 -0.033308149953783547 0 0.23342582712955959 -0.033308149953783547 0 0.2258308946769807 -0.038322632822349968 0 0.22548915127375299 -0.027513718828695861 0 0.22648325856373289 -0.049317463857355977 0 0.23716366819637241 -0.046229271507985323 0 0.2258308946769807 -0.038322632822349968 0 0.23716366819637241 -0.046229271507985323 0 0.23342582712955959 -0.033308149953783547 0 0.2258308946769807 -0.038322632822349968 0 0.2180191377477218 -0.035203133534298187 0 0.2167024847658664 -0.043974661413588162 0 0.2258308946769807 -0.038322632822349968 0 0.2167024847658664 -0.043974661413588162 0 0.22648325856373289 -0.049317463857355977 0 0.2258308946769807 -0.038322632822349968 0 0.2180191377477218 -0.035203133534298187 0 0.2258308946769807 -0.038322632822349968 0 0.21995729679401421 -0.029331280632926501 0 0.2258308946769807 -0.038322632822349968 0 0.22548915127375299 -0.027513718828695861 0 0.21995729679401421 -0.029331280632926501 0 0.21528057420098159 -0.024212643874961401 0 0.2313313538768734 -0.018514784978234038 0 0.22829619310998309 -0.01520182636873813 0 0.21528057420098159 -0.024212643874961401 0 0.2313313538768734 -0.018514784978234038 0 0.21528057420098159 -0.024212643874961401 0 0.22548915127375299 -0.027513718828695861 0 0.2313313538768734 -0.018514784978234038 0 0.21528057420098159 -0.024212643874961401 0 0.22548915127375299 -0.027513718828695861 0 0.21995729679401421 -0.029331280632926501 0 0.21528057420098159 -0.024212643874961401 0 0.22829619310998309 -0.01520182636873813 0 0.21528057420098159 -0.024212643874961401 0 0.21911622703360889 -0.015650702578479541 0 0.22829619310998309 -0.01520182636873813 0 0.2313313538768734 -0.018514784978234038 0 0.22829619310998309 -0.01520182636873813 0 0.23342582712955959 -0.033308149953783547 0 0.22548915127375299 -0.027513718828695861 0 0.2313313538768734 -0.018514784978234038 0 0.25508119948702751 -0.010083838205662381 0 0.2313313538768734 -0.018514784978234038 0 0.2482857443068576 -0.021714794414400052 0 0.24731406762381819 -0.035960341631652723 0 0.2313313538768734 -0.018514784978234038 0 0.2482857443068576 -0.021714794414400052 0 0.24731406762381819 -0.035960341631652723 0 0.23342582712955959 -0.033308149953783547 0 0.2313313538768734 -0.018514784978234038 0 0.24731406762381819 -0.035960341631652723 0 0.2313313538768734 -0.018514784978234038 0 0.25508119948702751 -0.010083838205662381 0 0.2313313538768734 -0.018514784978234038 0 0.24138147174972829 -0.0061427828714447699 0 0.25508119948702751 -0.010083838205662381 0 0.2313313538768734 -0.018514784978234038 0 0.24138147174972829 -0.0061427828714447699 0 0.22829619310998309 -0.01520182636873813 0 0.25446675038947358 0.0029162606258486688 0 0.2541426920980116 -0.0036136263454906951 0 0.24138147174972829 -0.0061427828714447699 0 0.25446675038947358 0.0029162606258486688 0 0.24138147174972829 -0.0061427828714447699 0 0.22999165343287109 0.0038227322559807589 0 0.24138147174972829 -0.0061427828714447699 0 0.23189167676904729 -0.0064153040848911828 0 0.22999165343287109 0.0038227322559807589 0 0.23189167676904729 -0.0064153040848911828 0 0.2228246624943325 -0.0092295053444410857 0 0.22999165343287109 0.0038227322559807589 0 0.21351355446813719 -0.0021103410187178909 0 0.2228246624943325 -0.0092295053444410857 0 0.23189167676904729 -0.0064153040848911828 0 0.22829619310998309 -0.01520182636873813 0 0.2228246624943325 -0.0092295053444410857 0 0.2313313538768734 -0.018514784978234038 0 0.24138147174972829 -0.0061427828714447699 0 0.22829619310998309 -0.01520182636873813 0 0.24138147174972829 -0.0061427828714447699 0 0.23189167676904729 -0.0064153040848911828 0 0.22829619310998309 -0.01520182636873813 0 0.21911622703360889 -0.015650702578479541 0 0.22829619310998309 -0.01520182636873813 0 0.2228246624943325 -0.0092295053444410857 0 0.22829619310998309 -0.01520182636873813 0 0.2228246624943325 -0.0092295053444410857 0 0.2084634723971549 -0.097930235578601213 0 0.21737999015654699 -0.1103161024944793 0 0.2275791846540145 -0.10054182369239011 0 0.21737999015654699 -0.1103161024944793 0 0.19100769245097829 -0.1040519139747048 0 0.2084634723971549 -0.097930235578601213 0 0.21140608144591419 -0.084503356370523836 0 0.2275791846540145 -0.10054182369239011 0 0.2084634723971549 -0.097930235578601213 0 0.21737999015654699 -0.1103161024944793 0 0.19100769245097829 -0.1040519139747048 0 0.21737999015654699 -0.1103161024944793 0 0.21277072480774051 -0.1248863227998855 0 0.20025029595199689 -0.1218288277367077 0 0.21737999015654699 -0.1103161024944793 0 0.21277072480774051 -0.1248863227998855 0 0.2239597136694004 -0.1277946194696456 0 0.1862357176231304 -0.1238823921021804 0 0.20025029595199689 -0.1218288277367077 0 0.19100769245097829 -0.1040519139747048 0 0.21737999015654699 -0.1103161024944793 0 0.20025029595199689 -0.1218288277367077 0 0.19100769245097829 -0.1040519139747048 0 0.20025029595199689 -0.1218288277367077 0 0.19100769245097829 -0.1040519139747048 0 0.2084634723971549 -0.097930235578601213 0 0.19100769245097829 -0.1040519139747048 0 0.19624682445825681 -0.08914472739044943 0 0.18137547142311691 -0.085525622921553163 0 0.19100769245097829 -0.1040519139747048 0 0.19624682445825681 -0.08914472739044943 0 0.19624682445825681 -0.08914472739044943 0 0.1952329782378138 -0.068464889048657496 0 0.21140608144591419 -0.084503356370523836 0 0.18137547142311691 -0.085525622921553163 0 0.19624682445825681 -0.08914472739044943 0 0.1952329782378138 -0.068464889048657496 0 0.20138343235632811 -0.055727139445542639 0 0.1952329782378138 -0.068464889048657496 0 0.21149591893834541 -0.070957707586151192 0 0.18346211879182289 -0.064955309332027283 0 0.19188844298534441 -0.056659859735039647 0 0.1952329782378138 -0.068464889048657496 0 0.1952329782378138 -0.068464889048657496 0 0.21140608144591419 -0.084503356370523836 0 0.20138343235632811 -0.055727139445542639 0 0.21149591893834541 -0.070957707586151192 0 0.22670270369963491 -0.067064047377793826 0 0.1952329782378138 -0.068464889048657496 0 0.21149591893834541 -0.070957707586151192 0 0.21140608144591419 -0.084503356370523836 0 0.2084634723971549 -0.097930235578601213 0 0.19624682445825681 -0.08914472739044943 0 0.21140608144591419 -0.084503356370523836 0 0.21149591893834541 -0.070957707586151192 0 0.21140608144591419 -0.084503356370523836 0 0.2227543989520358 -0.079029105688238177 0 0.21140608144591419 -0.084503356370523836 0 0.2275791846540145 -0.10054182369239011 0 0.2227543989520358 -0.079029105688238177 0 0.23449163343577681 -0.083610487294907485 0 0.2275791846540145 -0.10054182369239011 0 0.21140608144591419 -0.084503356370523836 0 0.2227543989520358 -0.079029105688238177 0 0.2275791846540145 -0.10054182369239011 0 0.2227543989520358 -0.079029105688238177 0 0.22670270369963491 -0.067064047377793826 0 0.23449163343577681 -0.083610487294907485 0 0.21149591893834541 -0.070957707586151192 0 0.2227543989520358 -0.079029105688238177 0 0.22670270369963491 -0.067064047377793826 0 0.25202197504294188 -0.078400955310045109 0 0.25811154610651499 -0.066123023671663908 0 0.23694359709532001 -0.061394592404840097 0 0.25202197504294188 -0.078400955310045109 0 0.22670270369963491 -0.067064047377793826 0 0.25202197504294188 -0.078400955310045109 0 0.22670270369963491 -0.067064047377793826 0 0.23449163343577681 -0.083610487294907485 0 0.25202197504294188 -0.078400955310045109 0 0.23694359709532001 -0.061394592404840097 0 0.22670270369963491 -0.067064047377793826 0 0.25811154610651499 -0.066123023671663908 0 0.23694359709532001 -0.061394592404840097 0 0.25202197504294188 -0.078400955310045109 0 0.23449163343577681 -0.083610487294907485 0 0.24624903761231479 -0.086847438891893419 0 0.23449163343577681 -0.083610487294907485 0 0.24292322406264641 -0.096552741650977186 0 0.2275791846540145 -0.10054182369239011 0 0.23449163343577681 -0.083610487294907485 0 0.24624903761231479 -0.086847438891893419 0 0.24292322406264641 -0.096552741650977186 0 0.25304747237378489 -0.090741332181114118 0 0.24624903761231479 -0.086847438891893419 0 0.24292322406264641 -0.096552741650977186 0 0.2275791846540145 -0.10054182369239011 0 0.24375228786211539 -0.116580291014256 0 0.24292322406264641 -0.096552741650977186 0 0.2275791846540145 -0.10054182369239011 0 0.24375228786211539 -0.116580291014256 0 0.25771864553297669 -0.099620140202181948 0 0.24292322406264641 -0.096552741650977186 0 0.24375228786211539 -0.116580291014256 0 0.21737999015654699 -0.1103161024944793 0 0.2275791846540145 -0.10054182369239011 0 0.24375228786211539 -0.116580291014256 0 0.21737999015654699 -0.1103161024944793 0 0.24375228786211539 -0.116580291014256 0 0.2239597136694004 -0.1277946194696456 0 0.21737999015654699 -0.1103161024944793 0 0.24375228786211539 -0.116580291014256 0 0.24375228786211539 -0.116580291014256 0 0.235054631712311 -0.13955626642273861 0 0.24955680073527009 -0.143898101237383 0 0.235054631712311 -0.13955626642273861 0 0.24955680073527009 -0.143898101237383 0 0.23627457688356679 -0.15840319400941011 0 0.25449645062408999 -0.16331052089379791 0 0.24955680073527009 -0.143898101237383 0 0.23627457688356679 -0.15840319400941011 0 0.235054631712311 -0.13955626642273861 0 0.22199130801810529 -0.1478171468904442 0 0.23627457688356679 -0.15840319400941011 0 0.24375228786211539 -0.116580291014256 0 0.235054631712311 -0.13955626642273861 0 0.2239597136694004 -0.1277946194696456 0 0.235054631712311 -0.13955626642273861 0 0.22199130801810529 -0.1478171468904442 0 0.2239597136694004 -0.1277946194696456 0 0.20025029595199689 -0.1218288277367077 0 0.20949289945301761 -0.1396057414987095 0 0.22199130801810529 -0.1478171468904442 0 0.2239597136694004 -0.1277946194696456 0 0.20949289945301761 -0.1396057414987095 0 0.21277072480774051 -0.1248863227998855 0 0.20025029595199689 -0.1218288277367077 0 0.20949289945301761 -0.1396057414987095 0 0.21277072480774051 -0.1248863227998855 0 0.2239597136694004 -0.1277946194696456 0 0.20949289945301761 -0.1396057414987095 0 0.22199130801810529 -0.1478171468904442 0 0.20949289945301761 -0.1396057414987095 0 0.2069794531536403 -0.1537888919124783 0 0.20949289945301761 -0.1396057414987095 0 0.2069794531536403 -0.1537888919124783 0 0.1919305776748628 -0.1461990482496055 0 0.2069794531536403 -0.1537888919124783 0 0.1919305776748628 -0.1461990482496055 0 0.19225769977326759 -0.16432491474026781 0 0.1862357176231304 -0.1238823921021804 0 0.1919305776748628 -0.1461990482496055 0 0.19714487019074359 -0.1333469628700395 0 0.20025029595199689 -0.1218288277367077 0 0.20949289945301761 -0.1396057414987095 0 0.19714487019074359 -0.1333469628700395 0 0.20949289945301761 -0.1396057414987095 0 0.1919305776748628 -0.1461990482496055 0 0.19714487019074359 -0.1333469628700395 0 0.1862357176231304 -0.1238823921021804 0 0.1919305776748628 -0.1461990482496055 0 0.1862357176231304 -0.1238823921021804 0 0.20025029595199689 -0.1218288277367077 0 0.19714487019074359 -0.1333469628700395 0 0.19629081049063871 -0.1815365299480412 0 0.19225769977326759 -0.16432491474026781 0 0.17982600751226671 -0.1762593337595659 0 0.19629081049063871 -0.1815365299480412 0 0.19225769977326759 -0.16432491474026781 0 0.22018657323669569 -0.16775416802968299 0 0.2069794531536403 -0.1537888919124783 0 0.19225769977326759 -0.16432491474026781 0 0.22018657323669569 -0.16775416802968299 0 0.22199130801810529 -0.1478171468904442 0 0.2069794531536403 -0.1537888919124783 0 0.22018657323669569 -0.16775416802968299 0 0.19629081049063871 -0.1815365299480412 0 0.22018657323669569 -0.16775416802968299 0 0.21237941264848451 -0.18810475376770611 0 0.22018657323669569 -0.16775416802968299 0 0.23934418379307471 -0.18436482883247621 0 0.22018657323669569 -0.16775416802968299 0 0.23934418379307471 -0.18436482883247621 0 0.21237941264848451 -0.18810475376770611 0 0.22018657323669569 -0.16775416802968299 0 0.23627457688356679 -0.15840319400941011 0 0.23934418379307471 -0.18436482883247621 0 0.22199130801810529 -0.1478171468904442 0 0.22018657323669569 -0.16775416802968299 0 0.23627457688356679 -0.15840319400941011 0 0.25449645062408999 -0.16331052089379791 0 0.23627457688356679 -0.15840319400941011 0 0.23934418379307471 -0.18436482883247621 0 0.25850179434945381 -0.20097548963526929 0 0.23934418379307471 -0.18436482883247621 0 0.25850179434945381 -0.20097548963526929 0 0.23934418379307471 -0.18436482883247621 0 0.23907695871134879 -0.21289681242661959 0 0.23907695871134879 -0.21289681242661959 0 0.22308479462261119 -0.20217133576560289 0 0.21722062693650279 -0.2226466586169516 0 0.23934418379307471 -0.18436482883247621 0 0.22308479462261119 -0.20217133576560289 0 0.21237941264848451 -0.18810475376770611 0 0.23934418379307471 -0.18436482883247621 0 0.23907695871134879 -0.21289681242661959 0 0.22308479462261119 -0.20217133576560289 0 0.25037283077400019 -0.2416092145933311 0 0.23239962387573149 -0.2337287944253621 0 0.2339549802858914 -0.24933471903745599 0 0.25658827463044448 -0.2222138965281123 0 0.23907695871134879 -0.21289681242661959 0 0.2446094219978813 -0.2276121794933563 0 0.25037283077400019 -0.2416092145933311 0 0.2446094219978813 -0.2276121794933563 0 0.23239962387573149 -0.2337287944253621 0 0.23907695871134879 -0.21289681242661959 0 0.2446094219978813 -0.2276121794933563 0 0.23239962387573149 -0.2337287944253621 0 0.23907695871134879 -0.21289681242661959 0 0.23239962387573149 -0.2337287944253621 0 0.21722062693650279 -0.2226466586169516 0 0.23239962387573149 -0.2337287944253621 0 0.2194561222393229 -0.23682627783696539 0 0.21722062693650279 -0.2226466586169516 0 0.23239962387573149 -0.2337287944253621 0 0.22502312889380549 -0.2426362774769398 0 0.2339549802858914 -0.24933471903745599 0 0.2194561222393229 -0.23682627783696539 0 0.22502312889380549 -0.2426362774769398 0 0.21456577207223029 -0.24270171036535029 0 0.23239962387573149 -0.2337287944253621 0 0.2194561222393229 -0.23682627783696539 0 0.22502312889380549 -0.2426362774769398 0 0.22331750647786899 -0.25281133177650322 0 0.22502312889380549 -0.2426362774769398 0 0.21456577207223029 -0.24270171036535029 0 0.22331750647786899 -0.25281133177650322 0 0.22502312889380549 -0.2426362774769398 0 0.2339549802858914 -0.24933471903745599 0 0.2084475354763706 -0.25511513831035743 0 0.2080714594183444 -0.2424179483002232 0 0.21336353465090491 -0.24693864317134839 0 0.2080714594183444 -0.2424179483002232 0 0.21336353465090491 -0.24693864317134839 0 0.2080714594183444 -0.2424179483002232 0 0.21336353465090491 -0.24693864317134839 0 0.21456577207223029 -0.24270171036535029 0 0.2194561222393229 -0.23682627783696539 0 0.2080714594183444 -0.2424179483002232 0 0.21456577207223029 -0.24270171036535029 0 0.21722062693650279 -0.2226466586169516 0 0.20244123733496699 -0.2260211367091485 0 0.19848523837712481 -0.2136299623964425 0 0.2080714594183444 -0.2424179483002232 0 0.21722062693650279 -0.2226466586169516 0 0.2194561222393229 -0.23682627783696539 0 0.2080714594183444 -0.2424179483002232 0 0.21722062693650279 -0.2226466586169516 0 0.2080714594183444 -0.2424179483002232 0 0.21722062693650279 -0.2226466586169516 0 0.20244123733496699 -0.2260211367091485 0 0.2080714594183444 -0.2424179483002232 0 0.18716213711817259 -0.22455639835484539 0 0.2080714594183444 -0.2424179483002232 0 0.20244123733496699 -0.2260211367091485 0 0.18716213711817259 -0.22455639835484539 0 0.20244123733496699 -0.2260211367091485 0 0.19848523837712481 -0.2136299623964425 0 0.18716213711817259 -0.22455639835484539 0 0.2080714594183444 -0.2424179483002232 0 0.19254414318066221 -0.24961624770678509 0 0.1866817818972302 -0.23981118877977231 0 0.2080714594183444 -0.2424179483002232 0 0.1866817818972302 -0.23981118877977231 0 0.18716213711817259 -0.22455639835484539 0 0.19254414318066221 -0.24961624770678509 0 0.18399505531774341 -0.24981832115951039 0 0.1866817818972302 -0.23981118877977231 0 0.21237941264848451 -0.18810475376770611 0 0.20793523744788639 -0.20366419955677639 0 0.19447652973028121 -0.19759128756789451 0 0.22308479462261119 -0.20217133576560289 0 0.21237941264848451 -0.18810475376770611 0 0.20793523744788639 -0.20366419955677639 0 0.22308479462261119 -0.20217133576560289 0 0.21722062693650279 -0.2226466586169516 0 0.20793523744788639 -0.20366419955677639 0 0.21722062693650279 -0.2226466586169516 0 0.20793523744788639 -0.20366419955677639 0 0.19848523837712481 -0.2136299623964425 0 0.19848523837712481 -0.2136299623964425 0 0.19447652973028121 -0.19759128756789451 0 0.1831457957419608 -0.2071674304332729 0 0.20793523744788639 -0.20366419955677639 0 0.19848523837712481 -0.2136299623964425 0 0.19447652973028121 -0.19759128756789451 0 0.19848523837712481 -0.2136299623964425 0 0.1831457957419608 -0.2071674304332729 0 0.18716213711817259 -0.22455639835484539 0 0.19629081049063871 -0.1815365299480412 0 0.19447652973028121 -0.19759128756789451 0 0.1840061663436266 -0.1900566622106199 0 0.19629081049063871 -0.1815365299480412 0 0.21237941264848451 -0.18810475376770611 0 0.19447652973028121 -0.19759128756789451 0 0.19447652973028121 -0.19759128756789451 0 0.1840061663436266 -0.1900566622106199 0 0.1831457957419608 -0.2071674304332729 0 0.1840061663436266 -0.1900566622106199 0 0.1831457957419608 -0.2071674304332729 0 0.16486725365112659 -0.18785963188663279 0 0.1831457957419608 -0.2071674304332729 0 0.16486725365112659 -0.18785963188663279 0 0.1831457957419608 -0.2071674304332729 0 0.16625281481800089 -0.2066948484094672 0 0.18716213711817259 -0.22455639835484539 0 0.16625281481800089 -0.2066948484094672 0 0.18716213711817259 -0.22455639835484539 0 0.16625281481800089 -0.2066948484094672 0 0.18716213711817259 -0.22455639835484539 0 0.16937657335138201 -0.22198425569814831 0 0.16625281481800089 -0.2066948484094672 0 0.15661990237239229 -0.21733625041789439 0 0.14909823278687431 -0.20687378182447139 0 0.16625281481800089 -0.2066948484094672 0 0.15661990237239229 -0.21733625041789439 0 0.16937657335138201 -0.22198425569814831 0 0.1831457957419608 -0.2071674304332729 0 0.16625281481800089 -0.2066948484094672 0 0.16486725365112659 -0.18785963188663279 0 0.16625281481800089 -0.2066948484094672 0 0.16486725365112659 -0.18785963188663279 0 0.14534349251782941 -0.188833298464089 0 0.17619278994504239 -0.24587918172992959 0 0.18399505531774341 -0.24981832115951039 0 0.1866817818972302 -0.23981118877977231 0 0.17619278994504239 -0.24587918172992959 0 0.17450151464944069 -0.23276490516368609 0 0.16609645978724119 -0.24143951784646769 0 0.17619278994504239 -0.24587918172992959 0 0.1866817818972302 -0.23981118877977231 0 0.17450151464944069 -0.23276490516368609 0 0.17450151464944069 -0.23276490516368609 0 0.18716213711817259 -0.22455639835484539 0 0.16937657335138201 -0.22198425569814831 0 0.1866817818972302 -0.23981118877977231 0 0.17450151464944069 -0.23276490516368609 0 0.18716213711817259 -0.22455639835484539 0 0.15661990237239229 -0.21733625041789439 0 0.1623464977989032 -0.22856887614484861 0 0.15090654410468329 -0.22688320449844629 0 0.15661990237239229 -0.21733625041789439 0 0.16937657335138201 -0.22198425569814831 0 0.1623464977989032 -0.22856887614484861 0 0.17450151464944069 -0.23276490516368609 0 0.1623464977989032 -0.22856887614484861 0 0.16609645978724119 -0.24143951784646769 0 0.17450151464944069 -0.23276490516368609 0 0.16937657335138201 -0.22198425569814831 0 0.1623464977989032 -0.22856887614484861 0 0.1623464977989032 -0.22856887614484861 0 0.16609645978724119 -0.24143951784646769 0 0.1528270009437688 -0.23836283418195289 0 0.16001236861667459 -0.2513654190734112 0 0.16609645978724119 -0.24143951784646769 0 0.1528270009437688 -0.23836283418195289 0 0.16978669848249819 -0.25098739912941831 0 0.17619278994504239 -0.24587918172992959 0 0.16609645978724119 -0.24143951784646769 0 0.16001236861667459 -0.2513654190734112 0 0.16978669848249819 -0.25098739912941831 0 0.16609645978724119 -0.24143951784646769 0 0.1429630926125974 -0.2502577086919005 0 0.16001236861667459 -0.2513654190734112 0 0.1528270009437688 -0.23836283418195289 0 0.1429630926125974 -0.2502577086919005 0 0.1528270009437688 -0.23836283418195289 0 0.13988621804673579 -0.23152362256679451 0 0.1528270009437688 -0.23836283418195289 0 0.15090654410468329 -0.22688320449844629 0 0.13988621804673579 -0.23152362256679451 0 0.1623464977989032 -0.22856887614484861 0 0.1528270009437688 -0.23836283418195289 0 0.15090654410468329 -0.22688320449844629 0 0.15661990237239229 -0.21733625041789439 0 0.15090654410468329 -0.22688320449844629 0 0.1428531013616163 -0.21862443918074129 0 0.15090654410468329 -0.22688320449844629 0 0.13988621804673579 -0.23152362256679451 0 0.1428531013616163 -0.21862443918074129 0 0.12018370186474731 -0.23305432747703519 0 0.12895394136930069 -0.22163642029703709 0 0.13988621804673579 -0.23152362256679451 0 0.12895394136930069 -0.22163642029703709 0 0.13988621804673579 -0.23152362256679451 0 0.1428531013616163 -0.21862443918074129 0 0.1429630926125974 -0.2502577086919005 0 0.12018370186474731 -0.23305432747703519 0 0.1429630926125974 -0.2502577086919005 0 0.12018370186474731 -0.23305432747703519 0 0.13988621804673579 -0.23152362256679451 0 0.13217397618885759 -0.25462043987800831 0 0.1429630926125974 -0.2502577086919005 0 0.12018370186474731 -0.23305432747703519 0 0.16625281481800089 -0.2066948484094672 0 0.14534349251782941 -0.188833298464089 0 0.16625281481800089 -0.2066948484094672 0 0.14534349251782941 -0.188833298464089 0 0.14909823278687431 -0.20687378182447139 0 0.14534349251782941 -0.188833298464089 0 0.14909823278687431 -0.20687378182447139 0 0.1346280568372662 -0.20359450925845249 0 0.15661990237239229 -0.21733625041789439 0 0.14909823278687431 -0.20687378182447139 0 0.1428531013616163 -0.21862443918074129 0 0.14909823278687431 -0.20687378182447139 0 0.1428531013616163 -0.21862443918074129 0 0.1346280568372662 -0.20359450925845249 0 0.1178461100078927 -0.20838697738218431 0 0.12895394136930069 -0.22163642029703709 0 0.1346280568372662 -0.20359450925845249 0 0.12895394136930069 -0.22163642029703709 0 0.1428531013616163 -0.21862443918074129 0 0.1346280568372662 -0.20359450925845249 0 0.14534349251782941 -0.188833298464089 0 0.1346280568372662 -0.20359450925845249 0 0.13128332926409281 -0.18787359724935929 0 0.1237689835273371 -0.19605207676116951 0 0.1178461100078927 -0.20838697738218431 0 0.1346280568372662 -0.20359450925845249 0 0.1237689835273371 -0.19605207676116951 0 0.1346280568372662 -0.20359450925845249 0 0.13128332926409281 -0.18787359724935929 0 0.1237689835273371 -0.19605207676116951 0 0.1232013989280239 -0.1819146573535104 0 0.13128332926409281 -0.18787359724935929 0 0.12443417021765769 -0.1709717485187108 0 0.14534349251782941 -0.188833298464089 0 0.12443417021765769 -0.1709717485187108 0 0.1232013989280239 -0.1819146573535104 0 0.13128332926409281 -0.18787359724935929 0 0.12443417021765769 -0.1709717485187108 0 0.14534349251782941 -0.188833298464089 0 0.13128332926409281 -0.18787359724935929 0 0.12443417021765769 -0.1709717485187108 0 0.14534349251782941 -0.188833298464089 0 0.13540865390058859 -0.1688207667960602 0 0.14534349251782941 -0.188833298464089 0 0.14658871156029241 -0.16855183333999291 0 0.13540865390058859 -0.1688207667960602 0 0.16486725365112659 -0.18785963188663279 0 0.14658871156029241 -0.16855183333999291 0 0.16486725365112659 -0.18785963188663279 0 0.14534349251782941 -0.188833298464089 0 0.14658871156029241 -0.16855183333999291 0 0.14658871156029241 -0.16855183333999291 0 0.13391177650968769 -0.15242347890466901 0 0.14971917460686079 -0.1530450482394467 0 0.14658871156029241 -0.16855183333999291 0 0.14971917460686079 -0.1530450482394467 0 0.16192904395431579 -0.15800089119817939 0 0.14658871156029241 -0.16855183333999291 0 0.13391177650968769 -0.15242347890466901 0 0.12831016946945831 -0.1492440347933528 0 0.14658871156029241 -0.16855183333999291 0 0.12831016946945831 -0.1492440347933528 0 0.14658871156029241 -0.16855183333999291 0 0.13540865390058859 -0.1688207667960602 0 0.1290045142054978 -0.1612372837293575 0 0.14658871156029241 -0.16855183333999291 0 0.1290045142054978 -0.1612372837293575 0 0.12831016946945831 -0.1492440347933528 0 0.13540865390058859 -0.1688207667960602 0 0.12715697753007521 -0.16591248018761531 0 0.1290045142054978 -0.1612372837293575 0 0.12443417021765769 -0.1709717485187108 0 0.13540865390058859 -0.1688207667960602 0 0.12715697753007521 -0.16591248018761531 0 0.12098675462827781 -0.16200852072179159 0 0.12715697753007521 -0.16591248018761531 0 0.1290045142054978 -0.1612372837293575 0 0.12324902196630889 -0.15465793599018671 0 0.1227471198665283 -0.15880086614903269 0 0.1290045142054978 -0.1612372837293575 0 0.13391177650968769 -0.15242347890466901 0 0.12831016946945831 -0.1492440347933528 0 0.12532898621889721 -0.13663811256420449 0 0.12324902196630889 -0.15465793599018671 0 0.1290045142054978 -0.1612372837293575 0 0.12831016946945831 -0.1492440347933528 0 0.1217036921304827 -0.1482443959076799 0 0.12831016946945831 -0.1492440347933528 0 0.12532898621889721 -0.13663811256420449 0 0.13391177650968769 -0.15242347890466901 0 0.13188977167139071 -0.12546883223523481 0 0.13391177650968769 -0.15242347890466901 0 0.13188977167139071 -0.12546883223523481 0 0.1446303542042412 -0.1380662602394005 0 0.13391177650968769 -0.15242347890466901 0 0.13188977167139071 -0.12546883223523481 0 0.12532898621889721 -0.13663811256420449 0 0.11997683785091839 -0.1276371159963853 0 0.13188977167139071 -0.12546883223523481 0 0.12532898621889721 -0.13663811256420449 0 0.1446303542042412 -0.1380662602394005 0 0.15557261582888751 -0.13003178131142151 0 0.1621281360659286 -0.14191921566573409 0 0.14724036225017881 -0.1245170930860646 0 0.13188977167139071 -0.12546883223523481 0 0.1446303542042412 -0.1380662602394005 0 0.14724036225017881 -0.1245170930860646 0 0.1446303542042412 -0.1380662602394005 0 0.15557261582888751 -0.13003178131142151 0 0.13391177650968769 -0.15242347890466901 0 0.1446303542042412 -0.1380662602394005 0 0.14971917460686079 -0.1530450482394467 0 0.1446303542042412 -0.1380662602394005 0 0.14971917460686079 -0.1530450482394467 0 0.1621281360659286 -0.14191921566573409 0 0.1621281360659286 -0.14191921566573409 0 0.17324983187337631 -0.13165498831909611 0 0.17651024624945799 -0.1485415537171802 0 0.14971917460686079 -0.1530450482394467 0 0.1621281360659286 -0.14191921566573409 0 0.16192904395431579 -0.15800089119817939 0 0.1621281360659286 -0.14191921566573409 0 0.17651024624945799 -0.1485415537171802 0 0.16192904395431579 -0.15800089119817939 0 0.16471491079178111 -0.1205264202314431 0 0.15557261582888751 -0.13003178131142151 0 0.1639163736399934 -0.1310331013819237 0 0.15557261582888751 -0.13003178131142151 0 0.1621281360659286 -0.14191921566573409 0 0.1639163736399934 -0.1310331013819237 0 0.1621281360659286 -0.14191921566573409 0 0.1639163736399934 -0.1310331013819237 0 0.17324983187337631 -0.13165498831909611 0 0.16471491079178111 -0.1205264202314431 0 0.1639163736399934 -0.1310331013819237 0 0.17324983187337631 -0.13165498831909611 0 0.1862357176231304 -0.1238823921021804 0 0.1919305776748628 -0.1461990482496055 0 0.17324983187337631 -0.13165498831909611 0 0.1919305776748628 -0.1461990482496055 0 0.17324983187337631 -0.13165498831909611 0 0.17651024624945799 -0.1485415537171802 0 0.1919305776748628 -0.1461990482496055 0 0.19225769977326759 -0.16432491474026781 0 0.17651024624945799 -0.1485415537171802 0 0.19225769977326759 -0.16432491474026781 0 0.17526083145963689 -0.16308053239281189 0 0.17982600751226671 -0.1762593337595659 0 0.19225769977326759 -0.16432491474026781 0 0.17651024624945799 -0.1485415537171802 0 0.17526083145963689 -0.16308053239281189 0 0.17526083145963689 -0.16308053239281189 0 0.17982600751226671 -0.1762593337595659 0 0.16627328335530381 -0.17069773137902189 0 0.1840061663436266 -0.1900566622106199 0 0.16486725365112659 -0.18785963188663279 0 0.17982600751226671 -0.1762593337595659 0 0.19629081049063871 -0.1815365299480412 0 0.1840061663436266 -0.1900566622106199 0 0.17982600751226671 -0.1762593337595659 0 0.16486725365112659 -0.18785963188663279 0 0.14658871156029241 -0.16855183333999291 0 0.16627328335530381 -0.17069773137902189 0 0.16486725365112659 -0.18785963188663279 0 0.17982600751226671 -0.1762593337595659 0 0.16627328335530381 -0.17069773137902189 0 0.14658871156029241 -0.16855183333999291 0 0.16192904395431579 -0.15800089119817939 0 0.16627328335530381 -0.17069773137902189 0 0.17526083145963689 -0.16308053239281189 0 0.16192904395431579 -0.15800089119817939 0 0.16627328335530381 -0.17069773137902189 0 0.17651024624945799 -0.1485415537171802 0 0.17526083145963689 -0.16308053239281189 0 0.16192904395431579 -0.15800089119817939 0 
</DataArray>
</Points>
<Cells>
<DataArray type="UInt32" Name="connectivity" format="ascii">
0 1 2 3 4 5 6 7 8 9 10 11 12 13 14 15 16 17 18 19 20 21 22 23 24 25 26 27 28 29 30 31 32 33 34 35 36 37 38 39 40 41 42 43 44 45 46 47 48 49 50 51 52 53 54 55 56 57 58 59 60 61 62 63 64 65 66 67 68 69 70 71 72 73 74 75 76 77 78 79 80 81 82 83 84 85 86 87 88 89 90 91 92 93 94 95 96 97 98 99 100 101 102 103 104 105 106 107 108 109 110 111 112 113 114 115 116 117 118 119 120 121 122 123 124 125 126 127 128 129 130 131 132 133 134 135 136 137 138 139 140 141 142 143 144 145 146 147 148 149 150 151 152 153 154 155 156 157 158 159 160 161 162 163 164 165 166 167 168 169 170 171 172 173 174 175 176 177 178 179 180 181 182 183 184 185 186 187 188 189 190 191 192 193 194 195 196 197 198 199 200 201 202 203 204 205 206 207 208 209 210 211 212 213 214 215 216 217 218 219 220 221 222 223 224 225 226 227 228 229 230 231 232 233 234 235 236 237 238 239 240 241 242 243 244 245 246 247 248 249 250 251 252 253 254 255 256 257 258 259 260 261 262 263 264 265 266 267 268 269 270 271 272 273 274 275 276 277 278 279 280 281 282 283 284 285 286 287 288 289 290 291 292 293 294 295 296 297 298 299 300 301 302 303 304 305 306 307 308 309 310 311 312 313 314 315 316 317 318 319 320 321 322 323 324 325 326 327 328 329 330 331 332 333 334 335 336 337 338 339 340 341 342 343 344 345 346 347 348 349 350 351 352 353 354 355 356 357 358 359 360 361 362 363 364 365 366 367 368 369 370 371 372 373 374 375 376 377 378 379 380 381 382 383 384 385 386 387 388 389 390 391 392 393 394 395 396 397 398 399 400 401 402 403 404 405 406 407 408 409 410 411 412 413 414 415 416 417 418 419 420 421 422 423 424 425 426 427 428 429 430 431 432 433 434 435 436 437 438 439 440 441 442 443 444 445 446 447 448 449 450 451 452 453 454 455 456 457 458 459 460 461 462 463 464 465 466 467 468 469 470 471 472 473 474 475 476 477 478 479 480 481 482 483 484 485 486 487 488 489 490 491 492 493 494 495 496 497 498 499 500 501 502 503 504 505 506 507 508 509 510 511 512 513 514 515 516 517 518 519 520 521 522 523 524 525 526 527 528 529 530 531 532 533 534 535 536 537 538 539 540 541 542 543 544 545 546 547 548 549 550 551 552 553 554 555 556 557 558 559 560 561 562 563 564 565 566 567 568 569 570 571 572 573 574 575 576 577 578 579 580 581 582 583 584 585 586 587 588 589 590 591 592 593 594 595 596 597 598 599 600 601 602 603 604 605 606 607 608 609 610 611 612 613 614 615 616 617 618 619 620 621 622 623 624 625 626 627 628 629 630 631 632 633 634 635 636 637 638 639 640 641 642 643 644 645 646 647 648 649 650 651 652 653 654 655 656 657 658 659 660 661 662 663 664 665 666 667 668 669 670 671 672 673 674 675 676 677 678 679 680 681 682 683 684 685 686 687 688 689 690 691 692 693 694 695 696 697 698 699 700 701 702 703 704 705 706 707 708 709 710 711 712 713 714 715 716 717 718 719 720 721 722 723 724 725 726 727 728 729 730 731 732 733 734 735 736 737 738 739 740 741 742 743 744 745 746 747 748 749 750 751 752 753 754 755 756 757 758 759 760 761 762 763 764 765 766 767 768 769 770 771 772 773 774 775 776 777 778 779 780 781 782 783 784 785 786 787 788 789 790 791 792 793 794 795 796 797 798 799 800 801 802 803 804 805 806 807 808 809 810 811 812 813 814 815 816 817 818 819 820 821 822 823 824 825 826 827 828 829 830 831 832 833 834 835 836 837 838 839 840 841 842 843 844 845 846 847 848 849 850 851 852 853 854 855 856 857 858 859 860 861 862 863 864 865 866 867 868 869 870 871 872 873 874 875 876 877 878 879 880 881 882 883 884 885 886 887 888 889 890 891 892 893 894 895 896 897 898 899 900 901 902 903 904 905 906 907 908 909 910 911 912 913 914 915 916 917 918 919 920 921 922 923 924 925 926 927 928 929 930 931 932 933 934 935 936 937 938 939 940 941 942 943 944 945 946 947 948 949 950 951 952 953 954 955 956 957 958 959 960 961 962 963 964 965 966 967 968 969 970 971 972 973 974 975 976 977 978 979 980 981 982 983 984 985 986 987 988 989 990 991 992 993 994 995 996 997 998 999 1000 1001 1002 1003 1004 1005 1006 1007 1008 1009 1010 1011 1012 1013 1014 1015 1016 1017 1018 1019 1020 1021 1022 1023 1024 1025 1026 1027 1028 1029 1030 1031 1032 1033 1034 1035 1036 1037 1038 1039 1040 1041 1042 1043 1044 1045 1046 1047 1048 1049 1050 1051 1052 1053 1054 1055 1056 1057 1058 1059 1060 1061 1062 1063 1064 1065 1066 1067 1068 1069 1070 1071 1072 1073 1074 1075 1076 1077 1078 1079 1080 1081 1082 1083 1084 1085 1086 1087 1088 1089 1090 1091 1092 1093 1094 1095 1096 1097 1098 1099 1100 1101 1102 1103 1104 1105 1106 1107 1108 1109 1110 1111 1112 1113 1114 1115 1116 1117 1118 1119 1120 1121 1122 1123 1124 1125 1126 1127 1128 1129 1130 1131 1132 1133 1134 1135 1136 1137 1138 1139 1140 1141 1142 1143 1144 1145 1146 1147 1148 1149 1150 1151 1152 1153 1154 1155 1156 1157 1158 1159 1160 1161 1162 1163 1164 1165 1166 1167 1168 1169 1170 1171 1172 1173 1174 1175 1176 1177 1178 1179 1180 1181 1182 1183 1184 1185 1186 1187 1188 1189 1190 1191 1192 1193 1194 1195 1196 1197 1198 1199 1200 1201 1202 1203 1204 1205 1206 1207 1208 1209 1210 1211 1212 1213 1214 1215 1216 1217 1218 1219 1220 1221 1222 1223 1224 1225 1226 1227 1228 1229 1230 1231 1232 1233 1234 1235 1236 1237 1238 1239 1240 1241 1242 1243 1244 1245 1246 1247 1248 1249 1250 1251 1252 1253 1254 1255 1256 1257 1258 1259 1260 1261 1262 1263 1264 1265 1266 1267 1268 1269 1270 1271 1272 1273 1274 1275 1276 1277 1278 1279 1280 1281 1282 1283 1284 1285 1286 1287 1288 1289 1290 1291 1292 1293 1294 1295 1296 1297 1298 1299 1300 1301 1302 1303 1304 1305 1306 1307 1308 1309 1310 1311 1312 1313 1314 1315 1316 1317 1318 1319 1320 1321 1322 1323 1324 1325 1326 1327 1328 1329 1330 1331 1332 1333 1334 1335 1336 1337 1338 1339 1340 1341 1342 1343 1344 1345 1346 1347 1348 1349 1350 1351 1352 1353 1354 1355 1356 1357 1358 1359 1360 1361 1362 1363 1364 1365 1366 1367 1368 1369 1370 1371 1372 1373 1374 1375 1376 1377 1378 1379 1380 1381 1382 1383 1384 1385 1386 1387 1388 1389 1390 1391 1392 1393 1394 1395 1396 1397 1398 1399 1400 1401 1402 1403 1404 1405 1406 1407 1408 1409 1410 1411 1412 1413 1414 1415 1416 1417 1418 1419 1420 1421 1422 1423 1424 1425 1426 1427 1428 1429 1430 1431 1432 1433 1434 1435 1436 1437 1438 1439 1440 1441 1442 1443 1444 1445 1446 1447 1448 1449 1450 1451 1452 1453 1454 1455 1456 1457 1458 1459 1460 1461 1462 1463 1464 1465 1466 1467 1468 1469 1470 1471 1472 1473 1474 1475 1476 1477 1478 1479 1480 1481 1482 1483 1484 1485 1486 1487 1488 1489 1490 1491 1492 1493 1494 1495 1496 1497 1498 1499 1500 1501 1502 1503 1504 1505 1506 1507 1508 1509 1510 1511 1512 1513 1514 1515 1516 1517 1518 1519 1520 1521 1522 1523 1524 1525 1526 1527 1528 1529 1530 1531 1532 1533 1534 1535 1536 1537 1538 1539 1540 1541 1542 1543 1544 1545 1546 1547 1548 1549 1550 1551 1552 1553 1554 1555 1556 1557 1558 1559 1560 1561 1562 1563 1564 1565 1566 1567 1568 1569 1570 1571 1572 1573 1574 1575 1576 1577 1578 1579 1580 1581 1582 1583 1584 1585 1586 1587 1588 1589 1590 1591 1592 1593 1594 1595 1596 1597 1598 1599 1600 1601 1602 1603 1604 1605 1606 1607 1608 1609 1610 1611 1612 1613 1614 1615 1616 1617 1618 1619 1620 1621 1622 1623 1624 1625 1626 1627 1628 1629 1630 1631 1632 1633 1634 1635 1636 1637 1638 1639 1640 1641 1642 1643 1644 1645 1646 1647 1648 1649 1650 1651 1652 1653 1654 1655 1656 1657 1658 1659 1660 1661 1662 1663 1664 1665 1666 1667 1668 1669 1670 1671 1672 1673 1674 1675 1676 1677 1678 1679 1680 1681 1682 1683 1684 1685 1686 1687 1688 1689 1690 1691 1692 1693 1694 1695 1696 1697 1698 1699 1700 1701 1702 1703 1704 1705 1706 1707 1708 1709 1710 1711 1712 1713 1714 1715 1716 1717 1718 1719 1720 1721 1722 1723 1724 1725 1726 1727 1728 1729 1730 1731 1732 1733 1734 1735 1736 1737 1738 1739 1740 1741 1742 1743 1744 1745 1746 1747 1748 1749 1750 1751 1752 1753 1754 1755 1756 1757 1758 1759 1760 1761 1762 1763 1764 1765 1766 1767 1768 1769 1770 1771 1772 1773 1774 1775 1776 1777 1778 1779 1780 1781 1782 1783 1784 1785 1786 1787 1788 1789 1790 1791 1792 1793 1794 1795 1796 1797 1798 1799 1800 1801 1802 1803 1804 1805 1806 1807 1808 1809 1810 1811 1812 1813 1814 1815 1816 1817 1818 1819 1820 1821 1822 1823 1824 1825 1826 1827 1828 1829 1830 1831 1832 1833 1834 1835 1836 1837 1838 1839 1840 1841 1842 1843 1844 1845 1846 1847 1848 1849 1850 1851 1852 1853 1854 1855 1856 1857 1858 1859 1860 1861 1862 1863 1864 1865 1866 1867 1868 1869 1870 1871 1872 1873 1874 1875 1876 1877 1878 1879 1880 1881 1882 1883 1884 1885 1886 1887 1888 1889 1890 1891 1892 1893 1894 1895 1896 1897 1898 1899 1900 1901 1902 1903 1904 1905 1906 1907 1908 1909 1910 1911 1912 1913 1914 1915 1916 1917 1918 1919 1920 1921 1922 1923 1924 1925 1926 1927 1928 1929 1930 1931 1932 1933 1934 1935 1936 1937 1938 1939 1940 1941 1942 1943 1944 1945 1946 1947 1948 1949 1950 1951 1952 1953 1954 1955 1956 1957 1958 1959 1960 1961 1962 1963 1964 1965 1966 1967 1968 1969 1970 1971 1972 1973 1974 1975 1976 1977 1978 1979 1980 1981 1982 1983 1984 1985 1986 1987 1988 1989 1990 1991 1992 1993 1994 1995 1996 1997 1998 1999 2000 2001 2002 2003 2004 2005 2006 2007 2008 2009 2010 2011 2012 2013 2014 2015 2016 2017 2018 2019 2020 2021 2022 2023 2024 2025 2026 2027 2028 2029 2030 2031 2032 2033 2034 2035 2036 2037 2038 2039 2040 2041 2042 2043 2044 2045 2046 2047 2048 2049 2050 2051 2052 2053 2054 2055 2056 2057 2058 2059 2060 2061 2062 2063 2064 2065 2066 2067 2068 2069 2070 2071 2072 2073 2074 2075 2076 2077 2078 2079 2080 2081 2082 2083 2084 2085 2086 2087 2088 2089 2090 2091 2092 2093 2094 2095 2096 2097 2098 2099 2100 2101 2102 2103 2104 2105 2106 2107 2108 2109 2110 2111 2112 2113 2114 2115 2116 2117 2118 2119 2120 2121 2122 2123 2124 2125 2126 2127 2128 2129 2130 2131 2132 2133 2134 2135 2136 2137 2138 2139 2140 2141 2142 2143 2144 2145 2146 2147 2148 2149 2150 2151 2152 2153 2154 2155 2156 2157 2158 2159 2160 2161 2162 2163 2164 2165 2166 2167 2168 2169 2170 2171 2172 2173 2174 2175 2176 2177 2178 2179 2180 2181 2182 2183 2184 2185 2186 2187 2188 2189 2190 2191 2192 2193 2194 2195 2196 2197 2198 2199 2200 2201 2202 2203 2204 2205 2206 2207 2208 2209 2210 2211 2212 2213 2214 2215 2216 2217 2218 2219 2220 2221 2222 2223 2224 2225 2226 2227 2228 2229 2230 2231 2232 2233 2234 2235 2236 2237 2238 2239 2240 2241 2242 2243 2244 2245 2246 2247 2248 2249 2250 2251 2252 2253 2254 2255 2256 2257 2258 2259 2260 2261 2262 2263 2264 2265 2266 2267 2268 2269 2270 2271 2272 2273 2274 2275 2276 2277 2278 2279 2280 2281 2282 2283 2284 2285 2286 2287 2288 2289 2290 2291 2292 2293 2294 2295 2296 2297 2298 2299 2300 2301 2302 2303 2304 2305 2306 2307 2308 2309 2310 2311 2312 2313 2314 2315 2316 2317 2318 2319 2320 2321 2322 2323 2324 2325 2326 2327 2328 2329 2330 2331 2332 2333 2334 2335 2336 2337 2338 2339 2340 2341 2342 2343 2344 2345 2346 2347 2348 2349 2350 2351 2352 2353 2354 2355 2356 2357 2358 2359 2360 2361 2362 2363 2364 2365 2366 2367 2368 2369 2370 2371 2372 2373 2374 2375 2376 2377 2378 2379 2380 2381 2382 2383 2384 2385 2386 2387 2388 2389 2390 2391 2392 2393 2394 2395 2396 2397 2398 2399 2400 2401 2402 2403 2404 2405 2406 2407 2408 2409 2410 2411 2412 2413 2414 2415 2416 2417 2418 2419 2420 2421 2422 2423 2424 2425 2426 2427 2428 2429 2430 2431 2432 2433 2434 2435 2436 2437 2438 2439 2440 2441 2442 2443 2444 2445 2446 2447 2448 2449 2450 2451 2452 2453 2454 2455 2456 2457 2458 2459 2460 2461 2462 2463 2464 2465 2466 2467 2468 2469 2470 2471 2472 2473 2474 2475 2476 2477 2478 2479 2480 2481 2482 2483 2484 2485 2486 2487 2488 2489 2490 2491 2492 2493 2494 2495 2496 2497 2498 2499 2500 2501 2502 2503 2504 2505 2506 2507 2508 2509 2510 2511 2512 2513 2514 2515 2516 2517 2518 2519 2520 2521 2522 2523 2524 2525 2526 2527 2528 2529 2530 2531 2532 2533 2534 2535 2536 2537 2538 2539 2540 2541 2542 2543 2544 2545 2546 2547 2548 2549 2550 2551 2552 2553 2554 2555 2556 2557 2558 2559 2560 2561 2562 2563 2564 2565 2566 2567 2568 2569 2570 2571 2572 2573 2574 2575 2576 2577 2578 2579 2580 2581 2582 2583 2584 2585 2586 2587 2588 2589 2590 2591 2592 2593 2594 2595 2596 2597 2598 2599 2600 2601 2602 2603 2604 2605 2606 2607 2608 2609 2610 2611 2612 2613 2614 2615 2616 2617 2618 2619 2620 2621 2622 2623 2624 2625 2626 2627 2628 2629 2630 2631 2632 2633 2634 2635 2636 2637 2638 2639 2640 2641 2642 2643 2644 2645 2646 2647 2648 2649 2650 2651 2652 2653 2654 2655 2656 2657 2658 2659 2660 2661 2662 2663 2664 2665 2666 2667 2668 2669 2670 2671 2672 2673 2674 2675 2676 2677 2678 2679 2680 2681 2682 2683 2684 2685 2686 2687 2688 2689 2690 2691 2692 2693 2694 2695 2696 2697 2698 2699 2700 2701 2702 2703 2704 2705 2706 2707 2708 2709 2710 2711 2712 2713 2714 2715 2716 2717 2718 2719 2720 2721 2722 2723 2724 2725 2726 2727 2728 2729 2730 2731 2732 2733 2734 2735 2736 2737 2738 2739 2740 2741 2742 2743 2744 2745 2746 2747 2748 2749 2750 2751 2752 2753 2754 2755 2756 2757 2758 2759 2760 2761 2762 2763 2764 2765 2766 2767 2768 2769 2770 2771 2772 2773 2774 2775 2776 2777 2778 2779 2780 2781 2782 2783 2784 2785 2786 2787 2788 2789 2790 2791 2792 2793 2794 2795 2796 2797 2798 2799 2800 2801 2802 2803 2804 2805 2806 2807 2808 2809 2810 2811 2812 2813 2814 2815 2816 2817 2818 2819 2820 2821 2822 2823 2824 2825 2826 2827 2828 2829 2830 2831 2832 2833 2834 2835 2836 2837 2838 2839 2840 2841 2842 2843 2844 2845 2846 2847 2848 2849 2850 2851 2852 2853 2854 2855 2856 2857 2858 2859 2860 2861 2862 2863 2864 2865 2866 2867 2868 2869 2870 2871 2872 2873 2874 2875 2876 2877 2878 2879 2880 2881 2882 2883 2884 2885 2886 2887 2888 2889 2890 2891 2892 2893 2894 2895 2896 2897 2898 2899 2900 2901 2902 2903 2904 2905 2906 2907 2908 2909 2910 2911 2912 2913 2914 2915 2916 2917 2918 2919 2920 2921 2922 2923 2924 2925 2926 2927 2928 2929 2930 2931 2932 2933 2934 2935 2936 2937 2938 2939 2940 2941 2942 2943 2944 2945 2946 2947 2948 2949 2950 2951 2952 2953 2954 2955 2956 2957 2958 2959 2960 2961 2962 2963 2964 2965 2966 2967 2968 2969 2970 2971 2972 2973 2974 2975 2976 2977 2978 2979 2980 2981 2982 2983 2984 2985 2986 2987 2988 2989 2990 2991 2992 2993 2994 2995 2996 2997 2998 2999 3000 3001 3002 3003 3004 3005 3006 3007 3008 3009 3010 3011 3012 3013 3014 3015 3016 3017 3018 3019 3020 3021 3022 3023 3024 3025 3026 3027 3028 3029 3030 3031 3032 3033 3034 3035 3036 3037 3038 3039 3040 3041 3042 3043 3044 3045 3046 3047 3048 3049 3050 3051 3052 3053 3054 3055 3056 3057 3058 3059 3060 3061 3062 3063 3064 3065 3066 3067 3068 3069 3070 3071 3072 3073 3074 3075 3076 3077 3078 3079 3080 3081 3082 3083 3084 3085 3086 3087 3088 3089 3090 3091 3092 3093 3094 3095 3096 3097 3098 3099 3100 3101 3102 3103 3104 3105 3106 3107 3108 3109 3110 3111 3112 3113 3114 3115 3116 3117 3118 3119 3120 3121 3122 3123 3124 3125 3126 3127 3128 3129 3130 3131 3132 3133 3134 3135 3136 3137 3138 3139 3140 3141 3142 3143 3144 3145 3146 3147 3148 3149 3150 3151 3152 3153 3154 3155 3156 3157 3158 3159 3160 3161 3162 3163 3164 3165 3166 3167 3168 3169 3170 3171 3172 3173 3174 3175 3176 3177 3178 3179 3180 3181 3182 3183 3184 3185 3186 3187 3188 3189 3190 3191 3192 3193 3194 3195 3196 3197 3198 3199 3200 3201 3202 3203 3204 3205 3206 3207 3208 3209 3210 3211 3212 3213 3214 3215 3216 3217 3218 3219 3220 3221 3222 3223 3224 3225 3226 3227 3228 3229 3230 3231 3232 3233 3234 3235 3236 3237 3238 3239 3240 3241 3242 3243 3244 3245 3246 3247 3248 3249 3250 3251 3252 3253 3254 3255 3256 3257 3258 3259 3260 3261 3262 3263 3264 3265 3266 3267 3268 3269 3270 3271 3272 3273 3274 3275 3276 3277 3278 3279 3280 3281 3282 3283 3284 3285 3286 3287 3288 3289 3290 3291 3292 3293 3294 3295 3296 3297 3298 3299 3300 3301 3302 3303 3304 3305 3306 3307 3308 3309 3310 3311 3312 3313 3314 3315 3316 3317 3318 3319 3320 3321 3322 3323 3324 3325 3326 3327 3328 3329 3330 3331 3332 3333 3334 3335 3336 3337 3338 3339 3340 3341 3342 3343 3344 3345 3346 3347 3348 3349 3350 3351 3352 3353 3354 3355 3356 3357 3358 3359 3360 3361 3362 3363 3364 3365 3366 3367 3368 3369 3370 3371 3372 3373 3374 3375 3376 3377 3378 3379 3380 3381 3382 3383 3384 3385 3386 3387 3388 3389 3390 3391 3392 3393 3394 3395 3396 3397 3398 3399 3400 3401 3402 3403 3404 3405 3406 3407 3408 3409 3410 3411 3412 3413 3414 3415 3416 3417 3418 3419 3420 3421 3422 3423 3424 3425 3426 3427 3428 3429 3430 3431 3432 3433 3434 3435 3436 3437 3438 3439 3440 3441 3442 3443 3444 3445 3446 3447 3448 3449 3450 3451 3452 3453 3454 3455 3456 3457 3458 3459 3460 3461 3462 3463 3464 3465 3466 3467 3468 3469 3470 3471 3472 3473 3474 3475 3476 3477 3478 3479 3480 3481 3482 3483 3484 3485 3486 3487 3488 3489 3490 3491 3492 3493 3494 3495 3496 3497 3498 3499 3500 3501 3502 3503 3504 3505 3506 3507 3508 3509 3510 3511 3512 3513 3514 3515 3516 3517 3518 3519 3520 3521 3522 3523 3524 3525 3526 3527 3528 3529 3530 3531 3532 3533 3534 3535 3536 3537 3538 3539 3540 3541 3542 3543 3544 3545 3546 3547 3548 3549 3550 3551 3552 3553 3554 3555 3556 3557 3558 3559 3560 3561 3562 3563 3564 3565 3566 3567 3568 3569 3570 3571 3572 3573 3574 3575 3576 3577 3578 3579 3580 3581 3582 3583 3584 3585 3586 3587 3588 3589 3590 3591 3592 3593 3594 3595 3596 3597 3598 3599 3600 3601 3602 3603 3604 3605 3606 3607 3608 3609 3610 3611 3612 3613 3614 3615 3616 3617 3618 3619 3620 3621 3622 3623 3624 3625 3626 3627 3628 3629 3630 3631 3632 3633 3634 3635 3636 3637 3638 3639 3640 3641 3642 3643 3644 3645 3646 3647 3648 3649 3650 3651 3652 3653 3654 3655 3656 3657 3658 3659 3660 3661 3662 3663 3664 3665 3666 3667 3668 3669 3670 3671 3672 3673 3674 3675 3676 3677 3678 3679 3680 3681 3682 3683 3684 3685 3686 3687 3688 3689 3690 3691 3692 3693 3694 3695 3696 3697 3698 3699 3700 3701 3702 3703 3704 3705 3706 3707 3708 3709 3710 3711 3712 3713 3714 3715 3716 3717 3718 3719 3720 3721 3722 3723 3724 3725 3726 3727 3728 3729 3730 3731 3732 3733 3734 3735 3736 3737 3738 3739 3740 3741 3742 3743 3744 3745 3746 3747 3748 3749 3750 3751 3752 3753 3754 3755 3756 3757 3758 3759 3760 3761 3762 3763 3764 3765 3766 3767 3768 3769 3770 3771 3772 3773 3774 3775 3776 3777 3778 3779 3780 3781 3782 3783 3784 3785 3786 3787 3788 3789 3790 3791 3792 3793 3794 3795 3796 3797 3798 3799 3800 3801 3802 3803 3804 3805 3806 3807 3808 3809 3810 3811 3812 3813 3814 3815 3816 3817 3818 3819 3820 3821 3822 3823 3824 3825 3826 3827 3828 3829 3830 3831 3832 3833 3834 3835 3836 3837 3838 3839 3840 3841 3842 3843 3844 3845 3846 3847 3848 3849 3850 3851 3852 3853 3854 3855 3856 3857 3858 3859 3860 3861 3862 3863 3864 3865 3866 3867 3868 3869 3870 3871 3872 3873 3874 3875 3876 3877 3878 3879 3880 3881 3882 3883 3884 3885 3886 3887 3888 3889 3890 3891 3892 3893 3894 3895 3896 3897 3898 3899 3900 3901 3902 3903 3904 3905 3906 3907 3908 3909 3910 3911 3912 3913 3914 3915 3916 3917 3918 3919 3920 3921 3922 3923 3924 3925 3926 3927 3928 3929 3930 3931 3932 3933 3934 3935 3936 3937 3938 3939 3940 3941 3942 3943 3944 3945 3946 3947 3948 3949 3950 3951 3952 3953 3954 3955 3956 3957 3958 3959 3960 3961 3962 3963 3964 3965 3966 3967 3968 3969 3970 3971 3972 3973 3974 3975 3976 3977 3978 3979 3980 3981 3982 3983 3984 3985 3986 3987 3988 3989 3990 3991 3992 3993 3994 3995 3996 3997 3998 3999 4000 4001 4002 4003 4004 4005 4006 4007 4008 4009 4010 4011 4012 4013 4014 4015 4016 4017 4018 4019 4020 4021 4022 4023 4024 4025 4026 4027 4028 4029 4030 4031 4032 4033 4034 4035 4036 4037 4038 4039 4040 4041 4042 4043 4044 4045 4046 4047 4048 4049 4050 4051 4052 4053 4054 4055 4056 4057 4058 4059 4060 4061 4062 4063 4064 4065 4066 4067 4068 4069 4070 4071 4072 4073 4074 4075 4076 4077 4078 4079 4080 4081 4082 4083 4084 4085 4086 4087 4088 4089 4090 4091 4092 4093 4094 4095 4096 4097 4098 4099 4100 4101 4102 4103 4104 4105 4106 4107 4108 4109 4110 4111 4112 4113 4114 4115 4116 4117 4118 4119 4120 4121 4122 4123 4124 4125 4126 4127 4128 4129 4130 4131 4132 4133 4134 4135 4136 4137 4138 4139 4140 4141 4142 4143 4144 4145 4146 4147 4148 4149 4150 4151 4152 4153 4154 4155 4156 4157 4158 4159 4160 4161 4162 4163 4164 4165 4166 4167 4168 4169 4170 4171 4172 4173 4174 4175 4176 4177 4178 4179 4180 4181 4182 4183 4184 4185 4186 4187 4188 4189 4190 4191 4192 4193 4194 4195 4196 4197 4198 4199 4200 4201 4202 4203 4204 4205 4206 4207 4208 4209 4210 4211 4212 4213 4214 4215 4216 4217 4218 4219 4220 4221 4222 4223 4224 4225 4226 4227 4228 4229 4230 4231 4232 4233 4234 4235 4236 4237 4238 4239 4240 4241 4242 4243 4244 4245 4246 4247 4248 4249 4250 4251 4252 4253 4254 4255 4256 4257 4258 4259 4260 4261 4262 4263 4264 4265 4266 4267 4268 4269 4270 4271 4272 4273 4274 4275 4276 4277 4278 4279 4280 4281 4282 4283 4284 4285 4286 4287 4288 4289 4290 4291 4292 4293 4294 4295 4296 4297 4298 4299 4300 4301 4302 4303 4304 4305 4306 4307 4308 4309 4310 4311 4312 4313 4314 4315 4316 4317 4318 4319 4320 4321 4322 4323 4324 4325 4326 4327 4328 4329 4330 4331 4332 4333 4334 4335 4336 4337 4338 4339 4340 4341 4342 4343 4344 4345 4346 4347 4348 4349 4350 4351 4352 4353 4354 4355 4356 4357 4358 4359 4360 4361 4362 4363 4364 4365 4366 4367 4368 4369 4370 4371 4372 4373 4374 4375 4376 4377 4378 4379 4380 4381 4382 4383 4384 4385 4386 4387 4388 4389 4390 4391 4392 4393 4394 4395 4396 4397 4398 4399 4400 4401 4402 4403 4404 4405 4406 4407 4408 4409 4410 4411 4412 4413 4414 4415 4416 4417 4418 4419 4420 4421 4422 4423 4424 4425 4426 4427 4428 4429 4430 4431 4432 4433 4434 4435 4436 4437 4438 4439 4440 4441 4442 4443 4444 4445 4446 4447 4448 4449 4450 4451 4452 4453 4454 4455 4456 4457 4458 4459 4460 4461 4462 4463 4464 4465 4466 4467 4468 4469 4470 4471 4472 4473 4474 4475 4476 4477 4478 4479 4480 4481 4482 4483 4484 4485 4486 4487 4488 4489 4490 4491 4492 4493 4494 4495 4496 4497 4498 4499 4500 4501 4502 4503 4504 4505 4506 4507 4508 4509 4510 4511 4512 4513 4514 4515 4516 4517 4518 4519 4520 4521 4522 4523 4524 4525 4526 4527 4528 4529 4530 4531 4532 4533 4534 4535 4536 4537 4538 4539 4540 4541 4542 4543 4544 4545 4546 4547 4548 4549 4550 4551 4552 4553 4554 4555 4556 4557 4558 4559 4560 4561 4562 4563 4564 4565 4566 4567 4568 4569 4570 4571 4572 4573 4574 4575 4576 4577 4578 4579 4580 4581 4582 4583 4584 4585 4586 4587 4588 4589 4590 4591 4592 4593 4594 4595 4596 4597 4598 4599 4600 4601 4602 4603 4604 4605 4606 4607 4608 4609 4610 4611 4612 4613 4614 4615 4616 4617 4618 4619 4620 4621 4622 4623 4624 4625 4626 4627 4628 4629 4630 4631 4632 4633 4634 4635 4636 4637 4638 4639 4640 4641 4642 4643 4644 4645 4646 4647 4648 4649 4650 4651 4652 4653 4654 4655 4656 4657 4658 4659 4660 4661 4662 4663 4664 4665 4666 4667 4668 4669 4670 4671 4672 4673 4674 4675 4676 4677 4678 4679 4680 4681 4682 4683 4684 4685 4686 4687 4688 4689 4690 4691 4692 4693 4694 4695 4696 4697 4698 4699 4700 4701 4702 4703 4704 4705 4706 4707 4708 4709 4710 4711 4712 4713 4714 4715 4716 4717 4718 4719 4720 4721 4722 4723 4724 4725 4726 4727 4728 4729 4730 4731 4732 4733 4734 4735 4736 4737 4738 4739 4740 4741 4742 4743 4744 4745 4746 4747 4748 4749 4750 4751 4752 4753 4754 4755 4756 4757 4758 4759 4760 4761 4762 4763 4764 4765 4766 4767 4768 4769 4770 4771 4772 4773 4774 4775 4776 4777 4778 4779 4780 4781 4782 4783 4784 4785 4786 4787 4788 4789 4790 4791 4792 4793 4794 4795 4796 4797 4798 4799 4800 4801 4802 4803 4804 4805 4806 4807 4808 4809 4810 4811 4812 4813 4814 4815 4816 4817 4818 4819 4820 4821 4822 4823 4824 4825 4826 4827 4828 4829 4830 4831 4832 4833 4834 4835 4836 4837 4838 4839 4840 4841 4842 4843 4844 4845 4846 4847 4848 4849 4850 4851 4852 4853 4854 4855 4856 4857 4858 4859 4860 4861 4862 4863 4864 4865 4866 4867 4868 4869 4870 4871 4872 4873 4874 4875 4876 4877 4878 4879 4880 4881 4882 4883 4884 4885 4886 4887 4888 4889 4890 4891 4892 4893 4894 4895 4896 4897 4898 4899 4900 4901 4902 4903 4904 4905 4906 4907 4908 4909 4910 4911 4912 4913 4914 4915 4916 4917 4918 4919 4920 4921 4922 4923 4924 4925 4926 4927 4928 4929 4930 4931 4932 4933 4934 4935 4936 4937 4938 4939 4940 4941 4942 4943 4944 4945 4946 4947 4948 4949 4950 4951 4952 4953 4954 4955 4956 4957 4958 4959 4960 4961 4962 4963 4964 4965 4966 4967 4968 4969 4970 4971 4972 4973 4974 4975 4976 4977 4978 4979 4980 4981 4982 4983 4984 4985 4986 4987 4988 4989 4990 4991 4992 4993 4994 4995 4996 4997 4998 4999 5000 5001 5002 5003 5004 5005 5006 5007 5008 5009 5010 5011 5012 5013 5014 5015 5016 5017 5018 5019 5020 5021 5022 5023 5024 5025 5026 5027 5028 5029 5030 5031 5032 5033 5034 5035 5036 5037 5038 5039 5040 5041 5042 5043 5044 5045 5046 5047 5048 5049 5050 5051 5052 5053 5054 5055 5056 5057 5058 5059 5060 5061 5062 5063 5064 5065 5066 5067 5068 5069 5070 5071 5072 5073 5074 5075 5076 5077 5078 5079 5080 5081 5082 5083 5084 5085 5086 5087 5088 5089 5090 5091 5092 5093 5094 5095 5096 5097 5098 5099 5100 5101 5102 5103 5104 5105 5106 5107 5108 5109 5110 5111 5112 5113 5114 5115 5116 5117 5118 5119 5120 5121 5122 5123 5124 5125 5126 5127 5128 5129 5130 5131 5132 5133 5134 5135 5136 5137 5138 5139 5140 5141 5142 5143 5144 5145 5146 5147 5148 5149 5150 5151 5152 5153 5154 5155 5156 5157 5158 5159 5160 5161 5162 5163 5164 5165 5166 5167 5168 5169 5170 5171 5172 5173 5174 5175 5176 5177 5178 5179 5180 5181 5182 5183 5184 5185 5186 5187 5188 5189 5190 5191 5192 5193 5194 5195 5196 5197 5198 5199 5200 5201 5202 5203 5204 5205 5206 5207 5208 5209 5210 5211 5212 5213 5214 5215 5216 5217 5218 5219 5220 5221 5222 5223 5224 5225 5226 5227 5228 5229 5230 5231 5232 5233 5234 5235 5236 5237 5238 5239 5240 5241 5242 5243 5244 5245 5246 5247 5248 5249 5250 5251 5252 5253 5254 5255 5256 5257 5258 5259 5260 5261 5262 5263 5264 5265 5266 5267 5268 5269 5270 5271 5272 5273 5274 5275 5276 5277 5278 5279 5280 5281 5282 5283 5284 5285 5286 5287 5288 5289 5290 5291 5292 5293 5294 5295 5296 5297 5298 5299 5300 5301 5302 5303 5304 5305 5306 5307 5308 5309 5310 5311 5312 5313 5314 5315 5316 5317 5318 5319 5320 5321 5322 5323 5324 5325 5326 5327 5328 5329 5330 5331 5332 5333 5334 5335 5336 5337 5338 5339 5340 5341 5342 5343 5344 5345 5346 5347 5348 5349 5350 5351 5352 5353 5354 5355 5356 5357 5358 5359 5360 5361 5362 5363 5364 5365 5366 5367 5368 5369 5370 5371 5372 5373 5374 5375 5376 5377 5378 5379 5380 5381 5382 5383 5384 5385 5386 5387 5388 5389 5390 5391 5392 5393 5394 5395 5396 5397 5398 5399 5400 5401 5402 5403 5404 5405 5406 5407 5408 5409 5410 5411 5412 5413 5414 5415 5416 5417 5418 5419 5420 5421 5422 5423 5424 5425 5426 5427 5428 5429 5430 5431 5432 5433 5434 5435 5436 5437 5438 5439 5440 5441 5442 5443 5444 5445 5446 5447 5448 5449 5450 5451 5452 5453 5454 5455 5456 5457 5458 5459 5460 5461 5462 5463 5464 5465 5466 5467 5468 5469 5470 5471 5472 5473 5474 5475 5476 5477 5478 5479 5480 5481 5482 5483 5484 5485 5486 5487 5488 5489 5490 5491 5492 5493 5494 5495 5496 5497 5498 5499 5500 5501 5502 5503 5504 5505 5506 5507 5508 5509 5510 5511 5512 5513 5514 5515 5516 5517 5518 5519 5520 5521 5522 5523 5524 5525 5526 5527 5528 5529 5530 5531 5532 5533 5534 5535 5536 5537 5538 5539 5540 5541 5542 5543 5544 5545 5546 5547 5548 5549 5550 5551 5552 5553 5554 5555 5556 5557 5558 5559 5560 5561 5562 5563 5564 5565 5566 5567 5568 5569 5570 5571 5572 5573 5574 5575 5576 5577 5578 5579 5580 5581 5582 5583 5584 5585 5586 5587 5588 5589 5590 5591 5592 5593 5594 5595 5596 5597 5598 5599 5600 5601 5602 5603 5604 5605 5606 5607 5608 5609 5610 5611 5612 5613 5614 5615 5616 5617 5618 5619 5620 5621 5622 5623 5624 5625 5626 5627 5628 5629 5630 5631 5632 5633 5634 5635 5636 5637 5638 5639 5640 5641 5642 5643 5644 5645 5646 5647 5648 5649 5650 5651 5652 5653 5654 5655 5656 5657 5658 5659 5660 5661 5662 5663 5664 5665 5666 5667 5668 5669 5670 5671 5672 5673 5674 5675 5676 5677 5678 5679 5680 5681 5682 5683 5684 5685 5686 5687 5688 5689 5690 5691 5692 5693 5694 5695 5696 5697 5698 5699 5700 5701 5702 5703 5704 5705 5706 5707 5708 5709 5710 5711 5712 5713 5714 5715 5716 5717 5718 5719 5720 5721 5722 5723 5724 5725 5726 5727 5728 5729 5730 5731 5732 5733 5734 5735 5736 5737 5738 5739 5740 5741 5742 5743 5744 5745 5746 5747 5748 5749 5750 5751 5752 5753 5754 5755 5756 5757 5758 5759 5760 5761 5762 5763 5764 5765 5766 5767 5768 5769 5770 5771 5772 5773 5774 5775 5776 5777 5778 5779 5780 5781 5782 5783 5784 5785 5786 5787 5788 5789 5790 5791 5792 5793 5794 5795 5796 5797 5798 5799 5800 5801 5802 5803 5804 5805 5806 5807 5808 5809 5810 5811 5812 5813 5814 5815 5816 5817 5818 5819 5820 5821 5822 5823 5824 5825 5826 5827 5828 5829 5830 5831 5832 5833 5834 5835 5836 5837 5838 5839 5840 5841 5842 5843 5844 5845 5846 5847 5848 5849 5850 5851 5852 5853 5854 5855 5856 5857 5858 5859 5860 5861 5862 5863 5864 5865 5866 5867 5868 5869 5870 5871 5872 5873 5874 5875 5876 5877 5878 5879 5880 5881 5882 5883 5884 5885 5886 5887 5888 5889 5890 5891 5892 5893 5894 5895 5896 5897 5898 5899 5900 5901 5902 5903 5904 5905 5906 5907 5908 5909 5910 5911 5912 5913 5914 5915 5916 5917 5918 5919 5920 5921 5922 5923 5924 5925 5926 5927 5928 5929 5930 5931 5932 5933 5934 5935 5936 5937 5938 5939 5940 5941 5942 5943 5944 5945 5946 5947 5948 5949 5950 5951 5952 5953 5954 5955 5956 5957 5958 5959 5960 5961 5962 5963 5964 5965 5966 5967 5968 5969 5970 5971 5972 5973 5974 5975 5976 5977 5978 5979 5980 5981 5982 5983 5984 5985 5986 5987 5988 5989 5990 5991 5992 5993 5994 5995 5996 5997 5998 5999 6000 6001 6002 6003 6004 6005 6006 6007 6008 6009 6010 6011 6012 6013 6014 6015 6016 6017 6018 6019 6020 6021 6022 6023 6024 6025 6026 6027 6028 6029 6030 6031 6032 6033 6034 6035 6036 6037 6038 6039 6040 6041 6042 6043 6044 6045 6046 6047 6048 6049 6050 6051 6052 6053 6054 6055 6056 6057 6058 6059 6060 6061 6062 6063 6064 6065 6066 6067 6068 6069 6070 6071 6072 6073 6074 6075 6076 6077 6078 6079 6080 6081 6082 6083 6084 6085 6086 6087 6088 6089 6090 6091 6092 6093 6094 6095 6096 6097 6098 6099 6100 6101 6102 6103 6104 6105 6106 6107 6108 6109 6110 6111 6112 6113 6114 6115 6116 6117 6118 6119 6120 6121 6122 6123 6124 6125 6126 6127 6128 6129 6130 6131 6132 6133 6134 6135 6136 6137 6138 6139 6140 6141 6142 6143 6144 6145 6146 6147 6148 6149 6150 6151 6152 6153 6154 6155 6156 6157 6158 6159 6160 6161 6162 6163 6164 6165 6166 6167 6168 6169 6170 6171 6172 6173 6174 6175 6176 6177 6178 6179 6180 6181 6182 6183 6184 6185 6186 6187 6188 6189 6190 6191 6192 6193 6194 6195 6196 6197 6198 6199 6200 6201 6202 6203 6204 6205 6206 6207 6208 6209 6210 6211 6212 6213 6214 6215 6216 6217 6218 6219 6220 6221 6222 6223 6224 6225 6226 6227 6228 6229 6230 6231 6232 6233 6234 6235 6236 6237 6238 6239 6240 6241 6242 6243 6244 6245 6246 6247 6248 6249 6250 6251 6252 6253 6254 6255 6256 6257 6258 6259 6260 6261 6262 6263 6264 6265 6266 6267 6268 6269 6270 6271 6272 6273 6274 6275 6276 6277 6278 6279 6280 6281 6282 6283 6284 6285 6286 6287 6288 6289 6290 6291 6292 6293 6294 6295 6296 6297 6298 6299 6300 6301 6302 6303 6304 6305 6306 6307 6308 6309 6310 6311 6312 6313 6314 6315 6316 6317 6318 6319 6320 6321 6322 6323 6324 6325 6326 6327 6328 6329 6330 6331 6332 6333 6334 6335 6336 6337 6338 6339 6340 6341 6342 6343 6344 6345 6346 6347 6348 6349 6350 6351 6352 6353 6354 6355 6356 6357 6358 6359 6360 6361 6362 6363 6364 6365 6366 6367 6368 6369 6370 6371 6372 6373 6374 6375 6376 6377 6378 6379 6380 6381 6382 6383 6384 6385 6386 6387 6388 6389 6390 6391 6392 6393 6394 6395 6396 6397 6398 6399 6400 6401 6402 6403 6404 6405 6406 6407 6408 6409 6410 6411 6412 6413 6414 6415 6416 6417 6418 6419 6420 6421 6422 6423 6424 6425 6426 6427 6428 6429 6430 6431 6432 6433 6434 6435 6436 6437 6438 6439 6440 6441 6442 6443 6444 6445 6446 6447 6448 6449 6450 6451 6452 6453 6454 6455 6456 6457 6458 6459 6460 6461 6462 6463 6464 6465 6466 6467 6468 6469 6470 6471 6472 6473 6474 6475 6476 6477 6478 6479 6480 6481 6482 6483 6484 6485 6486 6487 6488 6489 6490 6491 6492 6493 6494 6495 6496 6497 6498 6499 6500 6501 6502 6503 6504 6505 6506 6507 6508 6509 6510 6511 6512 6513 6514 6515 6516 6517 6518 6519 6520 6521 6522 6523 6524 6525 6526 6527 6528 6529 6530 6531 6532 6533 6534 6535 6536 6537 6538 6539 6540 6541 6542 6543 6544 6545 6546 6547 6548 6549 6550 6551 6552 6553 6554 6555 6556 6557 6558 6559 6560 6561 6562 6563 6564 6565 6566 6567 6568 6569 6570 6571 6572 6573 6574 6575 6576 6577 6578 6579 6580 6581 6582 6583 6584 6585 6586 6587 6588 6589 6590 6591 6592 6593 6594 6595 6596 6597 6598 6599 6600 6601 6602 6603 6604 6605 6606 6607 6608 6609 6610 6611 6612 6613 6614 6615 6616 6617 6618 6619 6620 6621 6622 6623 6624 6625 6626 6627 6628 6629 6630 6631 6632 6633 6634 6635 6636 6637 6638 6639 6640 6641 6642 6643 6644 6645 6646 6647 6648 6649 6650 6651 6652 6653 6654 6655 6656 6657 6658 6659 6660 6661 6662 6663 6664 6665 6666 6667 6668 6669 6670 6671 6672 6673 6674 6675 6676 6677 6678 6679 6680 6681 6682 6683 6684 6685 6686 6687 6688 6689 6690 6691 6692 6693 6694 6695 6696 6697 6698 6699 6700 6701 6702 6703 6704 6705 6706 6707 6708 6709 6710 6711 6712 6713 6714 6715 6716 6717 6718 6719 6720 6721 6722 6723 6724 6725 6726 6727 6728 6729 6730 6731 6732 6733 6734 6735 6736 6737 6738 6739 6740 6741 6742 6743 6744 6745 6746 6747 6748 6749 6750 6751 6752 6753 6754 6755 6756 6757 6758 6759 6760 6761 6762 6763 6764 6765 6766 6767 6768 6769 6770 6771 6772 6773 6774 6775 6776 6777 6778 6779 6780 6781 6782 6783 6784 6785 6786 6787 6788 6789 6790 6791 6792 6793 6794 6795 6796 6797 6798 6799 6800 6801 6802 6803 6804 6805 6806 6807 6808 6809 6810 6811 6812 6813 6814 6815 6816 6817 6818 6819 6820 6821 6822 6823 6824 6825 6826 6827 6828 6829 6830 6831 6832 6833 6834 6835 6836 6837 6838 6839 6840 6841 6842 6843 6844 6845 6846 6847 6848 6849 6850 6851 6852 6853 6854 6855 6856 6857 6858 6859 6860 6861 6862 6863 6864 6865 6866 6867 6868 6869 6870 6871 6872 6873 6874 6875 6876 6877 6878 6879 6880 6881 6882 6883 6884 6885 6886 6887 6888 6889 6890 6891 6892 6893 6894 6895 6896 6897 6898 6899 6900 6901 6902 6903 6904 6905 6906 6907 6908 6909 6910 6911 6912 6913 6914 6915 6916 6917 6918 6919 6920 6921 6922 6923 6924 6925 6926 6927 6928 6929 6930 6931 6932 6933 6934 6935 6936 6937 6938 6939 6940 6941 6942 6943 6944 6945 6946 6947 6948 6949 6950 6951 6952 6953 6954 6955 6956 6957 6958 6959 6960 6961 6962 6963 6964 6965 6966 6967 6968 6969 6970 6971 6972 6973 6974 6975 6976 6977 6978 6979 6980 6981 6982 6983 6984 6985 6986 6987 6988 6989 6990 6991 6992 6993 6994 6995 6996 6997 6998 6999 7000 7001 7002 7003 7004 7005 7006 7007 7008 7009 7010 7011 7012 7013 7014 7015 7016 7017 7018 7019 7020 7021 7022 7023 7024 7025 7026 7027 7028 7029 7030 7031 7032 7033 7034 7035 7036 7037 7038 7039 7040 7041 7042 7043 7044 7045 7046 7047 7048 7049 7050 7051 7052 7053 7054 7055 7056 7057 7058 7059 7060 7061 7062 7063 7064 7065 7066 7067 7068 7069 7070 7071 7072 7073 7074 7075 7076 7077 7078 7079 7080 7081 7082 7083 7084 7085 7086 7087 7088 7089 7090 7091 7092 7093 7094 7095 7096 7097 7098 7099 7100 7101 7102 7103 7104 7105 7106 7107 7108 7109 7110 7111 7112 7113 7114 7115 7116 7117 7118 7119 7120 7121 7122 7123 7124 7125 7126 7127 7128 7129 7130 7131 7132 7133 7134 7135 7136 7137 7138 7139 7140 7141 7142 7143 7144 7145 7146 7147 7148 7149 7150 7151 7152 7153 7154 7155 7156 7157 7158 7159 7160 7161 7162 7163 7164 7165 7166 7167 7168 7169 7170 7171 7172 7173 7174 7175 7176 7177 7178 7179 7180 7181 7182 7183 7184 7185 7186 7187 7188 7189 7190 7191 7192 7193 7194 7195 7196 7197 7198 7199 7200 7201 7202 7203 7204 7205 7206 7207 7208 7209 7210 7211 7212 7213 7214 7215 7216 7217 7218 7219 7220 7221 7222 7223 7224 7225 7226 7227 7228 7229 7230 7231 7232 7233 7234 7235 7236 7237 7238 7239 7240 7241 7242 7243 7244 7245 7246 7247 7248 7249 7250 7251 7252 7253 7254 7255 7256 7257 7258 7259 7260 7261 7262 7263 7264 7265 7266 7267 7268 7269 7270 7271 7272 7273 7274 7275 7276 7277 7278 7279 7280 7281 7282 7283 7284 7285 7286 7287 7288 7289 7290 7291 7292 7293 7294 7295 7296 7297 7298 7299 7300 7301 7302 7303 7304 7305 7306 7307 7308 7309 7310 7311 7312 7313 7314 7315 7316 7317 7318 7319 7320 7321 7322 7323 7324 7325 7326 7327 7328 7329 7330 7331 7332 7333 7334 7335 7336 7337 7338 7339 7340 7341 7342 7343 7344 7345 7346 7347 7348 7349 7350 7351 7352 7353 7354 7355 7356 7357 7358 7359 7360 7361 7362 7363 7364 7365 7366 7367 7368 7369 7370 7371 7372 7373 7374 7375 7376 7377 7378 7379 7380 7381 7382 7383 7384 7385 7386 7387 7388 7389 7390 7391 7392 7393 7394 7395 7396 7397 7398 7399 7400 7401 7402 7403 7404 7405 7406 7407 7408 7409 7410 7411 7412 7413 7414 7415 7416 7417 7418 7419 7420 7421 7422 7423 7424 7425 7426 7427 7428 7429 7430 7431 7432 7433 7434 7435 7436 7437 7438 7439 7440 7441 7442 7443 7444 7445 7446 7447 7448 7449 7450 7451 7452 7453 7454 7455 7456 7457 7458 7459 7460 7461 7462 7463 7464 7465 7466 7467 7468 7469 7470 7471 7472 7473 7474 7475 7476 7477 7478 7479 7480 7481 7482 7483 7484 7485 7486 7487 7488 7489 7490 7491 7492 7493 7494 7495 7496 7497 7498 7499 7500 7501 7502 7503 7504 7505 7506 7507 7508 7509 7510 7511 7512 7513 7514 7515 7516 7517 7518 7519 7520 7521 7522 7523 7524 7525 7526 7527 7528 7529 7530 7531 7532 7533 7534 7535 7536 7537 7538 7539 7540 7541 7542 7543 7544 7545 7546 7547 7548 7549 7550 7551 7552 7553 7554 7555 7556 7557 7558 7559 7560 7561 7562 7563 7564 7565 7566 7567 7568 7569 7570 7571 7572 7573 7574 7575 7576 7577 7578 7579 7580 7581 7582 7583 7584 7585 7586 7587 7588 7589 7590 7591 7592 7593 7594 7595 7596 7597 7598 7599 7600 7601 7602 7603 7604 7605 7606 7607 7608 7609 7610 7611 7612 7613 7614 7615 7616 7617 7618 7619 7620 7621 7622 7623 7624 7625 7626 7627 7628 7629 7630 7631 7632 7633 7634 7635 7636 7637 7638 7639 7640 7641 7642 7643 7644 7645 7646 7647 7648 7649 7650 7651 7652 7653 7654 7655 7656 7657 7658 7659 7660 7661 7662 7663 7664 7665 7666 7667 7668 7669 7670 7671 7672 7673 7674 7675 7676 7677 7678 7679 7680 7681 7682 7683 7684 7685 7686 7687 7688 7689 7690 7691 7692 7693 7694 7695 7696 7697 7698 7699 7700 7701 7702 7703 7704 7705 7706 7707 7708 7709 7710 7711 7712 7713 7714 7715 7716 7717 7718 7719 7720 7721 7722 7723 7724 7725 7726 7727 7728 7729 7730 7731 7732 7733 7734 7735 7736 7737 7738 7739 7740 7741 7742 7743 7744 7745 7746 7747 7748 7749 7750 7751 7752 7753 7754 7755 7756 7757 7758 7759 7760 7761 7762 7763 7764 7765 7766 7767 7768 7769 7770 7771 7772 7773 7774 7775 7776 7777 7778 7779 7780 7781 7782 7783 7784 7785 7786 7787 7788 7789 7790 7791 7792 7793 7794 7795 7796 7797 7798 7799 7800 7801 7802 7803 7804 7805 7806 7807 7808 7809 7810 7811 7812 7813 7814 7815 7816 7817 7818 7819 7820 7821 7822 7823 7824 7825 7826 7827 7828 7829 7830 7831 7832 7833 7834 7835 7836 7837 7838 7839 7840 7841 7842 7843 7844 7845 7846 7847 7848 7849 7850 7851 7852 7853 7854 7855 7856 7857 7858 7859 7860 7861 7862 7863 7864 7865 7866 7867 7868 7869 7870 7871 7872 7873 7874 7875 7876 7877 7878 7879 7880 7881 7882 7883 7884 7885 7886 7887 7888 7889 7890 7891 7892 7893 7894 7895 7896 7897 7898 7899 7900 7901 7902 7903 7904 7905 7906 7907 7908 7909 7910 7911 7912 7913 7914 7915 7916 7917 7918 7919 7920 7921 7922 7923 7924 7925 7926 7927 7928 7929 7930 7931 7932 7933 7934 7935 7936 7937 7938 7939 7940 7941 7942 7943 7944 7945 7946 7947 7948 7949 7950 7951 7952 7953 7954 7955 7956 7957 7958 7959 7960 7961 7962 7963 7964 7965 7966 7967 7968 7969 7970 7971 7972 7973 7974 7975 7976 7977 7978 7979 7980 7981 7982 7983 7984 7985 7986 7987 7988 7989 7990 7991 7992 7993 7994 7995 7996 7997 7998 7999 8000 8001 8002 8003 8004 8005 8006 8007 8008 8009 8010 8011 8012 8013 8014 8015 8016 8017 8018 8019 8020 8021 8022 8023 8024 8025 8026 8027 8028 8029 8030 8031 8032 8033 8034 8035 8036 8037 8038 8039 8040 8041 8042 8043 8044 8045 8046 8047 8048 8049 8050 8051 8052 8053 8054 8055 8056 8057 8058 8059 8060 8061 8062 8063 8064 8065 8066 8067 8068 8069 8070 8071 8072 8073 8074 8075 8076 8077 8078 8079 8080 8081 8082 8083 8084 8085 8086 8087 8088 8089 8090 8091 8092 8093 8094 8095 8096 8097 8098 8099 8100 8101 8102 8103 8104 8105 8106 8107 8108 8109 8110 8111 8112 8113 8114 8115 8116 8117 8118 8119 8120 8121 8122 8123 8124 8125 8126 8127 8128 8129 8130 8131 8132 8133 8134 8135 8136 8137 8138 8139 8140 8141 8142 8143 8144 8145 8146 8147 8148 8149 8150 8151 8152 8153 8154 8155 8156 8157 8158 8159 8160 8161 8162 8163 8164 8165 8166 8167 8168 8169 8170 8171 8172 8173 8174 8175 8176 8177 8178 8179 8180 8181 8182 8183 8184 8185 8186 8187 8188 8189 8190 8191 8192 8193 8194 8195 8196 8197 8198 8199 8200 8201 8202 8203 8204 8205 8206 8207 8208 8209 8210 8211 8212 8213 8214 8215 8216 8217 8218 8219 8220 8221 8222 8223 8224 8225 8226 8227 8228 8229 8230 8231 8232 8233 8234 8235 8236 8237 8238 8239 8240 8241 8242 8243 8244 8245 8246 8247 8248 8249 8250 8251 8252 8253 8254 8255 8256 8257 8258 8259 8260 8261 8262 8263 8264 8265 8266 8267 8268 8269 8270 8271 8272 8273 8274 8275 8276 8277 8278 8279 8280 8281 8282 8283 8284 8285 8286 8287 8288 8289 8290 8291 8292 8293 8294 8295 8296 8297 8298 8299 8300 8301 8302 8303 8304 8305 8306 8307 8308 8309 8310 8311 8312 8313 8314 8315 8316 8317 8318 8319 8320 8321 8322 8323 8324 8325 8326 8327 8328 8329 8330 8331 8332 8333 8334 8335 8336 8337 8338 8339 8340 8341 8342 8343 8344 8345 8346 8347 8348 8349 8350 8351 8352 8353 8354 8355 8356 8357 8358 8359 8360 8361 8362 8363 8364 8365 8366 8367 8368 8369 8370 8371 8372 8373 8374 8375 8376 8377 8378 8379 8380 8381 8382 8383 8384 8385 8386 8387 8388 8389 8390 8391 8392 8393 8394 8395 8396 8397 8398 8399 8400 8401 8402 8403 8404 8405 8406 8407 8408 8409 8410 8411 8412 8413 8414 8415 8416 8417 8418 8419 8420 8421 8422 8423 8424 8425 8426 8427 8428 8429 8430 8431 8432 8433 8434 8435 8436 8437 8438 8439 8440 8441 8442 8443 8444 8445 8446 8447 8448 8449 8450 8451 8452 8453 8454 8455 8456 8457 8458 8459 8460 8461 8462 8463 8464 8465 8466 8467 8468 8469 8470 8471 8472 8473 8474 8475 8476 8477 8478 8479 8480 8481 8482 8483 8484 8485 8486 8487 8488 8489 8490 8491 8492 8493 8494 8495 8496 8497 8498 8499 8500 8501 8502 8503 8504 8505 8506 8507 8508 8509 8510 8511 8512 8513 8514 8515 8516 8517 8518 8519 8520 8521 8522 8523 8524 8525 8526 8527 8528 8529 8530 8531 8532 8533 8534 8535 8536 8537 8538 8539 8540 8541 8542 8543 8544 8545 8546 8547 8548 8549 8550 8551 8552 8553 8554 8555 8556 8557 8558 8559 8560 8561 8562 8563 8564 8565 8566 8567 8568 8569 8570 8571 8572 8573 8574 8575 8576 8577 8578 8579 8580 8581 8582 8583 8584 8585 8586 8587 8588 8589 8590 8591 8592 8593 8594 8595 8596 8597 8598 8599 8600 8601 8602 8603 8604 8605 8606 8607 8608 8609 8610 8611 8612 8613 8614 8615 8616 8617 8618 8619 8620 8621 8622 8623 8624 8625 8626 8627 8628 8629 8630 8631 8632 8633 8634 8635 8636 8637 8638 8639 8640 8641 8642 8643 8644 8645 8646 8647 8648 8649 8650 8651 8652 8653 8654 8655 8656 8657 8658 8659 8660 8661 8662 8663 8664 8665 8666 8667 8668 8669 8670 8671 8672 8673 8674 8675 8676 8677 8678 8679 8680 8681 8682 8683 8684 8685 8686 8687 8688 8689 8690 8691 8692 8693 8694 8695 8696 8697 8698 8699 8700 8701 8702 8703 8704 8705 8706 8707 8708 8709 8710 8711 8712 8713 8714 8715 8716 8717 8718 8719 8720 8721 8722 8723 8724 8725 8726 8727 8728 8729 8730 8731 8732 8733 8734 8735 8736 8737 8738 8739 8740 8741 8742 8743 8744 8745 8746 8747 8748 8749 8750 8751 8752 8753 8754 8755 8756 8757 8758 8759 8760 8761 8762 8763 8764 8765 8766 8767 8768 8769 8770 8771 8772 8773 8774 8775 8776 8777 8778 8779 8780 8781 8782 8783 8784 8785 8786 8787 8788 8789 8790 8791 8792 8793 8794 8795 8796 8797 8798 8799 8800 8801 8802 8803 8804 8805 8806 8807 8808 8809 8810 8811 8812 8813 8814 8815 8816 8817 8818 8819 8820 8821 8822 8823 8824 8825 8826 8827 8828 8829 8830 8831 8832 8833 8834 8835 8836 8837 8838 8839 8840 8841 8842 8843 8844 8845 8846 8847 8848 8849 8850 8851 8852 8853 8854 8855 8856 8857 8858 8859 8860 8861 8862 8863 8864 8865 8866 8867 8868 8869 8870 8871 8872 8873 8874 8875 8876 8877 8878 8879 8880 8881 8882 8883 8884 8885 8886 8887 8888 8889 8890 8891 8892 8893 8894 8895 8896 8897 8898 8899 8900 8901 8902 8903 8904 8905 8906 8907 8908 8909 8910 8911 8912 8913 8914 8915 8916 8917 8918 8919 8920 8921 8922 8923 8924 8925 8926 8927 8928 8929 8930 8931 8932 8933 8934 8935 8936 8937 8938 8939 8940 8941 8942 8943 8944 8945 8946 8947 8948 8949 8950 8951 8952 8953 8954 8955 8956 8957 8958 8959 8960 8961 8962 8963 8964 8965 8966 8967 8968 8969 8970 8971 8972 8973 8974 8975 8976 8977 8978 8979 8980 8981 8982 8983 8984 8985 8986 8987 8988 8989 8990 8991 8992 8993 8994 8995 8996 8997 8998 8999 9000 9001 9002 9003 9004 9005 9006 9007 9008 9009 9010 9011 9012 9013 9014 9015 9016 9017 9018 9019 9020 9021 9022 9023 9024 9025 9026 9027 9028 9029 9030 9031 9032 9033 9034 9035 9036 9037 9038 9039 9040 9041 9042 9043 9044 9045 9046 9047 9048 9049 9050 9051 9052 9053 9054 9055 9056 9057 9058 9059 9060 9061 9062 9063 9064 9065 9066 9067 9068 9069 9070 9071 9072 9073 9074 9075 9076 9077 9078 9079 9080 9081 9082 9083 9084 9085 9086 9087 9088 9089 9090 9091 9092 9093 9094 9095 9096 9097 9098 9099 9100 9101 9102 9103 9104 9105 9106 9107 9108 9109 9110 9111 9112 9113 9114 9115 9116 9117 9118 9119 9120 9121 9122 9123 9124 9125 9126 9127 9128 9129 9130 9131 9132 9133 9134 9135 9136 9137 9138 9139 9140 9141 9142 9143 9144 9145 9146 9147 9148 9149 9150 9151 9152 9153 9154 9155 9156 9157 9158 9159 9160 9161 9162 9163 9164 9165 9166 9167 9168 9169 9170 9171 9172 9173 9174 9175 9176 9177 9178 9179 9180 9181 9182 9183 9184 9185 9186 9187 9188 9189 9190 9191 9192 9193 9194 9195 9196 9197 9198 9199 9200 9201 9202 9203 9204 9205 9206 9207 9208 9209 9210 9211 9212 9213 9214 9215 9216 9217 9218 9219 9220 9221 9222 9223 9224 9225 9226 9227 9228 9229 9230 9231 9232 9233 9234 9235 9236 9237 9238 9239 9240 9241 9242 9243 9244 9245 9246 9247 9248 9249 9250 9251 9252 9253 9254 9255 9256 9257 9258 9259 9260 9261 9262 9263 9264 9265 9266 9267 9268 9269 9270 9271 9272 9273 9274 9275 9276 9277 9278 9279 9280 9281 9282 9283 9284 9285 9286 9287 9288 9289 9290 9291 9292 9293 9294 9295 9296 9297 9298 9299 9300 9301 9302 9303 9304 9305 9306 9307 9308 9309 9310 9311 9312 9313 9314 9315 9316 9317 9318 9319 9320 9321 9322 9323 9324 9325 9326 9327 9328 9329 9330 9331 9332 9333 9334 9335 9336 9337 9338 9339 9340 9341 9342 9343 9344 9345 9346 9347 9348 9349 9350 9351 9352 9353 9354 9355 9356 9357 9358 9359 9360 9361 9362 9363 9364 9365 9366 9367 9368 9369 9370 9371 9372 9373 9374 9375 9376 9377 9378 9379 9380 9381 9382 9383 9384 9385 9386 9387 9388 9389 9390 9391 9392 9393 9394 9395 9396 9397 9398 9399 9400 9401 9402 9403 9404 9405 9406 9407 9408 9409 9410 9411 9412 9413 9414 9415 9416 9417 9418 9419 9420 9421 9422 9423 9424 9425 9426 9427 9428 9429 9430 9431 9432 9433 9434 9435 9436 9437 9438 9439 9440 9441 9442 9443 9444 9445 9446 9447 9448 9449 9450 9451 9452 9453 9454 9455 9456 9457 9458 9459 9460 9461 9462 9463 9464 9465 9466 9467 9468 9469 9470 9471 9472 9473 9474 9475 9476 9477 9478 9479 9480 9481 9482 9483 9484 9485 9486 9487 9488 9489 9490 9491 9492 9493 9494 9495 9496 9497 9498 9499 9500 9501 9502 9503 9504 9505 9506 9507 9508 9509 9510 9511 9512 9513 9514 9515 9516 9517 9518 9519 9520 9521 9522 9523 9524 9525 9526 9527 9528 9529 9530 9531 9532 9533 9534 9535 9536 9537 9538 9539 9540 9541 9542 9543 9544 9545 9546 9547 9548 9549 9550 9551 9552 9553 9554 9555 9556 9557 9558 9559 9560 9561 9562 9563 9564 9565 9566 9567 9568 9569 9570 9571 9572 9573 9574 9575 9576 9577 9578 9579 9580 9581 9582 9583 9584 9585 9586 9587 9588 9589 9590 9591 9592 9593 9594 9595 9596 9597 9598 9599 9600 9601 9602 9603 9604 9605 9606 9607 9608 9609 9610 9611 9612 9613 9614 9615 9616 9617 9618 9619 9620 9621 9622 9623 9624 9625 9626 9627 9628 9629 9630 9631 9632 9633 9634 9635 9636 9637 9638 9639 9640 9641 9642 9643 9644 9645 9646 9647 9648 9649 9650 9651 9652 9653 9654 9655 9656 9657 9658 9659 9660 9661 9662 9663 9664 9665 9666 9667 9668 9669 9670 9671 9672 9673 9674 9675 9676 9677 9678 9679 9680 9681 9682 9683 9684 9685 9686 9687 9688 9689 9690 9691 9692 9693 9694 9695 9696 9697 9698 9699 9700 9701 9702 9703 9704 9705 9706 9707 9708 9709 9710 9711 9712 9713 9714 9715 9716 9717 9718 9719 9720 9721 9722 9723 9724 9725 9726 9727 9728 9729 9730 9731 9732 9733 9734 9735 9736 9737 9738 9739 9740 9741 9742 9743 9744 9745 9746 9747 9748 9749 9750 9751 9752 9753 9754 9755 9756 9757 9758 9759 9760 9761 9762 9763 9764 9765 9766 9767 9768 9769 9770 9771 9772 9773 9774 9775 9776 9777 9778 9779 9780 9781 9782 9783 9784 9785 9786 9787 9788 9789 9790 9791 9792 9793 9794 9795 9796 9797 9798 9799 9800 9801 9802 9803 9804 9805 9806 9807 9808 9809 9810 9811 9812 9813 9814 9815 9816 9817 9818 9819 9820 9821 9822 9823 9824 9825 9826 9827 9828 9829 9830 9831 9832 9833 9834 9835 9836 9837 9838 9839 9840 9841 9842 9843 9844 9845 9846 9847 9848 9849 9850 9851 9852 9853 9854 9855 9856 9857 9858 9859 9860 9861 9862 9863 9864 9865 9866 9867 9868 9869 9870 9871 9872 9873 9874 9875 9876 9877 9878 9879 9880 9881 9882 9883 9884 9885 9886 9887 9888 9889 9890 9891 9892 9893 9894 9895 9896 9897 9898 9899 9900 9901 9902 9903 9904 9905 9906 9907 9908 9909 9910 9911 9912 9913 9914 9915 9916 9917 9918 9919 9920 9921 9922 9923 9924 9925 9926 9927 9928 9929 9930 9931 9932 9933 9934 9935 9936 9937 9938 9939 9940 9941 9942 9943 9944 9945 9946 9947 9948 9949 9950 9951 9952 9953 9954 9955 9956 9957 9958 9959 9960 9961 9962 9963 9964 9965 9966 9967 9968 9969 9970 9971 9972 9973 9974 9975 9976 9977 9978 9979 9980 9981 9982 9983 9984 9985 9986 9987 9988 9989 9990 9991 9992 9993 9994 9995 9996 9997 9998 9999 10000 10001 10002 10003 10004 10005 10006 10007 10008 10009 10010 10011 10012 10013 10014 10015 10016 10017 10018 10019 10020 10021 10022 10023 10024 10025 10026 10027 10028 10029 10030 10031 10032 10033 10034 10035 10036 10037 10038 10039 10040 10041 10042 10043 10044 10045 10046 10047 10048 10049 10050 10051 10052 10053 10054 10055 10056 10057 10058 10059 10060 10061 10062 10063 10064 10065 10066 10067 10068 10069 10070 10071 10072 10073 10074 10075 10076 10077 10078 10079 10080 10081 10082 10083 10084 10085 10086 10087 10088 10089 10090 10091 10092 10093 10094 10095 10096 10097 10098 10099 10100 10101 10102 10103 10104 10105 10106 10107 10108 10109 10110 10111 10112 10113 10114 10115 10116 10117 10118 10119 10120 10121 10122 10123 10124 10125 10126 10127 10128 10129 10130 10131 10132 10133 10134 10135 10136 10137 10138 10139 10140 10141 10142 10143 10144 10145 10146 10147 10148 10149 10150 10151 10152 10153 10154 10155 10156 10157 10158 10159 10160 10161 10162 10163 10164 10165 10166 10167 10168 10169 10170 10171 10172 10173 10174 10175 10176 10177 10178 10179 10180 10181 10182 10183 10184 10185 10186 10187 10188 10189 10190 10191 10192 10193 10194 10195 10196 10197 10198 10199 10200 10201 10202 10203 10204 10205 10206 10207 10208 10209 10210 10211 10212 10213 10214 10215 10216 10217 10218 10219 10220 10221 10222 10223 10224 10225 10226 10227 10228 10229 10230 10231 10232 10233 10234 10235 10236 10237 10238 10239 10240 10241 10242 10243 10244 10245 10246 10247 10248 10249 10250 10251 10252 10253 10254 10255 10256 10257 10258 10259 10260 10261 10262 10263 10264 10265 10266 10267 10268 10269 10270 10271 10272 10273 10274 10275 10276 10277 10278 10279 10280 10281 10282 10283 10284 10285 10286 10287 10288 10289 10290 10291 10292 10293 10294 10295 10296 10297 10298 10299 10300 10301 10302 10303 10304 10305 10306 10307 10308 10309 10310 10311 10312 10313 10314 10315 10316 10317 10318 10319 10320 10321 10322 10323 10324 10325 10326 10327 10328 10329 10330 10331 10332 10333 10334 10335 10336 10337 10338 10339 10340 10341 10342 10343 10344 10345 10346 10347 10348 10349 10350 10351 10352 10353 10354 10355 10356 10357 10358 10359 10360 10361 10362 10363 10364 10365 10366 10367 10368 10369 10370 10371 10372 10373 10374 10375 10376 10377 10378 10379 10380 10381 10382 10383 10384 10385 10386 10387 10388 10389 10390 10391 10392 10393 10394 10395 10396 10397 10398 10399 10400 10401 10402 10403 10404 10405 10406 10407 10408 10409 10410 10411 10412 10413 10414 10415 10416 10417 10418 10419 10420 10421 10422 10423 10424 10425 10426 10427 10428 10429 10430 10431 10432 10433 10434 10435 10436 10437 10438 10439 10440 10441 10442 10443 10444 10445 10446 10447 10448 10449 10450 10451 10452 10453 10454 10455 10456 10457 10458 10459 10460 10461 10462 10463 10464 10465 10466 10467 10468 10469 10470 10471 10472 10473 10474 10475 10476 10477 10478 10479 10480 10481 10482 10483 10484 10485 10486 10487 10488 10489 10490 10491 10492 10493 10494 10495 10496 10497 10498 10499 10500 10501 10502 10503 10504 10505 10506 10507 10508 10509 10510 10511 10512 10513 10514 10515 10516 10517 10518 10519 10520 10521 10522 10523 10524 10525 10526 10527 10528 10529 10530 10531 10532 10533 10534 10535 10536 10537 10538 10539 10540 10541 10542 10543 10544 10545 10546 10547 10548 10549 10550 10551 10552 10553 10554 10555 10556 10557 10558 10559 10560 10561 10562 10563 10564 10565 10566 10567 10568 10569 10570 10571 10572 10573 10574 10575 10576 10577 10578 10579 10580 10581 10582 10583 10584 10585 10586 10587 10588 10589 10590 10591 10592 10593 10594 10595 10596 10597 10598 10599 10600 10601 10602 10603 10604 10605 10606 10607 10608 10609 10610 10611 10612 10613 10614 10615 10616 10617 10618 10619 10620 10621 10622 10623 10624 10625 10626 10627 10628 10629 10630 10631 10632 10633 10634 10635 10636 10637 10638 10639 10640 10641 10642 10643 10644 10645 10646 10647 10648 10649 10650 10651 10652 10653 10654 10655 10656 10657 10658 10659 10660 10661 10662 10663 10664 10665 10666 10667 10668 10669 10670 10671 10672 10673 10674 10675 10676 10677 10678 10679 10680 10681 10682 10683 10684 10685 10686 10687 10688 10689 10690 10691 10692 10693 10694 10695 10696 10697 10698 10699 10700 10701 10702 10703 10704 10705 10706 10707 10708 10709 10710 10711 10712 10713 10714 10715 10716 10717 10718 10719 10720 10721 10722 10723 10724 10725 10726 10727 10728 10729 10730 10731 10732 10733 10734 10735 10736 10737 10738 10739 10740 10741 10742 10743 10744 10745 10746 10747 10748 10749 10750 10751 10752 10753 10754 10755 10756 10757 10758 10759 10760 10761 10762 10763 10764 10765 10766 10767 10768 10769 10770 10771 10772 10773 10774 10775 10776 10777 10778 10779 10780 10781 10782 10783 10784 10785 10786 10787 10788 10789 10790 10791 10792 10793 10794 10795 10796 10797 10798 10799 10800 10801 10802 10803 10804 10805 10806 10807 10808 10809 10810 10811 10812 10813 10814 10815 10816 10817 10818 10819 10820 10821 10822 10823 10824 10825 10826 10827 10828 10829 10830 10831 10832 10833 10834 10835 10836 10837 10838 10839 10840 10841 10842 10843 10844 10845 10846 10847 10848 10849 10850 10851 10852 10853 10854 10855 10856 10857 10858 10859 10860 10861 10862 10863 10864 10865 10866 10867 10868 10869 10870 10871 10872 10873 10874 10875 10876 10877 10878 10879 10880 10881 10882 10883 10884 10885 10886 10887 10888 10889 10890 10891 10892 10893 10894 10895 10896 10897 10898 10899 10900 10901 10902 10903 10904 10905 10906 10907 10908 10909 10910 10911 10912 10913 10914 10915 10916 10917 10918 10919 10920 10921 10922 10923 10924 10925 10926 10927 10928 10929 10930 10931 10932 10933 10934 10935 10936 10937 10938 10939 10940 10941 10942 10943 10944 10945 10946 10947 10948 10949 10950 10951 10952 10953 10954 10955 10956 10957 10958 10959 10960 10961 10962 10963 10964 10965 10966 10967 10968 10969 10970 10971 10972 10973 10974 10975 10976 10977 10978 10979 10980 10981 10982 10983 10984 10985 10986 10987 10988 10989 10990 10991 10992 10993 10994 10995 10996 10997 10998 10999 11000 11001 11002 11003 11004 11005 11006 11007 11008 11009 11010 11011 11012 11013 11014 11015 11016 11017 11018 11019 11020 11021 11022 11023 11024 11025 11026 11027 11028 11029 11030 11031 11032 11033 11034 11035 11036 11037 11038 11039 11040 11041 11042 11043 11044 11045 11046 11047 11048 11049 11050 11051 11052 11053 11054 11055 11056 11057 11058 11059 11060 11061 11062 11063 11064 11065 11066 11067 11068 11069 11070 11071 11072 11073 11074 11075 11076 11077 11078 11079 11080 11081 11082 11083 11084 11085 11086 11087 11088 11089 11090 11091 11092 11093 11094 11095 11096 11097 11098 11099 11100 11101 11102 11103 11104 11105 11106 11107 11108 11109 11110 11111 11112 11113 11114 11115 11116 11117 11118 11119 11120 11121 11122 11123 11124 11125 11126 11127 11128 11129 11130 11131 11132 11133 11134 11135 11136 11137 11138 11139 11140 11141 11142 11143 11144 11145 11146 11147 11148 11149 11150 11151 11152 11153 11154 11155 11156 11157 11158 11159 11160 11161 11162 11163 11164 11165 11166 11167 11168 11169 11170 11171 11172 11173 11174 11175 11176 11177 11178 11179 11180 11181 11182 11183 11184 11185 11186 11187 11188 11189 11190 11191 11192 11193 11194 11195 11196 11197 11198 11199 11200 11201 11202 11203 11204 11205 11206 11207 11208 11209 11210 11211 11212 11213 11214 11215 11216 11217 11218 11219 11220 11221 11222 11223 11224 11225 11226 11227 11228 11229 11230 11231 11232 11233 11234 11235 11236 11237 11238 11239 11240 11241 11242 11243 11244 11245 11246 11247 11248 11249 11250 11251 11252 11253 11254 11255 11256 11257 11258 11259 11260 11261 11262 11263 11264 11265 11266 11267 11268 11269 11270 11271 11272 11273 11274 11275 11276 11277 11278 11279 11280 11281 11282 11283 11284 11285 11286 11287 11288 11289 11290 11291 11292 11293 11294 11295 11296 11297 11298 11299 11300 11301 11302 11303 11304 11305 11306 11307 11308 11309 11310 11311 11312 11313 11314 11315 11316 11317 11318 11319 11320 11321 11322 11323 11324 11325 11326 11327 11328 11329 11330 11331 11332 11333 11334 11335 11336 11337 11338 11339 11340 11341 11342 11343 11344 11345 11346 11347 11348 11349 11350 11351 11352 11353 11354 11355 11356 11357 11358 11359 11360 11361 11362 11363 11364 11365 11366 11367 11368 11369 11370 11371 11372 11373 11374 11375 11376 11377 11378 11379 11380 11381 11382 11383 11384 11385 11386 11387 11388 11389 11390 11391 11392 11393 11394 11395 11396 11397 11398 11399 11400 11401 11402 11403 11404 11405 11406 11407 11408 11409 11410 11411 11412 11413 11414 11415 11416 11417 11418 11419 11420 11421 11422 11423 11424 11425 11426 11427 11428 11429 11430 11431 11432 11433 11434 11435 11436 11437 11438 11439 11440 11441 11442 11443 11444 11445 11446 11447 11448 11449 11450 11451 11452 11453 11454 11455 11456 11457 11458 11459 11460 11461 11462 11463 11464 11465 11466 11467 11468 11469 11470 11471 11472 11473 11474 11475 11476 11477 11478 11479 11480 11481 11482 11483 11484 11485 11486 11487 11488 11489 11490 11491 11492 11493 11494 11495 11496 11497 11498 11499 11500 11501 11502 11503 11504 11505 11506 11507 11508 11509 11510 11511 11512 11513 11514 11515 11516 11517 11518 11519 11520 11521 11522 11523 11524 11525 11526 11527 11528 11529 11530 11531 11532 11533 11534 11535 11536 11537 11538 11539 11540 11541 11542 11543 11544 11545 11546 11547 11548 11549 11550 11551 11552 11553 11554 11555 11556 11557 11558 11559 11560 11561 11562 11563 11564 11565 11566 11567 11568 11569 11570 11571 11572 11573 11574 11575 11576 11577 11578 11579 11580 11581 11582 11583 11584 11585 11586 11587 11588 11589 11590 11591 11592 11593 11594 11595 11596 11597 11598 11599 11600 11601 11602 11603 11604 11605 11606 11607 11608 11609 11610 11611 11612 11613 11614 11615 11616 11617 11618 11619 11620 11621 11622 11623 11624 11625 11626 11627 11628 11629 11630 11631 11632 11633 11634 11635 11636 11637 11638 11639 11640 11641 11642 11643 11644 11645 11646 11647 11648 11649 11650 11651 11652 11653 11654 11655 11656 11657 11658 11659 11660 11661 11662 11663 11664 11665 11666 11667 11668 11669 11670 11671 11672 11673 11674 11675 11676 11677 11678 11679 11680 11681 11682 11683 11684 11685 11686 11687 11688 11689 11690 11691 11692 11693 11694 11695 11696 11697 11698 11699 11700 11701 11702 11703 11704 11705 11706 11707 11708 11709 11710 11711 11712 11713 11714 11715 11716 11717 11718 11719 11720 11721 11722 11723 11724 11725 11726 11727 11728 11729 11730 11731 11732 11733 11734 11735 11736 11737 11738 11739 11740 11741 11742 11743 11744 11745 11746 11747 11748 11749 11750 11751 11752 11753 11754 11755 11756 11757 11758 11759 11760 11761 11762 11763 11764 11765 11766 11767 11768 11769 11770 11771 11772 11773 11774 11775 11776 11777 11778 11779 11780 11781 11782 11783 11784 11785 11786 11787 11788 11789 11790 11791 11792 11793 11794 11795 11796 11797 11798 11799 11800 11801 11802 11803 11804 11805 11806 11807 11808 11809 11810 11811 11812 11813 11814 11815 11816 11817 11818 11819 11820 11821 11822 11823 11824 11825 11826 11827 11828 11829 11830 11831 11832 11833 11834 11835 11836 11837 11838 11839 11840 11841 11842 11843 11844 11845 11846 11847 11848 11849 11850 11851 11852 11853 11854 11855 11856 11857 11858 11859 11860 11861 11862 11863 11864 11865 11866 11867 11868 11869 11870 11871 11872 11873 11874 11875 11876 11877 11878 11879 11880 11881 11882 11883 11884 11885 11886 11887 11888 11889 11890 11891 11892 11893 11894 11895 11896 11897 11898 11899 11900 11901 11902 11903 11904 11905 11906 11907 11908 11909 11910 11911 11912 11913 11914 11915 11916 11917 11918 11919 11920 11921 11922 11923 11924 11925 11926 11927 11928 11929 11930 11931 11932 11933 11934 11935 11936 11937 11938 11939 11940 11941 11942 11943 11944 11945 11946 11947 11948 11949 11950 11951 11952 11953 11954 11955 11956 11957 11958 11959 11960 11961 11962 11963 11964 11965 11966 11967 11968 11969 11970 11971 11972 11973 11974 11975 11976 11977 11978 11979 11980 11981 11982 11983 11984 11985 11986 11987 11988 11989 11990 11991 11992 11993 11994 11995 11996 11997 11998 11999 12000 12001 12002 12003 12004 12005 12006 12007 12008 12009 12010 12011 12012 12013 12014 12015 12016 12017 12018 12019 12020 12021 12022 12023 12024 12025 12026 12027 12028 12029 12030 12031 12032 12033 12034 12035 12036 12037 12038 12039 12040 12041 12042 12043 12044 12045 12046 12047 12048 12049 12050 12051 12052 12053 12054 12055 12056 12057 12058 12059 12060 12061 12062 12063 12064 12065 12066 12067 12068 12069 12070 12071 12072 12073 12074 12075 12076 12077 12078 12079 12080 12081 12082 12083 12084 12085 12086 12087 12088 12089 12090 12091 12092 12093 12094 12095 12096 12097 12098 12099 12100 12101 12102 12103 12104 12105 12106 12107 12108 12109 12110 12111 12112 12113 12114 12115 12116 12117 12118 12119 12120 12121 12122 12123 12124 12125 12126 12127 12128 12129 12130 12131 12132 12133 12134 12135 12136 12137 12138 12139 12140 12141 12142 12143 12144 12145 12146 12147 12148 12149 12150 12151 12152 12153 12154 12155 12156 12157 12158 12159 12160 12161 12162 12163 12164 12165 12166 12167 12168 12169 12170 12171 12172 12173 12174 12175 12176 12177 12178 12179 12180 12181 12182 12183 12184 12185 12186 12187 12188 12189 12190 12191 12192 12193 12194 12195 12196 12197 12198 12199 12200 12201 12202 12203 12204 12205 12206 12207 12208 12209 12210 12211 12212 12213 12214 12215 12216 12217 12218 12219 12220 12221 12222 12223 12224 12225 12226 12227 12228 12229 12230 12231 12232 12233 12234 12235 12236 12237 12238 12239 12240 12241 12242 12243 12244 12245 12246 12247 12248 12249 12250 12251 12252 12253 12254 12255 12256 12257 12258 12259 12260 12261 12262 12263 12264 12265 12266 12267 12268 12269 12270 12271 12272 12273 12274 12275 12276 12277 12278 12279 12280 12281 12282 12283 12284 12285 12286 12287 12288 12289 12290 12291 12292 12293 12294 12295 12296 12297 12298 12299 12300 12301 12302 12303 12304 12305 12306 12307 12308 12309 12310 12311 12312 12313 12314 12315 12316 12317 12318 12319 12320 12321 12322 12323 12324 12325 12326 12327 12328 12329 12330 12331 12332 12333 12334 12335 12336 12337 12338 12339 12340 12341 12342 12343 12344 12345 12346 12347 12348 12349 12350 12351 12352 12353 12354 12355 12356 12357 12358 12359 12360 12361 12362 12363 12364 12365 12366 12367 12368 12369 12370 12371 12372 12373 12374 12375 12376 12377 12378 12379 12380 12381 12382 12383 12384 12385 12386 12387 12388 12389 12390 12391 12392 12393 12394 12395 12396 12397 12398 12399 12400 12401 12402 12403 12404 12405 12406 12407 12408 12409 12410 12411 12412 12413 12414 12415 12416 12417 12418 12419 12420 12421 12422 12423 12424 12425 12426 12427 12428 12429 12430 12431 12432 12433 12434 12435 12436 12437 12438 12439 12440 12441 12442 12443 12444 12445 12446 12447 12448 12449 12450 12451 12452 12453 12454 12455 12456 12457 12458 12459 12460 12461 12462 12463 12464 12465 12466 12467 12468 12469 12470 12471 12472 12473 12474 12475 12476 12477 12478 12479 12480 12481 12482 12483 12484 12485 12486 12487 12488 12489 12490 12491 12492 12493 12494 12495 12496 12497 12498 12499 12500 12501 12502 12503 12504 12505 12506 12507 12508 12509 12510 12511 12512 12513 12514 12515 12516 12517 12518 12519 12520 12521 12522 12523 12524 12525 12526 12527 12528 12529 12530 12531 12532 12533 12534 12535 12536 12537 12538 12539 12540 12541 12542 12543 12544 12545 12546 12547 12548 12549 12550 12551 12552 12553 12554 12555 12556 12557 12558 12559 12560 12561 12562 12563 12564 12565 12566 12567 12568 12569 12570 12571 12572 12573 12574 12575 12576 12577 12578 12579 12580 12581 12582 12583 12584 12585 12586 12587 12588 12589 12590 12591 12592 12593 12594 12595 12596 12597 12598 12599 12600 12601 12602 12603 12604 12605 12606 12607 12608 12609 12610 12611 12612 12613 12614 12615 12616 12617 12618 12619 12620 12621 12622 12623 12624 12625 12626 12627 12628 12629 12630 12631 12632 12633 12634 12635 12636 12637 12638 12639 12640 12641 12642 12643 12644 12645 12646 12647 12648 12649 12650 12651 12652 12653 12654 12655 12656 12657 12658 12659 12660 12661 12662 12663 12664 12665 12666 12667 12668 12669 12670 12671 12672 12673 12674 12675 12676 12677 12678 12679 12680 12681 12682 12683 12684 12685 12686 12687 12688 12689 12690 12691 12692 12693 12694 12695 12696 12697 12698 12699 12700 12701 12702 12703 12704 12705 12706 12707 12708 12709 12710 12711 12712 12713 12714 12715 12716 12717 12718 12719 12720 12721 12722 12723 12724 12725 12726 12727 12728 12729 12730 12731 12732 12733 12734 12735 12736 12737 12738 12739 12740 12741 12742 12743 12744 12745 12746 12747 12748 12749 12750 12751 12752 12753 12754 12755 12756 12757 12758 12759 12760 12761 12762 12763 12764 12765 12766 12767 12768 12769 12770 12771 12772 12773 12774 12775 12776 12777 12778 12779 12780 12781 12782 12783 12784 12785 12786 12787 12788 12789 12790 12791 12792 12793 12794 12795 12796 12797 12798 12799 12800 12801 12802 12803 12804 12805 12806 12807 12808 12809 12810 12811 12812 12813 12814 12815 12816 12817 12818 12819 12820 12821 12822 12823 12824 12825 12826 12827 12828 12829 12830 12831 12832 12833 12834 12835 12836 12837 12838 12839 12840 12841 12842 12843 12844 12845 12846 12847 12848 12849 12850 12851 12852 12853 12854 12855 12856 12857 12858 12859 12860 12861 12862 12863 12864 12865 12866 12867 12868 12869 12870 12871 12872 12873 12874 12875 12876 12877 12878 12879 12880 12881 12882 12883 12884 12885 12886 12887 12888 12889 12890 12891 12892 12893 12894 12895 12896 12897 12898 12899 12900 12901 12902 12903 12904 12905 12906 12907 12908 12909 12910 12911 12912 12913 12914 12915 12916 12917 12918 12919 12920 12921 12922 12923 12924 12925 12926 12927 12928 12929 12930 12931 12932 12933 12934 12935 12936 12937 12938 12939 12940 12941 12942 12943 12944 12945 12946 12947 12948 12949 12950 12951 12952 12953 12954 12955 12956 12957 12958 12959 12960 12961 12962 12963 12964 12965 12966 12967 12968 12969 12970 12971 12972 12973 12974 12975 12976 12977 12978 12979 12980 12981 12982 12983 12984 12985 12986 12987 12988 12989 12990 12991 12992 12993 12994 12995 12996 12997 12998 12999 13000 13001 13002 13003 13004 13005 13006 13007 13008 13009 13010 13011 13012 13013 13014 13015 13016 13017 13018 13019 13020 13021 13022 13023 13024 13025 13026 13027 13028 13029 13030 13031 13032 13033 13034 13035 13036 13037 13038 13039 13040 13041 13042 13043 13044 13045 13046 13047 13048 13049 13050 13051 13052 13053 13054 13055 13056 13057 13058 13059 13060 13061 13062 13063 13064 13065 13066 13067 13068 13069 13070 13071 13072 13073 13074 13075 13076 13077 13078 13079 13080 13081 13082 13083 13084 13085 13086 13087 13088 13089 13090 13091 13092 13093 13094 13095 13096 13097 13098 13099 13100 13101 13102 13103 13104 13105 13106 13107 13108 13109 13110 13111 13112 13113 13114 13115 13116 13117 13118 13119 13120 13121 13122 13123 13124 13125 13126 13127 13128 13129 13130 13131 13132 13133 13134 13135 13136 13137 13138 13139 13140 13141 13142 13143 13144 13145 13146 13147 13148 13149 13150 13151 13152 13153 13154 13155 13156 13157 13158 13159 13160 13161 13162 13163 13164 13165 13166 13167 13168 13169 13170 13171 13172 13173 13174 13175 13176 13177 13178 13179 13180 13181 13182 13183 13184 13185 13186 13187 13188 13189 13190 13191 13192 13193 13194 13195 13196 13197 13198 13199 13200 13201 13202 13203 13204 13205 13206 13207 13208 13209 13210 13211 13212 13213 13214 13215 13216 13217 13218 13219 13220 13221 13222 13223 13224 13225 13226 13227 13228 13229 13230 13231 13232 13233 13234 13235 13236 13237 13238 13239 13240 13241 13242 13243 13244 13245 13246 13247 13248 13249 13250 13251 13252 13253 13254 13255 13256 13257 13258 13259 13260 13261 13262 13263 13264 13265 13266 13267 13268 13269 13270 13271 13272 13273 13274 13275 13276 13277 13278 13279 13280 13281 13282 13283 13284 13285 13286 13287 13288 13289 13290 13291 13292 13293 13294 13295 13296 13297 13298 13299 13300 13301 13302 13303 13304 13305 13306 13307 13308 13309 13310 13311 13312 13313 13314 13315 13316 13317 13318 13319 13320 13321 13322 13323 13324 13325 13326 13327 13328 13329 13330 13331 13332 13333 13334 13335 13336 13337 13338 13339 13340 13341 13342 13343 13344 13345 13346 13347 13348 13349 13350 13351 13352 13353 13354 13355 13356 13357 13358 13359 13360 13361 13362 13363 13364 13365 13366 13367 13368 13369 13370 13371 13372 13373 13374 13375 13376 13377 13378 13379 13380 13381 13382 13383 13384 13385 13386 13387 13388 13389 13390 13391 13392 13393 13394 13395 13396 13397 13398 13399 13400 13401 13402 13403 13404 13405 13406 13407 13408 13409 13410 13411 13412 13413 13414 13415 13416 13417 13418 13419 13420 13421 13422 13423 13424 13425 13426 13427 13428 13429 13430 13431 13432 13433 13434 13435 13436 13437 13438 13439 13440 13441 13442 13443 13444 13445 13446 13447 13448 13449 13450 13451 13452 13453 13454 13455 13456 13457 13458 13459 13460 13461 13462 13463 13464 13465 13466 13467 13468 13469 13470 13471 13472 13473 13474 13475 13476 13477 13478 13479 13480 13481 13482 13483 13484 13485 13486 13487 13488 13489 13490 13491 13492 13493 13494 13495 13496 13497 13498 13499 13500 13501 13502 13503 13504 13505 13506 13507 13508 13509 13510 13511 13512 13513 13514 13515 13516 13517 13518 13519 13520 13521 13522 13523 13524 13525 13526 13527 13528 13529 13530 13531 13532 13533 13534 13535 13536 13537 13538 13539 13540 13541 13542 13543 13544 13545 13546 13547 13548 13549 13550 13551 13552 13553 13554 13555 13556 13557 13558 13559 13560 13561 13562 13563 13564 13565 13566 13567 13568 13569 13570 13571 13572 13573 13574 13575 13576 13577 13578 13579 13580 13581 13582 13583 13584 13585 13586 13587 13588 13589 13590 13591 13592 13593 13594 13595 13596 13597 13598 13599 13600 13601 13602 13603 13604 13605 13606 13607 13608 13609 13610 13611 13612 13613 13614 13615 13616 13617 13618 13619 13620 13621 13622 13623 13624 13625 13626 13627 13628 13629 13630 13631 13632 13633 13634 13635 13636 13637 13638 13639 13640 13641 13642 13643 13644 13645 13646 13647 13648 13649 13650 13651 13652 13653 13654 13655 13656 13657 13658 13659 13660 13661 13662 13663 13664 13665 13666 13667 13668 13669 13670 13671 13672 13673 13674 13675 13676 13677 13678 13679 13680 13681 13682 13683 13684 13685 13686 13687 13688 13689 13690 13691 13692 13693 13694 13695 13696 13697 13698 13699 13700 13701 13702 13703 13704 13705 13706 13707 13708 13709 13710 13711 13712 13713 13714 13715 13716 13717 13718 13719 13720 13721 13722 13723 13724 13725 13726 13727 13728 13729 13730 13731 13732 13733 13734 13735 13736 13737 13738 13739 13740 13741 13742 13743 13744 13745 13746 13747 13748 13749 13750 13751 13752 13753 13754 13755 13756 13757 13758 13759 13760 13761 13762 13763 13764 13765 13766 13767 13768 13769 13770 13771 13772 13773 13774 13775 13776 13777 13778 13779 13780 13781 13782 13783 13784 13785 13786 13787 13788 13789 13790 13791 13792 13793 13794 13795 13796 13797 13798 13799 13800 13801 13802 13803 13804 13805 13806 13807 13808 13809 13810 13811 13812 13813 13814 13815 13816 13817 13818 13819 13820 13821 13822 13823 13824 13825 13826 13827 13828 13829 13830 13831 13832 13833 13834 13835 13836 13837 13838 13839 13840 13841 13842 13843 13844 13845 13846 13847 13848 13849 13850 13851 13852 13853 13854 13855 13856 13857 13858 13859 13860 13861 13862 13863 13864 13865 13866 13867 13868 13869 13870 13871 13872 13873 13874 13875 13876 13877 13878 13879 13880 13881 13882 13883 13884 13885 13886 13887 13888 13889 13890 13891 13892 13893 13894 13895 13896 13897 13898 13899 13900 13901 13902 13903 13904 13905 13906 13907 13908 13909 13910 13911 13912 13913 13914 13915 13916 13917 13918 13919 13920 13921 13922 13923 13924 13925 13926 13927 13928 13929 13930 13931 13932 13933 13934 13935 13936 13937 13938 13939 13940 13941 13942 13943 13944 13945 13946 13947 13948 13949 13950 13951 13952 13953 13954 13955 13956 13957 13958 13959 13960 13961 13962 13963 13964 13965 13966 13967 13968 13969 13970 13971 13972 13973 13974 13975 13976 13977 13978 13979 13980 13981 13982 13983 13984 13985 13986 13987 13988 13989 13990 13991 13992 13993 13994 13995 13996 13997 13998 13999 14000 14001 14002 14003 14004 14005 14006 14007 14008 14009 14010 14011 14012 14013 14014 14015 14016 14017 14018 14019 14020 14021 14022 14023 14024 14025 14026 14027 14028 14029 14030 14031 14032 14033 14034 14035 14036 14037 14038 14039 14040 14041 14042 14043 14044 14045 14046 14047 14048 14049 14050 14051 14052 14053 14054 14055 14056 14057 14058 14059 14060 14061 14062 14063 14064 14065 14066 14067 14068 14069 14070 14071 14072 14073 14074 14075 14076 14077 14078 14079 14080 14081 14082 14083 14084 14085 14086 14087 14088 14089 14090 14091 14092 14093 14094 14095 14096 14097 14098 14099 14100 14101 14102 14103 14104 14105 14106 14107 14108 14109 14110 14111 14112 14113 14114 14115 14116 14117 14118 14119 14120 14121 14122 14123 14124 14125 14126 14127 14128 14129 14130 14131 14132 14133 14134 14135 14136 14137 14138 14139 14140 14141 14142 14143 14144 14145 14146 14147 14148 14149 14150 14151 14152 14153 14154 14155 14156 14157 14158 14159 14160 14161 14162 14163 14164 14165 14166 14167 14168 14169 14170 14171 14172 14173 14174 14175 14176 14177 14178 14179 14180 14181 14182 14183 14184 14185 14186 14187 14188 14189 14190 14191 14192 14193 14194 14195 14196 14197 14198 14199 14200 14201 14202 14203 14204 14205 14206 14207 14208 14209 14210 14211 14212 14213 14214 14215 14216 14217 14218 14219 14220 14221 14222 14223 14224 14225 14226 14227 14228 14229 14230 14231 14232 14233 14234 14235 14236 14237 14238 14239 14240 14241 14242 14243 14244 14245 14246 14247 14248 14249 14250 14251 14252 14253 14254 14255 14256 14257 14258 14259 14260 14261 14262 14263 14264 14265 14266 14267 14268 14269 14270 14271 14272 14273 14274 14275 14276 14277 14278 14279 14280 14281 14282 14283 14284 14285 14286 14287 14288 14289 14290 14291 14292 14293 14294 14295 14296 14297 14298 14299 14300 14301 14302 14303 14304 14305 14306 14307 14308 14309 14310 14311 14312 14313 14314 14315 14316 14317 14318 14319 14320 14321 14322 14323 14324 14325 14326 14327 14328 14329 14330 14331 14332 14333 14334 14335 14336 14337 14338 14339 14340 14341 14342 14343 14344 14345 14346 14347 14348 14349 14350 14351 14352 14353 14354 14355 14356 14357 14358 14359 14360 14361 14362 14363 14364 14365 14366 14367 14368 14369 14370 14371 14372 14373 14374 14375 14376 14377 14378 14379 14380 14381 14382 14383 14384 14385 14386 14387 14388 14389 14390 14391 14392 14393 14394 14395 14396 14397 14398 14399 14400 14401 14402 14403 14404 14405 14406 14407 14408 14409 14410 14411 14412 14413 14414 14415 14416 14417 14418 14419 14420 14421 14422 14423 14424 14425 14426 14427 14428 14429 14430 14431 14432 14433 14434 14435 14436 14437 14438 14439 14440 14441 14442 14443 14444 14445 14446 14447 14448 14449 14450 14451 14452 14453 14454 14455 14456 14457 14458 14459 14460 14461 14462 14463 14464 14465 14466 14467 14468 14469 14470 14471 14472 14473 14474 14475 14476 14477 14478 14479 14480 14481 14482 14483 14484 14485 14486 14487 14488 14489 14490 14491 14492 14493 14494 14495 14496 14497 14498 14499 14500 14501 14502 14503 14504 14505 14506 14507 14508 14509 14510 14511 14512 14513 14514 14515 14516 14517 14518 14519 14520 14521 14522 14523 14524 14525 14526 14527 14528 14529 14530 14531 14532 14533 14534 14535 14536 14537 14538 14539 14540 14541 14542 14543 14544 14545 14546 14547 14548 14549 14550 14551 14552 14553 14554 14555 14556 14557 14558 14559 14560 14561 14562 14563 14564 14565 14566 14567 14568 14569 14570 14571 14572 14573 14574 14575 14576 14577 14578 14579 14580 14581 14582 14583 14584 14585 14586 14587 14588 14589 14590 14591 14592 14593 14594 14595 14596 14597 14598 14599 14600 14601 14602 14603 14604 14605 14606 14607 14608 14609 14610 14611 14612 14613 14614 14615 14616 14617 14618 14619 14620 14621 14622 14623 14624 14625 14626 14627 14628 14629 14630 14631 14632 14633 14634 14635 14636 14637 14638 14639 14640 14641 14642 14643 14644 14645 14646 14647 14648 14649 14650 14651 14652 14653 14654 14655 14656 14657 14658 14659 14660 14661 14662 14663 14664 14665 14666 14667 14668 14669 14670 14671 14672 14673 14674 14675 14676 14677 14678 14679 14680 14681 14682 14683 14684 14685 14686 14687 14688 14689 14690 14691 14692 14693 14694 14695 14696 14697 14698 14699 14700 14701 14702 14703 14704 14705 14706 14707 14708 14709 14710 14711 14712 14713 14714 14715 14716 14717 14718 14719 14720 14721 14722 14723 14724 14725 14726 14727 14728 14729 14730 14731 14732 14733 14734 14735 14736 14737 14738 14739 14740 14741 14742 14743 14744 14745 14746 14747 14748 14749 14750 14751 14752 14753 14754 14755 14756 14757 14758 14759 14760 14761 14762 14763 14764 14765 14766 14767 14768 14769 14770 14771 14772 14773 14774 14775 14776 14777 14778 14779 14780 14781 14782 14783 14784 14785 14786 14787 14788 14789 14790 14791 14792 14793 14794 14795 14796 14797 14798 14799 14800 14801 14802 14803 14804 14805 14806 14807 14808 14809 14810 14811 14812 14813 14814 14815 14816 14817 14818 14819 14820 14821 14822 14823 14824 14825 14826 14827 14828 14829 14830 14831 14832 14833 14834 14835 14836 14837 14838 14839 14840 14841 14842 14843 14844 14845 14846 14847 14848 14849 14850 14851 14852 14853 14854 14855 14856 14857 14858 14859 14860 14861 14862 14863 14864 14865 14866 14867 14868 14869 14870 14871 14872 14873 14874 14875 14876 14877 14878 14879 14880 14881 14882 14883 14884 14885 14886 14887 14888 14889 14890 14891 14892 14893 14894 14895 14896 14897 14898 14899 14900 14901 14902 14903 14904 14905 14906 14907 14908 14909 14910 14911 14912 14913 14914 14915 14916 14917 14918 14919 14920 14921 14922 14923 14924 14925 14926 14927 14928 14929 14930 14931 14932 14933 14934 14935 14936 14937 14938 14939 14940 14941 14942 14943 14944 14945 14946 14947 14948 14949 14950 14951 14952 14953 14954 14955 14956 14957 14958 14959 14960 14961 14962 14963 14964 14965 14966 14967 14968 14969 14970 14971 14972 14973 14974 14975 14976 14977 14978 14979 14980 14981 14982 14983 14984 14985 14986 14987 14988 14989 14990 14991 14992 14993 14994 14995 14996 14997 14998 14999 15000 15001 15002 15003 15004 15005 15006 15007 15008 15009 15010 15011 15012 15013 15014 15015 15016 15017 15018 15019 15020 15021 15022 15023 15024 15025 15026 15027 15028 15029 15030 15031 15032 15033 15034 15035 15036 15037 15038 15039 15040 15041 15042 15043 15044 15045 15046 15047 15048 15049 15050 15051 15052 15053 15054 15055 15056 15057 15058 15059 15060 15061 15062 15063 15064 15065 15066 15067 15068 15069 15070 15071 15072 15073 15074 15075 15076 15077 15078 15079 15080 15081 15082 15083 15084 15085 15086 15087 15088 15089 15090 15091 15092 15093 15094 15095 15096 15097 15098 15099 15100 15101 15102 15103 15104 15105 15106 15107 15108 15109 15110 15111 15112 15113 15114 15115 15116 15117 15118 15119 15120 15121 15122 15123 15124 15125 15126 15127 15128 15129 15130 15131 15132 15133 15134 15135 15136 15137 15138 15139 15140 15141 15142 15143 15144 15145 15146 15147 15148 15149 15150 15151 15152 15153 15154 15155 15156 15157 15158 15159 15160 15161 15162 15163 15164 15165 15166 15167 15168 15169 15170 15171 15172 15173 15174 15175 15176 15177 15178 15179 15180 15181 15182 15183 15184 15185 15186 15187 15188 15189 15190 15191 15192 15193 15194 15195 15196 15197 15198 15199 15200 15201 15202 15203 15204 15205 15206 15207 15208 15209 15210 15211 15212 15213 15214 15215 15216 15217 15218 15219 15220 15221 15222 15223 15224 15225 15226 15227 15228 15229 15230 15231 15232 15233 15234 15235 15236 15237 15238 15239 15240 15241 15242 15243 15244 15245 15246 15247 15248 15249 15250 15251 15252 15253 15254 15255 15256 15257 15258 15259 15260 15261 15262 15263 15264 15265 15266 15267 15268 15269 15270 15271 15272 15273 15274 15275 15276 15277 15278 15279 15280 15281 15282 15283 15284 15285 15286 15287 15288 15289 15290 15291 15292 15293 15294 15295 15296 15297 15298 15299 15300 15301 15302 15303 15304 15305 15306 15307 15308 15309 15310 15311 15312 15313 15314 15315 15316 15317 15318 15319 15320 15321 15322 15323 15324 15325 15326 15327 15328 15329 15330 15331 15332 15333 15334 15335 15336 15337 15338 15339 15340 15341 15342 15343 15344 15345 15346 15347 15348 15349 15350 15351 15352 15353 15354 15355 15356 15357 15358 15359 15360 15361 15362 15363 15364 15365 15366 15367 15368 15369 15370 15371 15372 15373 15374 15375 15376 15377 15378 15379 15380 15381 15382 15383 15384 15385 15386 15387 15388 15389 15390 15391 15392 15393 15394 15395 15396 15397 15398 15399 15400 15401 15402 15403 15404 15405 15406 15407 15408 15409 15410 15411 15412 15413 15414 15415 15416 15417 15418 15419 15420 15421 15422 15423 15424 15425 15426 15427 15428 15429 15430 15431 15432 15433 15434 15435 15436 15437 15438 15439 15440 15441 15442 15443 15444 15445 15446 15447 15448 15449 15450 15451 15452 15453 15454 15455 15456 15457 15458 15459 15460 15461 15462 15463 15464 15465 15466 15467 15468 15469 15470 15471 15472 15473 15474 15475 15476 15477 15478 15479 15480 15481 15482 15483 15484 15485 15486 15487 15488 15489 15490 15491 15492 15493 15494 15495 15496 15497 15498 15499 15500 15501 15502 15503 15504 15505 15506 15507 15508 15509 15510 15511 15512 15513 15514 15515 15516 15517 15518 15519 15520 15521 15522 15523 15524 15525 15526 15527 15528 15529 15530 15531 15532 15533 15534 15535 15536 15537 15538 15539 15540 15541 15542 15543 15544 15545 15546 15547 15548 15549 15550 15551 15552 15553 15554 15555 15556 15557 15558 15559 15560 15561 15562 15563 15564 15565 15566 15567 15568 15569 15570 15571 15572 15573 15574 15575 15576 15577 15578 15579 15580 15581 15582 15583 15584 15585 15586 15587 15588 15589 15590 15591 15592 15593 15594 15595 15596 15597 15598 15599 15600 15601 15602 15603 15604 15605 15606 15607 15608 15609 15610 15611 15612 15613 15614 15615 15616 15617 15618 15619 15620 15621 15622 15623 15624 15625 15626 15627 15628 15629 15630 15631 15632 15633 15634 15635 15636 15637 15638 15639 15640 15641 15642 15643 15644 15645 15646 15647 15648 15649 15650 15651 15652 15653 15654 15655 15656 15657 15658 15659 15660 15661 15662 15663 15664 15665 15666 15667 15668 15669 15670 15671 15672 15673 15674 15675 15676 15677 15678 15679 15680 15681 15682 15683 15684 15685 15686 15687 15688 15689 15690 15691 15692 15693 15694 15695 15696 15697 15698 15699 15700 15701 15702 15703 15704 15705 15706 15707 15708 15709 15710 15711 15712 15713 15714 15715 15716 15717 15718 15719 15720 15721 15722 15723 15724 15725 15726 15727 15728 15729 15730 15731 15732 15733 15734 15735 15736 15737 15738 15739 15740 15741 15742 15743 15744 15745 15746 15747 15748 15749 15750 15751 15752 15753 15754 15755 15756 15757 15758 15759 15760 15761 15762 15763 15764 15765 15766 15767 15768 15769 15770 15771 15772 15773 15774 15775 15776 15777 15778 15779 15780 15781 15782 15783 15784 15785 15786 15787 15788 15789 15790 15791 15792 15793 15794 15795 15796 15797 15798 15799 15800 15801 15802 15803 15804 15805 15806 15807 15808 15809 15810 15811 15812 15813 15814 15815 15816 15817 15818 15819 15820 15821 15822 15823 15824 15825 15826 15827 15828 15829 15830 15831 15832 15833 15834 15835 15836 15837 15838 15839 15840 15841 15842 15843 15844 15845 15846 15847 15848 15849 15850 15851 15852 15853 15854 15855 15856 15857 15858 15859 15860 15861 15862 15863 15864 15865 15866 15867 15868 15869 15870 15871 15872 15873 15874 15875 15876 15877 15878 15879 15880 15881 15882 15883 15884 15885 15886 15887 15888 15889 15890 15891 15892 15893 15894 15895 15896 15897 15898 15899 15900 15901 15902 15903 15904 15905 15906 15907 15908 15909 15910 15911 15912 15913 15914 15915 15916 15917 15918 15919 15920 15921 15922 15923 15924 15925 15926 15927 15928 15929 15930 15931 15932 15933 15934 15935 15936 15937 15938 15939 15940 15941 15942 15943 15944 15945 15946 15947 15948 15949 15950 15951 15952 15953 15954 15955 15956 15957 15958 15959 15960 15961 15962 15963 15964 15965 15966 15967 15968 15969 15970 15971 15972 15973 15974 15975 15976 15977 15978 15979 15980 15981 15982 15983 15984 15985 15986 15987 15988 15989 15990 15991 15992 15993 15994 15995 15996 15997 15998 15999 16000 16001 16002 16003 16004 16005 16006 16007 16008 16009 16010 16011 16012 16013 16014 16015 16016 16017 16018 16019 16020 16021 16022 16023 16024 16025 16026 16027 16028 16029 16030 16031 16032 16033 16034 16035 16036 16037 16038 16039 16040 16041 16042 16043 16044 16045 16046 16047 16048 16049 16050 16051 16052 16053 16054 16055 16056 16057 16058 16059 16060 16061 16062 16063 16064 16065 16066 16067 16068 16069 16070 16071 16072 16073 16074 16075 16076 16077 16078 16079 16080 16081 16082 16083 16084 16085 16086 16087 16088 16089 16090 16091 16092 16093 16094 16095 16096 16097 16098 16099 16100 16101 16102 16103 16104 16105 16106 16107 16108 16109 16110 16111 16112 16113 16114 16115 16116 16117 16118 16119 16120 16121 16122 16123 16124 16125 16126 16127 16128 16129 16130 16131 16132 16133 16134 16135 16136 16137 16138 16139 16140 16141 16142 16143 16144 16145 16146 16147 16148 16149 16150 16151 16152 16153 16154 16155 16156 16157 16158 16159 16160 16161 16162 16163 16164 16165 16166 16167 16168 16169 16170 16171 16172 16173 16174 16175 16176 16177 16178 16179 16180 16181 16182 16183 16184 16185 16186 16187 16188 16189 16190 16191 16192 16193 16194 16195 16196 16197 16198 16199 16200 16201 16202 16203 16204 16205 16206 16207 16208 16209 16210 16211 16212 16213 16214 16215 16216 16217 16218 16219 16220 16221 16222 16223 16224 16225 16226 16227 16228 16229 16230 16231 16232 16233 16234 16235 16236 16237 16238 16239 16240 16241 16242 16243 16244 16245 16246 16247 16248 16249 16250 16251 16252 16253 16254 16255 16256 16257 16258 16259 16260 16261 16262 16263 16264 16265 16266 16267 16268 16269 16270 16271 16272 16273 16274 16275 16276 16277 16278 16279 16280 16281 16282 16283 16284 16285 16286 16287 16288 16289 16290 16291 16292 16293 16294 16295 16296 16297 16298 16299 16300 16301 16302 16303 16304 16305 16306 16307 16308 16309 16310 16311 16312 16313 16314 16315 16316 16317 16318 16319 16320 16321 16322 16323 16324 16325 16326 16327 16328 16329 16330 16331 16332 16333 16334 16335 16336 16337 16338 16339 16340 16341 16342 16343 16344 16345 16346 16347 16348 16349 16350 16351 16352 16353 16354 16355 16356 16357 16358 16359 16360 16361 16362 16363 16364 16365 16366 16367 16368 16369 16370 16371 16372 16373 16374 16375 16376 16377 16378 16379 16380 16381 16382 16383 16384 16385 16386 16387 16388 16389 16390 16391 16392 16393 16394 16395 16396 16397 16398 16399 16400 16401 16402 16403 16404 16405 16406 16407 16408 16409 16410 16411 16412 16413 16414 16415 16416 16417 16418 16419 16420 16421 16422 16423 16424 16425 16426 16427 16428 16429 16430 16431 16432 16433 16434 16435 16436 16437 16438 16439 16440 16441 16442 16443 16444 16445 16446 16447 16448 16449 16450 16451 16452 16453 16454 16455 16456 16457 16458 16459 16460 16461 16462 16463 16464 16465 16466 16467 16468 16469 16470 16471 16472 16473 16474 16475 16476 16477 16478 16479 16480 16481 16482 16483 16484 16485 16486 16487 16488 16489 16490 16491 16492 16493 16494 16495 16496 16497 16498 16499 16500 16501 16502 16503 16504 16505 16506 16507 16508 16509 16510 16511 16512 16513 16514 16515 16516 16517 16518 16519 16520 16521 16522 16523 16524 16525 16526 16527 16528 16529 16530 16531 16532 16533 16534 16535 16536 16537 16538 16539 16540 16541 16542 16543 16544 16545 16546 16547 16548 16549 16550 16551 16552 16553 16554 16555 16556 16557 16558 16559 16560 16561 16562 16563 16564 16565 16566 16567 16568 16569 16570 16571 16572 16573 16574 16575 16576 16577 16578 16579 16580 16581 16582 16583 16584 16585 16586 16587 16588 16589 16590 16591 16592 16593 16594 16595 16596 16597 16598 16599 16600 16601 16602 16603 16604 16605 16606 16607 16608 16609 16610 16611 16612 16613 16614 16615 16616 16617 16618 16619 16620 16621 16622 16623 16624 16625 16626 16627 16628 16629 16630 16631 16632 16633 16634 16635 16636 16637 16638 16639 16640 16641 16642 16643 16644 16645 16646 16647 16648 16649 16650 16651 16652 16653 16654 16655 16656 16657 16658 16659 16660 16661 16662 16663 16664 16665 16666 16667 16668 16669 16670 16671 16672 16673 16674 16675 16676 16677 16678 16679 16680 16681 16682 16683 16684 16685 16686 16687 16688 16689 16690 16691 16692 16693 16694 16695 16696 16697 16698 16699 16700 16701 16702 16703 16704 16705 16706 16707 16708 16709 16710 16711 16712 16713 16714 16715 16716 16717 16718 16719 16720 16721 16722 16723 16724 16725 16726 16727 16728 16729 16730 16731 16732 16733 16734 16735 16736 16737 16738 16739 16740 16741 16742 16743 16744 16745 16746 16747 16748 16749 16750 16751 16752 16753 16754 16755 16756 16757 16758 16759 16760 16761 16762 16763 16764 16765 16766 16767 16768 16769 16770 16771 16772 16773 16774 16775 16776 16777 16778 16779 16780 16781 16782 16783 16784 16785 16786 16787 16788 16789 16790 16791 16792 16793 16794 16795 16796 16797 16798 16799 16800 16801 16802 16803 16804 16805 16806 16807 16808 16809 16810 16811 16812 16813 16814 16815 16816 16817 16818 16819 16820 16821 16822 16823 16824 16825 16826 16827 16828 16829 16830 16831 16832 16833 16834 16835 16836 16837 16838 16839 16840 16841 16842 16843 16844 16845 16846 16847 16848 16849 16850 16851 16852 16853 16854 16855 16856 16857 16858 16859 16860 16861 16862 16863 16864 16865 16866 16867 16868 16869 16870 16871 16872 16873 16874 16875 16876 16877 16878 16879 16880 16881 16882 16883 16884 16885 16886 16887 16888 16889 16890 16891 16892 16893 16894 16895 16896 16897 16898 16899 16900 16901 16902 16903 16904 16905 16906 16907 16908 16909 16910 16911 16912 16913 16914 16915 16916 16917 16918 16919 16920 16921 16922 16923 16924 16925 16926 16927 16928 16929 16930 16931 16932 16933 16934 16935 16936 16937 16938 16939 16940 16941 16942 16943 16944 16945 16946 16947 16948 16949 16950 16951 16952 16953 16954 16955 16956 16957 16958 16959 16960 16961 16962 16963 16964 16965 16966 16967 16968 16969 16970 16971 16972 16973 16974 16975 16976 16977 16978 16979 16980 16981 16982 16983 16984 16985 16986 16987 16988 16989 16990 16991 16992 16993 16994 16995 16996 16997 16998 16999 17000 17001 17002 17003 17004 17005 17006 17007 17008 17009 17010 17011 17012 17013 17014 17015 17016 17017 17018 17019 17020 17021 17022 17023 17024 17025 17026 17027 17028 17029 17030 17031 17032 17033 17034 17035 17036 17037 17038 17039 17040 17041 17042 17043 17044 17045 17046 17047 17048 17049 17050 17051 17052 17053 17054 17055 17056 17057 17058 17059 17060 17061 17062 17063 17064 17065 17066 17067 17068 17069 17070 17071 17072 17073 17074 17075 17076 17077 17078 17079 17080 17081 17082 17083 17084 17085 17086 17087 17088 17089 17090 17091 17092 17093 17094 17095 17096 17097 17098 17099 17100 17101 17102 17103 17104 17105 17106 17107 17108 17109 17110 17111 17112 17113 17114 17115 17116 17117 17118 17119 17120 17121 17122 17123 17124 17125 17126 17127 17128 17129 17130 17131 17132 17133 17134 17135 17136 17137 17138 17139 17140 17141 17142 17143 17144 17145 17146 17147 17148 17149 17150 17151 17152 17153 17154 17155 17156 17157 17158 17159 17160 17161 17162 17163 17164 17165 17166 17167 17168 17169 17170 17171 17172 17173 17174 17175 17176 17177 17178 17179 17180 17181 17182 17183 17184 17185 17186 17187 17188 17189 17190 17191 17192 17193 17194 17195 17196 17197 17198 17199 17200 17201 17202 17203 17204 17205 17206 17207 17208 17209 17210 17211 17212 17213 17214 17215 17216 17217 17218 17219 17220 17221 17222 17223 17224 17225 17226 17227 17228 17229 17230 17231 17232 17233 17234 17235 17236 17237 17238 17239 17240 17241 17242 17243 17244 17245 17246 17247 17248 17249 17250 17251 17252 17253 17254 17255 17256 17257 17258 17259 17260 17261 17262 17263 17264 17265 17266 17267 17268 17269 17270 17271 17272 17273 17274 17275 17276 17277 17278 17279 17280 17281 17282 17283 17284 17285 17286 17287 17288 17289 17290 17291 17292 17293 17294 17295 17296 17297 17298 17299 17300 17301 17302 17303 17304 17305 17306 17307 17308 17309 17310 17311 17312 17313 17314 17315 17316 17317 17318 17319 17320 17321 17322 17323 17324 17325 17326 17327 17328 17329 17330 17331 17332 17333 17334 17335 17336 17337 17338 17339 17340 17341 17342 17343 17344 17345 17346 17347 17348 17349 17350 17351 17352 17353 17354 17355 17356 17357 17358 17359 17360 17361 17362 17363 17364 17365 17366 17367 17368 17369 17370 17371 17372 17373 17374 17375 17376 17377 17378 17379 17380 17381 17382 17383 17384 17385 17386 17387 17388 17389 17390 17391 17392 17393 17394 17395 17396 17397 17398 17399 17400 17401 17402 17403 17404 17405 17406 17407 17408 17409 17410 17411 17412 17413 17414 17415 17416 17417 17418 17419 17420 17421 17422 17423 17424 17425 17426 17427 17428 17429 17430 17431 17432 17433 17434 17435 17436 17437 17438 17439 17440 17441 17442 17443 17444 17445 17446 17447 17448 17449 17450 17451 17452 17453 17454 17455 17456 17457 17458 17459 17460 17461 17462 17463 17464 17465 17466 17467 17468 17469 17470 17471 17472 17473 17474 17475 17476 17477 17478 17479 17480 17481 17482 17483 17484 17485 17486 17487 17488 17489 17490 17491 17492 17493 17494 17495 17496 17497 17498 17499 17500 17501 17502 17503 17504 17505 17506 17507 17508 17509 17510 17511 17512 17513 17514 17515 17516 17517 17518 17519 17520 17521 17522 17523 17524 17525 17526 17527 17528 17529 17530 17531 17532 17533 17534 17535 17536 17537 17538 17539 17540 17541 17542 17543 17544 17545 17546 17547 17548 17549 17550 17551 17552 17553 17554 17555 17556 17557 17558 17559 17560 17561 17562 17563 17564 17565 17566 17567 17568 17569 17570 17571 17572 17573 17574 17575 17576 17577 17578 17579 17580 17581 17582 17583 17584 17585 17586 17587 17588 17589 17590 17591 17592 17593 17594 17595 17596 17597 17598 17599 17600 17601 17602 17603 17604 17605 17606 17607 17608 17609 17610 17611 17612 17613 17614 17615 17616 17617 17618 17619 17620 17621 17622 17623 17624 17625 17626 17627 17628 17629 17630 17631 17632 17633 17634 17635 17636 17637 17638 17639 17640 17641 17642 17643 17644 17645 17646 17647 17648 17649 17650 17651 17652 17653 17654 17655 17656 17657 17658 17659 17660 17661 17662 17663 17664 17665 17666 17667 17668 17669 17670 17671 17672 17673 17674 17675 17676 17677 17678 17679 17680 17681 17682 17683 17684 17685 17686 17687 17688 17689 17690 17691 17692 17693 17694 17695 17696 17697 17698 17699 17700 17701 17702 17703 17704 17705 17706 17707 17708 17709 17710 17711 17712 17713 17714 17715 17716 17717 17718 17719 17720 17721 17722 17723 17724 17725 17726 17727 17728 17729 17730 17731 17732 17733 17734 17735 17736 17737 17738 17739 17740 17741 17742 17743 17744 17745 17746 17747 17748 17749 17750 17751 17752 17753 17754 17755 17756 17757 17758 17759 17760 17761 17762 17763 17764 17765 17766 17767 17768 17769 17770 17771 17772 17773 17774 17775 17776 17777 17778 17779 17780 17781 17782 17783 17784 17785 17786 17787 17788 17789 17790 17791 17792 17793 17794 17795 17796 17797 17798 17799 17800 17801 17802 17803 17804 17805 17806 17807 17808 17809 17810 17811 17812 17813 17814 17815 17816 17817 17818 17819 17820 17821 17822 17823 17824 17825 17826 17827 17828 17829 17830 17831 17832 17833 17834 17835 17836 17837 17838 17839 17840 17841 17842 17843 17844 17845 17846 17847 17848 17849 17850 17851 17852 17853 17854 17855 17856 17857 17858 17859 17860 17861 17862 17863 17864 17865 17866 17867 17868 17869 17870 17871 17872 17873 17874 17875 17876 17877 17878 17879 17880 17881 17882 17883 17884 17885 17886 17887 17888 17889 17890 17891 17892 17893 17894 17895 17896 17897 17898 17899 17900 17901 17902 17903 17904 17905 17906 17907 17908 17909 17910 17911 17912 17913 17914 17915 17916 17917 17918 17919 17920 17921 17922 17923 17924 17925 17926 17927 17928 17929 17930 17931 17932 17933 17934 17935 17936 17937 17938 17939 17940 17941 17942 17943 17944 17945 17946 17947 17948 17949 17950 17951 17952 17953 17954 17955 17956 17957 17958 17959 17960 17961 17962 17963 17964 17965 17966 17967 17968 17969 17970 17971 17972 17973 17974 17975 17976 17977 17978 17979 17980 17981 17982 17983 17984 17985 17986 17987 17988 17989 17990 17991 17992 17993 17994 17995 17996 17997 17998 17999 18000 18001 18002 18003 18004 18005 18006 18007 18008 18009 18010 18011 18012 18013 18014 18015 18016 18017 18018 18019 18020 18021 18022 18023 18024 18025 18026 18027 18028 18029 18030 18031 18032 18033 18034 18035 18036 18037 18038 18039 18040 18041 18042 18043 18044 18045 18046 18047 18048 18049 18050 18051 18052 18053 18054 18055 18056 18057 18058 18059 18060 18061 18062 18063 18064 18065 18066 18067 18068 18069 18070 18071 18072 18073 18074 18075 18076 18077 18078 18079 18080 18081 18082 18083 18084 18085 18086 18087 18088 18089 18090 18091 18092 18093 18094 18095 18096 18097 18098 18099 18100 18101 18102 18103 18104 18105 18106 18107 18108 18109 18110 18111 18112 18113 18114 18115 18116 18117 18118 18119 18120 18121 18122 18123 18124 18125 18126 18127 18128 18129 18130 18131 18132 18133 18134 18135 18136 18137 18138 18139 18140 18141 18142 18143 18144 18145 18146 18147 18148 18149 18150 18151 18152 18153 18154 18155 18156 18157 18158 18159 18160 18161 18162 18163 18164 18165 18166 18167 18168 18169 18170 18171 18172 18173 18174 18175 18176 18177 18178 18179 18180 18181 18182 18183 18184 18185 18186 18187 18188 18189 18190 18191 18192 18193 18194 18195 18196 18197 18198 18199 18200 18201 18202 18203 18204 18205 18206 18207 18208 18209 18210 18211 18212 18213 18214 18215 18216 18217 18218 18219 18220 18221 18222 18223 18224 18225 18226 18227 18228 18229 18230 18231 18232 18233 18234 18235 18236 18237 18238 18239 18240 18241 18242 18243 18244 18245 18246 18247 18248 18249 18250 18251 18252 18253 18254 18255 18256 18257 18258 18259 18260 18261 18262 18263 18264 18265 18266 18267 18268 18269 18270 18271 18272 18273 18274 18275 18276 18277 18278 18279 18280 18281 18282 18283 18284 18285 18286 18287 18288 18289 18290 18291 18292 18293 18294 18295 18296 18297 18298 18299 18300 18301 18302 18303 18304 18305 18306 18307 18308 18309 18310 18311 18312 18313 18314 18315 18316 18317 18318 18319 18320 18321 18322 18323 18324 18325 18326 18327 18328 18329 18330 18331 18332 18333 18334 18335 18336 18337 18338 18339 18340 18341 18342 18343 18344 18345 18346 18347 18348 18349 18350 18351 18352 18353 18354 18355 18356 18357 18358 18359 18360 18361 18362 18363 18364 18365 18366 18367 18368 18369 18370 18371 18372 18373 18374 18375 18376 18377 18378 18379 18380 18381 18382 18383 18384 18385 18386 18387 18388 18389 18390 18391 18392 18393 18394 18395 18396 18397 18398 18399 18400 18401 18402 18403 18404 18405 18406 18407 18408 18409 18410 18411 18412 18413 18414 18415 18416 18417 18418 18419 18420 18421 18422 18423 18424 18425 18426 18427 18428 18429 18430 18431 18432 18433 18434 18435 18436 18437 18438 18439 18440 18441 18442 18443 18444 18445 18446 18447 18448 18449 18450 18451 18452 18453 18454 18455 18456 18457 18458 18459 18460 18461 18462 18463 18464 18465 18466 18467 18468 18469 18470 18471 18472 18473 18474 18475 18476 18477 18478 18479 18480 18481 18482 18483 18484 18485 18486 18487 18488 18489 18490 18491 18492 18493 18494 18495 18496 18497 18498 18499 18500 18501 18502 18503 18504 18505 18506 18507 18508 18509 18510 18511 18512 18513 18514 18515 18516 18517 18518 18519 18520 18521 18522 18523 18524 18525 18526 18527 18528 18529 18530 18531 18532 18533 18534 18535 18536 18537 18538 18539 18540 18541 18542 18543 18544 18545 18546 18547 18548 18549 18550 18551 18552 18553 18554 18555 18556 18557 18558 18559 18560 18561 18562 18563 18564 18565 18566 18567 18568 18569 18570 18571 18572 18573 18574 18575 18576 18577 18578 18579 18580 18581 18582 18583 18584 18585 18586 18587 18588 18589 18590 18591 18592 18593 18594 18595 18596 18597 18598 18599 18600 18601 18602 18603 18604 18605 18606 18607 18608 18609 18610 18611 18612 18613 18614 18615 18616 18617 18618 18619 18620 18621 18622 18623 18624 18625 18626 18627 18628 18629 18630 18631 18632 18633 18634 18635 18636 18637 18638 18639 18640 18641 18642 18643 18644 18645 18646 18647 18648 18649 18650 18651 18652 18653 18654 18655 18656 18657 18658 18659 18660 18661 18662 18663 18664 18665 18666 18667 18668 18669 18670 18671 18672 18673 18674 18675 18676 18677 18678 18679 18680 18681 18682 18683 18684 18685 18686 18687 18688 18689 18690 18691 18692 18693 18694 18695 18696 18697 18698 18699 18700 18701 18702 18703 18704 18705 18706 18707 18708 18709 18710 18711 18712 18713 18714 18715 18716 18717 18718 18719 18720 18721 18722 18723 18724 18725 18726 18727 18728 18729 18730 18731 18732 18733 18734 18735 18736 18737 18738 18739 18740 18741 18742 18743 18744 18745 18746 18747 18748 18749 18750 18751 18752 18753 18754 18755 18756 18757 18758 18759 18760 18761 18762 18763 18764 18765 18766 18767 18768 18769 18770 18771 18772 18773 18774 18775 18776 18777 18778 18779 18780 18781 18782 18783 18784 18785 18786 18787 18788 18789 18790 18791 18792 18793 18794 18795 18796 18797 18798 18799 18800 18801 18802 18803 18804 18805 18806 18807 18808 18809 18810 18811 18812 18813 18814 18815 18816 18817 18818 18819 18820 18821 18822 18823 18824 18825 18826 18827 18828 18829 18830 18831 18832 18833 18834 18835 18836 18837 18838 18839 18840 18841 18842 18843 18844 18845 18846 18847 18848 18849 18850 18851 18852 18853 18854 18855 18856 18857 18858 18859 18860 18861 18862 18863 18864 18865 18866 18867 18868 18869 18870 18871 18872 18873 18874 18875 18876 18877 18878 18879 18880 18881 18882 18883 18884 18885 18886 18887 18888 18889 18890 18891 18892 18893 18894 18895 18896 18897 18898 18899 18900 18901 18902 18903 18904 18905 18906 18907 18908 18909 18910 18911 18912 18913 18914 18915 18916 18917 18918 18919 18920 18921 18922 18923 18924 18925 18926 18927 18928 18929 18930 18931 18932 18933 18934 18935 18936 18937 18938 18939 18940 18941 18942 18943 18944 18945 18946 18947 18948 18949 18950 18951 18952 18953 18954 18955 18956 18957 18958 18959 18960 18961 18962 18963 18964 18965 18966 18967 18968 18969 18970 18971 18972 18973 18974 18975 18976 18977 18978 18979 18980 18981 18982 18983 18984 18985 18986 18987 18988 18989 18990 18991 18992 18993 18994 18995 18996 18997 18998 18999 19000 19001 19002 19003 19004 19005 19006 19007 19008 19009 19010 19011 19012 19013 19014 19015 19016 19017 19018 19019 19020 19021 19022 19023 19024 19025 19026 19027 19028 19029 19030 19031 19032 19033 19034 19035 19036 19037 19038 19039 19040 19041 19042 19043 19044 19045 19046 19047 19048 19049 19050 19051 19052 19053 19054 19055 19056 19057 19058 19059 19060 19061 19062 19063 19064 19065 19066 19067 19068 19069 19070 19071 19072 19073 19074 19075 19076 19077 19078 19079 19080 19081 19082 19083 19084 19085 19086 19087 19088 19089 19090 19091 19092 19093 19094 19095 19096 19097 19098 19099 19100 19101 19102 19103 19104 19105 19106 19107 19108 19109 19110 19111 19112 19113 19114 19115 19116 19117 19118 19119 19120 19121 19122 19123 19124 19125 19126 19127 19128 19129 19130 19131 19132 19133 19134 19135 19136 19137 19138 19139 19140 19141 19142 19143 19144 19145 19146 19147 19148 19149 19150 19151 19152 19153 19154 19155 19156 19157 19158 19159 19160 19161 19162 19163 19164 19165 19166 19167 19168 19169 19170 19171 19172 19173 19174 19175 19176 19177 19178 19179 19180 19181 19182 19183 19184 19185 19186 19187 19188 19189 19190 19191 19192 19193 19194 19195 19196 19197 19198 19199 19200 19201 19202 19203 19204 19205 19206 19207 19208 19209 19210 19211 19212 19213 19214 19215 19216 19217 19218 19219 19220 19221 19222 19223 19224 19225 19226 19227 19228 19229 19230 19231 19232 19233 19234 19235 19236 19237 19238 19239 19240 19241 19242 19243 19244 19245 19246 19247 19248 19249 19250 19251 19252 19253 19254 19255 19256 19257 19258 19259 19260 19261 19262 19263 19264 19265 19266 19267 19268 19269 19270 19271 19272 19273 19274 19275 19276 19277 19278 19279 19280 19281 19282 19283 19284 19285 19286 19287 19288 19289 19290 19291 19292 19293 19294 19295 19296 19297 19298 19299 19300 19301 19302 19303 19304 19305 19306 19307 19308 19309 19310 19311 19312 19313 19314 19315 19316 19317 19318 19319 19320 19321 19322 19323 19324 19325 19326 19327 19328 19329 19330 19331 19332 19333 19334 19335 19336 19337 19338 19339 19340 19341 19342 19343 19344 19345 19346 19347 19348 19349 19350 19351 19352 19353 19354 19355 19356 19357 19358 19359 19360 19361 19362 19363 19364 19365 19366 19367 19368 19369 19370 19371 19372 19373 19374 19375 19376 19377 19378 19379 19380 19381 19382 19383 19384 19385 19386 19387 19388 19389 19390 19391 19392 19393 19394 19395 19396 19397 19398 19399 19400 19401 19402 19403 19404 19405 19406 19407 19408 19409 19410 19411 19412 19413 19414 19415 19416 19417 19418 19419 19420 19421 19422 19423 19424 19425 19426 19427 19428 19429 19430 19431 19432 19433 19434 19435 19436 19437 19438 19439 19440 19441 19442 19443 19444 19445 19446 19447 19448 19449 19450 19451 19452 19453 19454 19455 19456 19457 19458 19459 19460 19461 19462 19463 19464 19465 19466 19467 19468 19469 19470 19471 19472 19473 19474 19475 19476 19477 19478 19479 19480 19481 19482 19483 19484 19485 19486 19487 19488 19489 19490 19491 19492 19493 19494 19495 19496 19497 19498 19499 19500 19501 19502 19503 19504 19505 19506 19507 19508 19509 19510 19511 19512 19513 19514 19515 19516 19517 19518 19519 19520 19521 19522 19523 19524 19525 19526 19527 19528 19529 19530 19531 19532 19533 19534 19535 19536 19537 19538 19539 19540 19541 19542 19543 19544 19545 19546 19547 19548 19549 19550 19551 19552 19553 19554 19555 19556 19557 19558 19559 19560 19561 19562 19563 19564 19565 19566 19567 19568 19569 19570 19571 19572 19573 19574 19575 19576 19577 19578 19579 19580 19581 19582 19583 19584 19585 19586 19587 19588 19589 19590 19591 19592 19593 19594 19595 19596 19597 19598 19599 19600 19601 19602 19603 19604 19605 19606 19607 19608 19609 19610 19611 19612 19613 19614 19615 19616 19617 19618 19619 19620 19621 19622 19623 19624 19625 19626 19627 19628 19629 19630 19631 19632 19633 19634 19635 19636 19637 19638 19639 19640 19641 19642 19643 19644 19645 19646 19647 19648 19649 19650 19651 19652 19653 19654 19655 19656 19657 19658 19659 19660 19661 19662 19663 19664 19665 19666 19667 19668 19669 19670 19671 19672 19673 19674 19675 19676 19677 19678 19679 19680 19681 19682 19683 19684 19685 19686 19687 19688 19689 19690 19691 19692 19693 19694 19695 19696 19697 19698 19699 19700 19701 19702 19703 19704 19705 19706 19707 19708 19709 19710 19711 19712 19713 19714 19715 19716 19717 19718 19719 19720 19721 19722 19723 19724 19725 19726 19727 19728 19729 19730 19731 19732 19733 19734 19735 19736 19737 19738 19739 19740 19741 19742 19743 19744 19745 19746 19747 19748 19749 19750 19751 19752 19753 19754 19755 19756 19757 19758 19759 19760 19761 19762 19763 19764 19765 19766 19767 19768 19769 19770 19771 19772 19773 19774 19775 19776 19777 19778 19779 19780 19781 19782 19783 19784 19785 19786 19787 19788 19789 19790 19791 19792 19793 19794 19795 19796 19797 19798 19799 19800 19801 19802 19803 19804 19805 19806 19807 19808 19809 19810 19811 19812 19813 19814 19815 19816 19817 19818 19819 19820 19821 19822 19823 19824 19825 19826 19827 19828 19829 19830 19831 19832 19833 19834 19835 19836 19837 19838 19839 19840 19841 19842 19843 19844 19845 19846 19847 19848 19849 19850 19851 19852 19853 19854 19855 19856 19857 19858 19859 19860 19861 19862 19863 19864 19865 19866 19867 19868 19869 19870 19871 19872 19873 19874 19875 19876 19877 19878 19879 19880 19881 19882 19883 19884 19885 19886 19887 19888 19889 19890 19891 19892 19893 19894 19895 19896 19897 19898 19899 19900 19901 19902 19903 19904 19905 19906 19907 19908 19909 19910 19911 19912 19913 19914 19915 19916 19917 19918 19919 19920 19921 19922 19923 19924 19925 19926 19927 19928 19929 19930 19931 19932 19933 19934 19935 19936 19937 19938 19939 19940 19941 19942 19943 19944 19945 19946 19947 19948 19949 19950 19951 19952 19953 19954 19955 19956 19957 19958 19959 19960 19961 19962 19963 19964 19965 19966 19967 19968 19969 19970 19971 19972 19973 19974 19975 19976 19977 19978 19979 19980 19981 19982 19983 19984 19985 19986 19987 19988 19989 19990 19991 19992 19993 19994 19995 19996 19997 19998 19999 20000 20001 20002 20003 20004 20005 20006 20007 20008 20009 20010 20011 20012 20013 20014 20015 20016 20017 20018 20019 20020 20021 20022 20023 20024 20025 20026 20027 20028 20029 20030 20031 20032 20033 20034 20035 20036 20037 20038 20039 20040 20041 20042 20043 20044 20045 20046 20047 20048 20049 20050 20051 20052 20053 20054 20055 20056 20057 20058 20059 20060 20061 20062 20063 20064 20065 20066 20067 20068 20069 20070 20071 20072 20073 20074 20075 20076 20077 20078 20079 20080 20081 20082 20083 20084 20085 20086 20087 20088 20089 20090 20091 20092 20093 20094 20095 20096 20097 20098 20099 20100 20101 20102 20103 20104 20105 20106 20107 20108 20109 20110 20111 20112 20113 20114 20115 20116 20117 20118 20119 20120 20121 20122 20123 20124 20125 20126 20127 20128 20129 20130 20131 20132 20133 20134 20135 20136 20137 20138 20139 20140 20141 20142 20143 20144 20145 20146 20147 20148 20149 20150 20151 20152 20153 20154 20155 20156 20157 20158 20159 20160 20161 20162 20163 20164 20165 20166 20167 20168 20169 20170 20171 20172 20173 20174 20175 20176 20177 20178 20179 20180 20181 20182 20183 20184 20185 20186 20187 20188 20189 20190 20191 20192 20193 20194 20195 20196 20197 20198 20199 20200 20201 20202 20203 20204 20205 20206 20207 20208 20209 20210 20211 20212 20213 20214 20215 20216 20217 20218 20219 20220 20221 20222 20223 20224 20225 20226 20227 20228 20229 20230 20231 20232 20233 20234 20235 20236 20237 20238 20239 20240 20241 20242 20243 20244 20245 20246 20247 20248 20249 20250 20251 20252 20253 20254 20255 20256 20257 20258 20259 20260 20261 20262 20263 20264 20265 20266 20267 20268 20269 20270 20271 20272 20273 20274 20275 20276 20277 20278 20279 20280 20281 20282 20283 20284 20285 20286 20287 20288 20289 20290 20291 20292 20293 20294 20295 20296 20297 20298 20299 20300 20301 20302 20303 20304 20305 20306 20307 20308 20309 20310 20311 20312 20313 20314 20315 20316 20317 20318 20319 20320 20321 20322 20323 20324 20325 20326 20327 20328 20329 20330 20331 20332 20333 20334 20335 20336 20337 20338 20339 20340 20341 20342 20343 20344 20345 20346 20347 20348 20349 20350 20351 20352 20353 20354 20355 20356 20357 20358 20359 20360 20361 20362 20363 20364 20365 20366 20367 20368 20369 20370 20371 20372 20373 20374 20375 20376 20377 20378 20379 20380 20381 20382 20383 20384 20385 20386 20387 20388 20389 20390 20391 20392 20393 20394 20395 20396 20397 20398 20399 20400 20401 20402 20403 20404 20405 20406 20407 20408 20409 20410 20411 20412 20413 20414 20415 20416 20417 20418 20419 20420 20421 20422 20423 20424 20425 20426 20427 20428 20429 20430 20431 20432 20433 20434 20435 20436 20437 20438 20439 20440 20441 20442 20443 20444 20445 20446 20447 20448 20449 20450 20451 20452 20453 20454 20455 20456 20457 20458 20459 20460 20461 20462 20463 20464 20465 20466 20467 20468 20469 20470 20471 20472 20473 20474 20475 20476 20477 20478 20479 20480 20481 20482 20483 20484 20485 20486 20487 20488 20489 20490 20491 20492 20493 20494 20495 20496 20497 20498 20499 20500 20501 20502 20503 20504 20505 20506 20507 20508 20509 20510 20511 20512 20513 20514 20515 20516 20517 20518 20519 20520 20521 20522 20523 20524 20525 20526 20527 20528 20529 20530 20531 20532 20533 20534 20535 20536 20537 20538 20539 20540 20541 20542 20543 20544 20545 20546 20547 20548 20549 20550 20551 20552 20553 20554 20555 20556 20557 20558 20559 20560 20561 20562 20563 20564 20565 20566 20567 20568 20569 20570 20571 20572 20573 20574 20575 20576 20577 20578 20579 20580 20581 20582 20583 20584 20585 20586 20587 20588 20589 20590 20591 20592 20593 20594 20595 20596 20597 20598 20599 20600 20601 20602 20603 20604 20605 20606 20607 20608 20609 20610 20611 20612 20613 20614 20615 20616 20617 20618 20619 20620 20621 20622 20623 20624 20625 20626 20627 20628 20629 20630 20631 20632 20633 20634 20635 20636 20637 20638 20639 20640 20641 20642 20643 20644 20645 20646 20647 20648 20649 20650 20651 20652 20653 20654 20655 20656 20657 20658 20659 20660 20661 20662 20663 20664 20665 20666 20667 20668 20669 20670 20671 20672 20673 20674 20675 20676 20677 20678 20679 20680 20681 20682 20683 20684 20685 20686 20687 20688 20689 20690 20691 20692 20693 20694 20695 20696 20697 20698 20699 20700 20701 20702 20703 20704 20705 20706 20707 20708 20709 20710 20711 20712 20713 20714 20715 20716 20717 20718 20719 20720 20721 20722 20723 20724 20725 20726 20727 20728 20729 20730 20731 20732 20733 20734 20735 20736 20737 20738 20739 20740 20741 20742 20743 20744 20745 20746 20747 20748 20749 20750 20751 20752 20753 20754 20755 20756 20757 20758 20759 20760 20761 20762 20763 20764 20765 20766 20767 20768 20769 20770 20771 20772 20773 20774 20775 20776 20777 20778 20779 20780 20781 20782 20783 20784 20785 20786 20787 20788 20789 20790 20791 20792 20793 20794 20795 20796 20797 20798 20799 20800 20801 20802 20803 20804 20805 20806 20807 20808 20809 20810 20811 20812 20813 20814 20815 20816 20817 20818 20819 20820 20821 20822 20823 20824 20825 20826 20827 20828 20829 20830 20831 20832 20833 20834 20835 20836 20837 20838 20839 20840 20841 20842 20843 20844 20845 20846 20847 20848 20849 20850 20851 20852 20853 20854 20855 20856 20857 20858 20859 20860 20861 20862 20863 20864 20865 20866 20867 20868 20869 20870 20871 20872 20873 20874 20875 20876 20877 20878 20879 20880 20881 20882 20883 20884 20885 20886 20887 20888 20889 20890 20891 20892 20893 20894 20895 20896 20897 20898 20899 20900 20901 20902 20903 20904 20905 20906 20907 20908 20909 20910 20911 20912 20913 20914 20915 20916 20917 20918 20919 20920 20921 20922 20923 20924 20925 20926 20927 20928 20929 20930 20931 20932 20933 20934 20935 20936 20937 20938 20939 20940 20941 20942 20943 20944 20945 20946 20947 20948 20949 20950 20951 20952 20953 20954 20955 20956 20957 20958 20959 20960 20961 20962 20963 20964 20965 20966 20967 20968 20969 20970 20971 20972 20973 20974 20975 20976 20977 20978 20979 20980 20981 20982 20983 20984 20985 20986 20987 20988 20989 20990 20991 20992 20993 20994 20995 20996 20997 20998 20999 21000 21001 21002 21003 21004 21005 21006 21007 21008 21009 21010 21011 21012 21013 21014 21015 21016 21017 21018 21019 21020 21021 21022 21023 21024 21025 21026 21027 21028 21029 21030 21031 21032 21033 21034 21035 21036 21037 21038 21039 21040 21041 21042 21043 21044 21045 21046 21047 21048 21049 21050 21051 21052 21053 21054 21055 21056 21057 21058 21059 21060 21061 21062 21063 21064 21065 21066 21067 21068 21069 21070 21071 21072 21073 21074 21075 21076 21077 21078 21079 21080 21081 21082 21083 21084 21085 21086 21087 21088 21089 21090 21091 21092 21093 21094 21095 21096 21097 21098 21099 21100 21101 21102 21103 21104 21105 21106 21107 21108 21109 21110 21111 21112 21113 21114 21115 21116 21117 21118 21119 21120 21121 21122 21123 21124 21125 21126 21127 21128 21129 21130 21131 21132 21133 21134 21135 21136 21137 21138 21139 21140 21141 21142 21143 21144 21145 21146 21147 21148 21149 21150 21151 21152 21153 21154 21155 21156 21157 21158 21159 21160 21161 21162 21163 21164 21165 21166 21167 21168 21169 21170 21171 21172 21173 21174 21175 21176 21177 21178 21179 21180 21181 21182 21183 21184 21185 21186 21187 21188 21189 21190 21191 21192 21193 21194 21195 21196 21197 21198 21199 21200 21201 21202 21203 21204 21205 21206 21207 21208 21209 21210 21211 21212 21213 21214 21215 21216 21217 21218 21219 21220 21221 21222 21223 21224 21225 21226 21227 21228 21229 21230 21231 21232 21233 21234 21235 21236 21237 21238 21239 21240 21241 21242 21243 21244 21245 21246 21247 21248 21249 21250 21251 21252 21253 21254 21255 21256 21257 21258 21259 21260 21261 21262 21263 21264 21265 21266 21267 21268 21269 21270 21271 21272 21273 21274 21275 21276 21277 21278 21279 21280 21281 21282 21283 21284 21285 21286 21287 21288 21289 21290 21291 21292 21293 21294 21295 21296 21297 21298 21299 21300 21301 21302 21303 21304 21305 21306 21307 21308 21309 21310 21311 21312 21313 21314 21315 21316 21317 21318 21319 21320 21321 21322 21323 21324 21325 21326 21327 21328 21329 21330 21331 21332 21333 21334 21335 21336 21337 21338 21339 21340 21341 21342 21343 21344 21345 21346 21347 21348 21349 21350 21351 21352 21353 21354 21355 21356 21357 21358 21359 21360 21361 21362 21363 21364 21365 21366 21367 21368 21369 21370 21371 21372 21373 21374 21375 21376 21377 21378 21379 21380 21381 21382 21383 21384 21385 21386 21387 21388 21389 21390 21391 21392 21393 21394 21395 21396 21397 21398 21399 21400 21401 21402 21403 21404 21405 21406 21407 21408 21409 21410 21411 21412 21413 21414 21415 21416 21417 21418 21419 21420 21421 21422 21423 21424 21425 21426 21427 21428 21429 21430 21431 21432 21433 21434 21435 21436 21437 21438 21439 21440 21441 21442 21443 21444 21445 21446 21447 21448 21449 21450 21451 21452 21453 21454 21455 21456 21457 21458 21459 21460 21461 21462 21463 21464 21465 21466 21467 21468 21469 21470 21471 21472 21473 21474 21475 21476 21477 21478 21479 21480 21481 21482 21483 21484 21485 21486 21487 21488 21489 21490 21491 21492 21493 21494 21495 21496 21497 21498 21499 21500 21501 21502 21503 21504 21505 21506 21507 21508 21509 21510 21511 21512 21513 21514 21515 21516 21517 21518 21519 21520 21521 21522 21523 21524 21525 21526 21527 21528 21529 21530 21531 21532 21533 21534 21535 21536 21537 21538 21539 21540 21541 21542 21543 21544 21545 21546 21547 21548 21549 21550 21551 21552 21553 21554 21555 21556 21557 21558 21559 21560 21561 21562 21563 21564 21565 21566 21567 21568 21569 21570 21571 21572 21573 21574 21575 21576 21577 21578 21579 21580 21581 21582 21583 21584 21585 21586 21587 21588 21589 21590 21591 21592 21593 21594 21595 21596 21597 21598 21599 21600 21601 21602 21603 21604 21605 21606 21607 21608 21609 21610 21611 21612 21613 21614 21615 21616 21617 21618 21619 21620 21621 21622 21623 21624 21625 21626 21627 21628 21629 21630 21631 21632 21633 21634 21635 21636 21637 21638 21639 21640 21641 21642 21643 21644 21645 21646 21647 21648 21649 21650 21651 21652 21653 21654 21655 21656 21657 21658 21659 21660 21661 21662 21663 21664 21665 21666 21667 21668 21669 21670 21671 21672 21673 21674 21675 21676 21677 21678 21679 21680 21681 21682 21683 21684 21685 21686 21687 21688 21689 21690 21691 21692 21693 21694 21695 21696 21697 21698 21699 21700 21701 21702 21703 21704 21705 21706 21707 21708 21709 21710 21711 21712 21713 21714 21715 21716 21717 21718 21719 21720 21721 21722 21723 21724 21725 21726 21727 21728 21729 21730 21731 21732 21733 21734 21735 21736 21737 21738 21739 21740 21741 21742 21743 21744 21745 21746 21747 21748 21749 21750 21751 21752 21753 21754 21755 21756 21757 21758 21759 21760 21761 21762 21763 21764 21765 21766 21767 21768 21769 21770 21771 21772 21773 21774 21775 21776 21777 21778 21779 21780 21781 21782 21783 21784 21785 21786 21787 21788 21789 21790 21791 21792 21793 21794 21795 21796 21797 21798 21799 21800 21801 21802 21803 21804 21805 21806 21807 21808 21809 21810 21811 21812 21813 21814 21815 21816 21817 21818 21819 21820 21821 21822 21823 21824 21825 21826 21827 21828 21829 21830 21831 21832 21833 21834 21835 21836 21837 21838 21839 21840 21841 21842 21843 21844 21845 21846 21847 21848 21849 21850 21851 21852 21853 21854 21855 21856 21857 21858 21859 21860 21861 21862 21863 21864 21865 21866 21867 21868 21869 21870 21871 21872 21873 21874 21875 21876 21877 21878 21879 21880 21881 21882 21883 21884 21885 21886 21887 21888 21889 21890 21891 21892 21893 21894 21895 21896 21897 21898 21899 21900 21901 21902 21903 21904 21905 21906 21907 21908 21909 21910 21911 21912 21913 21914 21915 21916 21917 21918 21919 21920 21921 21922 21923 21924 21925 21926 21927 21928 21929 21930 21931 21932 21933 21934 21935 21936 21937 21938 21939 21940 21941 21942 21943 21944 21945 21946 21947 21948 21949 21950 21951 21952 21953 21954 21955 21956 21957 21958 21959 21960 21961 21962 21963 21964 21965 21966 21967 21968 21969 21970 21971 21972 21973 21974 21975 21976 21977 21978 21979 21980 21981 21982 21983 21984 21985 21986 21987 21988 21989 21990 21991 21992 21993 21994 21995 21996 21997 21998 21999 22000 22001 22002 22003 22004 22005 22006 22007 22008 22009 22010 22011 22012 22013 22014 22015 22016 22017 22018 22019 22020 22021 22022 22023 22024 22025 22026 22027 22028 22029 22030 22031 22032 22033 22034 22035 22036 22037 22038 22039 22040 22041 22042 22043 22044 22045 22046 22047 22048 22049 22050 22051 22052 22053 22054 22055 22056 22057 22058 22059 22060 22061 22062 22063 22064 22065 22066 22067 22068 22069 22070 22071 22072 22073 22074 22075 22076 22077 22078 22079 22080 22081 22082 22083 22084 22085 22086 22087 22088 22089 22090 22091 22092 22093 22094 22095 22096 22097 22098 22099 22100 22101 22102 22103 22104 22105 22106 22107 22108 22109 22110 22111 22112 22113 22114 22115 22116 22117 22118 22119 22120 22121 22122 22123 22124 22125 22126 22127 22128 22129 22130 22131 22132 22133 22134 22135 22136 22137 22138 22139 22140 22141 22142 22143 22144 22145 22146 22147 22148 22149 22150 22151 22152 22153 22154 22155 22156 22157 22158 22159 22160 22161 22162 22163 22164 22165 22166 22167 22168 22169 22170 22171 22172 22173 22174 22175 22176 22177 22178 22179 22180 22181 22182 22183 22184 22185 22186 22187 22188 22189 22190 22191 22192 22193 22194 22195 22196 22197 22198 22199 22200 22201 22202 22203 22204 22205 22206 22207 22208 22209 22210 22211 22212 22213 22214 22215 22216 22217 22218 22219 22220 22221 22222 22223 22224 22225 22226 22227 22228 22229 22230 22231 22232 22233 22234 22235 22236 22237 22238 22239 22240 22241 22242 22243 22244 22245 22246 22247 22248 22249 22250 22251 22252 22253 22254 22255 22256 22257 22258 22259 22260 22261 22262 22263 22264 22265 22266 22267 22268 22269 22270 22271 22272 22273 22274 22275 22276 22277 22278 22279 22280 22281 22282 22283 22284 22285 22286 22287 22288 22289 22290 22291 22292 22293 22294 22295 22296 22297 22298 22299 22300 22301 22302 22303 22304 22305 22306 22307 22308 22309 22310 22311 22312 22313 22314 22315 22316 22317 22318 22319 22320 22321 22322 22323 22324 22325 22326 22327 22328 22329 22330 22331 22332 22333 22334 22335 22336 22337 22338 22339 22340 22341 22342 22343 22344 22345 22346 22347 22348 22349 22350 22351 22352 22353 22354 22355 22356 22357 22358 22359 22360 22361 22362 22363 22364 22365 22366 22367 22368 22369 22370 22371 22372 22373 22374 22375 22376 22377 22378 22379 22380 22381 22382 22383 22384 22385 22386 22387 22388 22389 22390 22391 22392 22393 22394 22395 22396 22397 22398 22399 22400 22401 22402 22403 22404 22405 22406 22407 22408 22409 22410 22411 22412 22413 22414 22415 22416 22417 22418 22419 22420 22421 22422 22423 22424 22425 22426 22427 22428 22429 22430 22431 22432 22433 22434 22435 22436 22437 22438 22439 22440 22441 22442 22443 22444 22445 22446 22447 22448 22449 22450 22451 22452 22453 22454 22455 22456 22457 22458 22459 22460 22461 22462 22463 22464 22465 22466 22467 22468 22469 22470 22471 22472 22473 22474 22475 22476 22477 22478 22479 22480 22481 22482 22483 22484 22485 22486 22487 22488 22489 22490 22491 22492 22493 22494 22495 22496 22497 22498 22499 22500 22501 22502 22503 22504 22505 22506 22507 22508 22509 22510 22511 22512 22513 22514 22515 22516 22517 22518 22519 22520 22521 22522 22523 22524 22525 22526 22527 22528 22529 22530 22531 22532 22533 22534 22535 22536 22537 22538 22539 22540 22541 22542 22543 22544 22545 22546 22547 22548 22549 22550 22551 22552 22553 22554 22555 22556 22557 22558 22559 22560 22561 22562 22563 22564 22565 22566 22567 22568 22569 22570 22571 22572 22573 22574 22575 22576 22577 22578 22579 22580 22581 22582 22583 22584 22585 22586 22587 22588 22589 22590 22591 22592 22593 22594 22595 22596 22597 22598 22599 22600 22601 22602 22603 22604 22605 22606 22607 22608 22609 22610 22611 22612 22613 22614 22615 22616 22617 22618 22619 22620 22621 22622 22623 22624 22625 22626 22627 22628 22629 22630 22631 22632 22633 22634 22635 22636 22637 22638 22639 22640 22641 22642 22643 22644 22645 22646 22647 22648 22649 22650 22651 22652 22653 22654 22655 22656 22657 22658 22659 22660 22661 22662 22663 22664 22665 22666 22667 22668 22669 22670 22671 22672 22673 22674 22675 22676 22677 22678 22679 22680 22681 22682 22683 22684 22685 22686 22687 22688 22689 22690 22691 22692 22693 22694 22695 22696 22697 22698 22699 22700 22701 22702 22703 22704 22705 22706 22707 22708 22709 22710 22711 22712 22713 22714 22715 22716 22717 22718 22719 22720 22721 22722 22723 22724 22725 22726 22727 22728 22729 22730 22731 22732 22733 22734 22735 22736 22737 22738 22739 22740 22741 22742 22743 22744 22745 22746 22747 22748 22749 22750 22751 22752 22753 22754 22755 22756 22757 22758 22759 22760 22761 22762 22763 22764 22765 22766 22767 22768 22769 22770 22771 22772 22773 22774 22775 22776 22777 22778 22779 22780 22781 22782 22783 22784 22785 22786 22787 22788 22789 22790 22791 22792 22793 22794 22795 22796 22797 22798 22799 22800 22801 22802 22803 22804 22805 22806 22807 22808 22809 22810 22811 22812 22813 22814 22815 22816 22817 22818 22819 22820 22821 22822 22823 22824 22825 22826 22827 22828 22829 22830 22831 22832 22833 22834 22835 22836 22837 22838 22839 22840 22841 22842 22843 22844 22845 22846 22847 22848 22849 22850 22851 22852 22853 22854 22855 22856 22857 22858 22859 22860 22861 22862 22863 22864 22865 22866 22867 22868 22869 22870 22871 22872 22873 22874 22875 22876 22877 22878 22879 22880 22881 22882 22883 22884 22885 22886 22887 22888 22889 22890 22891 22892 22893 22894 22895 22896 22897 22898 22899 22900 22901 22902 22903 22904 22905 22906 22907 22908 22909 22910 22911 22912 22913 22914 22915 22916 22917 22918 22919 22920 22921 22922 22923 22924 22925 22926 22927 22928 22929 22930 22931 22932 22933 22934 22935 22936 22937 22938 22939 22940 22941 22942 22943 22944 22945 22946 22947 22948 22949 22950 22951 22952 22953 22954 22955 22956 22957 22958 22959 22960 22961 22962 22963 22964 22965 22966 22967 22968 22969 22970 22971 22972 22973 22974 22975 22976 22977 22978 22979 22980 22981 22982 22983 22984 22985 22986 22987 22988 22989 22990 22991 22992 22993 22994 22995 22996 22997 22998 22999 23000 23001 23002 23003 23004 23005 23006 23007 23008 23009 23010 23011 23012 23013 23014 23015 23016 23017 23018 23019 23020 23021 23022 23023 23024 23025 23026 23027 23028 23029 23030 23031 23032 23033 23034 23035 23036 23037 23038 23039 23040 23041 23042 23043 23044 23045 23046 23047 23048 23049 23050 23051 23052 23053 23054 23055 23056 23057 23058 23059 23060 23061 23062 23063 23064 23065 23066 23067 23068 23069 23070 23071 23072 23073 23074 23075 23076 23077 23078 23079 23080 23081 23082 23083 23084 23085 23086 23087 23088 23089 23090 23091 23092 23093 23094 23095 23096 23097 23098 23099 23100 23101 23102 23103 23104 23105 23106 23107 23108 23109 23110 23111 23112 23113 23114 23115 23116 23117 23118 23119 23120 23121 23122 23123 23124 23125 23126 23127 23128 23129 23130 23131 23132 23133 23134 23135 23136 23137 23138 23139 23140 23141 23142 23143 23144 23145 23146 23147 23148 23149 23150 23151 23152 23153 23154 23155 23156 23157 23158 23159 23160 23161 23162 23163 23164 23165 23166 23167 23168 23169 23170 23171 23172 23173 23174 23175 23176 23177 23178 23179 23180 23181 23182 23183 23184 23185 23186 23187 23188 23189 23190 23191 23192 23193 23194 23195 23196 23197 23198 23199 23200 23201 23202 23203 23204 23205 23206 23207 23208 23209 23210 23211 23212 23213 23214 23215 23216 23217 23218 23219 23220 23221 23222 23223 23224 23225 23226 23227 23228 23229 23230 23231 23232 23233 23234 23235 23236 23237 23238 23239 23240 23241 23242 23243 23244 23245 23246 23247 23248 23249 23250 23251 23252 23253 23254 23255 23256 23257 23258 23259 23260 23261 23262 23263 23264 23265 23266 23267 23268 23269 23270 23271 23272 23273 23274 23275 23276 23277 23278 23279 23280 23281 23282 23283 23284 23285 23286 23287 23288 23289 23290 23291 23292 23293 23294 23295 23296 23297 23298 23299 23300 23301 23302 23303 23304 23305 23306 23307 23308 23309 23310 23311 23312 23313 23314 23315 23316 23317 23318 23319 23320 23321 23322 23323 23324 23325 23326 23327 23328 23329 23330 23331 23332 23333 23334 23335 23336 23337 23338 23339 23340 23341 23342 23343 23344 23345 23346 23347 23348 23349 23350 23351 23352 23353 23354 23355 23356 23357 23358 23359 23360 23361 23362 23363 23364 23365 23366 23367 23368 23369 23370 23371 23372 23373 23374 23375 23376 23377 23378 23379 23380 23381 23382 23383 23384 23385 23386 23387 23388 23389 23390 23391 23392 23393 23394 23395 23396 23397 23398 23399 23400 23401 23402 23403 23404 23405 23406 23407 23408 23409 23410 23411 23412 23413 23414 23415 23416 23417 23418 23419 23420 23421 23422 23423 23424 23425 23426 23427 23428 23429 23430 23431 23432 23433 23434 23435 23436 23437 23438 23439 23440 23441 23442 23443 23444 23445 23446 23447 23448 23449 23450 23451 23452 23453 23454 23455 23456 23457 23458 23459 23460 23461 23462 23463 23464 23465 23466 23467 23468 23469 23470 23471 23472 23473 23474 23475 23476 23477 23478 23479 23480 23481 23482 23483 23484 23485 23486 23487 23488 23489 23490 23491 23492 23493 23494 23495 23496 23497 23498 23499 23500 23501 23502 23503 23504 23505 23506 23507 23508 23509 23510 23511 23512 23513 23514 23515 23516 23517 23518 23519 23520 23521 23522 23523 23524 23525 23526 23527 23528 23529 23530 23531 23532 23533 23534 23535 23536 23537 23538 23539 23540 23541 23542 23543 23544 23545 23546 23547 23548 23549 23550 23551 23552 23553 23554 23555 23556 23557 23558 23559 23560 23561 23562 23563 23564 23565 23566 23567 23568 23569 23570 23571 23572 23573 23574 23575 23576 23577 23578 23579 23580 23581 23582 23583 23584 23585 23586 23587 23588 23589 23590 23591 23592 23593 23594 23595 23596 23597 23598 23599 23600 23601 23602 23603 23604 23605 23606 23607 23608 23609 23610 23611 23612 23613 23614 23615 23616 23617 23618 23619 23620 23621 23622 23623 23624 23625 23626 23627 23628 23629 23630 23631 23632 23633 23634 23635 23636 23637 23638 23639 23640 23641 23642 23643 23644 23645 23646 23647 23648 23649 23650 23651 23652 23653 23654 23655 23656 23657 23658 23659 23660 23661 23662 23663 23664 23665 23666 23667 23668 23669 23670 23671 23672 23673 23674 23675 23676 23677 23678 23679 23680 23681 23682 23683 23684 23685 23686 23687 23688 23689 23690 23691 23692 23693 23694 23695 23696 23697 23698 23699 23700 23701 23702 23703 23704 23705 23706 23707 23708 23709 23710 23711 23712 23713 23714 23715 23716 23717 23718 23719 23720 23721 23722 23723 23724 23725 23726 23727 23728 23729 23730 23731 23732 23733 23734 23735 23736 23737 23738 23739 23740 23741 23742 23743 23744 23745 23746 23747 23748 23749 23750 23751 23752 23753 23754 23755 23756 23757 23758 23759 23760 23761 23762 23763 23764 23765 23766 23767 23768 23769 23770 23771 23772 23773 23774 23775 23776 23777 23778 23779 23780 23781 23782 23783 23784 23785 23786 23787 23788 23789 23790 23791 23792 23793 23794 23795 23796 23797 23798 23799 23800 23801 23802 23803 23804 23805 23806 23807 23808 23809 23810 23811 23812 23813 23814 23815 23816 23817 23818 23819 23820 23821 23822 23823 23824 23825 23826 23827 23828 23829 23830 23831 23832 23833 23834 23835 23836 23837 23838 23839 23840 23841 23842 23843 23844 23845 23846 23847 23848 23849 23850 23851 23852 23853 23854 23855 23856 23857 23858 23859 23860 23861 23862 23863 23864 23865 23866 23867 23868 23869 23870 23871 23872 23873 23874 23875 23876 23877 23878 23879 23880 23881 23882 23883 23884 23885 23886 23887 23888 23889 23890 23891 23892 23893 23894 23895 23896 23897 23898 23899 23900 23901 23902 23903 23904 23905 23906 23907 23908 23909 23910 23911 23912 23913 23914 23915 23916 23917 23918 23919 23920 23921 23922 23923 23924 23925 23926 23927 23928 23929 23930 23931 23932 23933 23934 23935 23936 23937 23938 23939 23940 23941 23942 23943 23944 23945 23946 23947 23948 23949 23950 23951 23952 23953 23954 23955 23956 23957 23958 23959 23960 23961 23962 23963 23964 23965 23966 23967 23968 23969 23970 23971 23972 23973 23974 23975 23976 23977 23978 23979 23980 23981 23982 23983 23984 23985 23986 23987 23988 23989 23990 23991 23992 23993 23994 23995 23996 23997 23998 23999 24000 24001 24002 24003 24004 24005 24006 24007 24008 24009 24010 24011 24012 24013 24014 24015 24016 24017 24018 24019 24020 24021 24022 24023 24024 24025 24026 24027 24028 24029 24030 24031 24032 24033 24034 24035 24036 24037 24038 24039 24040 24041 24042 24043 24044 24045 24046 24047 24048 24049 24050 24051 24052 24053 24054 24055 24056 24057 24058 24059 24060 24061 24062 24063 24064 24065 24066 24067 24068 24069 24070 24071 24072 24073 24074 24075 24076 24077 24078 24079 24080 24081 24082 24083 24084 24085 24086 24087 24088 24089 24090 24091 24092 24093 24094 24095 24096 24097 24098 24099 24100 24101 24102 24103 24104 24105 24106 24107 24108 24109 24110 24111 24112 24113 24114 24115 24116 24117 24118 24119 24120 24121 24122 24123 24124 24125 24126 24127 24128 24129 24130 24131 24132 24133 24134 24135 24136 24137 24138 24139 24140 24141 24142 24143 24144 24145 24146 24147 24148 24149 24150 24151 24152 24153 24154 24155 24156 24157 24158 24159 24160 24161 24162 24163 24164 24165 24166 24167 24168 24169 24170 24171 24172 24173 24174 24175 24176 24177 24178 24179 24180 24181 24182 24183 24184 24185 24186 24187 24188 24189 24190 24191 24192 24193 24194 24195 24196 24197 24198 24199 24200 24201 24202 24203 24204 24205 24206 24207 24208 24209 24210 24211 24212 24213 24214 24215 24216 24217 24218 24219 24220 24221 24222 24223 24224 24225 24226 24227 24228 24229 24230 24231 24232 24233 24234 24235 24236 24237 24238 24239 24240 24241 24242 24243 24244 24245 24246 24247 24248 24249 24250 24251 24252 24253 24254 24255 24256 24257 24258 24259 24260 24261 24262 24263 24264 24265 24266 24267 24268 24269 24270 24271 24272 24273 24274 24275 24276 24277 24278 24279 24280 24281 24282 24283 24284 24285 24286 24287 24288 24289 24290 24291 24292 24293 24294 24295 24296 24297 24298 24299 24300 24301 24302 24303 24304 24305 24306 24307 24308 24309 24310 24311 24312 24313 24314 24315 24316 24317 24318 24319 24320 24321 24322 24323 24324 24325 24326 24327 24328 24329 24330 24331 24332 24333 24334 24335 24336 24337 24338 24339 24340 24341 24342 24343 24344 24345 24346 24347 24348 24349 24350 24351 24352 24353 24354 24355 24356 24357 24358 24359 24360 24361 24362 24363 24364 24365 24366 24367 24368 24369 24370 24371 24372 24373 24374 24375 24376 24377 24378 24379 24380 24381 24382 24383 24384 24385 24386 24387 24388 24389 24390 24391 24392 24393 24394 24395 24396 24397 24398 24399 24400 24401 24402 24403 24404 24405 24406 24407 24408 24409 24410 24411 24412 24413 24414 24415 24416 24417 24418 24419 24420 24421 24422 24423 24424 24425 24426 24427 24428 24429 24430 24431 24432 24433 24434 24435 24436 24437 24438 24439 24440 24441 24442 24443 24444 24445 24446 24447 24448 24449 24450 24451 24452 24453 24454 24455 24456 24457 24458 24459 24460 24461 24462 24463 24464 24465 24466 24467 24468 24469 24470 24471 24472 24473 24474 24475 24476 24477 24478 24479 24480 24481 24482 24483 24484 24485 24486 24487 24488 24489 24490 24491 24492 24493 24494 24495 24496 24497 24498 24499 24500 24501 24502 24503 24504 24505 24506 24507 24508 24509 24510 24511 24512 24513 24514 24515 24516 24517 24518 24519 24520 24521 24522 24523 24524 24525 24526 24527 24528 24529 24530 24531 24532 24533 24534 24535 24536 24537 24538 24539 24540 24541 24542 24543 24544 24545 24546 24547 24548 24549 24550 24551 24552 24553 24554 24555 24556 24557 24558 24559 24560 24561 24562 24563 24564 24565 24566 24567 24568 24569 24570 24571 24572 24573 24574 24575 24576 24577 24578 24579 24580 24581 24582 24583 24584 24585 24586 24587 24588 24589 24590 24591 24592 24593 24594 24595 24596 24597 24598 24599 24600 24601 24602 24603 24604 24605 24606 24607 24608 24609 24610 24611 24612 24613 24614 24615 24616 24617 24618 24619 24620 24621 24622 24623 24624 24625 24626 24627 24628 24629 24630 24631 24632 24633 24634 24635 24636 24637 24638 24639 24640 24641 24642 24643 24644 24645 24646 24647 24648 24649 24650 24651 24652 24653 24654 24655 24656 24657 24658 24659 24660 24661 24662 24663 24664 24665 24666 24667 24668 24669 24670 24671 24672 24673 24674 24675 24676 24677 24678 24679 24680 24681 24682 24683 24684 24685 24686 24687 24688 24689 24690 24691 24692 24693 24694 24695 24696 24697 24698 24699 24700 24701 24702 24703 24704 24705 24706 24707 24708 24709 24710 24711 24712 24713 24714 24715 24716 24717 24718 24719 24720 24721 24722 24723 24724 24725 24726 24727 24728 24729 24730 24731 24732 24733 24734 24735 24736 24737 24738 24739 24740 24741 24742 24743 24744 24745 24746 24747 24748 24749 24750 24751 24752 24753 24754 24755 24756 24757 24758 24759 24760 24761 24762 24763 24764 24765 24766 24767 24768 24769 24770 24771 24772 24773 24774 24775 24776 24777 24778 24779 24780 24781 24782 24783 24784 24785 24786 24787 24788 24789 24790 24791 24792 24793 24794 24795 24796 24797 24798 24799 24800 24801 24802 24803 24804 24805 24806 24807 24808 24809 24810 24811 24812 24813 24814 24815 24816 24817 24818 24819 24820 24821 24822 24823 24824 24825 24826 24827 24828 24829 24830 24831 24832 24833 24834 24835 24836 24837 24838 24839 24840 24841 24842 24843 24844 24845 24846 24847 24848 24849 24850 24851 24852 24853 24854 24855 24856 24857 24858 24859 24860 24861 24862 24863 24864 24865 24866 24867 24868 24869 24870 24871 24872 24873 24874 24875 24876 24877 24878 24879 24880 24881 24882 24883 24884 24885 24886 24887 24888 24889 24890 24891 24892 24893 24894 24895 24896 24897 24898 24899 24900 24901 24902 24903 24904 24905 24906 24907 24908 24909 24910 24911 24912 24913 24914 24915 24916 24917 24918 24919 24920 24921 24922 24923 24924 24925 24926 24927 24928 24929 24930 24931 24932 24933 24934 24935 24936 24937 24938 24939 24940 24941 24942 24943 24944 24945 24946 24947 24948 24949 24950 24951 24952 24953 24954 24955 24956 24957 24958 24959 24960 24961 24962 24963 24964 24965 24966 24967 24968 24969 24970 24971 24972 24973 24974 24975 24976 24977 24978 24979 24980 24981 24982 24983 24984 24985 24986 24987 24988 24989 24990 24991 24992 24993 24994 24995 24996 24997 24998 24999 25000 25001 25002 25003 25004 25005 25006 25007 25008 25009 25010 25011 25012 25013 25014 25015 25016 25017 25018 25019 25020 25021 25022 25023 25024 25025 25026 25027 25028 25029 25030 25031 25032 25033 25034 25035 25036 25037 25038 25039 25040 25041 25042 25043 25044 25045 25046 25047 25048 25049 25050 25051 25052 25053 25054 25055 25056 25057 25058 25059 25060 25061 25062 25063 25064 25065 25066 25067 25068 25069 25070 25071 25072 25073 25074 25075 25076 25077 25078 25079 25080 25081 25082 25083 25084 25085 25086 25087 25088 25089 25090 25091 25092 25093 25094 25095 25096 25097 25098 25099 25100 25101 25102 25103 25104 25105 25106 25107 25108 25109 25110 25111 25112 25113 25114 25115 25116 25117 25118 25119 25120 25121 25122 25123 25124 25125 25126 25127 25128 25129 25130 25131 25132 25133 25134 25135 25136 25137 25138 25139 25140 25141 25142 25143 25144 25145 25146 25147 25148 25149 25150 25151 25152 25153 25154 25155 25156 25157 25158 25159 25160 25161 25162 25163 25164 25165 25166 25167 25168 25169 25170 25171 25172 25173 25174 25175 25176 25177 25178 25179 25180 25181 25182 25183 25184 25185 25186 25187 25188 25189 25190 25191 25192 25193 25194 25195 25196 25197 25198 25199 25200 25201 25202 25203 25204 25205 25206 25207 25208 25209 25210 25211 25212 25213 25214 25215 25216 25217 25218 25219 25220 25221 25222 25223 25224 25225 25226 25227 25228 25229 25230 25231 25232 25233 25234 25235 25236 25237 25238 25239 25240 25241 25242 25243 25244 25245 25246 25247 25248 25249 25250 25251 25252 25253 25254 25255 25256 25257 25258 25259 25260 25261 25262 25263 25264 25265 25266 25267 25268 25269 25270 25271 25272 25273 25274 25275 25276 25277 25278 25279 25280 25281 25282 25283 25284 25285 25286 25287 25288 25289 25290 25291 25292 25293 25294 25295 25296 25297 25298 25299 25300 25301 25302 25303 25304 25305 25306 25307 25308 25309 25310 25311 25312 25313 25314 25315 25316 25317 25318 25319 25320 25321 25322 25323 25324 25325 25326 25327 25328 25329 25330 25331 25332 25333 25334 25335 25336 25337 25338 25339 25340 25341 25342 25343 25344 25345 25346 25347 25348 25349 25350 25351 25352 25353 25354 25355 25356 25357 25358 25359 25360 25361 25362 25363 25364 25365 25366 25367 25368 25369 25370 25371 25372 25373 25374 25375 25376 25377 25378 25379 25380 25381 25382 25383 25384 25385 25386 25387 25388 25389 25390 25391 25392 25393 25394 25395 25396 25397 25398 25399 25400 25401 25402 25403 25404 25405 25406 25407 25408 25409 25410 25411 25412 25413 25414 25415 25416 25417 25418 25419 25420 25421 25422 25423 25424 25425 25426 25427 25428 25429 25430 25431 25432 25433 25434 25435 25436 25437 25438 25439 25440 25441 25442 25443 25444 25445 25446 25447 25448 25449 25450 25451 25452 25453 25454 25455 25456 25457 25458 25459 25460 25461 25462 25463 25464 25465 25466 25467 25468 25469 25470 25471 25472 25473 25474 25475 25476 25477 25478 25479 25480 25481 25482 25483 25484 25485 25486 25487 25488 25489 25490 25491 25492 25493 25494 25495 25496 25497 25498 25499 25500 25501 25502 25503 25504 25505 25506 25507 25508 25509 25510 25511 25512 25513 25514 25515 25516 25517 25518 25519 25520 25521 25522 25523 25524 25525 25526 25527 25528 25529 25530 25531 25532 25533 25534 25535 25536 25537 25538 25539 25540 25541 25542 25543 25544 25545 25546 25547 25548 25549 25550 25551 25552 25553 25554 25555 25556 25557 25558 25559 25560 25561 25562 25563 25564 25565 25566 25567 25568 25569 25570 25571 25572 25573 25574 25575 25576 25577 25578 25579 25580 25581 25582 25583 25584 25585 25586 25587 25588 25589 25590 25591 25592 25593 25594 25595 25596 25597 25598 25599 25600 25601 25602 25603 25604 25605 25606 25607 25608 25609 25610 25611 25612 25613 25614 25615 25616 25617 25618 25619 25620 25621 25622 25623 25624 25625 25626 25627 25628 25629 25630 25631 25632 25633 25634 25635 25636 25637 25638 25639 25640 25641 25642 25643 25644 25645 25646 25647 25648 25649 25650 25651 25652 25653 25654 25655 25656 25657 25658 25659 25660 25661 25662 25663 25664 25665 25666 25667 25668 25669 25670 25671 25672 25673 25674 25675 25676 25677 25678 25679 25680 25681 25682 25683 25684 25685 25686 25687 25688 25689 25690 25691 25692 25693 25694 25695 25696 25697 25698 25699 25700 25701 25702 25703 25704 25705 25706 25707 25708 25709 25710 25711 25712 25713 25714 25715 25716 25717 25718 25719 25720 25721 25722 25723 25724 25725 25726 25727 25728 25729 25730 25731 25732 25733 25734 25735 25736 25737 25738 25739 25740 25741 25742 25743 25744 25745 25746 25747 25748 25749 25750 25751 25752 25753 25754 25755 25756 25757 25758 25759 25760 25761 25762 25763 25764 25765 25766 25767 25768 25769 25770 25771 25772 25773 25774 25775 25776 25777 25778 25779 25780 25781 25782 25783 25784 25785 25786 25787 25788 25789 25790 25791 25792 25793 25794 25795 25796 25797 25798 25799 25800 25801 25802 25803 25804 25805 25806 25807 25808 25809 25810 25811 25812 25813 25814 25815 25816 25817 25818 25819 25820 25821 25822 25823 25824 25825 25826 25827 25828 25829 25830 25831 25832 25833 25834 25835 25836 25837 25838 25839 25840 25841 25842 25843 25844 25845 25846 25847 25848 25849 25850 25851 25852 25853 25854 25855 25856 25857 25858 25859 25860 25861 25862 25863 25864 25865 25866 25867 25868 25869 25870 25871 25872 25873 25874 25875 25876 25877 25878 25879 25880 25881 25882 25883 25884 25885 25886 25887 25888 25889 25890 25891 25892 25893 25894 25895 25896 25897 25898 25899 25900 25901 25902 25903 25904 25905 25906 25907 25908 25909 25910 25911 25912 25913 25914 25915 25916 25917 25918 25919 25920 25921 25922 25923 25924 25925 25926 25927 25928 25929 25930 25931 25932 25933 25934 25935 25936 25937 25938 25939 25940 25941 25942 25943 25944 25945 25946 25947 25948 25949 25950 25951 25952 25953 25954 25955 25956 25957 25958 25959 25960 25961 25962 25963 25964 25965 25966 25967 25968 25969 25970 25971 25972 25973 25974 25975 25976 25977 25978 25979 25980 25981 25982 25983 25984 25985 25986 25987 25988 25989 25990 25991 25992 25993 25994 25995 25996 25997 25998 25999 26000 26001 26002 26003 26004 26005 26006 26007 26008 26009 26010 26011 26012 26013 26014 26015 26016 26017 26018 26019 26020 26021 26022 26023 26024 26025 26026 26027 26028 26029 26030 26031 26032 26033 26034 26035 26036 26037 26038 26039 26040 26041 26042 26043 26044 26045 26046 26047 26048 26049 26050 26051 26052 26053 26054 26055 26056 26057 26058 26059 26060 26061 26062 26063 26064 26065 26066 26067 26068 26069 26070 26071 26072 26073 26074 26075 26076 26077 26078 26079 26080 26081 26082 26083 26084 26085 26086 26087 26088 26089 26090 26091 26092 26093 26094 26095 26096 26097 26098 26099 26100 26101 26102 26103 26104 26105 26106 26107 26108 26109 26110 26111 26112 26113 26114 26115 26116 26117 26118 26119 26120 26121 26122 26123 26124 26125 26126 26127 26128 26129 26130 26131 26132 26133 26134 26135 26136 26137 26138 26139 26140 26141 26142 26143 26144 26145 26146 26147 26148 26149 26150 26151 26152 26153 26154 26155 26156 26157 26158 26159 26160 26161 26162 26163 26164 26165 26166 26167 26168 26169 26170 26171 26172 26173 26174 26175 26176 26177 26178 26179 26180 26181 26182 26183 26184 26185 26186 26187 26188 26189 26190 26191 26192 26193 26194 26195 26196 26197 26198 26199 26200 26201 26202 26203 26204 26205 26206 26207 26208 26209 26210 26211 26212 26213 26214 26215 26216 26217 26218 26219 26220 26221 26222 26223 26224 26225 26226 26227 26228 26229 26230 26231 26232 26233 26234 26235 26236 26237 26238 26239 26240 26241 26242 26243 26244 26245 26246 26247 26248 26249 26250 26251 26252 26253 26254 26255 26256 26257 26258 26259 26260 26261 26262 26263 26264 26265 26266 26267 26268 26269 26270 26271 26272 26273 26274 26275 26276 26277 26278 26279 26280 26281 26282 26283 26284 26285 26286 26287 26288 26289 26290 26291 26292 26293 26294 26295 26296 26297 26298 26299 26300 26301 26302 26303 26304 26305 26306 26307 26308 26309 26310 26311 26312 26313 26314 26315 26316 26317 26318 26319 26320 26321 26322 26323 26324 26325 26326 26327 26328 26329 26330 26331 26332 26333 26334 26335 26336 26337 26338 26339 26340 26341 26342 26343 26344 26345 26346 26347 26348 26349 26350 26351 26352 26353 26354 26355 26356 26357 26358 26359 26360 26361 26362 26363 26364 26365 26366 26367 26368 26369 26370 26371 26372 26373 26374 26375 26376 26377 26378 26379 26380 26381 26382 26383 26384 26385 26386 26387 26388 26389 26390 26391 26392 26393 26394 26395 26396 26397 26398 26399 26400 26401 26402 26403 26404 26405 26406 26407 26408 26409 26410 26411 26412 26413 26414 26415 26416 26417 26418 26419 26420 26421 26422 26423 26424 26425 26426 26427 26428 26429 26430 26431 26432 26433 26434 26435 26436 26437 26438 26439 26440 26441 26442 26443 26444 26445 26446 26447 26448 26449 26450 26451 26452 26453 26454 26455 26456 26457 26458 26459 26460 26461 26462 26463 26464 26465 26466 26467 26468 26469 26470 26471 26472 26473 26474 26475 26476 26477 26478 26479 26480 26481 26482 26483 26484 26485 26486 26487 26488 26489 26490 26491 26492 26493 26494 26495 26496 26497 26498 26499 26500 26501 26502 26503 26504 26505 26506 26507 26508 26509 26510 26511 26512 26513 26514 26515 26516 26517 26518 26519 26520 26521 26522 26523 26524 26525 26526 26527 26528 26529 26530 26531 26532 26533 26534 26535 26536 26537 26538 26539 26540 26541 26542 26543 26544 26545 26546 26547 26548 26549 26550 26551 26552 26553 26554 26555 26556 26557 26558 26559 26560 26561 26562 26563 26564 26565 26566 26567 26568 26569 26570 26571 26572 26573 26574 26575 26576 26577 26578 26579 26580 26581 26582 26583 26584 26585 26586 26587 26588 26589 26590 26591 26592 26593 26594 26595 26596 26597 26598 26599 26600 26601 26602 26603 26604 26605 26606 26607 26608 26609 26610 26611 26612 26613 26614 26615 26616 26617 26618 26619 26620 26621 26622 26623 26624 26625 26626 26627 26628 26629 26630 26631 26632 26633 26634 26635 26636 26637 26638 26639 26640 26641 26642 26643 26644 26645 26646 26647 26648 26649 26650 26651 26652 26653 26654 26655 26656 26657 26658 26659 26660 26661 26662 26663 26664 26665 26666 26667 26668 26669 26670 26671 26672 26673 26674 26675 26676 26677 26678 26679 26680 26681 26682 26683 26684 26685 26686 26687 26688 26689 26690 26691 26692 26693 26694 26695 26696 26697 26698 26699 26700 26701 26702 26703 26704 26705 26706 26707 26708 26709 26710 26711 26712 26713 26714 26715 26716 26717 26718 26719 26720 26721 26722 26723 26724 26725 26726 26727 26728 26729 26730 26731 26732 26733 26734 26735 26736 26737 26738 26739 26740 26741 26742 26743 26744 26745 26746 26747 26748 26749 26750 26751 26752 26753 26754 26755 26756 26757 26758 26759 26760 26761 26762 26763 26764 26765 26766 26767 26768 26769 26770 26771 26772 26773 26774 26775 26776 26777 26778 26779 26780 26781 26782 26783 26784 26785 26786 26787 26788 26789 26790 26791 26792 26793 26794 26795 26796 26797 26798 26799 26800 26801 26802 26803 26804 26805 26806 26807 26808 26809 26810 26811 26812 26813 26814 26815 26816 26817 26818 26819 26820 26821 26822 26823 26824 26825 26826 26827 26828 26829 26830 26831 26832 26833 26834 26835 26836 26837 26838 26839 26840 26841 26842 26843 26844 26845 26846 26847 26848 26849 26850 26851 26852 26853 26854 26855 26856 26857 26858 26859 26860 26861 26862 26863 26864 26865 26866 26867 26868 26869 26870 26871 26872 26873 26874 26875 26876 26877 26878 26879 26880 26881 26882 26883 26884 26885 26886 26887 26888 26889 26890 26891 26892 26893 26894 26895 26896 26897 26898 26899 26900 26901 26902 26903 26904 26905 26906 26907 26908 26909 26910 26911 26912 26913 26914 26915 26916 26917 26918 26919 26920 26921 26922 26923 26924 26925 26926 26927 26928 26929 26930 26931 26932 26933 26934 26935 26936 26937 26938 26939 26940 26941 26942 26943 26944 26945 26946 26947 26948 26949 26950 26951 26952 26953 26954 26955 26956 26957 26958 26959 26960 26961 26962 26963 26964 26965 26966 26967 26968 26969 26970 26971 26972 26973 26974 26975 26976 26977 26978 26979 26980 26981 26982 26983 26984 26985 26986 26987 26988 26989 26990 26991 26992 26993 26994 26995 26996 26997 26998 26999 27000 27001 27002 27003 27004 27005 27006 27007 27008 27009 27010 27011 27012 27013 27014 27015 27016 27017 27018 27019 27020 27021 27022 27023 27024 27025 27026 27027 27028 27029 27030 27031 27032 27033 27034 27035 27036 27037 27038 27039 27040 27041 27042 27043 27044 27045 27046 27047 27048 27049 27050 27051 27052 27053 27054 27055 27056 27057 27058 27059 27060 27061 27062 27063 27064 27065 27066 27067 27068 27069 27070 27071 27072 27073 27074 27075 27076 27077 27078 27079 27080 27081 27082 27083 27084 27085 27086 27087 27088 27089 27090 27091 27092 27093 27094 27095 27096 27097 27098 27099 27100 27101 27102 27103 27104 27105 27106 27107 27108 27109 27110 27111 27112 27113 27114 27115 27116 27117 27118 27119 27120 27121 27122 27123 27124 27125 27126 27127 27128 27129 27130 27131 27132 27133 27134 27135 27136 27137 27138 27139 27140 27141 27142 27143 27144 27145 27146 27147 27148 27149 27150 27151 27152 27153 27154 27155 27156 27157 27158 27159 27160 27161 27162 27163 27164 27165 27166 27167 27168 27169 27170 27171 27172 27173 27174 27175 27176 27177 27178 27179 27180 27181 27182 27183 27184 27185 27186 27187 27188 27189 27190 27191 27192 27193 27194 27195 27196 27197 27198 27199 27200 27201 27202 27203 27204 27205 27206 27207 27208 27209 27210 27211 27212 27213 27214 27215 27216 27217 27218 27219 27220 27221 27222 27223 27224 27225 27226 27227 27228 27229 27230 27231 27232 27233 27234 27235 27236 27237 27238 27239 27240 27241 27242 27243 27244 27245 27246 27247 27248 27249 27250 27251 27252 27253 27254 27255 27256 27257 27258 27259 27260 27261 27262 27263 27264 27265 27266 27267 27268 27269 27270 27271 27272 27273 27274 27275 27276 27277 27278 27279 27280 27281 27282 27283 27284 27285 27286 27287 27288 27289 27290 27291 27292 27293 27294 27295 27296 27297 27298 27299 27300 27301 27302 27303 27304 27305 27306 27307 27308 27309 27310 27311 27312 27313 27314 27315 27316 27317 27318 27319 27320 27321 27322 27323 27324 27325 27326 27327 27328 27329 27330 27331 27332 27333 27334 27335 27336 27337 27338 27339 27340 27341 27342 27343 27344 27345 27346 27347 27348 27349 27350 27351 27352 27353 27354 27355 27356 27357 27358 27359 27360 27361 27362 27363 27364 27365 27366 27367 27368 27369 27370 27371 27372 27373 27374 27375 27376 27377 27378 27379 27380 27381 27382 27383 27384 27385 27386 27387 27388 27389 27390 27391 27392 27393 27394 27395 27396 27397 27398 27399 27400 27401 27402 27403 27404 27405 27406 27407 27408 27409 27410 27411 27412 27413 27414 27415 27416 27417 27418 27419 27420 27421 27422 27423 27424 27425 27426 27427 27428 27429 27430 27431 27432 27433 27434 27435 27436 27437 27438 27439 27440 27441 27442 27443 27444 27445 27446 27447 27448 27449 27450 27451 27452 27453 27454 27455 27456 27457 27458 27459 27460 27461 27462 27463 27464 27465 27466 27467 27468 27469 27470 27471 27472 27473 27474 27475 27476 27477 27478 27479 27480 27481 27482 27483 27484 27485 27486 27487 27488 27489 27490 27491 27492 27493 27494 27495 27496 27497 27498 27499 27500 27501 27502 27503 27504 27505 27506 27507 27508 27509 27510 27511 27512 27513 27514 27515 27516 27517 27518 27519 27520 27521 27522 27523 27524 27525 27526 27527 27528 27529 27530 27531 27532 27533 27534 27535 27536 27537 27538 27539 27540 27541 27542 27543 27544 27545 27546 27547 27548 27549 27550 27551 27552 27553 27554 27555 27556 27557 27558 27559 27560 27561 27562 27563 27564 27565 27566 27567 27568 27569 27570 27571 27572 27573 27574 27575 27576 27577 27578 27579 27580 27581 27582 27583 27584 27585 27586 27587 27588 27589 27590 27591 27592 27593 27594 27595 27596 27597 27598 27599 27600 27601 27602 27603 27604 27605 27606 27607 27608 27609 27610 27611 27612 27613 27614 27615 27616 27617 27618 27619 27620 27621 27622 27623 27624 27625 27626 27627 27628 27629 27630 27631 27632 27633 27634 27635 27636 27637 27638 27639 27640 27641 27642 27643 27644 27645 27646 27647 27648 27649 27650 27651 27652 27653 27654 27655 27656 27657 27658 27659 27660 27661 27662 27663 27664 27665 27666 27667 27668 27669 27670 27671 27672 27673 27674 27675 27676 27677 27678 27679 27680 27681 27682 27683 27684 27685 27686 27687 27688 27689 27690 27691 27692 27693 27694 27695 27696 27697 27698 27699 27700 27701 27702 27703 27704 27705 27706 27707 27708 27709 27710 27711 27712 27713 27714 27715 27716 27717 27718 27719 27720 27721 27722 27723 27724 27725 27726 27727 27728 27729 27730 27731 27732 27733 27734 27735 27736 27737 27738 27739 27740 27741 27742 27743 27744 27745 27746 27747 27748 27749 27750 27751 27752 27753 27754 27755 27756 27757 27758 27759 27760 27761 27762 27763 27764 27765 27766 27767 27768 27769 27770 27771 27772 27773 27774 27775 27776 27777 27778 27779 27780 27781 27782 27783 27784 27785 27786 27787 27788 27789 27790 27791 27792 27793 27794 27795 27796 27797 27798 27799 27800 27801 27802 27803 27804 27805 27806 27807 27808 27809 27810 27811 27812 27813 27814 27815 27816 27817 27818 27819 27820 27821 27822 27823 27824 27825 27826 27827 27828 27829 27830 27831 27832 27833 27834 27835 27836 27837 27838 27839 27840 27841 27842 27843 27844 27845 27846 27847 27848 27849 27850 27851 27852 27853 27854 27855 27856 27857 27858 27859 27860 27861 27862 27863 27864 27865 27866 27867 27868 27869 27870 27871 27872 27873 27874 27875 27876 27877 27878 27879 27880 27881 27882 27883 27884 27885 27886 27887 27888 27889 27890 27891 27892 27893 27894 27895 27896 27897 27898 27899 27900 27901 27902 27903 27904 27905 27906 27907 27908 27909 27910 27911 27912 27913 27914 27915 27916 27917 27918 27919 27920 27921 27922 27923 27924 27925 27926 27927 27928 27929 27930 27931 27932 27933 27934 27935 27936 27937 27938 27939 27940 27941 27942 27943 27944 27945 27946 27947 27948 27949 27950 27951 27952 27953 27954 27955 27956 27957 27958 27959 27960 27961 27962 27963 27964 27965 27966 27967 27968 27969 27970 27971 27972 27973 27974 27975 27976 27977 27978 27979 27980 27981 27982 27983 27984 27985 27986 27987 27988 27989 27990 27991 27992 27993 27994 27995 27996 27997 27998 27999 28000 28001 28002 28003 28004 28005 28006 28007 28008 28009 28010 28011 28012 28013 28014 28015 28016 28017 28018 28019 28020 28021 28022 28023 28024 28025 28026 28027 28028 28029 28030 28031 28032 28033 28034 28035 28036 28037 28038 28039 28040 28041 28042 28043 28044 28045 28046 28047 28048 28049 28050 28051 28052 28053 28054 28055 28056 28057 28058 28059 28060 28061 28062 28063 28064 28065 28066 28067 28068 28069 28070 28071 28072 28073 28074 28075 28076 28077 28078 28079 28080 28081 28082 28083 28084 28085 28086 28087 28088 28089 28090 28091 28092 28093 28094 28095 28096 28097 28098 28099 28100 28101 28102 28103 28104 28105 28106 28107 28108 28109 28110 28111 28112 28113 28114 28115 28116 28117 28118 28119 28120 28121 28122 28123 28124 28125 28126 28127 28128 28129 28130 28131 28132 28133 28134 28135 28136 28137 28138 28139 28140 28141 28142 28143 28144 28145 28146 28147 28148 28149 28150 28151 28152 28153 28154 28155 28156 28157 28158 28159 28160 28161 28162 28163 28164 28165 28166 28167 28168 28169 28170 28171 28172 28173 28174 28175 28176 28177 28178 28179 28180 28181 28182 28183 28184 28185 28186 28187 28188 28189 28190 28191 28192 28193 28194 28195 28196 28197 28198 28199 28200 28201 28202 28203 28204 28205 28206 28207 28208 28209 28210 28211 28212 28213 28214 28215 28216 28217 28218 28219 28220 28221 28222 28223 28224 28225 28226 28227 28228 28229 28230 28231 28232 28233 28234 28235 28236 28237 28238 28239 28240 28241 28242 28243 28244 28245 28246 28247 28248 28249 28250 28251 28252 28253 28254 28255 28256 28257 28258 28259 28260 28261 28262 28263 28264 28265 28266 28267 28268 28269 28270 28271 28272 28273 28274 28275 28276 28277 28278 28279 28280 28281 28282 28283 28284 28285 28286 28287 28288 28289 28290 28291 28292 28293 28294 28295 28296 28297 28298 28299 28300 28301 28302 28303 28304 28305 28306 28307 28308 28309 28310 28311 28312 28313 28314 28315 28316 28317 28318 28319 28320 28321 28322 28323 28324 28325 28326 28327 28328 28329 28330 28331 28332 28333 28334 28335 28336 28337 28338 28339 28340 28341 28342 28343 28344 28345 28346 28347 28348 28349 28350 28351 28352 28353 28354 28355 28356 28357 28358 28359 28360 28361 28362 28363 28364 28365 28366 28367 28368 28369 28370 28371 28372 28373 28374 28375 28376 28377 28378 28379 28380 28381 28382 28383 28384 28385 28386 28387 28388 28389 28390 28391 28392 28393 28394 28395 28396 28397 28398 28399 28400 28401 28402 28403 28404 28405 28406 28407 28408 28409 28410 28411 28412 28413 28414 28415 28416 28417 28418 28419 28420 28421 28422 28423 28424 28425 28426 28427 28428 28429 28430 28431 28432 28433 28434 28435 28436 28437 28438 28439 28440 28441 28442 28443 28444 28445 28446 28447 28448 28449 28450 28451 28452 28453 28454 28455 28456 28457 28458 28459 28460 28461 28462 28463 28464 28465 28466 28467 28468 28469 28470 28471 28472 28473 28474 28475 28476 28477 28478 28479 28480 28481 28482 28483 28484 28485 28486 28487 28488 28489 28490 28491 28492 28493 28494 28495 28496 28497 28498 28499 28500 28501 28502 28503 28504 28505 28506 28507 28508 28509 28510 28511 28512 28513 28514 28515 28516 28517 28518 28519 28520 28521 28522 28523 28524 28525 28526 28527 28528 28529 28530 28531 28532 28533 28534 28535 28536 28537 28538 28539 28540 28541 28542 28543 28544 28545 28546 28547 28548 28549 28550 28551 28552 28553 28554 28555 28556 28557 28558 28559 28560 28561 28562 28563 28564 28565 28566 28567 28568 28569 28570 28571 28572 28573 28574 28575 28576 28577 28578 28579 28580 28581 28582 28583 28584 28585 28586 28587 28588 28589 28590 28591 28592 28593 28594 28595 28596 28597 28598 28599 28600 28601 28602 28603 28604 28605 28606 28607 28608 28609 28610 28611 28612 28613 28614 28615 28616 28617 28618 28619 28620 28621 28622 28623 28624 28625 28626 28627 28628 28629 28630 28631 28632 28633 28634 28635 28636 28637 28638 28639 28640 28641 28642 28643 28644 28645 28646 28647 28648 28649 28650 28651 28652 28653 28654 28655 28656 28657 28658 28659 28660 28661 28662 28663 28664 28665 28666 28667 28668 28669 28670 28671 28672 28673 28674 28675 28676 28677 28678 28679 28680 28681 28682 28683 28684 28685 28686 28687 28688 28689 28690 28691 28692 28693 28694 28695 28696 28697 28698 28699 28700 28701 28702 28703 28704 28705 28706 28707 28708 28709 28710 28711 28712 28713 28714 28715 28716 28717 28718 28719 28720 28721 28722 28723 28724 28725 28726 28727 28728 28729 28730 28731 28732 28733 28734 28735 28736 28737 28738 28739 28740 28741 28742 28743 28744 28745 28746 28747 28748 28749 28750 28751 28752 28753 28754 28755 28756 28757 28758 28759 28760 28761 28762 28763 28764 28765 28766 28767 28768 28769 28770 28771 28772 28773 28774 28775 28776 28777 28778 28779 28780 28781 28782 28783 28784 28785 28786 28787 28788 28789 28790 28791 28792 28793 28794 28795 28796 28797 28798 28799 28800 28801 28802 28803 28804 28805 28806 28807 28808 28809 28810 28811 28812 28813 28814 28815 28816 28817 28818 28819 28820 28821 28822 28823 28824 28825 28826 28827 28828 28829 28830 28831 28832 28833 28834 28835 28836 28837 28838 28839 28840 28841 28842 28843 28844 28845 28846 28847 28848 28849 28850 28851 28852 28853 28854 28855 28856 28857 28858 28859 28860 28861 28862 28863 28864 28865 28866 28867 28868 28869 28870 28871 28872 28873 28874 28875 28876 28877 28878 28879 28880 28881 28882 28883 28884 28885 28886 28887 28888 28889 28890 28891 28892 28893 28894 28895 28896 28897 28898 28899 28900 28901 28902 28903 28904 28905 28906 28907 28908 28909 28910 28911 28912 28913 28914 28915 28916 28917 28918 28919 28920 28921 28922 28923 28924 28925 28926 28927 28928 28929 28930 28931 28932 28933 28934 28935 28936 28937 28938 28939 28940 28941 28942 28943 28944 28945 28946 28947 28948 28949 28950 28951 28952 28953 28954 28955 28956 28957 28958 28959 28960 28961 28962 28963 28964 28965 28966 28967 28968 28969 28970 28971 28972 28973 28974 28975 28976 28977 28978 28979 28980 28981 28982 28983 28984 28985 28986 28987 28988 28989 28990 28991 28992 28993 28994 28995 28996 28997 28998 28999 29000 29001 29002 29003 29004 29005 29006 29007 29008 29009 29010 29011 29012 29013 29014 29015 29016 29017 29018 29019 29020 29021 29022 29023 29024 29025 29026 29027 29028 29029 29030 29031 29032 29033 29034 29035 29036 29037 29038 29039 29040 29041 29042 29043 29044 29045 29046 29047 29048 29049 29050 29051 29052 29053 29054 29055 29056 29057 29058 29059 29060 29061 29062 29063 29064 29065 29066 29067 29068 29069 29070 29071 29072 29073 29074 29075 29076 29077 29078 29079 29080 29081 29082 29083 29084 29085 29086 29087 29088 29089 29090 29091 29092 29093 29094 29095 29096 29097 29098 29099 29100 29101 29102 29103 29104 29105 29106 29107 29108 29109 29110 29111 29112 29113 29114 29115 29116 29117 29118 29119 29120 29121 29122 29123 29124 29125 29126 29127 29128 29129 29130 29131 29132 29133 29134 29135 29136 29137 29138 29139 29140 29141 29142 29143 29144 29145 29146 29147 29148 29149 29150 29151 29152 29153 29154 29155 29156 29157 29158 29159 29160 29161 29162 29163 29164 29165 29166 29167 29168 29169 29170 29171 29172 29173 29174 29175 29176 29177 29178 29179 29180 29181 29182 29183 29184 29185 29186 29187 29188 29189 29190 29191 29192 29193 29194 29195 29196 29197 29198 29199 29200 29201 29202 29203 29204 29205 29206 29207 29208 29209 29210 29211 29212 29213 29214 29215 29216 29217 29218 29219 29220 29221 29222 29223 29224 29225 29226 29227 29228 29229 29230 29231 29232 29233 29234 29235 29236 29237 29238 29239 29240 29241 29242 29243 29244 29245 29246 29247 29248 29249 29250 29251 29252 29253 29254 29255 29256 29257 29258 29259 29260 29261 29262 29263 29264 29265 29266 29267 29268 29269 29270 29271 29272 29273 29274 29275 29276 29277 29278 29279 29280 29281 29282 29283 29284 29285 29286 29287 29288 29289 29290 29291 29292 29293 29294 29295 29296 29297 29298 29299 29300 29301 29302 29303 29304 29305 29306 29307 29308 29309 29310 29311 29312 29313 29314 29315 29316 29317 29318 29319 29320 29321 29322 29323 29324 29325 29326 29327 29328 29329 29330 29331 29332 29333 29334 29335 29336 29337 29338 29339 29340 29341 29342 29343 29344 29345 29346 29347 29348 29349 29350 29351 29352 29353 29354 29355 29356 29357 29358 29359 29360 29361 29362 29363 29364 29365 29366 29367 29368 29369 29370 29371 29372 29373 29374 29375 29376 29377 29378 29379 29380 29381 29382 29383 29384 29385 29386 29387 29388 29389 29390 29391 29392 29393 29394 29395 29396 29397 29398 29399 29400 29401 29402 29403 29404 29405 29406 29407 29408 29409 29410 29411 29412 29413 29414 29415 29416 29417 29418 29419 29420 29421 29422 29423 29424 29425 29426 29427 29428 29429 29430 29431 29432 29433 29434 29435 29436 29437 29438 29439 29440 29441 29442 29443 29444 29445 29446 29447 29448 29449 29450 29451 29452 29453 29454 29455 29456 29457 29458 29459 29460 29461 29462 29463 29464 29465 29466 29467 29468 29469 29470 29471 29472 29473 29474 29475 29476 29477 29478 29479 29480 29481 29482 29483 29484 29485 29486 29487 29488 29489 29490 29491 29492 29493 29494 29495 29496 29497 29498 29499 29500 29501 29502 29503 29504 29505 29506 29507 29508 29509 29510 29511 29512 29513 29514 29515 29516 29517 29518 29519 29520 29521 29522 29523 29524 29525 29526 29527 29528 29529 29530 29531 29532 29533 29534 29535 29536 29537 29538 29539 29540 29541 29542 29543 29544 29545 29546 29547 29548 29549 29550 29551 29552 29553 29554 29555 29556 29557 29558 29559 29560 29561 29562 29563 29564 29565 29566 29567 29568 29569 29570 29571 29572 29573 29574 29575 29576 29577 29578 29579 29580 29581 29582 29583 29584 29585 29586 29587 29588 29589 29590 29591 29592 29593 29594 29595 29596 29597 29598 29599 29600 29601 29602 29603 29604 29605 29606 29607 29608 29609 29610 29611 29612 29613 29614 29615 29616 29617 29618 29619 29620 29621 29622 29623 29624 29625 29626 29627 29628 29629 29630 29631 29632 29633 29634 29635 29636 29637 29638 29639 29640 29641 29642 29643 29644 29645 29646 29647 29648 29649 29650 29651 29652 29653 29654 29655 29656 29657 29658 29659 29660 29661 29662 29663 29664 29665 29666 29667 29668 29669 29670 29671 29672 29673 29674 29675 29676 29677 29678 29679 29680 29681 29682 29683 29684 29685 29686 29687 29688 29689 29690 29691 29692 29693 29694 29695 29696 29697 29698 29699 29700 29701 29702 29703 29704 29705 29706 29707 29708 29709 29710 29711 29712 29713 29714 29715 29716 29717 29718 29719 29720 29721 29722 29723 29724 29725 29726 29727 29728 29729 29730 29731 29732 29733 29734 29735 29736 29737 29738 29739 29740 29741 29742 29743 29744 29745 29746 29747 29748 29749 29750 29751 29752 29753 29754 29755 29756 29757 29758 29759 29760 29761 29762 29763 29764 29765 29766 29767 29768 29769 29770 29771 29772 29773 29774 29775 29776 29777 29778 29779 29780 29781 29782 29783 29784 29785 29786 29787 29788 29789 29790 29791 29792 29793 29794 29795 29796 29797 29798 29799 29800 29801 29802 29803 29804 29805 29806 29807 29808 29809 29810 29811 29812 29813 29814 29815 29816 29817 29818 29819 29820 29821 29822 29823 29824 29825 29826 29827 29828 29829 29830 29831 29832 29833 29834 29835 29836 29837 29838 29839 29840 29841 29842 29843 29844 29845 29846 29847 29848 29849 29850 29851 29852 29853 29854 29855 29856 29857 29858 29859 29860 29861 29862 29863 29864 29865 29866 29867 29868 29869 29870 29871 29872 29873 29874 29875 29876 29877 29878 29879 29880 29881 29882 29883 29884 29885 29886 29887 29888 29889 29890 29891 29892 29893 29894 29895 29896 29897 29898 29899 29900 29901 29902 29903 29904 29905 29906 29907 29908 29909 29910 29911 29912 29913 29914 29915 29916 29917 29918 29919 29920 29921 29922 29923 29924 29925 29926 29927 29928 29929 29930 29931 29932 29933 29934 29935 29936 29937 29938 29939 29940 29941 29942 29943 29944 29945 29946 29947 29948 29949 29950 29951 29952 29953 29954 29955 29956 29957 29958 29959 29960 29961 29962 29963 29964 29965 29966 29967 29968 29969 29970 29971 29972 29973 29974 29975 29976 29977 29978 29979 29980 29981 29982 29983 29984 29985 29986 29987 29988 29989 29990 29991 29992 29993 29994 29995 29996 29997 29998 29999 30000 30001 30002 30003 30004 30005 30006 30007 30008 30009 30010 30011 30012 30013 30014 30015 30016 30017 30018 30019 30020 30021 30022 30023 30024 30025 30026 30027 30028 30029 30030 30031 30032 30033 30034 30035 30036 30037 30038 30039 30040 30041 30042 30043 30044 30045 30046 30047 30048 30049 30050 30051 30052 30053 30054 30055 30056 30057 30058 30059 30060 30061 30062 30063 30064 30065 30066 30067 30068 30069 30070 30071 30072 30073 30074 30075 30076 30077 30078 30079 30080 30081 30082 30083 30084 30085 30086 30087 30088 30089 30090 30091 30092 30093 30094 30095 30096 30097 30098 30099 30100 30101 30102 30103 30104 30105 30106 30107 30108 30109 30110 30111 30112 30113 30114 30115 30116 30117 30118 30119 30120 30121 30122 30123 30124 30125 30126 30127 30128 30129 30130 30131 30132 30133 30134 30135 30136 30137 30138 30139 30140 30141 30142 30143 30144 30145 30146 30147 30148 30149 30150 30151 30152 30153 30154 30155 30156 30157 30158 30159 30160 30161 30162 30163 30164 30165 30166 30167 30168 30169 30170 30171 30172 30173 30174 30175 30176 30177 30178 30179 30180 30181 30182 30183 30184 30185 30186 30187 30188 30189 30190 30191 30192 30193 30194 30195 30196 30197 30198 30199 30200 30201 30202 30203 30204 30205 30206 30207 30208 30209 30210 30211 30212 30213 30214 30215 30216 30217 30218 30219 30220 30221 30222 30223 30224 30225 30226 30227 30228 30229 30230 30231 30232 30233 30234 30235 30236 30237 30238 30239 30240 30241 30242 30243 30244 30245 30246 30247 30248 30249 30250 30251 30252 30253 30254 30255 30256 30257 30258 30259 30260 30261 30262 30263 30264 30265 30266 30267 30268 30269 30270 30271 30272 30273 30274 30275 30276 30277 30278 30279 30280 30281 30282 30283 30284 30285 30286 30287 30288 30289 30290 30291 30292 30293 30294 30295 30296 30297 30298 30299 30300 30301 30302 30303 30304 30305 30306 30307 30308 30309 30310 30311 30312 30313 30314 30315 30316 30317 30318 30319 30320 30321 30322 30323 30324 30325 30326 30327 30328 30329 30330 30331 30332 30333 30334 30335 30336 30337 30338 30339 30340 30341 30342 30343 30344 30345 30346 30347 30348 30349 30350 30351 30352 30353 30354 30355 30356 30357 30358 30359 30360 30361 30362 30363 30364 30365 30366 30367 30368 30369 30370 30371 30372 30373 30374 30375 30376 30377 30378 30379 30380 30381 30382 30383 30384 30385 30386 30387 30388 30389 30390 30391 30392 30393 30394 30395 30396 30397 30398 30399 30400 30401 30402 30403 30404 30405 30406 30407 30408 30409 30410 30411 30412 30413 30414 30415 30416 30417 30418 30419 30420 30421 30422 30423 30424 30425 30426 30427 30428 30429 30430 30431 30432 30433 30434 30435 30436 30437 30438 30439 30440 30441 30442 30443 30444 30445 30446 30447 30448 30449 30450 30451 30452 30453 30454 30455 30456 30457 30458 30459 30460 30461 30462 30463 30464 30465 30466 30467 30468 30469 30470 30471 30472 30473 30474 30475 30476 30477 30478 30479 30480 30481 30482 30483 30484 30485 30486 30487 30488 30489 30490 30491 30492 30493 30494 30495 30496 30497 30498 30499 30500 30501 30502 30503 30504 30505 30506 30507 30508 30509 30510 30511 30512 30513 30514 30515 30516 30517 30518 30519 30520 30521 30522 30523 30524 30525 30526 30527 30528 30529 30530 30531 30532 30533 30534 30535 30536 30537 30538 30539 30540 30541 30542 30543 30544 30545 30546 30547 30548 30549 30550 30551 30552 30553 30554 30555 30556 30557 30558 30559 30560 30561 30562 30563 30564 30565 30566 30567 30568 30569 30570 30571 30572 30573 30574 30575 30576 30577 30578 30579 30580 30581 30582 30583 30584 30585 30586 30587 30588 30589 30590 30591 30592 30593 30594 30595 30596 30597 30598 30599 30600 30601 30602 30603 30604 30605 30606 30607 30608 30609 30610 30611 30612 30613 30614 30615 30616 30617 30618 30619 30620 30621 30622 30623 30624 30625 30626 30627 30628 30629 30630 30631 30632 30633 30634 30635 30636 30637 30638 30639 30640 30641 30642 30643 30644 30645 30646 30647 30648 30649 30650 30651 30652 30653 30654 30655 30656 30657 30658 30659 30660 30661 30662 30663 30664 30665 30666 30667 30668 30669 30670 30671 30672 30673 30674 30675 30676 30677 30678 30679 30680 30681 30682 30683 30684 30685 30686 30687 30688 30689 30690 30691 30692 30693 30694 30695 30696 30697 30698 30699 30700 30701 30702 30703 30704 30705 30706 30707 30708 30709 30710 30711 30712 30713 30714 30715 30716 30717 30718 30719 30720 30721 30722 30723 30724 30725 30726 30727 30728 30729 30730 30731 30732 30733 30734 30735 30736 30737 30738 30739 30740 30741 30742 30743 30744 30745 30746 30747 30748 30749 30750 30751 30752 30753 30754 30755 30756 30757 30758 30759 30760 30761 30762 30763 30764 30765 30766 30767 30768 30769 30770 30771 30772 30773 30774 30775 30776 30777 30778 30779 30780 30781 30782 30783 30784 30785 30786 30787 30788 30789 30790 30791 30792 30793 30794 30795 30796 30797 30798 30799 30800 30801 30802 30803 30804 30805 30806 30807 30808 30809 30810 30811 30812 30813 30814 30815 30816 30817 30818 30819 30820 30821 30822 30823 30824 30825 30826 30827 30828 30829 30830 30831 30832 30833 30834 30835 30836 30837 30838 30839 30840 30841 30842 30843 30844 30845 30846 30847 30848 30849 30850 30851 30852 30853 30854 30855 30856 30857 30858 30859 30860 30861 30862 30863 30864 30865 30866 30867 30868 30869 30870 30871 30872 30873 30874 30875 30876 30877 30878 30879 30880 30881 30882 30883 30884 30885 30886 30887 30888 30889 30890 30891 30892 30893 30894 30895 30896 30897 30898 30899 30900 30901 30902 30903 30904 30905 30906 30907 30908 30909 30910 30911 30912 30913 30914 30915 30916 30917 30918 30919 30920 30921 30922 30923 30924 30925 30926 30927 30928 30929 30930 30931 30932 30933 30934 30935 30936 30937 30938 30939 30940 30941 30942 30943 30944 30945 30946 30947 30948 30949 30950 30951 30952 30953 30954 30955 30956 30957 30958 30959 30960 30961 30962 30963 30964 30965 30966 30967 30968 30969 30970 30971 30972 30973 30974 30975 30976 30977 30978 30979 30980 30981 30982 30983 30984 30985 30986 30987 30988 30989 30990 30991 30992 30993 30994 30995 30996 30997 30998 30999 31000 31001 31002 31003 31004 31005 31006 31007 31008 31009 31010 31011 31012 31013 31014 31015 31016 31017 31018 31019 31020 31021 31022 31023 31024 31025 31026 31027 31028 31029 31030 31031 31032 31033 31034 31035 31036 31037 31038 31039 31040 31041 31042 31043 31044 31045 31046 31047 31048 31049 31050 31051 31052 31053 31054 31055 31056 31057 31058 31059 31060 31061 31062 31063 31064 31065 31066 31067 31068 31069 31070 31071 31072 31073 31074 31075 31076 31077 31078 31079 31080 31081 31082 31083 31084 31085 31086 31087 31088 31089 31090 31091 31092 31093 31094 31095 31096 31097 31098 31099 31100 31101 31102 31103 31104 31105 31106 31107 31108 31109 31110 31111 31112 31113 31114 31115 31116 31117 31118 31119 31120 31121 31122 31123 31124 31125 31126 31127 31128 31129 31130 31131 31132 31133 31134 31135 31136 31137 31138 31139 31140 31141 31142 31143 31144 31145 31146 31147 31148 31149 31150 31151 31152 31153 31154 31155 31156 31157 31158 31159 31160 31161 31162 31163 31164 31165 31166 31167 31168 31169 31170 31171 31172 31173 31174 31175 31176 31177 31178 31179 31180 31181 31182 31183 31184 31185 31186 31187 31188 31189 31190 31191 31192 31193 31194 31195 31196 31197 31198 31199 31200 31201 31202 31203 31204 31205 31206 31207 31208 31209 31210 31211 31212 31213 31214 31215 31216 31217 31218 31219 31220 31221 31222 31223 31224 31225 31226 31227 31228 31229 31230 31231 31232 31233 31234 31235 31236 31237 31238 31239 31240 31241 31242 31243 31244 31245 31246 31247 31248 31249 31250 31251 31252 31253 31254 31255 31256 31257 31258 31259 31260 31261 31262 31263 31264 31265 31266 31267 31268 31269 31270 31271 31272 31273 31274 31275 31276 31277 31278 31279 31280 31281 31282 31283 31284 31285 31286 31287 31288 31289 31290 31291 31292 31293 31294 31295 31296 31297 31298 31299 31300 31301 31302 31303 31304 31305 31306 31307 31308 31309 31310 31311 31312 31313 31314 31315 31316 31317 31318 31319 31320 31321 31322 31323 31324 31325 31326 31327 31328 31329 31330 31331 31332 31333 31334 31335 31336 31337 31338 31339 31340 31341 31342 31343 31344 31345 31346 31347 31348 31349 31350 31351 31352 31353 31354 31355 31356 31357 31358 31359 31360 31361 31362 31363 31364 31365 31366 31367 31368 31369 31370 31371 31372 31373 31374 31375 31376 31377 31378 31379 31380 31381 31382 31383 31384 31385 31386 31387 31388 31389 31390 31391 31392 31393 31394 31395 31396 31397 31398 31399 31400 31401 31402 31403 31404 31405 31406 31407 31408 31409 31410 31411 31412 31413 31414 31415 31416 31417 31418 31419 31420 31421 31422 31423 31424 31425 31426 31427 31428 31429 31430 31431 31432 31433 31434 31435 31436 31437 31438 31439 31440 31441 31442 31443 31444 31445 31446 31447 31448 31449 31450 31451 31452 31453 31454 31455 31456 31457 31458 31459 31460 31461 31462 31463 31464 31465 31466 31467 31468 31469 31470 31471 31472 31473 31474 31475 31476 31477 31478 31479 31480 31481 31482 31483 31484 31485 31486 31487 31488 31489 31490 31491 31492 31493 31494 31495 31496 31497 31498 31499 31500 31501 31502 31503 31504 31505 31506 31507 31508 31509 31510 31511 31512 31513 31514 31515 31516 31517 31518 31519 31520 31521 31522 31523 31524 31525 31526 31527 31528 31529 31530 31531 31532 31533 31534 31535 31536 31537 31538 31539 31540 31541 31542 31543 31544 31545 31546 31547 31548 31549 31550 31551 31552 31553 31554 31555 31556 31557 31558 31559 31560 31561 31562 31563 31564 31565 31566 31567 31568 31569 31570 31571 31572 31573 31574 31575 31576 31577 31578 31579 31580 31581 31582 31583 31584 31585 31586 31587 31588 31589 31590 31591 31592 31593 31594 31595 31596 31597 31598 31599 31600 31601 31602 31603 31604 31605 31606 31607 31608 31609 31610 31611 31612 31613 31614 31615 31616 31617 31618 31619 31620 31621 31622 31623 31624 31625 31626 31627 31628 31629 31630 31631 31632 31633 31634 31635 31636 31637 31638 31639 31640 31641 31642 31643 31644 31645 31646 31647 31648 31649 31650 31651 31652 31653 31654 31655 31656 31657 31658 31659 31660 31661 31662 31663 31664 31665 31666 31667 31668 31669 31670 31671 31672 31673 31674 31675 31676 31677 31678 31679 31680 31681 31682 31683 31684 31685 31686 31687 31688 31689 31690 31691 31692 31693 31694 31695 31696 31697 31698 31699 31700 31701 31702 31703 31704 31705 31706 31707 31708 31709 31710 31711 31712 31713 31714 31715 31716 31717 31718 31719 31720 31721 31722 31723 31724 31725 31726 31727 31728 31729 31730 31731 31732 31733 31734 31735 31736 31737 31738 31739 31740 31741 31742 31743 31744 31745 31746 31747 31748 31749 31750 31751 31752 31753 31754 31755 31756 31757 31758 31759 31760 31761 31762 31763 31764 31765 31766 31767 31768 31769 31770 31771 31772 31773 31774 31775 31776 31777 31778 31779 31780 31781 31782 31783 31784 31785 31786 31787 31788 31789 31790 31791 31792 31793 31794 31795 31796 31797 31798 31799 31800 31801 31802 31803 31804 31805 31806 31807 31808 31809 31810 31811 31812 31813 31814 31815 31816 31817 31818 31819 31820 31821 31822 31823 31824 31825 31826 31827 31828 31829 31830 31831 31832 31833 31834 31835 31836 31837 31838 31839 31840 31841 31842 31843 31844 31845 31846 31847 31848 31849 31850 31851 31852 31853 31854 31855 31856 31857 31858 31859 31860 31861 31862 31863 31864 31865 31866 31867 31868 31869 31870 31871 31872 31873 31874 31875 31876 31877 31878 31879 31880 31881 31882 31883 31884 31885 31886 31887 31888 31889 31890 31891 31892 31893 31894 31895 31896 31897 
</DataArray>
<DataArray type="UInt32" Name="offsets" format="ascii">
3 6 9 12 15 17 20 23 26 29 32 35 38 40 43 46 49 52 54 57 60 62 65 68 71 74 76 79 82 85 88 90 93 96 99 102 105 108 111 114 117 120 123 126 129 131 134 137 139 142 145 148 151 154 156 159 162 165 168 171 174 177 179 182 185 188 191 193 196 199 202 205 208 211 214 217 220 222 225 228 230 233 236 238 241 244 247 250 252 255 258 261 264 267 270 273 275 277 279 282 285 287 290 293 296 299 302 304 307 310 313 316 319 322 325 328 331 334 337 340 343 345 348 351 354 356 359 362 365 368 371 374 376 379 382 385 388 391 394 397 400 403 406 409 412 415 418 421 424 427 430 433 436 439 442 445 448 451 453 456 459 462 464 467 470 472 475 478 481 484 487 490 493 496 499 502 505 507 510 513 516 519 522 525 528 531 533 536 539 542 545 548 551 554 557 559 562 565 568 571 574 577 580 583 586 588 591 594 597 600 603 606 609 612 615 618 621 624 627 630 633 636 639 642 645 648 651 654 657 659 662 665 668 670 673 675 678 680 683 686 688 691 694 697 699 702 704 707 709 712 714 716 719 721 724 727 729 732 734 737 740 743 745 748 750 752 755 758 760 763 766 769 771 774 776 778 780 783 785 788 791 794 796 799 801 803 805 808 811 813 815 818 821 824 827 829 832 834 837 840 842 845 848 851 853 856 858 860 862 865 868 871 873 876 878 880 882 884 887 890 893 895 897 900 903 905 907 909 912 914 917 920 923 926 928 931 934 937 940 943 946 949 951 954 957 960 963 966 969 971 973 976 979 982 984 987 990 993 995 998 1000 1003 1005 1007 1010 1013 1016 1019 1021 1024 1027 1029 1032 1035 1038 1041 1043 1046 1048 1051 1054 1057 1060 1063 1065 1067 1070 1073 1076 1079 1082 1085 1088 1091 1093 1096 1099 1102 1104 1107 1110 1112 1115 1117 1120 1123 1126 1129 1132 1135 1138 1141 1144 1147 1150 1152 1155 1157 1160 1162 1165 1168 1171 1173 1176 1178 1181 1183 1186 1189 1192 1195 1198 1201 1203 1206 1208 1211 1214 1217 1219 1222 1225 1228 1230 1233 1235 1237 1240 1243 1246 1249 1251 1254 1257 1260 1263 1265 1267 1270 1273 1275 1278 1280 1283 1285 1287 1290 1293 1296 1298 1301 1304 1307 1310 1312 1315 1318 1321 1324 1327 1330 1333 1336 1339 1342 1345 1347 1350 1353 1356 1359 1361 1364 1367 1370 1372 1375 1377 1379 1381 1384 1387 1390 1392 1394 1397 1399 1402 1405 1407 1410 1413 1416 1419 1421 1424 1427 1430 1433 1436 1439 1442 1445 1448 1451 1454 1456 1458 1461 1464 1466 1469 1472 1475 1477 1480 1483 1486 1489 1492 1495 1497 1500 1503 1506 1508 1511 1514 1517 1519 1522 1525 1528 1531 1534 1537 1540 1543 1546 1549 1552 1554 1557 1560 1563 1565 1568 1571 1574 1577 1580 1583 1586 1588 1591 1594 1597 1600 1603 1605 1608 1611 1614 1617 1620 1623 1626 1629 1632 1635 1638 1641 1644 1647 1650 1653 1656 1659 1662 1664 1667 1670 1673 1676 1678 1681 1684 1686 1689 1692 1695 1698 1701 1704 1707 1709 1712 1715 1718 1721 1724 1727 1730 1733 1735 1738 1740 1743 1746 1748 1751 1754 1757 1759 1762 1765 1767 1770 1773 1776 1778 1781 1783 1786 1789 1791 1794 1796 1799 1802 1805 1808 1811 1814 1817 1820 1823 1826 1829 1832 1835 1838 1841 1844 1847 1850 1853 1856 1859 1862 1864 1867 1869 1872 1874 1877 1880 1883 1886 1889 1892 1895 1898 1901 1904 1907 1910 1913 1916 1919 1921 1924 1927 1930 1933 1936 1939 1942 1945 1948 1950 1953 1956 1959 1962 1965 1968 1971 1974 1977 1980 1983 1986 1989 1992 1995 1998 2001 2004 2007 2010 2013 2016 2019 2022 2025 2028 2031 2034 2037 2039 2042 2045 2047 2050 2053 2056 2058 2060 2063 2065 2068 2071 2074 2077 2080 2082 2085 2088 2091 2094 2097 2099 2102 2105 2108 2111 2114 2117 2120 2123 2126 2129 2132 2135 2138 2141 2144 2147 2150 2153 2156 2159 2162 2165 2168 2171 2174 2177 2180 2183 2186 2189 2192 2195 2198 2201 2204 2207 2210 2213 2216 2219 2222 2225 2228 2231 2234 2237 2240 2243 2246 2248 2251 2254 2257 2260 2263 2266 2269 2272 2275 2278 2281 2284 2287 2290 2293 2295 2298 2301 2304 2307 2309 2312 2315 2318 2321 2324 2327 2330 2333 2336 2339 2342 2345 2348 2351 2354 2357 2360 2363 2366 2369 2372 2375 2378 2381 2384 2387 2390 2392 2395 2398 2400 2403 2405 2407 2409 2411 2414 2417 2419 2422 2425 2428 2431 2434 2437 2440 2443 2446 2449 2452 2455 2458 2461 2464 2467 2470 2472 2475 2478 2480 2483 2485 2488 2491 2494 2497 2499 2502 2504 2507 2510 2513 2516 2518 2521 2524 2527 2529 2532 2535 2538 2541 2544 2546 2549 2551 2554 2557 2559 2561 2564 2566 2569 2572 2575 2578 2581 2584 2587 2590 2593 2596 2599 2601 2604 2607 2610 2612 2615 2618 2621 2623 2626 2629 2631 2633 2635 2638 2641 2644 2647 2650 2653 2656 2659 2662 2665 2668 2670 2673 2676 2679 2682 2685 2688 2691 2694 2696 2698 2700 2703 2706 2709 2712 2715 2718 2721 2724 2726 2728 2731 2734 2737 2739 2742 2745 2747 2750 2753 2756 2759 2762 2765 2768 2771 2774 2777 2780 2782 2785 2788 2791 2794 2797 2800 2803 2806 2808 2811 2814 2817 2820 2823 2826 2829 2832 2835 2838 2840 2843 2845 2847 2849 2852 2855 2858 2861 2864 2867 2870 2872 2874 2877 2879 2882 2885 2888 2891 2894 2896 2899 2901 2903 2906 2909 2912 2914 2917 2919 2922 2925 2928 2931 2933 2936 2939 2942 2945 2948 2951 2954 2957 2960 2963 2966 2969 2972 2975 2978 2981 2984 2986 2989 2992 2995 2997 3000 3003 3006 3009 3012 3014 3017 3020 3023 3026 3029 3032 3034 3037 3039 3042 3045 3048 3051 3054 3057 3060 3063 3065 3068 3071 3074 3076 3079 3082 3085 3088 3091 3094 3097 3100 3103 3106 3109 3112 3115 3118 3121 3124 3127 3130 3133 3136 3139 3142 3145 3148 3151 3153 3155 3157 3160 3163 3166 3169 3171 3174 3177 3180 3183 3185 3188 3191 3194 3197 3200 3203 3206 3208 3211 3214 3217 3220 3223 3226 3229 3232 3234 3237 3240 3243 3246 3249 3252 3255 3258 3261 3264 3267 3270 3272 3275 3278 3281 3284 3287 3290 3292 3295 3298 3301 3304 3307 3310 3313 3316 3318 3321 3324 3327 3329 3332 3335 3338 3341 3344 3347 3350 3353 3356 3359 3362 3365 3367 3370 3373 3376 3379 3382 3385 3388 3391 3394 3397 3400 3403 3406 3409 3412 3415 3418 3421 3424 3427 3430 3433 3436 3439 3442 3445 3448 3451 3454 3457 3460 3463 3466 3469 3472 3475 3478 3481 3484 3487 3490 3493 3496 3499 3502 3505 3508 3510 3513 3516 3519 3522 3525 3528 3531 3534 3537 3540 3543 3546 3549 3552 3555 3558 3561 3564 3567 3570 3573 3576 3579 3582 3584 3587 3590 3593 3596 3599 3602 3605 3608 3611 3614 3616 3619 3622 3624 3627 3630 3633 3636 3639 3642 3645 3648 3651 3653 3656 3658 3661 3664 3667 3670 3672 3675 3678 3680 3683 3685 3688 3691 3694 3697 3700 3702 3705 3708 3711 3714 3717 3720 3723 3726 3728 3731 3734 3737 3740 3743 3746 3749 3752 3755 3758 3761 3764 3767 3770 3772 3775 3777 3779 3782 3785 3788 3791 3794 3796 3799 3802 3805 3808 3811 3814 3817 3820 3823 3826 3829 3832 3835 3838 3841 3843 3846 3849 3852 3855 3858 3861 3864 3867 3870 3873 3876 3879 3882 3885 3888 3891 3893 3896 3899 3902 3905 3908 3910 3912 3915 3918 3920 3923 3926 3929 3932 3935 3938 3941 3944 3947 3950 3952 3955 3958 3961 3964 3967 3970 3973 3976 3979 3981 3984 3986 3989 3992 3995 3998 4001 4003 4006 4009 4012 4015 4017 4020 4023 4026 4028 4031 4034 4037 4039 4042 4045 4047 4050 4053 4056 4059 4062 4065 4068 4071 4074 4077 4080 4083 4086 4089 4092 4095 4097 4100 4103 4106 4109 4112 4115 4118 4120 4123 4126 4129 4132 4135 4138 4141 4144 4147 4150 4153 4156 4159 4162 4165 4168 4171 4174 4177 4180 4183 4186 4189 4192 4195 4198 4201 4203 4206 4209 4212 4215 4217 4220 4223 4226 4228 4231 4234 4237 4240 4243 4246 4249 4252 4255 4257 4260 4262 4265 4268 4271 4274 4277 4280 4283 4286 4289 4292 4295 4298 4301 4304 4307 4310 4313 4316 4318 4320 4323 4326 4329 4331 4334 4337 4339 4342 4345 4347 4350 4353 4356 4358 4361 4364 4366 4369 4372 4375 4378 4381 4384 4387 4390 4393 4396 4399 4402 4405 4408 4411 4414 4417 4420 4423 4426 4428 4431 4433 4436 4439 4442 4445 4448 4451 4454 4457 4460 4463 4466 4468 4471 4473 4476 4479 4482 4484 4487 4490 4493 4496 4499 4501 4504 4507 4510 4513 4516 4519 4521 4524 4527 4530 4533 4536 4539 4542 4545 4548 4551 4554 4556 4559 4562 4565 4568 4571 4574 4577 4580 4582 4585 4588 4591 4593 4596 4599 4601 4604 4607 4610 4613 4616 4618 4621 4624 4627 4630 4633 4636 4639 4642 4645 4647 4650 4653 4655 4658 4660 4663 4665 4667 4669 4672 4674 4677 4680 4683 4686 4689 4692 4694 4697 4700 4703 4706 4709 4712 4714 4717 4720 4723 4726 4729 4732 4735 4737 4740 4743 4746 4749 4751 4754 4757 4760 4763 4766 4768 4771 4773 4776 4779 4782 4785 4788 4791 4794 4797 4800 4803 4805 4808 4811 4814 4817 4820 4823 4826 4828 4831 4834 4837 4840 4843 4846 4849 4851 4854 4856 4859 4862 4865 4868 4871 4874 4877 4880 4882 4885 4888 4891 4893 4895 4898 4901 4904 4907 4910 4912 4914 4917 4919 4922 4925 4927 4930 4933 4935 4938 4941 4944 4947 4950 4953 4956 4959 4961 4964 4967 4970 4973 4976 4978 4981 4984 4987 4990 4992 4995 4998 5000 5003 5006 5009 5012 5015 5018 5021 5024 5027 5030 5033 5036 5039 5042 5045 5048 5051 5054 5057 5060 5063 5066 5069 5072 5075 5078 5081 5084 5087 5090 5093 5096 5099 5102 5105 5108 5111 5114 5117 5120 5123 5125 5128 5131 5133 5136 5139 5142 5145 5148 5150 5153 5156 5159 5162 5164 5167 5170 5173 5176 5179 5182 5185 5188 5191 5194 5197 5200 5203 5206 5209 5212 5215 5218 5221 5224 5227 5230 5233 5236 5238 5241 5244 5247 5249 5252 5255 5258 5261 5264 5267 5269 5272 5275 5278 5281 5284 5287 5290 5293 5296 5299 5302 5304 5307 5309 5311 5314 5317 5319 5322 5325 5328 5331 5334 5337 5340 5343 5346 5349 5352 5354 5357 5360 5362 5365 5368 5371 5374 5377 5380 5383 5386 5389 5392 5395 5398 5401 5404 5407 5409 5412 5415 5418 5421 5424 5427 5430 5432 5435 5437 5440 5443 5446 5449 5451 5454 5456 5459 5462 5465 5468 5471 5474 5477 5480 5483 5485 5488 5491 5494 5497 5500 5503 5506 5509 5512 5515 5518 5521 5524 5527 5530 5533 5536 5538 5541 5544 5547 5550 5553 5556 5559 5562 5565 5568 5571 5574 5577 5580 5583 5586 5589 5592 5595 5598 5601 5604 5607 5610 5613 5615 5617 5620 5623 5626 5629 5632 5635 5638 5641 5644 5647 5650 5652 5655 5658 5661 5664 5666 5669 5672 5675 5678 5680 5683 5686 5689 5692 5695 5698 5701 5704 5706 5709 5712 5715 5718 5721 5724 5727 5730 5733 5735 5738 5741 5744 5747 5750 5753 5756 5759 5762 5765 5768 5771 5774 5777 5780 5783 5786 5789 5792 5795 5797 5800 5803 5806 5809 5812 5815 5818 5821 5824 5827 5830 5833 5836 5839 5841 5844 5846 5849 5852 5855 5858 5861 5864 5867 5870 5872 5875 5878 5880 5883 5886 5889 5892 5895 5898 5901 5904 5907 5910 5913 5916 5919 5922 5925 5928 5931 5934 5937 5940 5943 5946 5949 5952 5955 5958 5961 5964 5967 5970 5973 5976 5979 5982 5985 5988 5990 5993 5996 5998 6001 6004 6007 6010 6012 6015 6017 6020 6023 6025 6028 6030 6033 6036 6039 6042 6045 6047 6050 6053 6056 6059 6062 6065 6068 6071 6074 6077 6080 6083 6085 6088 6091 6094 6096 6099 6102 6105 6108 6111 6114 6117 6120 6123 6125 6128 6131 6134 6137 6139 6141 6144 6147 6150 6153 6156 6159 6162 6165 6167 6170 6173 6176 6179 6182 6184 6187 6190 6193 6195 6198 6201 6204 6206 6209 6212 6215 6218 6220 6223 6226 6229 6232 6235 6238 6241 6244 6247 6250 6253 6256 6259 6262 6264 6267 6270 6273 6276 6279 6282 6284 6287 6289 6291 6294 6296 6299 6301 6304 6307 6310 6313 6315 6318 6321 6324 6327 6329 6332 6335 6338 6341 6344 6347 6350 6353 6356 6358 6361 6364 6367 6370 6373 6376 6379 6382 6385 6388 6391 6394 6397 6400 6402 6405 6408 6411 6413 6416 6419 6422 6424 6427 6429 6432 6435 6438 6441 6444 6447 6450 6453 6456 6459 6462 6465 6468 6471 6474 6477 6479 6482 6485 6488 6491 6494 6497 6499 6502 6505 6508 6511 6514 6517 6520 6523 6526 6529 6532 6535 6538 6541 6544 6547 6550 6553 6555 6558 6561 6564 6567 6570 6573 6576 6579 6582 6585 6588 6591 6594 6597 6600 6603 6606 6609 6612 6615 6618 6621 6624 6627 6630 6633 6636 6639 6642 6645 6648 6651 6654 6657 6659 6662 6665 6668 6671 6673 6676 6679 6682 6685 6688 6691 6694 6696 6699 6702 6705 6708 6711 6714 6717 6720 6723 6725 6728 6731 6733 6736 6739 6742 6745 6748 6750 6753 6756 6759 6761 6764 6767 6769 6772 6775 6778 6781 6784 6787 6790 6793 6796 6799 6802 6805 6808 6811 6814 6817 6820 6823 6826 6829 6831 6834 6837 6840 6843 6846 6849 6852 6855 6858 6861 6863 6865 6868 6870 6873 6876 6879 6882 6885 6887 6890 6893 6896 6899 6901 6904 6907 6910 6913 6916 6918 6921 6923 6926 6929 6931 6934 6937 6940 6943 6946 6949 6952 6955 6957 6960 6963 6966 6969 6972 6975 6977 6980 6983 6986 6989 6992 6995 6997 7000 7003 7006 7009 7011 7014 7017 7019 7022 7024 7027 7030 7032 7035 7038 7041 7044 7047 7050 7052 7055 7058 7061 7064 7066 7069 7072 7075 7078 7081 7084 7087 7090 7092 7094 7097 7100 7103 7106 7109 7112 7115 7118 7120 7123 7126 7129 7132 7135 7138 7140 7143 7146 7149 7152 7155 7158 7161 7163 7166 7169 7172 7174 7177 7180 7183 7186 7189 7192 7195 7198 7201 7204 7207 7210 7212 7215 7218 7221 7224 7226 7229 7232 7234 7237 7240 7243 7246 7248 7251 7254 7257 7259 7261 7264 7267 7270 7272 7275 7278 7281 7283 7286 7289 7292 7295 7298 7301 7304 7307 7310 7312 7315 7318 7321 7323 7326 7329 7332 7335 7338 7341 7344 7347 7350 7353 7356 7359 7361 7364 7366 7369 7372 7374 7377 7380 7382 7385 7388 7391 7394 7397 7400 7403 7405 7408 7411 7414 7417 7420 7422 7425 7427 7430 7433 7436 7438 7440 7443 7445 7447 7450 7452 7455 7458 7461 7464 7467 7470 7472 7475 7477 7480 7483 7486 7489 7492 7495 7498 7501 7504 7507 7510 7513 7516 7518 7521 7524 7526 7529 7531 7534 7537 7539 7542 7545 7548 7550 7552 7555 7558 7560 7563 7566 7569 7572 7575 7578 7581 7584 7587 7590 7593 7596 7599 7602 7605 7608 7611 7614 7617 7620 7623 7626 7629 7631 7633 7636 7638 7641 7643 7646 7649 7651 7653 7656 7659 7661 7664 7667 7669 7672 7675 7677 7680 7682 7685 7688 7691 7694 7696 7699 7702 7705 7708 7710 7713 7715 7717 7720 7722 7725 7728 7730 7732 7735 7738 7741 7743 7746 7749 7752 7755 7757 7759 7762 7765 7768 7771 7774 7776 7779 7782 7785 7788 7791 7794 7797 7800 7803 7806 7809 7811 7814 7816 7819 7821 7824 7827 7829 7832 7834 7837 7840 7843 7846 7849 7852 7855 7858 7860 7863 7866 7868 7871 7874 7877 7880 7882 7885 7888 7891 7894 7897 7900 7903 7906 7909 7912 7915 7918 7920 7923 7926 7929 7932 7935 7938 7941 7944 7947 7950 7953 7955 7958 7961 7964 7967 7970 7973 7975 7978 7980 7983 7986 7988 7991 7994 7997 8000 8003 8006 8009 8012 8015 8018 8021 8024 8027 8030 8033 8036 8039 8041 8043 8046 8049 8052 8054 8057 8060 8062 8065 8068 8071 8074 8077 8080 8083 8086 8089 8092 8095 8098 8101 8104 8107 8110 8113 8116 8119 8122 8125 8128 8131 8134 8137 8139 8141 8144 8147 8150 8153 8156 8159 8162 8165 8168 8171 8174 8176 8179 8182 8185 8188 8191 8194 8197 8200 8203 8206 8209 8212 8215 8218 8221 8224 8227 8230 8233 8236 8239 8242 8245 8248 8251 8254 8257 8260 8263 8266 8269 8272 8275 8277 8280 8283 8286 8289 8292 8294 8297 8300 8302 8305 8308 8310 8312 8315 8318 8321 8324 8327 8330 8333 8336 8339 8342 8345 8348 8351 8353 8356 8359 8361 8364 8367 8370 8373 8376 8379 8381 8384 8387 8389 8392 8395 8398 8401 8404 8407 8410 8413 8416 8419 8422 8425 8428 8430 8433 8436 8439 8442 8445 8448 8451 8453 8456 8459 8462 8465 8468 8471 8474 8477 8480 8483 8486 8489 8491 8494 8497 8499 8502 8505 8508 8511 8514 8517 8520 8523 8526 8529 8532 8535 8538 8541 8544 8547 8550 8553 8556 8559 8561 8564 8567 8569 8572 8574 8577 8580 8583 8585 8588 8591 8593 8596 8598 8601 8604 8607 8609 8612 8615 8618 8621 8623 8626 8629 8632 8635 8638 8641 8644 8646 8649 8652 8655 8657 8660 8663 8666 8669 8672 8675 8678 8681 8684 8687 8690 8693 8695 8698 8701 8704 8707 8710 8713 8716 8719 8721 8724 8727 8730 8733 8736 8739 8742 8745 8748 8751 8754 8756 8759 8762 8765 8768 8771 8774 8777 8780 8783 8786 8789 8792 8795 8798 8801 8804 8807 8810 8813 8815 8817 8820 8823 8826 8828 8831 8834 8837 8840 8843 8846 8849 8852 8855 8858 8861 8864 8866 8869 8872 8875 8878 8881 8884 8887 8890 8893 8895 8898 8901 8904 8907 8910 8913 8916 8919 8922 8925 8928 8931 8934 8937 8940 8943 8945 8948 8950 8953 8956 8959 8962 8965 8967 8970 8973 8976 8979 8981 8984 8987 8990 8992 8995 8998 9001 9003 9006 9009 9012 9015 9018 9021 9024 9027 9030 9032 9035 9038 9041 9043 9046 9049 9051 9054 9057 9060 9063 9066 9069 9071 9074 9077 9080 9083 9086 9089 9092 9095 9097 9100 9103 9106 9108 9111 9114 9117 9120 9123 9126 9129 9132 9135 9138 9141 9144 9147 9150 9153 9156 9159 9162 9165 9168 9171 9174 9177 9180 9183 9186 9189 9191 9194 9197 9200 9203 9206 9209 9212 9214 9217 9220 9223 9226 9229 9232 9235 9238 9241 9244 9247 9250 9253 9256 9259 9262 9265 9268 9271 9274 9277 9280 9283 9286 9289 9291 9294 9296 9299 9302 9305 9308 9311 9314 9316 9319 9322 9325 9327 9330 9333 9335 9338 9341 9344 9347 9350 9353 9356 9359 9362 9365 9368 9371 9373 9376 9379 9382 9385 9388 9390 9393 9396 9399 9402 9405 9408 9411 9414 9417 9420 9423 9426 9429 9431 9434 9437 9440 9442 9445 9448 9451 9454 9457 9460 9463 9466 9469 9472 9475 9478 9480 9482 9485 9488 9491 9494 9496 9499 9502 9505 9508 9511 9514 9517 9520 9523 9525 9527 9530 9533 9536 9539 9542 9544 9547 9550 9553 9556 9559 9561 9564 9567 9570 9573 9576 9578 9581 9583 9586 9589 9592 9595 9597 9600 9602 9605 9607 9609 9612 9615 9618 9621 9624 9627 9630 9632 9634 9637 9640 9643 9646 9649 9652 9654 9656 9658 9661 9663 9665 9668 9671 9674 9676 9679 9682 9685 9688 9691 9693 9695 9697 9700 9702 9705 9708 9711 9713 9716 9718 9720 9723 9726 9729 9732 9735 9738 9741 9743 9745 9748 9751 9753 9755 9757 9760 9763 9766 9769 9772 9775 9778 9781 9784 9787 9790 9793 9796 9799 9802 9805 9808 9811 9814 9817 9820 9823 9826 9829 9832 9835 9838 9841 9844 9847 9850 9853 9856 9859 9862 9865 9868 9871 9874 9877 9879 9882 9885 9888 9891 9894 9897 9900 9903 9906 9909 9911 9914 9917 9920 9923 9926 9929 9931 9934 9937 9939 9942 9945 9948 9951 9954 9957 9960 9963 9966 9969 9972 9975 9978 9980 9983 9985 9988 9991 9994 9997 9999 10002 10005 10008 10010 10013 10016 10018 10021 10024 10027 10029 10032 10035 10037 10040 10043 10046 10049 10052 10054 10057 10060 10063 10066 10069 10072 10075 10077 10080 10083 10086 10089 10092 10095 10098 10100 10103 10106 10108 10111 10114 10117 10120 10122 10125 10127 10130 10133 10136 10139 10142 10144 10147 10150 10153 10156 10158 10161 10164 10167 10170 10173 10176 10178 10180 10183 10186 10189 10192 10195 10197 10200 10203 10205 10208 10211 10214 10217 10220 10223 10226 10229 10232 10235 10237 10240 10243 10246 10249 10252 10255 10258 10261 10264 10267 10270 10273 10276 10279 10282 10285 10288 10291 10293 10296 10299 10302 10305 10308 10311 10313 10316 10319 10322 10325 10328 10331 10334 10336 10338 10341 10344 10347 10350 10352 10355 10358 10361 10364 10367 10370 10373 10375 10378 10381 10383 10386 10388 10390 10392 10395 10398 10401 10404 10407 10410 10412 10415 10418 10421 10424 10427 10429 10432 10435 10438 10441 10443 10446 10449 10452 10454 10457 10460 10463 10465 10468 10471 10474 10477 10480 10483 10486 10489 10492 10495 10498 10501 10504 10507 10510 10513 10516 10519 10522 10525 10528 10531 10534 10537 10540 10542 10545 10548 10551 10554 10557 10560 10563 10565 10568 10570 10573 10576 10579 10582 10585 10588 10590 10593 10596 10598 10601 10604 10607 10609 10612 10615 10617 10620 10623 10626 10629 10632 10634 10637 10640 10643 10645 10647 10650 10653 10656 10659 10662 10665 10668 10671 10674 10677 10680 10683 10685 10688 10691 10694 10697 10700 10703 10706 10709 10712 10714 10717 10720 10723 10726 10729 10731 10733 10736 10739 10742 10745 10748 10751 10754 10757 10760 10762 10765 10768 10771 10774 10777 10780 10783 10786 10788 10791 10794 10797 10800 10803 10806 10809 10812 10815 10818 10821 10824 10827 10830 10833 10836 10839 10842 10844 10847 10850 10853 10856 10858 10861 10863 10866 10868 10871 10874 10877 10880 10883 10886 10889 10892 10895 10898 10901 10904 10907 10910 10913 10916 10919 10921 10924 10927 10930 10933 10936 10938 10941 10944 10947 10949 10951 10954 10957 10960 10963 10966 10968 10971 10974 10977 10980 10982 10985 10988 10991 10994 10997 11000 11003 11006 11008 11011 11014 11017 11020 11023 11026 11029 11031 11034 11037 11040 11043 11046 11049 11052 11055 11058 11060 11063 11066 11069 11072 11075 11078 11081 11084 11087 11090 11093 11096 11099 11102 11105 11108 11111 11114 11116 11119 11122 11125 11128 11131 11134 11137 11140 11143 11146 11149 11152 11155 11157 11160 11163 11166 11169 11172 11175 11177 11180 11183 11185 11188 11191 11193 11196 11199 11202 11205 11208 11211 11214 11217 11220 11223 11226 11229 11232 11235 11238 11241 11244 11247 11250 11253 11256 11259 11262 11265 11268 11271 11273 11276 11278 11281 11283 11285 11288 11291 11294 11296 11299 11302 11305 11308 11311 11314 11317 11320 11323 11325 11327 11330 11332 11335 11338 11341 11344 11347 11350 11353 11356 11359 11362 11365 11368 11371 11374 11376 11379 11381 11383 11386 11388 11391 11394 11397 11400 11403 11406 11409 11412 11415 11417 11419 11422 11425 11428 11431 11434 11437 11440 11443 11446 11449 11452 11455 11458 11461 11464 11467 11470 11473 11476 11479 11482 11485 11487 11490 11493 11496 11499 11502 11504 11507 11510 11513 11516 11519 11521 11524 11527 11530 11532 11535 11538 11541 11544 11547 11550 11553 11556 11559 11561 11564 11567 11570 11573 11575 11578 11581 11584 11587 11590 11593 11595 11598 11601 11604 11607 11610 11613 11616 11618 11621 11624 11627 11630 11632 11635 11638 11641 11644 11647 11650 11653 11656 11659 11662 11664 11667 11670 11673 11676 11678 11681 11684 11687 11689 11692 11695 11698 11701 11704 11706 11709 11712 11715 11718 11721 11724 11727 11730 11733 11736 11739 11742 11745 11748 11750 11752 11755 11758 11760 11763 11766 11769 11772 11775 11778 11781 11783 11786 11789 11792 11795 11798 11801 11803 11806 11809 11812 11815 11818 11821 11824 11827 11830 11833 11836 11839 11842 11845 11848 11851 11854 11857 11860 11863 11866 11869 11872 11874 11877 11880 11883 11886 11889 11892 11895 11898 11900 11903 11906 11909 11912 11914 11917 11920 11923 11926 11929 11931 11934 11936 11939 11941 11944 11947 11950 11953 11956 11959 11962 11964 11967 11970 11973 11975 11978 11981 11984 11987 11990 11992 11995 11998 12001 12004 12007 12009 12012 12014 12017 12020 12022 12025 12027 12030 12033 12036 12039 12042 12044 12047 12050 12053 12055 12058 12061 12064 12067 12070 12073 12076 12079 12082 12085 12087 12090 12093 12096 12099 12102 12105 12108 12111 12114 12117 12120 12123 12126 12129 12132 12135 12138 12141 12144 12147 12150 12153 12155 12158 12161 12164 12167 12170 12173 12176 12179 12182 12185 12188 12191 12194 12197 12200 12203 12206 12209 12211 12214 12217 12220 12222 12225 12228 12231 12234 12237 12240 12242 12245 12248 12251 12253 12255 12258 12260 12263 12265 12267 12270 12272 12275 12278 12280 12283 12286 12288 12290 12293 12296 12299 12302 12305 12308 12311 12314 12316 12319 12321 12324 12327 12330 12333 12336 12339 12342 12345 12348 12351 12354 12357 12360 12363 12366 12369 12372 12375 12378 12381 12384 12387 12389 12392 12395 12398 12401 12404 12407 12410 12413 12415 12418 12421 12423 12426 12429 12431 12433 12436 12439 12441 12444 12447 12450 12453 12456 12459 12462 12465 12468 12471 12474 12477 12480 12483 12486 12489 12492 12495 12498 12501 12504 12507 12510 12513 12516 12519 12522 12525 12528 12531 12534 12537 12540 12543 12546 12549 12552 12555 12558 12560 12563 12565 12568 12571 12574 12577 12580 12583 12586 12589 12592 12595 12598 12601 12604 12607 12610 12613 12616 12619 12622 12625 12628 12631 12634 12637 12640 12643 12646 12649 12652 12655 12658 12661 12664 12667 12670 12673 12676 12679 12682 12685 12687 12690 12693 12695 12698 12701 12704 12707 12710 12712 12715 12717 12720 12723 12725 12728 12731 12734 12737 12740 12743 12745 12748 12751 12754 12757 12760 12763 12766 12769 12772 12775 12778 12780 12783 12786 12788 12790 12793 12795 12798 12801 12803 12806 12809 12812 12815 12817 12820 12823 12826 12829 12832 12835 12838 12841 12844 12846 12849 12851 12854 12857 12860 12863 12866 12869 12872 12874 12877 12879 12882 12885 12888 12891 12894 12897 12900 12903 12906 12908 12911 12913 12916 12919 12922 12925 12928 12931 12934 12937 12940 12943 12945 12948 12951 12954 12956 12959 12962 12964 12967 12970 12972 12975 12978 12981 12984 12986 12989 12992 12995 12997 13000 13003 13006 13009 13012 13015 13018 13021 13024 13027 13030 13033 13036 13039 13041 13044 13047 13050 13053 13056 13059 13061 13064 13066 13069 13071 13074 13077 13080 13082 13085 13088 13091 13094 13097 13100 13103 13106 13108 13111 13114 13117 13120 13123 13125 13128 13131 13133 13136 13139 13142 13145 13148 13151 13154 13157 13160 13162 13165 13168 13171 13173 13176 13179 13182 13185 13188 13191 13193 13196 13199 13202 13205 13208 13211 13214 13217 13220 13223 13226 13229 13232 13235 13238 13241 13244 13247 13250 13253 13256 13259 13262 13265 13268 13271 13274 13277 13280 13283 13286 13288 13291 13294 13297 13300 13303 13305 13308 13311 13313 13315 13318 13321 13324 13327 13329 13332 13335 13338 13341 13344 13346 13349 13352 13355 13358 13361 13364 13367 13370 13373 13376 13379 13382 13385 13388 13391 13394 13396 13399 13402 13405 13408 13411 13414 13417 13420 13422 13424 13427 13430 13433 13436 13439 13442 13444 13447 13450 13453 13456 13458 13461 13464 13467 13470 13473 13476 13479 13482 13485 13488 13491 13494 13497 13500 13503 13506 13509 13512 13515 13518 13521 13524 13527 13530 13532 13535 13538 13540 13543 13546 13549 13552 13555 13558 13561 13564 13567 13570 13573 13576 13579 13582 13585 13588 13591 13594 13597 13600 13603 13606 13609 13612 13615 13618 13621 13623 13626 13628 13631 13634 13637 13640 13643 13645 13648 13651 13654 13657 13660 13663 13666 13669 13672 13675 13678 13681 13684 13687 13690 13693 13696 13699 13702 13705 13707 13709 13712 13714 13717 13720 13723 13726 13729 13732 13735 13738 13741 13744 13747 13750 13753 13756 13759 13762 13764 13767 13770 13773 13775 13778 13781 13784 13787 13790 13793 13796 13799 13802 13805 13808 13811 13814 13816 13819 13822 13825 13828 13831 13834 13837 13840 13843 13846 13849 13852 13855 13858 13861 13864 13867 13870 13873 13876 13879 13882 13884 13887 13890 13893 13896 13899 13902 13905 13908 13911 13914 13917 13920 13923 13925 13928 13930 13933 13936 13938 13940 13943 13946 13949 13952 13955 13958 13961 13964 13967 13970 13973 13976 13979 13982 13985 13988 13991 13994 13997 14000 14002 14005 14008 14010 14013 14016 14019 14021 14024 14027 14030 14033 14036 14039 14041 14044 14047 14050 14052 14055 14058 14061 14064 14067 14070 14073 14076 14078 14081 14084 14086 14089 14092 14094 14097 14099 14102 14105 14108 14111 14113 14115 14118 14121 14123 14125 14128 14131 14133 14136 14139 14142 14145 14147 14150 14153 14155 14157 14160 14162 14165 14168 14171 14174 14177 14180 14183 14186 14189 14192 14195 14198 14201 14204 14207 14210 14213 14216 14219 14222 14224 14227 14230 14233 14236 14238 14241 14244 14247 14250 14252 14254 14257 14260 14263 14266 14269 14272 14275 14278 14281 14284 14287 14290 14292 14295 14298 14301 14303 14306 14309 14312 14315 14318 14321 14324 14326 14329 14332 14335 14337 14340 14343 14345 14347 14350 14353 14356 14358 14361 14364 14367 14369 14372 14375 14378 14381 14384 14387 14390 14393 14396 14399 14402 14405 14408 14411 14414 14417 14420 14423 14425 14428 14431 14434 14437 14440 14443 14446 14449 14452 14455 14458 14461 14464 14467 14470 14473 14476 14479 14481 14483 14486 14489 14492 14495 14498 14500 14502 14505 14507 14510 14513 14516 14519 14522 14525 14528 14531 14534 14536 14539 14542 14545 14547 14550 14553 14556 14559 14562 14565 14568 14571 14574 14577 14580 14583 14586 14589 14591 14594 14597 14600 14603 14606 14609 14612 14614 14617 14620 14622 14625 14628 14631 14634 14637 14640 14642 14645 14648 14651 14654 14656 14659 14662 14665 14668 14671 14674 14676 14679 14682 14685 14688 14691 14694 14697 14700 14702 14704 14707 14710 14713 14715 14717 14720 14723 14726 14729 14732 14734 14737 14740 14743 14746 14749 14752 14754 14757 14760 14763 14766 14768 14771 14774 14777 14780 14783 14785 14788 14791 14794 14797 14799 14802 14805 14808 14811 14814 14817 14820 14823 14826 14829 14832 14835 14838 14841 14844 14847 14850 14853 14856 14859 14862 14865 14868 14871 14874 14876 14879 14882 14885 14888 14890 14893 14895 14898 14900 14903 14906 14908 14911 14914 14916 14919 14922 14924 14927 14930 14933 14936 14939 14942 14944 14947 14950 14952 14955 14957 14959 14961 14964 14967 14969 14972 14974 14976 14979 14982 14985 14987 14990 14992 14995 14998 15001 15004 15007 15010 15012 15015 15018 15021 15023 15026 15029 15032 15035 15038 15041 15044 15046 15049 15052 15055 15057 15060 15062 15064 15067 15070 15073 15076 15079 15082 15085 15087 15090 15093 15096 15099 15102 15105 15108 15111 15113 15115 15118 15121 15124 15127 15129 15132 15135 15137 15140 15143 15146 15148 15151 15154 15157 15159 15161 15164 15167 15170 15173 15175 15178 15181 15184 15187 15190 15192 15194 15197 15200 15203 15206 15209 15212 15215 15218 15221 15224 15227 15230 15233 15236 15239 15242 15245 15248 15251 15254 15257 15260 15263 15266 15269 15272 15275 15278 15281 15284 15287 15289 15292 15295 15298 15300 15303 15306 15309 15312 15315 15318 15321 15324 15327 15330 15333 15336 15339 15342 15345 15347 15350 15352 15354 15357 15360 15362 15365 15368 15371 15374 15377 15380 15383 15386 15389 15392 15395 15398 15401 15404 15407 15410 15413 15416 15419 15422 15425 15428 15431 15433 15436 15439 15441 15443 15446 15449 15452 15455 15458 15461 15464 15466 15469 15472 15475 15477 15480 15483 15486 15489 15491 15493 15496 15499 15502 15505 15508 15511 15514 15516 15519 15522 15525 15528 15530 15533 15536 15539 15542 15544 15547 15550 15553 15556 15559 15562 15565 15568 15571 15574 15577 15580 15583 15586 15589 15592 15595 15598 15601 15603 15606 15609 15612 15615 15618 15621 15624 15627 15630 15633 15636 15639 15642 15645 15648 15651 15653 15656 15659 15662 15664 15667 15670 15673 15676 15679 15682 15685 15688 15691 15693 15696 15699 15702 15705 15708 15711 15714 15717 15720 15723 15726 15729 15732 15735 15738 15741 15744 15747 15750 15753 15756 15758 15761 15764 15767 15770 15773 15776 15779 15782 15785 15788 15791 15794 15797 15800 15803 15806 15809 15811 15814 15817 15820 15823 15826 15828 15831 15834 15837 15840 15843 15846 15849 15852 15855 15858 15861 15864 15867 15870 15873 15876 15879 15882 15885 15888 15891 15894 15897 15900 15903 15906 15909 15911 15914 15917 15919 15922 15925 15928 15930 15933 15936 15939 15942 15945 15948 15951 15954 15957 15960 15963 15966 15969 15972 15975 15977 15980 15982 15985 15988 15991 15994 15997 16000 16003 16006 16009 16011 16014 16017 16020 16023 16026 16029 16032 16035 16038 16040 16042 16045 16048 16051 16054 16057 16060 16063 16066 16069 16072 16075 16078 16081 16084 16087 16090 16093 16096 16099 16102 16105 16108 16111 16114 16117 16120 16123 16126 16129 16132 16135 16138 16141 16144 16147 16150 16153 16156 16159 16162 16165 16168 16171 16174 16177 16180 16183 16186 16189 16192 16195 16198 16201 16204 16207 16210 16213 16216 16219 16222 16225 16228 16231 16234 16237 16240 16243 16246 16249 16252 16255 16257 16260 16263 16266 16269 16272 16275 16277 16280 16283 16286 16289 16292 16295 16298 16301 16304 16306 16309 16311 16314 16317 16320 16323 16326 16329 16332 16335 16338 16341 16344 16347 16350 16353 16356 16359 16362 16365 16368 16371 16374 16377 16380 16383 16386 16389 16392 16395 16398 16401 16404 16407 16410 16413 16415 16418 16421 16424 16426 16428 16431 16434 16437 16440 16443 16446 16449 16452 16455 16458 16461 16464 16467 16470 16473 16476 16479 16482 16485 16488 16491 16494 16496 16498 16501 16504 16507 16510 16513 16516 16519 16522 16524 16527 16530 16533 16536 16539 16542 16544 16547 16550 16553 16556 16559 16561 16564 16567 16570 16573 16575 16578 16581 16584 16586 16589 16592 16595 16597 16600 16603 16605 16608 16611 16614 16617 16620 16623 16626 16629 16632 16635 16638 16641 16644 16646 16649 16652 16655 16658 16661 16664 16667 16670 16672 16675 16678 16681 16684 16687 16690 16693 16696 16699 16702 16705 16707 16710 16713 16716 16718 16721 16724 16727 16730 16732 16735 16738 16741 16744 16747 16750 16753 16756 16758 16761 16763 16766 16769 16771 16774 16777 16780 16783 16786 16788 16791 16794 16797 16800 16803 16806 16809 16812 16815 16818 16821 16824 16826 16829 16832 16835 16838 16841 16844 16847 16850 16853 16855 16858 16861 16864 16867 16870 16873 16875 16878 16881 16884 16887 16890 16893 16896 16898 16901 16904 16907 16910 16913 16915 16918 16921 16924 16927 16930 16933 16936 16939 16942 16945 16948 16951 16954 16957 16960 16963 16966 16969 16972 16975 16978 16981 16984 16987 16990 16993 16996 16999 17002 17005 17008 17011 17014 17017 17020 17023 17026 17029 17032 17035 17038 17041 17044 17047 17050 17053 17056 17058 17061 17063 17066 17069 17072 17075 17078 17081 17084 17087 17090 17093 17096 17099 17102 17105 17107 17110 17113 17116 17119 17122 17125 17128 17131 17134 17137 17140 17143 17146 17149 17152 17154 17157 17160 17162 17165 17167 17170 17173 17176 17179 17182 17184 17187 17190 17193 17196 17199 17202 17205 17208 17211 17214 17217 17220 17223 17226 17229 17232 17235 17238 17241 17244 17246 17249 17252 17255 17258 17261 17264 17267 17270 17273 17276 17279 17281 17284 17286 17289 17292 17294 17297 17299 17302 17305 17308 17311 17314 17317 17320 17322 17325 17327 17330 17333 17336 17339 17341 17344 17347 17350 17353 17355 17357 17360 17363 17365 17368 17371 17374 17377 17380 17383 17386 17389 17392 17395 17398 17401 17404 17407 17410 17413 17415 17418 17421 17424 17427 17430 17433 17436 17439 17442 17445 17448 17451 17454 17457 17459 17462 17464 17467 17470 17473 17476 17479 17482 17485 17487 17490 17492 17495 17498 17501 17504 17507 17510 17513 17516 17519 17521 17523 17526 17529 17532 17534 17537 17540 17543 17546 17548 17551 17553 17556 17559 17561 17564 17566 17568 17570 17573 17576 17578 17581 17584 17587 17589 17591 17593 17596 17599 17602 17605 17608 17611 17614 17617 17620 17623 17626 17628 17631 17634 17637 17640 17643 17646 17648 17651 17654 17657 17659 17662 17665 17668 17671 17674 17677 17680 17683 17685 17688 17691 17694 17696 17699 17702 17705 17708 17711 17714 17717 17720 17723 17726 17729 17732 17735 17738 17741 17744 17747 17750 17753 17756 17759 17762 17765 17768 17771 17774 17777 17780 17783 17786 17789 17792 17795 17798 17801 17804 17807 17810 17813 17816 17819 17822 17825 17828 17831 17834 17837 17840 17843 17846 17849 17852 17855 17858 17861 17864 17867 17870 17873 17876 17878 17881 17884 17887 17890 17893 17895 17898 17901 17904 17907 17909 17912 17915 17918 17920 17923 17926 17929 17932 17935 17938 17941 17944 17947 17950 17953 17956 17959 17962 17965 17968 17971 17974 17977 17980 17983 17986 17989 17992 17995 17998 18001 18004 18007 18010 18013 18016 18019 18022 18025 18028 18031 18034 18037 18040 18042 18045 18048 18050 18053 18056 18059 18062 18065 18068 18071 18073 18076 18079 18082 18085 18088 18091 18094 18097 18100 18103 18106 18108 18111 18114 18116 18119 18121 18124 18127 18130 18132 18135 18138 18141 18144 18147 18150 18153 18156 18158 18161 18164 18167 18170 18172 18175 18178 18181 18184 18186 18189 18191 18194 18197 18200 18203 18206 18209 18212 18215 18218 18221 18224 18227 18229 18232 18234 18237 18240 18243 18246 18249 18252 18255 18258 18261 18264 18267 18270 18273 18275 18278 18281 18284 18287 18290 18293 18296 18299 18302 18304 18307 18310 18313 18315 18318 18321 18324 18327 18330 18333 18336 18339 18342 18345 18348 18351 18354 18357 18360 18363 18366 18369 18372 18375 18378 18381 18384 18387 18390 18393 18396 18399 18402 18405 18408 18411 18414 18417 18420 18422 18425 18428 18430 18433 18436 18439 18442 18444 18447 18450 18453 18456 18459 18462 18465 18468 18471 18474 18477 18480 18483 18486 18489 18491 18494 18497 18500 18503 18506 18509 18512 18515 18518 18520 18523 18525 18528 18531 18534 18537 18540 18543 18546 18548 18551 18554 18557 18560 18563 18566 18569 18572 18575 18578 18581 18584 18587 18590 18592 18595 18598 18601 18604 18607 18610 18613 18616 18619 18622 18625 18627 18630 18633 18636 18639 18642 18645 18648 18651 18654 18657 18660 18663 18666 18669 18672 18675 18678 18681 18684 18687 18690 18693 18696 18698 18701 18703 18706 18709 18712 18715 18718 18721 18723 18726 18728 18731 18734 18737 18739 18742 18745 18748 18750 18753 18756 18759 18761 18764 18767 18769 18772 18775 18778 18781 18784 18787 18790 18792 18795 18798 18801 18804 18807 18810 18813 18815 18818 18821 18824 18827 18830 18833 18836 18839 18842 18845 18848 18851 18854 18856 18859 18862 18865 18868 18871 18874 18877 18880 18882 18885 18888 18891 18894 18897 18900 18903 18906 18909 18912 18915 18918 18921 18924 18927 18930 18933 18936 18939 18942 18944 18947 18950 18953 18956 18959 18962 18965 18968 18971 18974 18977 18980 18983 18986 18989 18992 18995 18998 19001 19004 19007 19010 19013 19016 19019 19022 19025 19028 19031 19034 19037 19040 19043 19046 19049 19052 19055 19058 19061 19064 19067 19070 19073 19076 19079 19082 19085 19088 19091 19094 19096 19099 19101 19104 19107 19110 19112 19115 19118 19120 19122 19125 19127 19130 19133 19136 19139 19142 19145 19148 19151 19154 19157 19160 19163 19166 19169 19172 19175 19178 19181 19184 19187 19190 19193 19196 19199 19202 19205 19208 19211 19214 19217 19220 19223 19226 19229 19232 19234 19237 19240 19243 19246 19248 19251 19254 19256 19259 19262 19265 19267 19270 19273 19276 19279 19281 19284 19286 19288 19291 19294 19297 19300 19302 19305 19308 19311 19313 19316 19319 19322 19324 19327 19330 19333 19336 19339 19342 19344 19347 19350 19353 19356 19359 19362 19365 19368 19371 19374 19377 19380 19383 19386 19389 19392 19395 19398 19401 19404 19406 19409 19412 19415 19418 19421 19424 19427 19430 19433 19436 19439 19442 19445 19448 19451 19454 19457 19460 19462 19465 19468 19470 19473 19476 19478 19481 19484 19487 19490 19493 19496 19499 19502 19505 19508 19511 19513 19516 19519 19522 19525 19527 19530 19533 19536 19539 19541 19544 19547 19550 19552 19555 19558 19561 19564 19567 19570 19573 19576 19579 19582 19585 19588 19591 19594 19597 19600 19603 19606 19609 19612 19615 19618 19621 19624 19627 19629 19632 19635 19638 19641 19644 19647 19650 19653 19655 19658 19661 19664 19666 19669 19672 19675 19678 19681 19684 19687 19690 19693 19696 19699 19702 19705 19708 19711 19714 19717 19720 19723 19726 19729 19732 19735 19738 19740 19743 19746 19749 19751 19754 19757 19760 19763 19766 19769 19772 19775 19777 19780 19783 19785 19788 19791 19794 19797 19799 19802 19805 19808 19811 19814 19817 19820 19822 19825 19827 19830 19833 19835 19838 19841 19843 19845 19848 19851 19854 19857 19860 19863 19866 19869 19872 19875 19878 19881 19884 19887 19890 19893 19896 19899 19902 19905 19908 19910 19913 19916 19919 19922 19924 19927 19930 19933 19936 19939 19942 19945 19948 19951 19954 19957 19960 19963 19965 19968 19971 19973 19976 19979 19982 19985 19988 19991 19994 19997 20000 20003 20006 20009 20012 20015 20018 20021 20024 20027 20030 20033 20036 20039 20042 20045 20048 20051 20054 20057 20060 20063 20066 20069 20072 20075 20078 20081 20084 20087 20090 20093 20096 20099 20102 20105 20108 20111 20114 20117 20120 20123 20126 20129 20132 20135 20138 20141 20144 20147 20150 20153 20156 20159 20162 20165 20168 20171 20174 20177 20180 20183 20186 20189 20192 20195 20198 20201 20204 20207 20210 20213 20216 20219 20222 20225 20228 20231 20234 20237 20240 20243 20246 20249 20252 20255 20258 20261 20264 20267 20270 20273 20276 20279 20282 20285 20288 20291 20294 20297 20300 20303 20306 20309 20312 20315 20318 20321 20324 20327 20330 20333 20336 20339 20342 20345 20348 20351 20354 20357 20359 20362 20365 20368 20371 20374 20377 20380 20382 20385 20388 20391 20394 20397 20400 20403 20406 20409 20411 20414 20416 20419 20422 20425 20427 20430 20433 20435 20438 20441 20444 20447 20450 20453 20456 20459 20462 20465 20468 20471 20474 20477 20480 20483 20486 20489 20492 20495 20498 20501 20504 20507 20510 20513 20516 20519 20522 20525 20528 20531 20534 20537 20540 20543 20546 20548 20551 20554 20556 20558 20561 20564 20566 20569 20572 20574 20577 20580 20583 20585 20588 20591 20594 20597 20600 20603 20606 20609 20612 20614 20617 20620 20623 20626 20629 20632 20634 20637 20640 20643 20646 20649 20652 20655 20658 20661 20664 20667 20670 20673 20676 20679 20682 20685 20688 20691 20694 20697 20700 20703 20706 20709 20712 20715 20718 20721 20724 20727 20729 20732 20735 20738 20741 20744 20747 20750 20753 20756 20759 20762 20765 20768 20771 20774 20777 20780 20783 20786 20789 20792 20795 20798 20801 20804 20807 20810 20813 20816 20819 20822 20825 20828 20831 20834 20837 20840 20843 20846 20849 20852 20855 20858 20861 20864 20867 20869 20872 20874 20877 20880 20883 20886 20888 20891 20894 20897 20900 20902 20905 20908 20911 20914 20916 20919 20922 20925 20928 20931 20934 20937 20940 20942 20945 20948 20950 20953 20955 20958 20961 20964 20967 20969 20972 20975 20977 20979 20982 20985 20988 20991 20994 20997 20999 21002 21005 21008 21011 21014 21017 21020 21023 21026 21029 21031 21033 21036 21039 21042 21045 21048 21050 21053 21056 21058 21061 21064 21067 21070 21072 21075 21078 21080 21083 21086 21089 21092 21095 21098 21101 21104 21107 21110 21113 21116 21119 21122 21125 21128 21131 21134 21137 21140 21143 21146 21149 21152 21155 21158 21161 21164 21167 21169 21172 21174 21177 21180 21183 21186 21189 21192 21195 21198 21201 21204 21207 21210 21213 21215 21218 21221 21224 21227 21229 21231 21234 21237 21240 21243 21246 21249 21252 21255 21258 21261 21264 21267 21270 21273 21276 21279 21282 21285 21288 21291 21294 21297 21300 21303 21306 21309 21312 21315 21318 21321 21324 21327 21330 21333 21336 21339 21342 21345 21348 21351 21354 21357 21359 21362 21365 21368 21370 21373 21376 21379 21382 21385 21388 21391 21394 21397 21400 21403 21406 21409 21412 21415 21418 21421 21424 21427 21430 21432 21435 21438 21440 21443 21446 21449 21452 21455 21458 21461 21464 21467 21469 21472 21475 21478 21481 21484 21486 21489 21492 21495 21498 21501 21503 21506 21508 21511 21514 21517 21520 21523 21526 21529 21532 21535 21538 21541 21544 21547 21549 21552 21555 21558 21560 21562 21565 21568 21571 21574 21577 21580 21583 21586 21588 21591 21594 21596 21599 21602 21604 21606 21609 21612 21615 21618 21621 21623 21626 21629 21632 21635 21638 21641 21644 21646 21649 21652 21654 21656 21659 21662 21665 21668 21671 21674 21676 21678 21681 21684 21687 21689 21692 21695 21698 21701 21704 21707 21710 21712 21715 21718 21721 21724 21727 21730 21733 21736 21739 21742 21745 21748 21751 21754 21757 21760 21763 21766 21769 21772 21775 21778 21781 21784 21787 21790 21792 21795 21798 21801 21804 21807 21810 21813 21815 21818 21821 21824 21827 21830 21833 21836 21839 21842 21845 21848 21850 21853 21856 21859 21862 21865 21868 21871 21874 21876 21879 21882 21885 21888 21891 21894 21897 21900 21903 21906 21909 21912 21915 21918 21921 21924 21926 21929 21932 21935 21937 21940 21943 21946 21949 21952 21954 21957 21960 21963 21966 21969 21972 21975 21978 21981 21984 21987 21990 21993 21996 21998 22001 22004 22007 22010 22012 22015 22018 22020 22023 22026 22029 22032 22035 22037 22040 22043 22046 22049 22052 22055 22058 22061 22064 22067 22070 22073 22076 22079 22081 22084 22086 22089 22092 22095 22097 22100 22102 22105 22107 22110 22113 22116 22119 22122 22125 22127 22129 22132 22135 22138 22141 22144 22147 22149 22152 22154 22157 22160 22163 22166 22169 22172 22175 22178 22181 22184 22187 22190 22193 22196 22199 22202 22205 22207 22210 22213 22216 22218 22220 22223 22226 22229 22232 22235 22237 22240 22243 22245 22247 22250 22253 22256 22259 22262 22265 22268 22271 22274 22277 22280 22283 22286 22289 22292 22295 22298 22301 22304 22307 22310 22313 22316 22319 22322 22325 22328 22331 22334 22337 22340 22343 22346 22349 22352 22355 22358 22361 22364 22367 22370 22373 22376 22379 22381 22384 22387 22389 22391 22393 22396 22399 22402 22405 22408 22411 22413 22416 22419 22422 22425 22428 22431 22434 22437 22440 22442 22445 22448 22451 22453 22456 22459 22462 22465 22468 22471 22474 22477 22480 22483 22486 22489 22492 22495 22498 22501 22504 22507 22510 22513 22515 22518 22521 22524 22527 22529 22532 22535 22538 22541 22544 22547 22550 22553 22556 22559 22562 22565 22568 22571 22574 22577 22580 22583 22586 22589 22592 22595 22598 22601 22604 22607 22610 22613 22616 22619 22622 22625 22628 22631 22633 22636 22638 22641 22644 22647 22650 22653 22656 22659 22662 22664 22667 22670 22673 22675 22678 22680 22683 22686 22689 22692 22695 22698 22701 22704 22706 22709 22712 22715 22718 22720 22723 22726 22729 22732 22734 22737 22740 22743 22746 22749 22752 22755 22757 22760 22763 22766 22769 22771 22774 22777 22780 22783 22786 22789 22792 22795 22798 22801 22804 22807 22810 22813 22816 22819 22822 22825 22828 22831 22834 22837 22840 22843 22846 22849 22852 22855 22858 22861 22864 22867 22870 22873 22876 22879 22882 22885 22888 22891 22894 22897 22900 22903 22906 22909 22911 22914 22917 22920 22923 22925 22927 22930 22933 22935 22937 22940 22943 22946 22949 22952 22955 22958 22961 22964 22967 22970 22973 22976 22979 22982 22985 22988 22991 22994 22996 22999 23002 23005 23007 23009 23012 23015 23018 23021 23024 23027 23030 23033 23036 23039 23042 23045 23048 23051 23054 23057 23060 23063 23066 23069 23072 23075 23078 23081 23084 23087 23090 23092 23095 23098 23101 23104 23107 23110 23113 23115 23118 23121 23124 23127 23130 23133 23136 23139 23142 23145 23148 23151 23154 23157 23160 23162 23165 23168 23171 23174 23177 23180 23183 23186 23188 23191 23193 23195 23198 23201 23204 23207 23210 23213 23216 23219 23222 23225 23228 23231 23233 23236 23239 23242 23245 23248 23251 23254 23257 23260 23263 23266 23269 23272 23275 23278 23281 23284 23287 23289 23292 23295 23298 23300 23303 23306 23309 23312 23315 23318 23321 23324 23326 23329 23332 23335 23338 23341 23344 23347 23350 23353 23356 23359 23362 23365 23368 23371 23373 23376 23379 23382 23384 23387 23390 23393 23396 23399 23402 23405 23408 23411 23414 23417 23420 23423 23426 23429 23432 23435 23438 23441 23444 23447 23450 23453 23456 23459 23462 23465 23468 23471 23474 23477 23480 23483 23485 23488 23490 23493 23496 23499 23502 23505 23508 23511 23514 23516 23519 23522 23525 23528 23531 23534 23537 23540 23543 23545 23548 23551 23553 23556 23559 23562 23565 23568 23570 23573 23576 23579 23582 23584 23587 23590 23593 23596 23598 23601 23604 23607 23609 23612 23614 23617 23620 23622 23625 23628 23631 23634 23637 23640 23643 23646 23649 23652 23655 23658 23661 23664 23666 23669 23672 23674 23677 23679 23682 23685 23688 23690 23693 23696 23698 23701 23704 23707 23710 23712 23715 23717 23720 23723 23726 23729 23732 23735 23737 23740 23742 23745 23748 23751 23754 23757 23759 23762 23765 23768 23771 23773 23776 23779 23782 23785 23788 23791 23793 23796 23799 23802 23805 23808 23811 23814 23817 23820 23823 23826 23829 23832 23835 23838 23841 23844 23847 23850 23853 23856 23859 23862 23865 23868 23871 23874 23877 23880 23883 23886 23889 23892 23894 23896 23899 23902 23905 23908 23911 23914 23917 23920 23923 23926 23928 23931 23934 23936 23938 23941 23943 23946 23949 23952 23955 23958 23961 23964 23966 23969 23972 23975 23978 23981 23984 23987 23990 23993 23996 23999 24002 24004 24007 24010 24013 24016 24018 24021 24024 24027 24030 24033 24036 24039 24042 24045 24048 24051 24054 24056 24059 24062 24065 24068 24071 24074 24077 24080 24083 24086 24089 24092 24095 24098 24101 24104 24107 24109 24112 24115 24118 24121 24124 24126 24129 24132 24135 24137 24140 24143 24146 24149 24152 24155 24157 24160 24162 24165 24168 24171 24173 24176 24179 24182 24185 24188 24191 24194 24197 24200 24202 24205 24208 24210 24213 24216 24219 24222 24225 24228 24231 24233 24236 24239 24242 24245 24248 24251 24254 24257 24260 24263 24266 24269 24272 24274 24277 24280 24282 24285 24288 24291 24294 24297 24300 24302 24305 24308 24311 24314 24317 24320 24322 24325 24328 24331 24334 24337 24340 24343 24345 24348 24351 24354 24357 24360 24363 24366 24369 24372 24375 24378 24381 24384 24387 24390 24393 24396 24399 24402 24405 24408 24411 24413 24416 24419 24422 24425 24428 24431 24434 24437 24440 24443 24445 24448 24451 24454 24457 24459 24461 24464 24467 24470 24473 24475 24478 24481 24484 24487 24490 24493 24496 24499 24502 24504 24507 24510 24513 24516 24519 24522 24525 24528 24531 24534 24537 24539 24542 24545 24548 24550 24553 24556 24559 24561 24564 24567 24570 24573 24576 24579 24582 24585 24588 24591 24594 24597 24599 24602 24605 24608 24611 24614 24616 24619 24622 24624 24627 24630 24633 24636 24639 24642 24645 24648 24651 24654 24657 24660 24663 24666 24668 24671 24674 24677 24680 24683 24686 24689 24691 24694 24697 24700 24702 24705 24708 24711 24714 24717 24719 24722 24725 24728 24731 24734 24737 24740 24743 24746 24748 24751 24754 24757 24760 24763 24766 24769 24772 24774 24777 24780 24783 24786 24789 24791 24794 24797 24800 24803 24806 24809 24812 24814 24817 24820 24823 24826 24829 24832 24835 24838 24841 24844 24847 24850 24853 24856 24859 24862 24865 24868 24871 24874 24877 24880 24883 24886 24889 24892 24895 24898 24901 24904 24907 24910 24913 24916 24919 24922 24925 24928 24931 24934 24937 24940 24943 24946 24949 24952 24955 24958 24960 24963 24966 24969 24972 24975 24978 24981 24983 24986 24989 24992 24995 24998 25001 25004 25007 25010 25013 25016 25019 25022 25025 25028 25031 25034 25037 25040 25043 25046 25049 25051 25053 25056 25059 25061 25063 25066 25069 25072 25075 25078 25081 25084 25086 25089 25092 25095 25098 25101 25104 25107 25110 25113 25116 25119 25122 25125 25128 25130 25133 25136 25139 25142 25145 25148 25151 25154 25156 25159 25162 25164 25167 25170 25173 25175 25178 25181 25184 25187 25190 25193 25196 25199 25202 25205 25208 25211 25214 25217 25220 25223 25226 25229 25232 25235 25238 25241 25244 25247 25250 25253 25256 25259 25261 25264 25267 25270 25273 25276 25279 25282 25285 25287 25290 25293 25296 25299 25302 25305 25307 25309 25312 25315 25318 25321 25323 25326 25329 25331 25334 25337 25339 25342 25345 25348 25351 25354 25357 25359 25362 25365 25368 25371 25374 25377 25380 25383 25385 25388 25391 25394 25397 25400 25403 25406 25409 25412 25415 25418 25420 25423 25426 25428 25431 25434 25437 25440 25443 25446 25449 25451 25454 25457 25460 25462 25465 25467 25470 25472 25475 25478 25481 25484 25487 25490 25493 25496 25499 25502 25505 25508 25511 25514 25517 25520 25523 25525 25528 25530 25533 25536 25539 25542 25545 25548 25551 25554 25557 25560 25562 25565 25568 25571 25574 25577 25580 25583 25585 25588 25591 25594 25596 25599 25601 25603 25606 25609 25611 25614 25617 25620 25623 25625 25628 25631 25634 25636 25639 25642 25645 25647 25650 25652 25654 25657 25660 25663 25666 25669 25672 25674 25677 25680 25683 25686 25689 25692 25695 25698 25700 25702 25704 25707 25709 25712 25715 25717 25719 25722 25725 25727 25730 25733 25736 25739 25742 25745 25748 25751 25754 25757 25760 25762 25765 25768 25771 25774 25777 25780 25783 25786 25789 25792 25795 25798 25801 25803 25805 25808 25811 25814 25817 25819 25822 25825 25828 25830 25833 25836 25839 25842 25845 25847 25849 25852 25855 25858 25860 25863 25866 25869 25872 25875 25878 25881 25884 25887 25890 25893 25896 25899 25902 25905 25907 25910 25913 25916 25918 25921 25924 25927 25929 25932 25935 25938 25941 25944 25947 25949 25952 25955 25958 25961 25964 25966 25969 25972 25975 25978 25981 25984 25987 25990 25992 25995 25998 26001 26004 26007 26010 26013 26016 26019 26021 26024 26027 26030 26033 26035 26038 26040 26043 26046 26048 26051 26053 26056 26059 26062 26065 26068 26071 26073 26076 26078 26080 26083 26086 26089 26092 26095 26098 26101 26104 26106 26109 26111 26114 26116 26119 26121 26124 26127 26130 26133 26136 26139 26142 26145 26148 26151 26154 26156 26159 26162 26165 26167 26170 26173 26176 26179 26182 26185 26188 26191 26193 26196 26199 26202 26205 26208 26211 26214 26217 26220 26222 26225 26228 26231 26234 26236 26239 26242 26244 26247 26250 26253 26256 26259 26262 26265 26268 26271 26273 26276 26279 26282 26284 26287 26290 26293 26296 26299 26302 26305 26308 26311 26314 26317 26320 26323 26326 26329 26332 26335 26338 26341 26343 26346 26349 26352 26355 26358 26361 26364 26367 26370 26373 26375 26378 26381 26384 26387 26390 26393 26396 26399 26402 26405 26408 26411 26414 26417 26420 26423 26426 26429 26432 26435 26438 26441 26444 26447 26450 26453 26456 26459 26462 26465 26468 26471 26474 26477 26480 26483 26486 26489 26492 26495 26498 26501 26504 26507 26510 26512 26514 26517 26520 26523 26526 26529 26532 26535 26538 26541 26544 26547 26550 26553 26555 26557 26560 26563 26566 26568 26571 26574 26576 26579 26582 26585 26587 26590 26593 26596 26598 26601 26604 26607 26610 26613 26616 26619 26622 26624 26627 26630 26632 26635 26637 26639 26642 26645 26648 26651 26654 26657 26659 26662 26664 26666 26668 26671 26674 26676 26679 26682 26684 26686 26689 26692 26695 26698 26701 26704 26707 26710 26713 26716 26719 26722 26725 26728 26731 26734 26737 26740 26743 26746 26749 26751 26754 26757 26760 26763 26766 26769 26772 26775 26778 26780 26783 26786 26789 26792 26795 26798 26801 26803 26805 26808 26811 26814 26817 26820 26823 26826 26829 26832 26835 26838 26841 26844 26847 26850 26853 26856 26859 26862 26865 26868 26871 26874 26876 26879 26881 26884 26887 26890 26893 26896 26899 26902 26904 26907 26910 26913 26915 26917 26920 26923 26925 26928 26931 26934 26937 26939 26942 26945 26948 26950 26953 26956 26959 26961 26964 26967 26970 26973 26976 26979 26982 26985 26988 26990 26992 26995 26998 27001 27004 27007 27009 27012 27015 27017 27019 27021 27024 27027 27030 27033 27036 27038 27041 27044 27047 27050 27053 27056 27059 27062 27065 27067 27070 27072 27075 27078 27081 27084 27087 27090 27093 27096 27099 27102 27105 27108 27111 27114 27117 27120 27123 27126 27129 27132 27135 27138 27141 27144 27146 27149 27152 27155 27158 27160 27162 27165 27168 27171 27173 27176 27179 27182 27185 27188 27191 27194 27197 27200 27203 27206 27209 27212 27215 27218 27221 27223 27226 27229 27232 27234 27237 27240 27242 27245 27248 27251 27254 27257 27260 27263 27266 27269 27272 27275 27278 27281 27283 27286 27289 27291 27294 27297 27300 27302 27305 27307 27310 27312 27315 27317 27319 27321 27324 27327 27330 27333 27336 27339 27342 27345 27347 27350 27353 27356 27359 27362 27365 27368 27371 27373 27376 27379 27381 27384 27387 27390 27393 27396 27399 27402 27405 27408 27411 27414 27417 27420 27423 27426 27429 27432 27435 27438 27441 27444 27446 27449 27452 27455 27458 27461 27464 27467 27470 27473 27476 27478 27481 27483 27486 27489 27491 27494 27496 27499 27501 27504 27507 27509 27512 27514 27517 27520 27522 27525 27528 27531 27533 27536 27539 27542 27545 27548 27551 27554 27557 27560 27563 27566 27569 27572 27575 27578 27581 27584 27587 27590 27593 27596 27599 27602 27605 27608 27611 27614 27617 27620 27623 27626 27629 27632 27635 27638 27641 27644 27647 27650 27653 27656 27659 27662 27665 27668 27671 27674 27677 27680 27683 27686 27689 27692 27695 27698 27701 27704 27707 27710 27713 27716 27718 27721 27724 27726 27729 27732 27735 27738 27741 27744 27746 27748 27751 27754 27757 27760 27763 27766 27769 27772 27775 27778 27781 27784 27787 27790 27793 27796 27799 27802 27804 27807 27810 27813 27815 27818 27821 27824 27827 27830 27833 27836 27839 27842 27845 27848 27851 27854 27857 27860 27863 27865 27868 27871 27874 27877 27880 27883 27886 27888 27891 27894 27897 27900 27903 27906 27909 27912 27914 27917 27919 27922 27925 27928 27931 27934 27937 27940 27943 27946 27949 27952 27955 27958 27961 27964 27967 27969 27972 27975 27978 27981 27984 27987 27990 27992 27995 27998 28001 28004 28006 28009 28012 28015 28018 28021 28024 28027 28029 28032 28035 28037 28039 28042 28045 28047 28050 28053 28056 28059 28062 28065 28067 28070 28073 28076 28079 28082 28085 28088 28091 28094 28096 28099 28102 28104 28107 28110 28112 28115 28118 28120 28123 28126 28129 28132 28135 28137 28140 28143 28146 28149 28152 28155 28158 28161 28163 28166 28169 28172 28175 28178 28181 28184 28186 28189 28192 28195 28198 28201 28204 28207 28210 28213 28216 28219 28222 28224 28227 28230 28233 28236 28239 28242 28245 28247 28249 28252 28254 28257 28259 28262 28265 28268 28271 28274 28277 28280 28283 28286 28289 28292 28295 28298 28301 28304 28306 28309 28311 28314 28317 28320 28323 28326 28329 28332 28335 28337 28340 28342 28345 28347 28350 28352 28355 28357 28360 28363 28365 28368 28371 28374 28377 28380 28382 28385 28388 28391 28394 28397 28400 28403 28406 28408 28411 28414 28417 28420 28423 28425 28428 28431 28433 28436 28438 28440 28443 28446 28449 28452 28455 28458 28461 28464 28466 28469 28472 28475 28478 28481 28484 28487 28490 28493 28496 28499 28502 28505 28507 28510 28513 28516 28519 28522 28525 28528 28530 28533 28536 28539 28541 28544 28547 28550 28553 28556 28559 28562 28565 28568 28571 28574 28577 28580 28583 28586 28589 28592 28594 28597 28600 28603 28606 28609 28612 28615 28617 28620 28623 28625 28628 28631 28634 28637 28640 28643 28646 28649 28652 28655 28658 28661 28664 28667 28670 28672 28675 28678 28681 28684 28686 28689 28692 28695 28698 28701 28704 28707 28710 28713 28716 28719 28722 28725 28728 28731 28734 28737 28740 28743 28746 28749 28752 28755 28758 28761 28763 28766 28769 28772 28775 28778 28781 28783 28786 28789 28792 28795 28798 28801 28804 28807 28810 28812 28814 28817 28820 28823 28825 28828 28830 28833 28836 28839 28842 28845 28848 28851 28854 28857 28860 28863 28866 28869 28872 28875 28877 28880 28883 28886 28889 28892 28895 28898 28901 28904 28907 28910 28913 28915 28917 28920 28923 28926 28929 28932 28935 28938 28941 28943 28946 28949 28951 28954 28957 28959 28961 28964 28967 28970 28973 28976 28979 28982 28984 28987 28990 28993 28996 28999 29002 29005 29008 29011 29013 29016 29019 29022 29024 29027 29030 29033 29036 29039 29041 29044 29047 29050 29053 29056 29059 29062 29065 29068 29071 29074 29077 29079 29082 29085 29088 29090 29093 29096 29099 29101 29104 29107 29110 29113 29116 29119 29122 29125 29128 29131 29134 29137 29140 29143 29146 29149 29152 29155 29158 29161 29164 29167 29170 29173 29176 29179 29182 29185 29188 29191 29194 29197 29199 29202 29205 29208 29211 29214 29217 29220 29223 29226 29229 29232 29235 29238 29241 29244 29247 29250 29253 29256 29259 29262 29265 29268 29271 29273 29276 29278 29281 29284 29286 29289 29292 29295 29298 29301 29304 29307 29310 29313 29315 29318 29321 29324 29327 29330 29333 29336 29339 29342 29345 29348 29351 29354 29357 29359 29362 29365 29368 29371 29373 29376 29379 29382 29384 29387 29390 29393 29396 29399 29402 29405 29408 29411 29414 29417 29420 29423 29426 29429 29432 29435 29438 29441 29444 29447 29450 29453 29456 29459 29462 29465 29468 29471 29474 29477 29480 29483 29486 29489 29492 29495 29498 29501 29504 29507 29510 29513 29516 29519 29522 29525 29528 29531 29534 29537 29540 29543 29546 29549 29552 29555 29558 29561 29564 29567 29570 29573 29576 29579 29582 29585 29588 29591 29594 29597 29600 29603 29606 29609 29612 29615 29618 29621 29624 29627 29630 29633 29636 29639 29642 29645 29648 29651 29654 29657 29660 29663 29666 29669 29672 29675 29678 29681 29684 29687 29690 29693 29696 29699 29702 29705 29708 29711 29714 29717 29720 29723 29726 29729 29732 29735 29738 29741 29744 29747 29750 29753 29756 29759 29762 29765 29768 29771 29774 29777 29780 29783 29786 29789 29792 29795 29798 29801 29804 29807 29810 29813 29816 29819 29822 29825 29828 29831 29834 29837 29840 29843 29846 29849 29852 29855 29858 29861 29864 29867 29870 29873 29876 29879 29882 29885 29888 29891 29894 29897 29900 29903 29906 29909 29912 29915 29918 29921 29924 29927 29930 29933 29936 29939 29942 29945 29948 29951 29953 29956 29959 29962 29965 29968 29971 29974 29977 29980 29983 29986 29989 29992 29995 29998 30001 30003 30006 30009 30012 30015 30018 30021 30024 30027 30029 30032 30035 30038 30041 30043 30046 30049 30052 30055 30058 30061 30064 30067 30070 30073 30076 30079 30082 30085 30088 30091 30094 30097 30100 30103 30106 30109 30111 30114 30117 30120 30123 30126 30129 30132 30135 30138 30141 30144 30147 30150 30152 30154 30157 30160 30163 30166 30169 30171 30174 30176 30179 30182 30185 30188 30191 30194 30197 30200 30203 30206 30209 30211 30214 30217 30220 30223 30226 30229 30232 30234 30237 30240 30243 30246 30249 30252 30255 30258 30261 30264 30267 30270 30273 30276 30279 30281 30283 30286 30289 30292 30295 30298 30301 30304 30307 30310 30313 30316 30319 30321 30324 30327 30330 30333 30336 30339 30342 30345 30348 30351 30354 30357 30360 30363 30366 30369 30371 30374 30377 30380 30383 30386 30389 30392 30394 30397 30400 30403 30406 30409 30412 30415 30418 30421 30424 30426 30428 30431 30434 30437 30440 30443 30446 30449 30452 30455 30458 30461 30464 30467 30470 30473 30476 30479 30482 30485 30488 30491 30494 30497 30500 30503 30506 30509 30512 30515 30518 30520 30523 30526 30529 30532 30535 30537 30540 30543 30546 30549 30552 30555 30558 30561 30564 30567 30569 30572 30575 30578 30581 30583 30586 30589 30592 30595 30598 30601 30604 30607 30610 30613 30615 30618 30620 30623 30626 30629 30632 30635 30638 30641 30644 30647 30650 30653 30656 30659 30662 30665 30668 30671 30674 30677 30680 30683 30686 30689 30692 30695 30698 30701 30704 30707 30710 30713 30715 30718 30721 30724 30727 30730 30732 30735 30738 30741 30744 30747 30750 30753 30756 30759 30762 30765 30768 30771 30774 30777 30780 30783 30786 30788 30791 30794 30796 30799 30802 30805 30807 30810 30813 30816 30819 30822 30824 30827 30830 30833 30836 30839 30842 30845 30848 30851 30854 30856 30859 30862 30865 30868 30871 30874 30876 30879 30882 30885 30888 30891 30893 30895 30898 30901 30903 30906 30909 30911 30914 30917 30920 30923 30926 30929 30932 30935 30938 30941 30943 30946 30949 30951 30954 30957 30959 30962 30965 30967 30970 30973 30975 30978 30981 30983 30986 30989 30992 30995 30998 31001 31003 31006 31009 31012 31015 31018 31021 31024 31027 31030 31033 31036 31038 31041 31044 31047 31050 31053 31056 31059 31061 31064 31067 31070 31073 31075 31078 31081 31084 31086 31089 31092 31095 31098 31101 31104 31107 31110 31113 31116 31119 31121 31124 31127 31130 31133 31136 31139 31142 31145 31148 31151 31154 31157 31160 31163 31166 31169 31172 31175 31178 31181 31184 31187 31190 31193 31195 31198 31201 31204 31207 31210 31212 31215 31218 31221 31224 31227 31230 31233 31236 31239 31242 31245 31248 31251 31254 31256 31259 31262 31264 31267 31269 31272 31275 31278 31281 31283 31286 31288 31290 31293 31295 31298 31301 31304 31307 31310 31313 31316 31318 31321 31323 31326 31329 31332 31335 31338 31341 31343 31346 31349 31352 31355 31358 31361 31363 31366 31369 31372 31375 31377 31380 31383 31386 31389 31392 31394 31397 31400 31402 31405 31408 31411 31414 31416 31419 31422 31425 31428 31430 31433 31436 31439 31442 31445 31448 31450 31453 31456 31459 31462 31465 31468 31471 31474 31477 31479 31482 31485 31488 31491 31494 31497 31499 31502 31505 31508 31511 31513 31516 31519 31522 31525 31528 31531 31534 31537 31540 31543 31546 31549 31552 31555 31558 31561 31563 31566 31569 31572 31574 31577 31580 31582 31585 31588 31591 31594 31597 31600 31603 31606 31609 31612 31615 31618 31621 31624 31627 31630 31632 31635 31637 31640 31643 31646 31649 31652 31655 31658 31661 31664 31667 31670 31673 31676 31679 31682 31685 31688 31691 31694 31697 31700 31703 31706 31709 31712 31715 31717 31720 31723 31725 31728 31731 31734 31737 31740 31743 31746 31749 31752 31755 31757 31760 31763 31766 31769 31771 31774 31777 31780 31783 31785 31788 31791 31794 31797 31800 31803 31806 31809 31812 31814 31817 31820 31823 31826 31829 31832 31835 31838 31841 31844 31847 31850 31853 31856 31859 31862 31865 31868 31871 31874 31877 31880 31883 31886 31889 31892 31895 31898 
</DataArray>
<DataArray type="UInt32" Name="types" format="ascii">
5 5 5 5 5 3 5 5 5 5 5 5 5 3 5 5 5 5 3 5 5 3 5 5 5 5 3 5 5 5 5 3 5 5 5 5 5 5 5 5 5 5 5 5 5 3 5 5 3 5 5 5 5 5 3 5 5 5 5 5 5 5 3 5 5 5 5 3 5 5 5 5 5 5 5 5 5 3 5 5 3 5 5 3 5 5 5 5 3 5 5 5 5 5 5 5 3 3 3 5 5 3 5 5 5 5 5 3 5 5 5 5 5 5 5 5 5 5 5 5 5 3 5 5 5 3 5 5 5 5 5 5 3 5 5 5 5 5 5 5 5 5 5 5 5 5 5 5 5 5 5 5 5 5 5 5 5 5 3 5 5 5 3 5 5 3 5 5 5 5 5 5 5 5 5 5 5 3 5 5 5 5 5 5 5 5 3 5 5 5 5 5 5 5 5 3 5 5 5 5 5 5 5 5 5 3 5 5 5 5 5 5 5 5 5 5 5 5 5 5 5 5 5 5 5 5 5 5 5 3 5 5 5 3 5 3 5 3 5 5 3 5 5 5 3 5 3 5 3 5 3 3 5 3 5 5 3 5 3 5 5 5 3 5 3 3 5 5 3 5 5 5 3 5 3 3 3 5 3 5 5 5 3 5 3 3 3 5 5 3 3 5 5 5 5 3 5 3 5 5 3 5 5 5 3 5 3 3 3 5 5 5 3 5 3 3 3 3 5 5 5 3 3 5 5 3 3 3 5 3 5 5 5 5 3 5 5 5 5 5 5 5 3 5 5 5 5 5 5 3 3 5 5 5 3 5 5 5 3 5 3 5 3 3 5 5 5 5 3 5 5 3 5 5 5 5 3 5 3 5 5 5 5 5 3 3 5 5 5 5 5 5 5 5 3 5 5 5 3 5 5 3 5 3 5 5 5 5 5 5 5 5 5 5 5 3 5 3 5 3 5 5 5 3 5 3 5 3 5 5 5 5 5 5 3 5 3 5 5 5 3 5 5 5 3 5 3 3 5 5 5 5 3 5 5 5 5 3 3 5 5 3 5 3 5 3 3 5 5 5 3 5 5 5 5 3 5 5 5 5 5 5 5 5 5 5 5 3 5 5 5 5 3 5 5 5 3 5 3 3 3 5 5 5 3 3 5 3 5 5 3 5 5 5 5 3 5 5 5 5 5 5 5 5 5 5 5 3 3 5 5 3 5 5 5 3 5 5 5 5 5 5 3 5 5 5 3 5 5 5 3 5 5 5 5 5 5 5 5 5 5 5 3 5 5 5 3 5 5 5 5 5 5 5 3 5 5 5 5 5 3 5 5 5 5 5 5 5 5 5 5 5 5 5 5 5 5 5 5 5 3 5 5 5 5 3 5 5 3 5 5 5 5 5 5 5 3 5 5 5 5 5 5 5 5 3 5 3 5 5 3 5 5 5 3 5 5 3 5 5 5 3 5 3 5 5 3 5 3 5 5 5 5 5 5 5 5 5 5 5 5 5 5 5 5 5 5 5 5 5 5 3 5 3 5 3 5 5 5 5 5 5 5 5 5 5 5 5 5 5 5 3 5 5 5 5 5 5 5 5 5 3 5 5 5 5 5 5 5 5 5 5 5 5 5 5 5 5 5 5 5 5 5 5 5 5 5 5 5 5 5 3 5 5 3 5 5 5 3 3 5 3 5 5 5 5 5 3 5 5 5 5 5 3 5 5 5 5 5 5 5 5 5 5 5 5 5 5 5 5 5 5 5 5 5 5 5 5 5 5 5 5 5 5 5 5 5 5 5 5 5 5 5 5 5 5 5 5 5 5 5 5 5 3 5 5 5 5 5 5 5 5 5 5 5 5 5 5 5 3 5 5 5 5 3 5 5 5 5 5 5 5 5 5 5 5 5 5 5 5 5 5 5 5 5 5 5 5 5 5 5 5 3 5 5 3 5 3 3 3 3 5 5 3 5 5 5 5 5 5 5 5 5 5 5 5 5 5 5 5 5 3 5 5 3 5 3 5 5 5 5 3 5 3 5 5 5 5 3 5 5 5 3 5 5 5 5 5 3 5 3 5 5 3 3 5 3 5 5 5 5 5 5 5 5 5 5 5 3 5 5 5 3 5 5 5 3 5 5 3 3 3 5 5 5 5 5 5 5 5 5 5 5 3 5 5 5 5 5 5 5 5 3 3 3 5 5 5 5 5 5 5 5 3 3 5 5 5 3 5 5 3 5 5 5 5 5 5 5 5 5 5 5 3 5 5 5 5 5 5 5 5 3 5 5 5 5 5 5 5 5 5 5 3 5 3 3 3 5 5 5 5 5 5 5 3 3 5 3 5 5 5 5 5 3 5 3 3 5 5 5 3 5 3 5 5 5 5 3 5 5 5 5 5 5 5 5 5 5 5 5 5 5 5 5 5 3 5 5 5 3 5 5 5 5 5 3 5 5 5 5 5 5 3 5 3 5 5 5 5 5 5 5 5 3 5 5 5 3 5 5 5 5 5 5 5 5 5 5 5 5 5 5 5 5 5 5 5 5 5 5 5 5 5 3 3 3 5 5 5 5 3 5 5 5 5 3 5 5 5 5 5 5 5 3 5 5 5 5 5 5 5 5 3 5 5 5 5 5 5 5 5 5 5 5 5 3 5 5 5 5 5 5 3 5 5 5 5 5 5 5 5 3 5 5 5 3 5 5 5 5 5 5 5 5 5 5 5 5 3 5 5 5 5 5 5 5 5 5 5 5 5 5 5 5 5 5 5 5 5 5 5 5 5 5 5 5 5 5 5 5 5 5 5 5 5 5 5 5 5 5 5 5 5 5 5 5 3 5 5 5 5 5 5 5 5 5 5 5 5 5 5 5 5 5 5 5 5 5 5 5 5 3 5 5 5 5 5 5 5 5 5 5 3 5 5 3 5 5 5 5 5 5 5 5 5 3 5 3 5 5 5 5 3 5 5 3 5 3 5 5 5 5 5 3 5 5 5 5 5 5 5 5 3 5 5 5 5 5 5 5 5 5 5 5 5 5 5 3 5 3 3 5 5 5 5 5 3 5 5 5 5 5 5 5 5 5 5 5 5 5 5 5 3 5 5 5 5 5 5 5 5 5 5 5 5 5 5 5 5 3 5 5 5 5 5 3 3 5 5 3 5 5 5 5 5 5 5 5 5 5 3 5 5 5 5 5 5 5 5 5 3 5 3 5 5 5 5 5 3 5 5 5 5 3 5 5 5 3 5 5 5 3 5 5 3 5 5 5 5 5 5 5 5 5 5 5 5 5 5 5 5 3 5 5 5 5 5 5 5 3 5 5 5 5 5 5 5 5 5 5 5 5 5 5 5 5 5 5 5 5 5 5 5 5 5 5 5 3 5 5 5 5 3 5 5 5 3 5 5 5 5 5 5 5 5 5 3 5 3 5 5 5 5 5 5 5 5 5 5 5 5 5 5 5 5 5 5 3 3 5 5 5 3 5 5 3 5 5 3 5 5 5 3 5 5 3 5 5 5 5 5 5 5 5 5 5 5 5 5 5 5 5 5 5 5 5 3 5 3 5 5 5 5 5 5 5 5 5 5 5 3 5 3 5 5 5 3 5 5 5 5 5 3 5 5 5 5 5 5 3 5 5 5 5 5 5 5 5 5 5 5 3 5 5 5 5 5 5 5 5 3 5 5 5 3 5 5 3 5 5 5 5 5 3 5 5 5 5 5 5 5 5 5 3 5 5 3 5 3 5 3 3 3 5 3 5 5 5 5 5 5 3 5 5 5 5 5 5 3 5 5 5 5 5 5 5 3 5 5 5 5 3 5 5 5 5 5 3 5 3 5 5 5 5 5 5 5 5 5 5 3 5 5 5 5 5 5 5 3 5 5 5 5 5 5 5 3 5 3 5 5 5 5 5 5 5 5 3 5 5 5 3 3 5 5 5 5 5 3 3 5 3 5 5 3 5 5 3 5 5 5 5 5 5 5 5 3 5 5 5 5 5 3 5 5 5 5 3 5 5 3 5 5 5 5 5 5 5 5 5 5 5 5 5 5 5 5 5 5 5 5 5 5 5 5 5 5 5 5 5 5 5 5 5 5 5 5 5 5 5 5 5 3 5 5 3 5 5 5 5 5 3 5 5 5 5 3 5 5 5 5 5 5 5 5 5 5 5 5 5 5 5 5 5 5 5 5 5 5 5 5 3 5 5 5 3 5 5 5 5 5 5 3 5 5 5 5 5 5 5 5 5 5 5 3 5 3 3 5 5 3 5 5 5 5 5 5 5 5 5 5 5 3 5 5 3 5 5 5 5 5 5 5 5 5 5 5 5 5 5 5 3 5 5 5 5 5 5 5 3 5 3 5 5 5 5 3 5 3 5 5 5 5 5 5 5 5 5 3 5 5 5 5 5 5 5 5 5 5 5 5 5 5 5 5 5 3 5 5 5 5 5 5 5 5 5 5 5 5 5 5 5 5 5 5 5 5 5 5 5 5 5 3 3 5 5 5 5 5 5 5 5 5 5 5 3 5 5 5 5 3 5 5 5 5 3 5 5 5 5 5 5 5 5 3 5 5 5 5 5 5 5 5 5 3 5 5 5 5 5 5 5 5 5 5 5 5 5 5 5 5 5 5 5 5 3 5 5 5 5 5 5 5 5 5 5 5 5 5 5 3 5 3 5 5 5 5 5 5 5 5 3 5 5 3 5 5 5 5 5 5 5 5 5 5 5 5 5 5 5 5 5 5 5 5 5 5 5 5 5 5 5 5 5 5 5 5 5 5 5 5 3 5 5 3 5 5 5 5 3 5 3 5 5 3 5 3 5 5 5 5 5 3 5 5 5 5 5 5 5 5 5 5 5 5 3 5 5 5 3 5 5 5 5 5 5 5 5 5 3 5 5 5 5 3 3 5 5 5 5 5 5 5 5 3 5 5 5 5 5 3 5 5 5 3 5 5 5 3 5 5 5 5 3 5 5 5 5 5 5 5 5 5 5 5 5 5 5 3 5 5 5 5 5 5 3 5 3 3 5 3 5 3 5 5 5 5 3 5 5 5 5 3 5 5 5 5 5 5 5 5 5 3 5 5 5 5 5 5 5 5 5 5 5 5 5 5 3 5 5 5 3 5 5 5 3 5 3 5 5 5 5 5 5 5 5 5 5 5 5 5 5 5 5 3 5 5 5 5 5 5 3 5 5 5 5 5 5 5 5 5 5 5 5 5 5 5 5 5 5 3 5 5 5 5 5 5 5 5 5 5 5 5 5 5 5 5 5 5 5 5 5 5 5 5 5 5 5 5 5 5 5 5 5 5 3 5 5 5 5 3 5 5 5 5 5 5 5 3 5 5 5 5 5 5 5 5 5 3 5 5 3 5 5 5 5 5 3 5 5 5 3 5 5 3 5 5 5 5 5 5 5 5 5 5 5 5 5 5 5 5 5 5 5 5 3 5 5 5 5 5 5 5 5 5 5 3 3 5 3 5 5 5 5 5 3 5 5 5 5 3 5 5 5 5 5 3 5 3 5 5 3 5 5 5 5 5 5 5 5 3 5 5 5 5 5 5 3 5 5 5 5 5 5 3 5 5 5 5 3 5 5 3 5 3 5 5 3 5 5 5 5 5 5 3 5 5 5 5 3 5 5 5 5 5 5 5 5 3 3 5 5 5 5 5 5 5 5 3 5 5 5 5 5 5 3 5 5 5 5 5 5 5 3 5 5 5 3 5 5 5 5 5 5 5 5 5 5 5 5 3 5 5 5 5 3 5 5 3 5 5 5 5 3 5 5 5 3 3 5 5 5 3 5 5 5 3 5 5 5 5 5 5 5 5 5 3 5 5 5 3 5 5 5 5 5 5 5 5 5 5 5 5 3 5 3 5 5 3 5 5 3 5 5 5 5 5 5 5 3 5 5 5 5 5 3 5 3 5 5 5 3 3 5 3 3 5 3 5 5 5 5 5 5 3 5 3 5 5 5 5 5 5 5 5 5 5 5 5 5 3 5 5 3 5 3 5 5 3 5 5 5 3 3 5 5 3 5 5 5 5 5 5 5 5 5 5 5 5 5 5 5 5 5 5 5 5 5 5 5 3 3 5 3 5 3 5 5 3 3 5 5 3 5 5 3 5 5 3 5 3 5 5 5 5 3 5 5 5 5 3 5 3 3 5 3 5 5 3 3 5 5 5 3 5 5 5 5 3 3 5 5 5 5 5 3 5 5 5 5 5 5 5 5 5 5 5 3 5 3 5 3 5 5 3 5 3 5 5 5 5 5 5 5 5 3 5 5 3 5 5 5 5 3 5 5 5 5 5 5 5 5 5 5 5 5 3 5 5 5 5 5 5 5 5 5 5 5 3 5 5 5 5 5 5 3 5 3 5 5 3 5 5 5 5 5 5 5 5 5 5 5 5 5 5 5 5 5 3 3 5 5 5 3 5 5 3 5 5 5 5 5 5 5 5 5 5 5 5 5 5 5 5 5 5 5 5 5 5 5 5 5 3 3 5 5 5 5 5 5 5 5 5 5 5 3 5 5 5 5 5 5 5 5 5 5 5 5 5 5 5 5 5 5 5 5 5 5 5 5 5 5 5 5 5 5 5 5 5 3 5 5 5 5 5 3 5 5 3 5 5 3 3 5 5 5 5 5 5 5 5 5 5 5 5 5 3 5 5 3 5 5 5 5 5 5 3 5 5 3 5 5 5 5 5 5 5 5 5 5 5 5 5 3 5 5 5 5 5 5 5 3 5 5 5 5 5 5 5 5 5 5 5 5 3 5 5 3 5 5 5 5 5 5 5 5 5 5 5 5 5 5 5 5 5 5 5 5 3 5 5 3 5 3 5 5 5 3 5 5 3 5 3 5 5 5 3 5 5 5 5 3 5 5 5 5 5 5 5 3 5 5 5 3 5 5 5 5 5 5 5 5 5 5 5 5 3 5 5 5 5 5 5 5 5 3 5 5 5 5 5 5 5 5 5 5 5 3 5 5 5 5 5 5 5 5 5 5 5 5 5 5 5 5 5 5 5 3 3 5 5 5 3 5 5 5 5 5 5 5 5 5 5 5 5 3 5 5 5 5 5 5 5 5 5 3 5 5 5 5 5 5 5 5 5 5 5 5 5 5 5 5 3 5 3 5 5 5 5 5 3 5 5 5 5 3 5 5 5 3 5 5 5 3 5 5 5 5 5 5 5 5 5 3 5 5 5 3 5 5 3 5 5 5 5 5 5 3 5 5 5 5 5 5 5 5 3 5 5 5 3 5 5 5 5 5 5 5 5 5 5 5 5 5 5 5 5 5 5 5 5 5 5 5 5 5 5 5 3 5 5 5 5 5 5 5 3 5 5 5 5 5 5 5 5 5 5 5 5 5 5 5 5 5 5 5 5 5 5 5 5 5 3 5 3 5 5 5 5 5 5 3 5 5 5 3 5 5 3 5 5 5 5 5 5 5 5 5 5 5 5 3 5 5 5 5 5 3 5 5 5 5 5 5 5 5 5 5 5 5 5 3 5 5 5 3 5 5 5 5 5 5 5 5 5 5 5 5 3 3 5 5 5 5 3 5 5 5 5 5 5 5 5 5 3 3 5 5 5 5 5 3 5 5 5 5 5 3 5 5 5 5 5 3 5 3 5 5 5 5 3 5 3 5 3 3 5 5 5 5 5 5 5 3 3 5 5 5 5 5 5 3 3 3 5 3 3 5 5 5 3 5 5 5 5 5 3 3 3 5 3 5 5 5 3 5 3 3 5 5 5 5 5 5 5 3 3 5 5 3 3 3 5 5 5 5 5 5 5 5 5 5 5 5 5 5 5 5 5 5 5 5 5 5 5 5 5 5 5 5 5 5 5 5 5 5 5 5 5 5 5 5 3 5 5 5 5 5 5 5 5 5 5 3 5 5 5 5 5 5 3 5 5 3 5 5 5 5 5 5 5 5 5 5 5 5 5 3 5 3 5 5 5 5 3 5 5 5 3 5 5 3 5 5 5 3 5 5 3 5 5 5 5 5 3 5 5 5 5 5 5 5 3 5 5 5 5 5 5 5 3 5 5 3 5 5 5 5 3 5 3 5 5 5 5 5 3 5 5 5 5 3 5 5 5 5 5 5 3 3 5 5 5 5 5 3 5 5 3 5 5 5 5 5 5 5 5 5 5 3 5 5 5 5 5 5 5 5 5 5 5 5 5 5 5 5 5 5 3 5 5 5 5 5 5 3 5 5 5 5 5 5 5 3 3 5 5 5 5 3 5 5 5 5 5 5 5 3 5 5 3 5 3 3 3 5 5 5 5 5 5 3 5 5 5 5 5 3 5 5 5 5 3 5 5 5 3 5 5 5 3 5 5 5 5 5 5 5 5 5 5 5 5 5 5 5 5 5 5 5 5 5 5 5 5 5 3 5 5 5 5 5 5 5 3 5 3 5 5 5 5 5 5 3 5 5 3 5 5 5 3 5 5 3 5 5 5 5 5 3 5 5 5 3 3 5 5 5 5 5 5 5 5 5 5 5 5 3 5 5 5 5 5 5 5 5 5 3 5 5 5 5 5 3 3 5 5 5 5 5 5 5 5 5 3 5 5 5 5 5 5 5 5 3 5 5 5 5 5 5 5 5 5 5 5 5 5 5 5 5 5 5 3 5 5 5 5 3 5 3 5 3 5 5 5 5 5 5 5 5 5 5 5 5 5 5 5 5 5 3 5 5 5 5 5 3 5 5 5 3 3 5 5 5 5 5 3 5 5 5 5 3 5 5 5 5 5 5 5 5 3 5 5 5 5 5 5 5 3 5 5 5 5 5 5 5 5 5 3 5 5 5 5 5 5 5 5 5 5 5 5 5 5 5 5 5 5 3 5 5 5 5 5 5 5 5 5 5 5 5 5 3 5 5 5 5 5 5 3 5 5 3 5 5 3 5 5 5 5 5 5 5 5 5 5 5 5 5 5 5 5 5 5 5 5 5 5 5 5 5 5 3 5 3 5 3 3 5 5 5 3 5 5 5 5 5 5 5 5 5 3 3 5 3 5 5 5 5 5 5 5 5 5 5 5 5 5 5 3 5 3 3 5 3 5 5 5 5 5 5 5 5 5 3 3 5 5 5 5 5 5 5 5 5 5 5 5 5 5 5 5 5 5 5 5 5 5 3 5 5 5 5 5 3 5 5 5 5 5 3 5 5 5 3 5 5 5 5 5 5 5 5 5 3 5 5 5 5 3 5 5 5 5 5 5 3 5 5 5 5 5 5 5 3 5 5 5 5 3 5 5 5 5 5 5 5 5 5 5 3 5 5 5 5 3 5 5 5 3 5 5 5 5 5 3 5 5 5 5 5 5 5 5 5 5 5 5 5 5 3 3 5 5 3 5 5 5 5 5 5 5 3 5 5 5 5 5 5 3 5 5 5 5 5 5 5 5 5 5 5 5 5 5 5 5 5 5 5 5 5 5 5 3 5 5 5 5 5 5 5 5 3 5 5 5 5 3 5 5 5 5 5 3 5 3 5 3 5 5 5 5 5 5 5 3 5 5 5 3 5 5 5 5 5 3 5 5 5 5 5 3 5 3 5 5 3 5 3 5 5 5 5 5 3 5 5 5 3 5 5 5 5 5 5 5 5 5 5 3 5 5 5 5 5 5 5 5 5 5 5 5 5 5 5 5 5 5 5 5 5 5 3 5 5 5 5 5 5 5 5 5 5 5 5 5 5 5 5 5 5 3 5 5 5 3 5 5 5 5 5 5 3 5 5 5 3 3 5 3 5 3 3 5 3 5 5 3 5 5 3 3 5 5 5 5 5 5 5 5 3 5 3 5 5 5 5 5 5 5 5 5 5 5 5 5 5 5 5 5 5 5 5 5 5 3 5 5 5 5 5 5 5 5 3 5 5 3 5 5 3 3 5 5 3 5 5 5 5 5 5 5 5 5 5 5 5 5 5 5 5 5 5 5 5 5 5 5 5 5 5 5 5 5 5 5 5 5 5 5 5 5 5 5 3 5 3 5 5 5 5 5 5 5 5 5 5 5 5 5 5 5 5 5 5 5 5 5 5 5 5 5 5 5 5 5 5 5 5 5 5 5 5 5 5 5 5 3 5 5 3 5 5 5 5 5 3 5 3 5 5 3 5 5 5 5 5 5 3 5 5 5 5 5 5 5 5 5 5 5 3 5 5 3 3 5 3 5 5 3 5 5 5 5 3 5 5 5 5 5 5 5 5 5 3 5 3 5 5 5 5 5 5 5 3 5 3 5 5 5 5 5 5 5 5 5 3 5 3 5 5 5 5 5 5 5 5 5 5 3 5 5 5 3 5 5 3 5 5 3 5 5 5 5 3 5 5 5 3 5 5 5 5 5 5 5 5 5 5 5 5 5 5 3 5 5 5 5 5 5 3 5 3 5 3 5 5 5 3 5 5 5 5 5 5 5 5 3 5 5 5 5 5 3 5 5 3 5 5 5 5 5 5 5 5 5 3 5 5 5 3 5 5 5 5 5 5 3 5 5 5 5 5 5 5 5 5 5 5 5 5 5 5 5 5 5 5 5 5 5 5 5 5 5 5 5 5 5 5 3 5 5 5 5 5 3 5 5 3 3 5 5 5 5 3 5 5 5 5 5 3 5 5 5 5 5 5 5 5 5 5 5 5 5 5 5 5 3 5 5 5 5 5 5 5 5 3 3 5 5 5 5 5 5 3 5 5 5 5 3 5 5 5 5 5 5 5 5 5 5 5 5 5 5 5 5 5 5 5 5 5 5 5 5 3 5 5 3 5 5 5 5 5 5 5 5 5 5 5 5 5 5 5 5 5 5 5 5 5 5 5 5 5 5 5 3 5 3 5 5 5 5 5 3 5 5 5 5 5 5 5 5 5 5 5 5 5 5 5 5 5 5 5 5 3 3 5 3 5 5 5 5 5 5 5 5 5 5 5 5 5 5 5 5 3 5 5 5 3 5 5 5 5 5 5 5 5 5 5 5 5 5 3 5 5 5 5 5 5 5 5 5 5 5 5 5 5 5 5 5 5 5 5 5 5 3 5 5 5 5 5 5 5 5 5 5 5 5 5 3 5 3 5 5 3 3 5 5 5 5 5 5 5 5 5 5 5 5 5 5 5 5 5 5 5 5 3 5 5 3 5 5 5 3 5 5 5 5 5 5 3 5 5 5 3 5 5 5 5 5 5 5 5 3 5 5 3 5 5 3 5 3 5 5 5 5 3 3 5 5 3 3 5 5 3 5 5 5 5 3 5 5 3 3 5 3 5 5 5 5 5 5 5 5 5 5 5 5 5 5 5 5 5 5 5 5 3 5 5 5 5 3 5 5 5 5 3 3 5 5 5 5 5 5 5 5 5 5 5 5 3 5 5 5 3 5 5 5 5 5 5 5 3 5 5 5 3 5 5 3 3 5 5 5 3 5 5 5 3 5 5 5 5 5 5 5 5 5 5 5 5 5 5 5 5 5 5 3 5 5 5 5 5 5 5 5 5 5 5 5 5 5 5 5 5 5 3 3 5 5 5 5 5 3 3 5 3 5 5 5 5 5 5 5 5 5 3 5 5 5 3 5 5 5 5 5 5 5 5 5 5 5 5 5 5 3 5 5 5 5 5 5 5 3 5 5 3 5 5 5 5 5 5 3 5 5 5 5 3 5 5 5 5 5 5 3 5 5 5 5 5 5 5 5 3 3 5 5 5 3 3 5 5 5 5 5 3 5 5 5 5 5 5 3 5 5 5 5 3 5 5 5 5 5 3 5 5 5 5 3 5 5 5 5 5 5 5 5 5 5 5 5 5 5 5 5 5 5 5 5 5 5 5 5 5 3 5 5 5 5 3 5 3 5 3 5 5 3 5 5 3 5 5 3 5 5 5 5 5 5 3 5 5 3 5 3 3 3 5 5 3 5 3 3 5 5 5 3 5 3 5 5 5 5 5 5 3 5 5 5 3 5 5 5 5 5 5 5 3 5 5 5 3 5 3 3 5 5 5 5 5 5 5 3 5 5 5 5 5 5 5 5 3 3 5 5 5 5 3 5 5 3 5 5 5 3 5 5 5 3 3 5 5 5 5 3 5 5 5 5 5 3 3 5 5 5 5 5 5 5 5 5 5 5 5 5 5 5 5 5 5 5 5 5 5 5 5 5 5 5 5 5 5 5 3 5 5 5 3 5 5 5 5 5 5 5 5 5 5 5 5 5 5 5 3 5 3 3 5 5 3 5 5 5 5 5 5 5 5 5 5 5 5 5 5 5 5 5 5 5 5 5 5 5 3 5 5 3 3 5 5 5 5 5 5 5 3 5 5 5 3 5 5 5 5 3 3 5 5 5 5 5 5 5 3 5 5 5 5 3 5 5 5 5 3 5 5 5 5 5 5 5 5 5 5 5 5 5 5 5 5 5 5 5 3 5 5 5 5 5 5 5 5 5 5 5 5 5 5 5 5 3 5 5 5 3 5 5 5 5 5 5 5 5 5 3 5 5 5 5 5 5 5 5 5 5 5 5 5 5 5 5 5 5 5 5 5 3 5 5 5 5 5 5 5 5 5 5 5 5 5 5 5 5 5 3 5 5 5 5 5 3 5 5 5 5 5 5 5 5 5 5 5 5 5 5 5 5 5 5 5 5 5 5 5 5 5 5 5 3 5 5 3 5 5 5 3 5 5 5 5 5 5 5 5 5 5 5 5 5 5 5 3 5 3 5 5 5 5 5 5 5 5 5 3 5 5 5 5 5 5 5 5 5 3 3 5 5 5 5 5 5 5 5 5 5 5 5 5 5 5 5 5 5 5 5 5 5 5 5 5 5 5 5 5 5 5 5 5 5 5 5 5 5 5 5 5 5 5 5 5 5 5 5 5 5 5 5 5 5 5 5 5 5 5 5 5 5 5 5 5 5 5 5 5 5 5 3 5 5 5 5 5 5 3 5 5 5 5 5 5 5 5 5 3 5 3 5 5 5 5 5 5 5 5 5 5 5 5 5 5 5 5 5 5 5 5 5 5 5 5 5 5 5 5 5 5 5 5 5 5 3 5 5 5 3 3 5 5 5 5 5 5 5 5 5 5 5 5 5 5 5 5 5 5 5 5 5 5 3 3 5 5 5 5 5 5 5 5 3 5 5 5 5 5 5 3 5 5 5 5 5 3 5 5 5 5 3 5 5 5 3 5 5 5 3 5 5 3 5 5 5 5 5 5 5 5 5 5 5 5 5 3 5 5 5 5 5 5 5 5 3 5 5 5 5 5 5 5 5 5 5 5 3 5 5 5 3 5 5 5 5 3 5 5 5 5 5 5 5 5 3 5 3 5 5 3 5 5 5 5 5 3 5 5 5 5 5 5 5 5 5 5 5 5 3 5 5 5 5 5 5 5 5 5 3 5 5 5 5 5 5 3 5 5 5 5 5 5 5 3 5 5 5 5 5 3 5 5 5 5 5 5 5 5 5 5 5 5 5 5 5 5 5 5 5 5 5 5 5 5 5 5 5 5 5 5 5 5 5 5 5 5 5 5 5 5 5 5 5 5 5 5 5 3 5 3 5 5 5 5 5 5 5 5 5 5 5 5 5 5 3 5 5 5 5 5 5 5 5 5 5 5 5 5 5 5 3 5 5 3 5 3 5 5 5 5 5 3 5 5 5 5 5 5 5 5 5 5 5 5 5 5 5 5 5 5 5 5 3 5 5 5 5 5 5 5 5 5 5 5 3 5 3 5 5 3 5 3 5 5 5 5 5 5 5 3 5 3 5 5 5 5 3 5 5 5 5 3 3 5 5 3 5 5 5 5 5 5 5 5 5 5 5 5 5 5 5 5 3 5 5 5 5 5 5 5 5 5 5 5 5 5 5 3 5 3 5 5 5 5 5 5 5 3 5 3 5 5 5 5 5 5 5 5 5 3 3 5 5 5 3 5 5 5 5 3 5 3 5 5 3 5 3 3 3 5 5 3 5 5 5 3 3 3 5 5 5 5 5 5 5 5 5 5 5 3 5 5 5 5 5 5 3 5 5 5 3 5 5 5 5 5 5 5 5 3 5 5 5 3 5 5 5 5 5 5 5 5 5 5 5 5 5 5 5 5 5 5 5 5 5 5 5 5 5 5 5 5 5 5 5 5 5 5 5 5 5 5 5 5 5 5 5 5 5 5 5 5 5 5 5 5 5 5 5 5 5 5 5 5 3 5 5 5 5 5 3 5 5 5 5 3 5 5 5 3 5 5 5 5 5 5 5 5 5 5 5 5 5 5 5 5 5 5 5 5 5 5 5 5 5 5 5 5 5 5 5 5 5 5 5 5 5 5 5 5 3 5 5 3 5 5 5 5 5 5 5 3 5 5 5 5 5 5 5 5 5 5 5 3 5 5 3 5 3 5 5 5 3 5 5 5 5 5 5 5 5 3 5 5 5 5 3 5 5 5 5 3 5 3 5 5 5 5 5 5 5 5 5 5 5 5 3 5 3 5 5 5 5 5 5 5 5 5 5 5 5 5 3 5 5 5 5 5 5 5 5 5 3 5 5 5 3 5 5 5 5 5 5 5 5 5 5 5 5 5 5 5 5 5 5 5 5 5 5 5 5 5 5 5 5 5 5 5 5 5 5 5 3 5 5 3 5 5 5 5 3 5 5 5 5 5 5 5 5 5 5 5 5 5 5 5 3 5 5 5 5 5 5 5 5 5 3 5 3 5 5 5 5 5 5 5 3 5 5 5 5 5 5 5 5 5 5 5 5 5 5 3 5 5 5 5 5 5 5 5 5 5 5 3 5 5 5 5 5 5 5 5 5 5 5 5 5 5 5 5 5 5 5 5 5 5 5 3 5 3 5 5 5 5 5 5 3 5 3 5 5 5 3 5 5 5 3 5 5 5 3 5 5 3 5 5 5 5 5 5 5 3 5 5 5 5 5 5 5 3 5 5 5 5 5 5 5 5 5 5 5 5 5 3 5 5 5 5 5 5 5 5 3 5 5 5 5 5 5 5 5 5 5 5 5 5 5 5 5 5 5 5 5 3 5 5 5 5 5 5 5 5 5 5 5 5 5 5 5 5 5 5 5 5 5 5 5 5 5 5 5 5 5 5 5 5 5 5 5 5 5 5 5 5 5 5 5 5 5 5 5 5 5 5 3 5 3 5 5 5 3 5 5 3 3 5 3 5 5 5 5 5 5 5 5 5 5 5 5 5 5 5 5 5 5 5 5 5 5 5 5 5 5 5 5 5 5 5 5 5 5 5 3 5 5 5 5 3 5 5 3 5 5 5 3 5 5 5 5 3 5 3 3 5 5 5 5 3 5 5 5 3 5 5 5 3 5 5 5 5 5 5 3 5 5 5 5 5 5 5 5 5 5 5 5 5 5 5 5 5 5 5 5 3 5 5 5 5 5 5 5 5 5 5 5 5 5 5 5 5 5 5 3 5 5 3 5 5 3 5 5 5 5 5 5 5 5 5 5 5 3 5 5 5 5 3 5 5 5 5 3 5 5 5 3 5 5 5 5 5 5 5 5 5 5 5 5 5 5 5 5 5 5 5 5 5 5 5 5 5 3 5 5 5 5 5 5 5 5 3 5 5 5 3 5 5 5 5 5 5 5 5 5 5 5 5 5 5 5 5 5 5 5 5 5 5 5 5 3 5 5 5 3 5 5 5 5 5 5 5 5 3 5 5 3 5 5 5 5 3 5 5 5 5 5 5 5 3 5 3 5 5 3 5 5 3 3 5 5 5 5 5 5 5 5 5 5 5 5 5 5 5 5 5 5 5 5 5 3 5 5 5 5 3 5 5 5 5 5 5 5 5 5 5 5 5 5 3 5 5 3 5 5 5 5 5 5 5 5 5 5 5 5 5 5 5 5 5 5 5 5 5 5 5 5 5 5 5 5 5 5 5 5 5 5 5 5 5 5 5 5 5 5 5 5 5 5 5 5 5 5 5 5 5 5 5 5 5 5 5 5 5 5 5 5 5 5 5 5 5 5 5 5 5 5 5 5 5 5 5 5 5 5 5 5 5 5 5 5 5 5 5 5 5 5 5 5 5 5 5 5 5 5 5 5 5 5 5 5 5 5 5 5 5 5 5 5 5 5 5 5 5 5 5 5 5 5 5 5 3 5 5 5 5 5 5 5 3 5 5 5 5 5 5 5 5 5 3 5 3 5 5 5 3 5 5 3 5 5 5 5 5 5 5 5 5 5 5 5 5 5 5 5 5 5 5 5 5 5 5 5 5 5 5 5 5 5 5 5 5 5 5 5 5 3 5 5 3 3 5 5 3 5 5 3 5 5 5 3 5 5 5 5 5 5 5 5 5 3 5 5 5 5 5 5 3 5 5 5 5 5 5 5 5 5 5 5 5 5 5 5 5 5 5 5 5 5 5 5 5 5 5 5 5 5 5 5 3 5 5 5 5 5 5 5 5 5 5 5 5 5 5 5 5 5 5 5 5 5 5 5 5 5 5 5 5 5 5 5 5 5 5 5 5 5 5 5 5 5 5 5 5 5 5 3 5 3 5 5 5 5 3 5 5 5 5 3 5 5 5 5 3 5 5 5 5 5 5 5 5 3 5 5 3 5 3 5 5 5 5 3 5 5 3 3 5 5 5 5 5 5 3 5 5 5 5 5 5 5 5 5 5 3 3 5 5 5 5 5 3 5 5 3 5 5 5 5 3 5 5 3 5 5 5 5 5 5 5 5 5 5 5 5 5 5 5 5 5 5 5 5 5 5 5 5 5 5 5 5 5 3 5 3 5 5 5 5 5 5 5 5 5 5 5 5 5 3 5 5 5 5 3 3 5 5 5 5 5 5 5 5 5 5 5 5 5 5 5 5 5 5 5 5 5 5 5 5 5 5 5 5 5 5 5 5 5 5 5 5 5 5 5 5 5 5 3 5 5 5 3 5 5 5 5 5 5 5 5 5 5 5 5 5 5 5 5 5 5 5 5 3 5 5 3 5 5 5 5 5 5 5 5 5 3 5 5 5 5 5 3 5 5 5 5 5 3 5 3 5 5 5 5 5 5 5 5 5 5 5 5 5 3 5 5 5 3 3 5 5 5 5 5 5 5 5 3 5 5 3 5 5 3 3 5 5 5 5 5 3 5 5 5 5 5 5 5 3 5 5 3 3 5 5 5 5 5 5 3 3 5 5 5 3 5 5 5 5 5 5 5 3 5 5 5 5 5 5 5 5 5 5 5 5 5 5 5 5 5 5 5 5 5 5 5 5 5 5 3 5 5 5 5 5 5 5 3 5 5 5 5 5 5 5 5 5 5 5 3 5 5 5 5 5 5 5 5 3 5 5 5 5 5 5 5 5 5 5 5 5 5 5 5 5 3 5 5 5 3 5 5 5 5 5 3 5 5 5 5 5 5 5 5 5 5 5 5 5 5 3 5 5 5 5 3 5 5 3 5 5 5 5 5 3 5 5 5 5 5 5 5 5 5 5 5 5 5 5 3 5 3 5 5 5 3 5 3 5 3 5 5 5 5 5 5 3 3 5 5 5 5 5 5 3 5 3 5 5 5 5 5 5 5 5 5 5 5 5 5 5 5 5 5 3 5 5 5 3 3 5 5 5 5 5 3 5 5 3 3 5 5 5 5 5 5 5 5 5 5 5 5 5 5 5 5 5 5 5 5 5 5 5 5 5 5 5 5 5 5 5 5 5 5 5 5 5 5 5 5 5 5 5 5 3 5 5 3 3 3 5 5 5 5 5 5 3 5 5 5 5 5 5 5 5 5 3 5 5 5 3 5 5 5 5 5 5 5 5 5 5 5 5 5 5 5 5 5 5 5 5 3 5 5 5 5 3 5 5 5 5 5 5 5 5 5 5 5 5 5 5 5 5 5 5 5 5 5 5 5 5 5 5 5 5 5 5 5 5 5 5 3 5 3 5 5 5 5 5 5 5 5 3 5 5 5 3 5 3 5 5 5 5 5 5 5 5 3 5 5 5 5 3 5 5 5 5 3 5 5 5 5 5 5 5 3 5 5 5 5 3 5 5 5 5 5 5 5 5 5 5 5 5 5 5 5 5 5 5 5 5 5 5 5 5 5 5 5 5 5 5 5 5 5 5 5 5 5 5 5 5 5 5 5 5 5 5 3 5 5 5 5 3 3 5 5 3 3 5 5 5 5 5 5 5 5 5 5 5 5 5 5 5 5 5 5 5 3 5 5 5 3 3 5 5 5 5 5 5 5 5 5 5 5 5 5 5 5 5 5 5 5 5 5 5 5 5 5 5 5 3 5 5 5 5 5 5 5 3 5 5 5 5 5 5 5 5 5 5 5 5 5 5 5 3 5 5 5 5 5 5 5 5 3 5 3 3 5 5 5 5 5 5 5 5 5 5 5 5 3 5 5 5 5 5 5 5 5 5 5 5 5 5 5 5 5 5 5 3 5 5 5 3 5 5 5 5 5 5 5 5 3 5 5 5 5 5 5 5 5 5 5 5 5 5 5 5 3 5 5 5 3 5 5 5 5 5 5 5 5 5 5 5 5 5 5 5 5 5 5 5 5 5 5 5 5 5 5 5 5 5 5 5 5 5 3 5 3 5 5 5 5 5 5 5 5 3 5 5 5 5 5 5 5 5 5 3 5 5 3 5 5 5 5 5 3 5 5 5 5 3 5 5 5 5 3 5 5 5 3 5 3 5 5 3 5 5 5 5 5 5 5 5 5 5 5 5 5 5 3 5 5 3 5 3 5 5 5 3 5 5 3 5 5 5 5 3 5 3 5 5 5 5 5 5 3 5 3 5 5 5 5 5 3 5 5 5 5 3 5 5 5 5 5 5 3 5 5 5 5 5 5 5 5 5 5 5 5 5 5 5 5 5 5 5 5 5 5 5 5 5 5 5 5 5 5 5 5 5 3 3 5 5 5 5 5 5 5 5 5 5 3 5 5 3 3 5 3 5 5 5 5 5 5 5 3 5 5 5 5 5 5 5 5 5 5 5 5 3 5 5 5 5 3 5 5 5 5 5 5 5 5 5 5 5 5 3 5 5 5 5 5 5 5 5 5 5 5 5 5 5 5 5 5 3 5 5 5 5 5 3 5 5 5 3 5 5 5 5 5 5 3 5 3 5 5 5 3 5 5 5 5 5 5 5 5 5 3 5 5 3 5 5 5 5 5 5 5 3 5 5 5 5 5 5 5 5 5 5 5 5 5 3 5 5 3 5 5 5 5 5 5 3 5 5 5 5 5 5 3 5 5 5 5 5 5 5 3 5 5 5 5 5 5 5 5 5 5 5 5 5 5 5 5 5 5 5 5 5 5 3 5 5 5 5 5 5 5 5 5 5 3 5 5 5 5 3 3 5 5 5 5 3 5 5 5 5 5 5 5 5 5 3 5 5 5 5 5 5 5 5 5 5 5 3 5 5 5 3 5 5 5 3 5 5 5 5 5 5 5 5 5 5 5 5 3 5 5 5 5 5 3 5 5 3 5 5 5 5 5 5 5 5 5 5 5 5 5 5 3 5 5 5 5 5 5 5 3 5 5 5 3 5 5 5 5 5 3 5 5 5 5 5 5 5 5 5 3 5 5 5 5 5 5 5 5 3 5 5 5 5 5 3 5 5 5 5 5 5 5 3 5 5 5 5 5 5 5 5 5 5 5 5 5 5 5 5 5 5 5 5 5 5 5 5 5 5 5 5 5 5 5 5 5 5 5 5 5 5 5 5 5 5 5 5 5 5 5 5 3 5 5 5 5 5 5 5 3 5 5 5 5 5 5 5 5 5 5 5 5 5 5 5 5 5 5 5 5 5 5 3 3 5 5 3 3 5 5 5 5 5 5 5 3 5 5 5 5 5 5 5 5 5 5 5 5 5 5 3 5 5 5 5 5 5 5 5 3 5 5 3 5 5 5 3 5 5 5 5 5 5 5 5 5 5 5 5 5 5 5 5 5 5 5 5 5 5 5 5 5 5 5 5 3 5 5 5 5 5 5 5 5 3 5 5 5 5 5 5 3 3 5 5 5 5 3 5 5 3 5 5 3 5 5 5 5 5 5 3 5 5 5 5 5 5 5 5 3 5 5 5 5 5 5 5 5 5 5 5 3 5 5 3 5 5 5 5 5 5 5 3 5 5 5 3 5 3 5 3 5 5 5 5 5 5 5 5 5 5 5 5 5 5 5 5 5 3 5 3 5 5 5 5 5 5 5 5 5 5 3 5 5 5 5 5 5 5 3 5 5 5 3 5 3 3 5 5 3 5 5 5 5 3 5 5 5 3 5 5 5 3 5 3 3 5 5 5 5 5 5 3 5 5 5 5 5 5 5 5 3 3 3 5 3 5 5 3 3 5 5 3 5 5 5 5 5 5 5 5 5 5 5 3 5 5 5 5 5 5 5 5 5 5 5 5 5 3 3 5 5 5 5 3 5 5 5 3 5 5 5 5 5 3 3 5 5 5 3 5 5 5 5 5 5 5 5 5 5 5 5 5 5 5 3 5 5 5 3 5 5 5 3 5 5 5 5 5 5 3 5 5 5 5 5 3 5 5 5 5 5 5 5 5 3 5 5 5 5 5 5 5 5 5 3 5 5 5 5 3 5 3 5 5 3 5 3 5 5 5 5 5 5 3 5 3 3 5 5 5 5 5 5 5 5 3 5 3 5 3 5 3 5 5 5 5 5 5 5 5 5 5 5 3 5 5 5 3 5 5 5 5 5 5 5 5 3 5 5 5 5 5 5 5 5 5 3 5 5 5 5 3 5 5 3 5 5 5 5 5 5 5 5 5 3 5 5 5 3 5 5 5 5 5 5 5 5 5 5 5 5 5 5 5 5 5 5 5 3 5 5 5 5 5 5 5 5 5 5 3 5 5 5 5 5 5 5 5 5 5 5 5 5 5 5 5 5 5 5 5 5 5 5 5 5 5 5 5 5 5 5 5 5 5 5 5 5 5 5 5 5 5 5 5 5 3 3 5 5 5 5 5 5 5 5 5 5 5 5 5 3 3 5 5 5 3 5 5 3 5 5 5 3 5 5 5 3 5 5 5 5 5 5 5 5 3 5 5 3 5 3 3 5 5 5 5 5 5 3 5 3 3 3 5 5 3 5 5 3 3 5 5 5 5 5 5 5 5 5 5 5 5 5 5 5 5 5 5 5 5 5 3 5 5 5 5 5 5 5 5 5 3 5 5 5 5 5 5 5 3 3 5 5 5 5 5 5 5 5 5 5 5 5 5 5 5 5 5 5 5 5 5 5 5 3 5 3 5 5 5 5 5 5 5 3 5 5 5 3 3 5 5 3 5 5 5 5 3 5 5 5 3 5 5 5 3 5 5 5 5 5 5 5 5 5 3 3 5 5 5 5 5 3 5 5 3 3 3 5 5 5 5 5 3 5 5 5 5 5 5 5 5 5 3 5 3 5 5 5 5 5 5 5 5 5 5 5 5 5 5 5 5 5 5 5 5 5 5 5 5 3 5 5 5 5 3 3 5 5 5 3 5 5 5 5 5 5 5 5 5 5 5 5 5 5 5 5 3 5 5 5 3 5 5 3 5 5 5 5 5 5 5 5 5 5 5 5 5 3 5 5 3 5 5 5 3 5 3 5 3 5 3 3 3 5 5 5 5 5 5 5 5 3 5 5 5 5 5 5 5 5 3 5 5 3 5 5 5 5 5 5 5 5 5 5 5 5 5 5 5 5 5 5 5 5 5 3 5 5 5 5 5 5 5 5 5 5 3 5 3 5 5 3 5 3 5 3 5 5 3 5 3 5 5 3 5 5 5 3 5 5 5 5 5 5 5 5 5 5 5 5 5 5 5 5 5 5 5 5 5 5 5 5 5 5 5 5 5 5 5 5 5 5 5 5 5 5 5 5 5 5 5 5 5 5 5 5 5 5 5 5 5 5 5 5 5 5 5 5 5 3 5 5 3 5 5 5 5 5 5 3 3 5 5 5 5 5 5 5 5 5 5 5 5 5 5 5 5 5 5 3 5 5 5 3 5 5 5 5 5 5 5 5 5 5 5 5 5 5 5 5 3 5 5 5 5 5 5 5 3 5 5 5 5 5 5 5 5 3 5 3 5 5 5 5 5 5 5 5 5 5 5 5 5 5 5 5 3 5 5 5 5 5 5 5 3 5 5 5 5 3 5 5 5 5 5 5 5 3 5 5 3 3 5 5 3 5 5 5 5 5 5 3 5 5 5 5 5 5 5 5 5 3 5 5 3 5 5 3 5 5 3 5 5 5 5 5 3 5 5 5 5 5 5 5 5 3 5 5 5 5 5 5 5 3 5 5 5 5 5 5 5 5 5 5 5 5 3 5 5 5 5 5 5 5 3 3 5 3 5 3 5 5 5 5 5 5 5 5 5 5 5 5 5 5 5 3 5 3 5 5 5 5 5 5 5 5 3 5 3 5 3 5 3 5 3 5 5 3 5 5 5 5 5 3 5 5 5 5 5 5 5 5 3 5 5 5 5 5 3 5 5 3 5 3 3 5 5 5 5 5 5 5 5 3 5 5 5 5 5 5 5 5 5 5 5 5 5 3 5 5 5 5 5 5 5 3 5 5 5 3 5 5 5 5 5 5 5 5 5 5 5 5 5 5 5 5 5 3 5 5 5 5 5 5 5 3 5 5 3 5 5 5 5 5 5 5 5 5 5 5 5 5 5 5 3 5 5 5 5 3 5 5 5 5 5 5 5 5 5 5 5 5 5 5 5 5 5 5 5 5 5 5 5 5 5 3 5 5 5 5 5 5 3 5 5 5 5 5 5 5 5 5 3 3 5 5 5 3 5 3 5 5 5 5 5 5 5 5 5 5 5 5 5 5 5 3 5 5 5 5 5 5 5 5 5 5 5 5 3 3 5 5 5 5 5 5 5 5 3 5 5 3 5 5 3 3 5 5 5 5 5 5 5 3 5 5 5 5 5 5 5 5 5 3 5 5 5 3 5 5 5 5 5 3 5 5 5 5 5 5 5 5 5 5 5 5 3 5 5 5 3 5 5 5 3 5 5 5 5 5 5 5 5 5 5 5 5 5 5 5 5 5 5 5 5 5 5 5 5 5 5 5 5 5 5 5 5 3 5 5 5 5 5 5 5 5 5 5 5 5 5 5 5 5 5 5 5 5 5 5 5 5 3 5 3 5 5 3 5 5 5 5 5 5 5 5 5 3 5 5 5 5 5 5 5 5 5 5 5 5 5 5 3 5 5 5 5 3 5 5 5 3 5 5 5 5 5 5 5 5 5 5 5 5 5 5 5 5 5 5 5 5 5 5 5 5 5 5 5 5 5 5 5 5 5 5 5 5 5 5 5 5 5 5 5 5 5 5 5 5 5 5 5 5 5 5 5 5 5 5 5 5 5 5 5 5 5 5 5 5 5 5 5 5 5 5 5 5 5 5 5 5 5 5 5 5 5 5 5 5 5 5 5 5 5 5 5 5 5 5 5 5 5 5 5 5 5 5 5 5 5 5 5 5 5 5 5 5 5 5 5 5 5 5 5 5 5 5 5 5 5 5 5 5 5 5 5 5 5 5 5 5 5 5 5 5 5 5 5 5 5 5 5 5 5 5 5 5 5 5 5 5 5 5 5 5 5 5 5 5 5 5 5 5 5 5 5 5 5 5 5 5 5 5 5 5 5 5 5 5 5 3 5 5 5 5 5 5 5 5 5 5 5 5 5 5 5 5 3 5 5 5 5 5 5 5 5 3 5 5 5 5 3 5 5 5 5 5 5 5 5 5 5 5 5 5 5 5 5 5 5 5 5 5 5 3 5 5 5 5 5 5 5 5 5 5 5 5 5 3 3 5 5 5 5 5 3 5 3 5 5 5 5 5 5 5 5 5 5 5 3 5 5 5 5 5 5 5 3 5 5 5 5 5 5 5 5 5 5 5 5 5 5 5 3 3 5 5 5 5 5 5 5 5 5 5 5 5 3 5 5 5 5 5 5 5 5 5 5 5 5 5 5 5 5 3 5 5 5 5 5 5 5 3 5 5 5 5 5 5 5 5 5 5 3 3 5 5 5 5 5 5 5 5 5 5 5 5 5 5 5 5 5 5 5 5 5 5 5 5 5 5 5 5 5 5 3 5 5 5 5 5 3 5 5 5 5 5 5 5 5 5 5 3 5 5 5 5 3 5 5 5 5 5 5 5 5 5 5 3 5 3 5 5 5 5 5 5 5 5 5 5 5 5 5 5 5 5 5 5 5 5 5 5 5 5 5 5 5 5 5 5 5 3 5 5 5 5 5 3 5 5 5 5 5 5 5 5 5 5 5 5 5 5 5 5 5 5 3 5 5 3 5 5 5 3 5 5 5 5 5 3 5 5 5 5 5 5 5 5 5 5 3 5 5 5 5 5 5 3 5 5 5 5 5 3 3 5 5 3 5 5 3 5 5 5 5 5 5 5 5 5 5 3 5 5 3 5 5 3 5 5 3 5 5 3 5 5 3 5 5 5 5 5 5 3 5 5 5 5 5 5 5 5 5 5 5 3 5 5 5 5 5 5 5 3 5 5 5 5 3 5 5 5 3 5 5 5 5 5 5 5 5 5 5 5 3 5 5 5 5 5 5 5 5 5 5 5 5 5 5 5 5 5 5 5 5 5 5 5 5 3 5 5 5 5 5 3 5 5 5 5 5 5 5 5 5 5 5 5 5 5 3 5 5 3 5 3 5 5 5 5 3 5 3 3 5 3 5 5 5 5 5 5 5 3 5 3 5 5 5 5 5 5 3 5 5 5 5 5 5 3 5 5 5 5 3 5 5 5 5 5 3 5 5 3 5 5 5 5 3 5 5 5 5 3 5 5 5 5 5 5 3 5 5 5 5 5 5 5 5 5 3 5 5 5 5 5 5 3 5 5 5 5 3 5 5 5 5 5 5 5 5 5 5 5 5 5 5 5 5 3 5 5 5 3 5 5 3 5 5 5 5 5 5 5 5 5 5 5 5 5 5 5 5 3 5 3 5 5 5 5 5 5 5 5 5 5 5 5 5 5 5 5 5 5 5 5 5 5 5 5 5 5 3 5 5 3 5 5 5 5 5 5 5 5 5 5 3 5 5 5 5 3 5 5 5 5 3 5 5 5 5 5 5 5 5 5 3 5 5 5 5 5 5 5 5 5 5 5 5 5 5 5 5 5 5 5 5 5 5 5 5 5 5 5 5 
</DataArray>
</Cells>
<PointData Scalars="" Vectors="displacement," Tensors="">
<DataArray type="Float64" Name="displacement" NumberOfComponents="3" format="ascii">
-1.7051581916242818e-06 -0.034996799190410259 0 -0.00017055910691424301 -0.032724581287448595 0 3.6141017168012052e-06 -0.029500842975768216 0 -1.7051581916242818e-06 -0.034996799190410259 0 -0.00015735496083778372 -0.03420229737298823 0 -0.00017055910691424301 -0.032724581287448595 0 -1.7051581916242818e-06 -0.034996799190410259 0 -0.00015735496083778372 -0.03420229737298823 0 5.443526618134457e-09 -0.034999152018592897 0 -0.00015735496083778372 -0.03420229737298823 0 5.443526618134457e-09 -0.034999152018592897 0 -8.6949164692407658e-05 -0.034206646565034415 0 5.443526618134457e-09 -0.034999152018592897 0 -8.6949164692407658e-05 -0.034206646565034415 0 -6.8290491028624145e-05 -0.034770113126245519 0 -0.00031800460104643597 -0.029745601453540143 0 -2.9664502326892772e-05 -0.029179870171466137 0 -8.6949164692407658e-05 -0.034206646565034415 0 0.00040126454567648547 -0.034171623049877385 0 0.00043377605069791194 -0.034383924295236463 0 -8.6949164692407658e-05 -0.034206646565034415 0 0.00043377605069791194 -0.034383924295236463 0 0.00021378562000634152 -0.034602343653964959 0 -0.00015735496083778372 -0.03420229737298823 0 -8.6949164692407658e-05 -0.034206646565034415 0 -0.00017055910691424301 -0.032724581287448595 0 -8.6949164692407658e-05 -0.034206646565034415 0 -0.00017055910691424301 -0.032724581287448595 0 0.00062624013598205409 -0.03338630710077959 0 -0.00017055910691424301 -0.032724581287448595 0 0.0013298616359993616 -0.031629479807835266 0 0.00062624013598205409 -0.03338630710077959 0 -0.00017055910691424301 -0.032724581287448595 0 3.6141017168012052e-06 -0.029500842975768216 0 0.0013298616359993616 -0.031629479807835266 0 1.980734351596975e-06 -0.029489652321762459 0 0.0003006702568895313 -0.027192803030636231 0 -8.3768254430025543e-07 -0.027572046946566123 0 2.1386909744278275e-06 -0.029489868734970566 0 0.00039313894270150867 -0.028584014844566876 0 -8.3768254430025543e-07 -0.027572046946566123 0 -8.0400127671302257e-05 -0.026488335575027781 0 -0.00016838874541560365 -0.025781589459381245 0 -8.3768254430025543e-07 -0.027572046946566123 0 -2.5628952750331874e-07 -0.025651173744944904 0 -0.00016838874541560365 -0.025781589459381245 0 0.0003006702568895313 -0.027192803030636231 0 -8.3768254430025543e-07 -0.027572046946566123 0 -8.0400127671302257e-05 -0.026488335575027781 0 0.0003006702568895313 -0.027192803030636231 0 -8.0400127671302257e-05 -0.026488335575027781 0 0.00013077324190254139 -0.026228620941212658 0 0.00039313894270150867 -0.028584014844566876 0 0.00066967397147801237 -0.027442112985530846 0 -8.0400127671302257e-05 -0.026488335575027781 0 -0.00020766432445433144 -0.026003733273962028 0 0.00013077324190254139 -0.026228620941212658 0 -8.0400127671302257e-05 -0.026488335575027781 0 -0.00020766432445433144 -0.026003733273962028 0 -0.00016838874541560365 -0.025781589459381245 0 0.00056774760634885129 -0.026073091142926046 0 0.00066967397147801237 -0.027442112985530846 0 0.0012505927473088557 -0.020316096296713018 0 0.0011425052530889732 -0.020417433749692803 0 0.0010075858145267857 -0.020367568866210394 0 0.0012505927473088557 -0.020316096296713018 0 0.0011425052530889732 -0.020417433749692803 0 0.0012476658853500149 -0.020431344446420214 0 0.0011425052530889732 -0.020417433749692803 0 0.0010075858145267857 -0.020367568866210394 0 0.0011095489325780449 -0.020550825447164196 0 0.0006239180544435689 -0.03421785292898067 0 0.00060458318019488821 -0.034346723250718109 0 0.0005675001429189889 -0.034298861786894883 0 0.00066967397147801237 -0.027442112985530846 0 0.00085826799496471144 -0.026910798256189316 0 0.00060458318019488821 -0.034346723250718109 0 0.0005675001429189889 -0.034298861786894883 0 0.0005963733819232571 -0.034365790198544424 0 0.0011095489325780449 -0.020550825447164196 0 0.0012476658853500149 -0.020431344446420214 0 0.0012772515766654839 -0.020553183596631639 0 0.0011425052530889732 -0.020417433749692803 0 0.0011095489325780449 -0.020550825447164196 0 0.0012476658853500149 -0.020431344446420214 0 0.0006239180544435689 -0.03421785292898067 0 0.00040126454567648547 -0.034171623049877385 0 0.0005675001429189889 -0.034298861786894883 0 0.00066967397147801237 -0.027442112985530846 0 -2.9664502326892772e-05 -0.029179870171466137 0 0.0013298616359993616 -0.031629479807835266 0 0.002054064482386291 -0.03280863425004539 0 0.00062624013598205409 -0.03338630710077959 0 0.0005675001429189889 -0.034298861786894883 0 0.00043377605069791194 -0.034383924295236463 0 0.00055959150235664675 -0.034378212621427574 0 0.0005675001429189889 -0.034298861786894883 0 0.00055959150235664675 -0.034378212621427574 0 0.0005963733819232571 -0.034365790198544424 0 0.00040126454567648547 -0.034171623049877385 0 0.0005675001429189889 -0.034298861786894883 0 0.00043377605069791194 -0.034383924295236463 0 0.00043377605069791194 -0.034383924295236463 0 0.00041745952777143925 -0.034540970160680882 0 0.00021378562000634152 -0.034602343653964959 0 0.00041745952777143925 -0.034540970160680882 0 0.00037680850077815203 -0.034708479706189371 0 0.00021378562000634152 -0.034602343653964959 0 0.00041745952777143925 -0.034540970160680882 0 0.00049616869654193227 -0.034525004562009264 0 0.00048549910782570569 -0.034613411186288683 0 0.00041745952777143925 -0.034540970160680882 0 0.00051547027780154151 -0.034447950990684435 0 0.00049616869654193227 -0.034525004562009264 0 0.00043377605069791194 -0.034383924295236463 0 0.00041745952777143925 -0.034540970160680882 0 0.00051547027780154151 -0.034447950990684435 0 0.00043377605069791194 -0.034383924295236463 0 0.00055959150235664675 -0.034378212621427574 0 0.00051547027780154151 -0.034447950990684435 0 0.00055959150235664675 -0.034378212621427574 0 0.00051547027780154151 -0.034447950990684435 0 0.00060782944986789483 -0.034419565393926023 0 0.00055959150235664675 -0.034378212621427574 0 0.00060782944986789483 -0.034419565393926023 0 0.0005963733819232571 -0.034365790198544424 0 0.00060782944986789483 -0.034419565393926023 0 0.0005963733819232571 -0.034365790198544424 0 0.00060247170700675884 -0.034342686423426701 0 0.0016666712359982413 -0.03194933952539817 0 0.0016673181847523455 -0.031852261076973525 0 0.00060782944986789483 -0.034419565393926023 0 0.00056773073295312898 -0.034499404465926413 0 0.00066608411249759127 -0.03465902659610854 0 0.00060782944986789483 -0.034419565393926023 0 0.0006558962509109358 -0.03431393485272826 0 0.00060247170700675884 -0.034342686423426701 0 0.0016773141512674745 -0.031900073100558132 0 0.0016673181847523455 -0.031852261076973525 0 0.00056773073295312898 -0.034499404465926413 0 0.00048549910782570569 -0.034613411186288683 0 0.00062435790136620734 -0.034622591475003101 0 0.00051547027780154151 -0.034447950990684435 0 0.00049616869654193227 -0.034525004562009264 0 0.00056773073295312898 -0.034499404465926413 0 0.00051547027780154151 -0.034447950990684435 0 0.00060782944986789483 -0.034419565393926023 0 0.00056773073295312898 -0.034499404465926413 0 0.00049616869654193227 -0.034525004562009264 0 0.00056773073295312898 -0.034499404465926413 0 0.00048549910782570569 -0.034613411186288683 0 0.00048549910782570569 -0.034613411186288683 0 0.00062435790136620734 -0.034622591475003101 0 0.00050295904062134448 -0.034767556448138962 0 0.0016673181847523455 -0.031852261076973525 0 0.0013222781353591298 -0.031597784796599221 0 0.00062435790136620734 -0.034622591475003101 0 0.00050295904062134448 -0.034767556448138962 0 0.00064758685747775603 -0.034924570976284992 0 0.00050295904062134448 -0.034767556448138962 0 0.00037680850077815203 -0.034708479706189371 0 0.00039064113522022369 -0.034947907155116531 0 0.00037680850077815203 -0.034708479706189371 0 0.00039064113522022369 -0.034947907155116531 0 0.00020949694474194365 -0.034777754448211816 0 0.00048549910782570569 -0.034613411186288683 0 0.00050295904062134448 -0.034767556448138962 0 0.00037680850077815203 -0.034708479706189371 0 0.00041745952777143925 -0.034540970160680882 0 0.00048549910782570569 -0.034613411186288683 0 0.00037680850077815203 -0.034708479706189371 0 0.00060458318019488821 -0.034346723250718109 0 0.00046567402499876268 -0.034301416911376767 0 0.00056761828194061992 -0.034326428724336576 0 0.0011095489325780449 -0.020550825447164196 0 0.001202430658001656 -0.02074201726643023 0 0.0012772515766654839 -0.020553183596631639 0 0.00085826799496471144 -0.026910798256189316 0 0.0009690245657632536 -0.026172034256356242 0 0.00046567402499876268 -0.034301416911376767 0 0.00056761828194061992 -0.034326428724336576 0 0.00052067910616687306 -0.034255868575121307 0 0.00060458318019488821 -0.034346723250718109 0 0.00056761828194061992 -0.034326428724336576 0 0.0005963733819232571 -0.034365790198544424 0 0.00056761828194061992 -0.034326428724336576 0 0.0005963733819232571 -0.034365790198544424 0 0.00060247170700675884 -0.034342686423426701 0 0.0006558962509109358 -0.03431393485272826 0 0.00058801550630184561 -0.034240480270485749 0 0.00061966414989647048 -0.034089044164064025 0 0.0016673181847523455 -0.031852261076973525 0 0.0016616571027108739 -0.030675685887699054 0 0.00056761828194061992 -0.034326428724336576 0 0.00060247170700675884 -0.034342686423426701 0 0.00058801550630184561 -0.034240480270485749 0 0.0006558962509109358 -0.03431393485272826 0 0.00060247170700675884 -0.034342686423426701 0 0.00058801550630184561 -0.034240480270485749 0 0.00056761828194061992 -0.034326428724336576 0 0.00058801550630184561 -0.034240480270485749 0 0.00052067910616687306 -0.034255868575121307 0 0.00058801550630184561 -0.034240480270485749 0 0.00052067910616687306 -0.034255868575121307 0 0.00045770420901440742 -0.034147163324240774 0 0.00046567402499876268 -0.034301416911376767 0 0.00045770420901440742 -0.034147163324240774 0 0.00035013843651129179 -0.034136540589092081 0 0.00046567402499876268 -0.034301416911376767 0 0.00052067910616687306 -0.034255868575121307 0 0.00045770420901440742 -0.034147163324240774 0 0.00045770420901440742 -0.034147163324240774 0 0.00048925324817672704 -0.034010541739022612 0 0.00061966414989647048 -0.034089044164064025 0 0.00045770420901440742 -0.034147163324240774 0 0.00048925324817672704 -0.034010541739022612 0 0.00036903087062393542 -0.033985499004307307 0 0.00058801550630184561 -0.034240480270485749 0 0.00045770420901440742 -0.034147163324240774 0 0.00061966414989647048 -0.034089044164064025 0 0.0016616571027108739 -0.030675685887699054 0 0.0014248445981647534 -0.028686400946467693 0 0.0017580940795656167 -0.030470245983103845 0 0.001982216089978651 -0.029655001787810057 0 0.0013001199002546234 -0.029663420684793933 0 0.0017580940795656167 -0.030470245983103845 0 0.001982216089978651 -0.029655001787810057 0 0.0020998399295039981 -0.030465872791527515 0 0.00090491048490959054 -0.030747292849592923 0 0.0014248445981647534 -0.028686400946467693 0 0.00050574764139000444 -0.033812546210322779 0 0.00036903087062393542 -0.033985499004307307 0 0.00030204666005302259 -0.033802630439884226 0 0.00048925324817672704 -0.034010541739022612 0 0.00050574764139000444 -0.033812546210322779 0 0.00036903087062393542 -0.033985499004307307 0 0.0014248445981647534 -0.028686400946467693 0 0.0011374919945561384 -0.026841513985593621 0 0.00048925324817672704 -0.034010541739022612 0 0.00061966414989647048 -0.034089044164064025 0 0.00050574764139000444 -0.033812546210322779 0 0.0022170230598867707 -0.031278611798933695 0 0.0017580940795656167 -0.030470245983103845 0 0.0020998399295039981 -0.030465872791527515 0 0.00050295904062134448 -0.034767556448138962 0 0.00039064113522022369 -0.034947907155116531 0 0.00064758685747775603 -0.034924570976284992 0 0.00068299033918387474 -0.035194580694185636 0 0.00039064113522022369 -0.034947907155116531 0 0.00064758685747775603 -0.034924570976284992 0 0.00090491048490959054 -0.030747292849592923 0 0.0013222781353591298 -0.031597784796599221 0 0.00068299033918387474 -0.035194580694185636 0 0.00039064113522022369 -0.034947907155116531 0 0.00031206100228915241 -0.035199278667211641 0 0.00039064113522022369 -0.034947907155116531 0 0.00018013089438647598 -0.0349841749372925 0 0.00031206100228915241 -0.035199278667211641 0 0.00018013089438647598 -0.0349841749372925 0 -4.0240974984476788e-05 -0.035200203437981629 0 0.00031206100228915241 -0.035199278667211641 0 0.00039064113522022369 -0.034947907155116531 0 0.00018013089438647598 -0.0349841749372925 0 0.00020949694474194365 -0.034777754448211816 0 0.00018013089438647598 -0.0349841749372925 0 5.469782148304557e-05 -0.034861108238941479 0 0.00020949694474194365 -0.034777754448211816 0 4.9099795791143166e-05 -0.034879694881045753 0 -2.1039497957282873e-05 -0.034955208860998989 0 -2.1426502602380888e-05 -0.034846243001206596 0 1.2826980388147962e-05 -0.034986747235477698 0 1.0502540896385092e-05 -0.034993853024658919 0 2.7888842602828499e-06 -0.034993755271227972 0 8.7287099544576676e-05 -0.034633501766977187 0 1.9517308834183656e-05 -0.03483856836492339 0 8.7287099544576676e-05 -0.034633501766977187 0 8.7116325064546431e-05 -0.034634228372959 0 8.7287099544576676e-05 -0.034633501766977187 0 0.00013810964378589027 -0.034320920111497621 0 0.00018013089438647598 -0.0349841749372925 0 5.469782148304557e-05 -0.034861108238941479 0 7.1239510866813132e-06 -0.035028916450102844 0 0.00018013089438647598 -0.0349841749372925 0 7.1239510866813132e-06 -0.035028916450102844 0 -4.0240974984476788e-05 -0.035200203437981629 0 0.00013810964378589027 -0.034320920111497621 0 0.00023034557531376667 -0.033843160071339098 0 1.0502540896385092e-05 -0.034993853024658919 0 5.6053199401066493e-06 -0.034996030617090404 0 8.2874911615149989e-06 -0.034999326984718762 0 5.6053199401066493e-06 -0.034996030617090404 0 2.7888842602828499e-06 -0.034993755271227972 0 2.4820108557373792e-06 -0.034998990812694447 0 2.7888842602828499e-06 -0.034993755271227972 0 1.0197517275222698e-06 -0.034999450125873605 0 2.4820108557373792e-06 -0.034998990812694447 0 5.6053199401066493e-06 -0.034996030617090404 0 2.4820108557373792e-06 -0.034998990812694447 0 8.2874911615149989e-06 -0.034999326984718762 0 1.0502540896385092e-05 -0.034993853024658919 0 5.6053199401066493e-06 -0.034996030617090404 0 2.7888842602828499e-06 -0.034993755271227972 0 -1.0028725846622051e-07 -0.034999505240254004 0 1.9517308834183656e-05 -0.03483856836492339 0 -2.3430452213686753e-09 -0.03499999355046788 0 2.7888842602828499e-06 -0.034993755271227972 0 1.0197517275222698e-06 -0.034999450125873605 0 5.6664091179074891e-08 -0.034999983609000071 0 -2.1039497957282873e-05 -0.034955208860998989 0 -1.3992135509608235e-07 -0.034999890102847424 0 -2.1039497957282873e-05 -0.034955208860998989 0 -2.1426502602380888e-05 -0.034846243001206596 0 -1.3992135509608235e-07 -0.034999890102847424 0 -2.1426502602380888e-05 -0.034846243001206596 0 -1.3992135509608235e-07 -0.034999890102847424 0 -6.8290491028624145e-05 -0.034770113126245519 0 5.443526618134457e-09 -0.034999152018592897 0 -1.3992135509608235e-07 -0.034999890102847424 0 -6.8290491028624145e-05 -0.034770113126245519 0 -2.1426502602380888e-05 -0.034846243001206596 0 -6.8290491028624145e-05 -0.034770113126245519 0 3.0757650575804336e-06 -0.034664310757576519 0 -8.6949164692407658e-05 -0.034206646565034415 0 -6.8290491028624145e-05 -0.034770113126245519 0 3.0757650575804336e-06 -0.034664310757576519 0 -8.6949164692407658e-05 -0.034206646565034415 0 3.0757650575804336e-06 -0.034664310757576519 0 0.00021378562000634152 -0.034602343653964959 0 3.0757650575804336e-06 -0.034664310757576519 0 0.00021378562000634152 -0.034602343653964959 0 8.257029949744604e-05 -0.034753311898443516 0 0.00021378562000634152 -0.034602343653964959 0 0.00020949694474194365 -0.034777754448211816 0 8.257029949744604e-05 -0.034753311898443516 0 0.00037680850077815203 -0.034708479706189371 0 0.00021378562000634152 -0.034602343653964959 0 0.00020949694474194365 -0.034777754448211816 0 4.9479097074257282e-05 -0.034893559094639523 0 0.00020949694474194365 -0.034777754448211816 0 5.6838138738445747e-05 -0.03486084895584856 0 0.00020949694474194365 -0.034777754448211816 0 5.6838138738445747e-05 -0.03486084895584856 0 8.257029949744604e-05 -0.034753311898443516 0 8.7287099544576676e-05 -0.034633501766977187 0 8.5819689035340408e-05 -0.034641006463169768 0 -2.1426502602380888e-05 -0.034846243001206596 0 5.6838138738445747e-05 -0.03486084895584856 0 8.257029949744604e-05 -0.034753311898443516 0 4.9099795791143166e-05 -0.034879694881045753 0 -2.1426502602380888e-05 -0.034846243001206596 0 5.6838138738445747e-05 -0.03486084895584856 0 -2.1426502602380888e-05 -0.034846243001206596 0 3.0757650575804336e-06 -0.034664310757576519 0 8.257029949744604e-05 -0.034753311898443516 0 0.0014613416807854466 -0.017853088646204343 0 0.0016696541351063968 -0.017558217298348586 0 0.00048215274268781182 -0.01760549165154645 0 0.00058006060428631833 -0.017056835440894532 0 0.00031898726710607116 -0.017430330767779403 0 -0.00013002653772873908 -0.019581359885898739 0 0.00012982079576403743 -0.019542358896803131 0 6.0205491503000528e-05 -0.019663915336157946 0 -0.00013002653772873908 -0.019581359885898739 0 -8.1165555815261071e-05 -0.019607914767515978 0 6.0205491503000528e-05 -0.019663915336157946 0 -0.00013002653772873908 -0.019581359885898739 0 -7.5206830606481569e-05 -0.019512601656481467 0 -8.1165555815261071e-05 -0.019607914767515978 0 -0.00013002653772873908 -0.019581359885898739 0 -0.00012164971158379869 -0.019315578778160328 0 -0.0001867032075925354 -0.019655350778278673 0 -0.00013002653772873908 -0.019581359885898739 0 -0.00012164971158379869 -0.019315578778160328 0 0.00012982079576403743 -0.019542358896803131 0 0.0014613416807854466 -0.017853088646204343 0 0.0013893534424683938 -0.017926560510601673 0 -0.00012164971158379869 -0.019315578778160328 0 0.00012982079576403743 -0.019542358896803131 0 0.00012919479306552364 -0.018515303057682064 0 0.00048215274268781182 -0.01760549165154645 0 0.00012919479306552364 -0.018515303057682064 0 4.4419237171578427e-05 -0.017848988453617886 0 0.00012919479306552364 -0.018515303057682064 0 -4.3567719068372374e-07 -0.01796860166351472 0 -0.00012877249370325277 -0.019268931884603969 0 0.00012919479306552364 -0.018515303057682064 0 -4.3567719068372374e-07 -0.01796860166351472 0 -2.6887970020918351e-05 -0.017573166653503329 0 -4.3567719068372374e-07 -0.01796860166351472 0 -0.00012877249370325277 -0.019268931884603969 0 -3.6866187991220933e-07 -0.019889470171635708 0 -0.00012164971158379869 -0.019315578778160328 0 0.00012919479306552364 -0.018515303057682064 0 -0.00012877249370325277 -0.019268931884603969 0 -0.00012164971158379869 -0.019315578778160328 0 -0.00012877249370325277 -0.019268931884603969 0 -0.0001867032075925354 -0.019655350778278673 0 -0.0001867032075925354 -0.019655350778278673 0 -7.8857953071321727e-05 -0.020268952276632161 0 -2.6242763744356749e-05 -0.020140580955938112 0 -0.00012877249370325277 -0.019268931884603969 0 -0.0001867032075925354 -0.019655350778278673 0 -7.8857953071321727e-05 -0.020268952276632161 0 -3.6866187991220933e-07 -0.019889470171635708 0 -7.8857953071321727e-05 -0.020268952276632161 0 4.5702977791028492e-07 -0.021809979785729502 0 -0.00012877249370325277 -0.019268931884603969 0 -3.6866187991220933e-07 -0.019889470171635708 0 -7.8857953071321727e-05 -0.020268952276632161 0 -7.8857953071321727e-05 -0.020268952276632161 0 4.5702977791028492e-07 -0.021809979785729502 0 0.00014569726383500788 -0.021042538991586403 0 0.00014569726383500788 -0.021042538991586403 0 -2.6242763744356749e-05 -0.020140580955938112 0 0.00054740006015246468 -0.02037116641045434 0 -7.8857953071321727e-05 -0.020268952276632161 0 0.00014569726383500788 -0.021042538991586403 0 -2.6242763744356749e-05 -0.020140580955938112 0 -2.6242763744356749e-05 -0.020140580955938112 0 0.00025577405378299304 -0.019902775278152852 0 0.00054740006015246468 -0.02037116641045434 0 0.00025577405378299304 -0.019902775278152852 0 0.00018128592878514498 -0.019578325863609244 0 0.0004906641297069775 -0.019701460574213601 0 0.00025577405378299304 -0.019902775278152852 0 -8.3032352182259444e-05 -0.01970285913232022 0 0.00018128592878514498 -0.019578325863609244 0 -2.6242763744356749e-05 -0.020140580955938112 0 0.00025577405378299304 -0.019902775278152852 0 -8.3032352182259444e-05 -0.01970285913232022 0 -0.00013002653772873908 -0.019581359885898739 0 -0.0001867032075925354 -0.019655350778278673 0 -8.3032352182259444e-05 -0.01970285913232022 0 -0.0001867032075925354 -0.019655350778278673 0 -2.6242763744356749e-05 -0.020140580955938112 0 -8.3032352182259444e-05 -0.01970285913232022 0 -0.00013002653772873908 -0.019581359885898739 0 -8.3032352182259444e-05 -0.01970285913232022 0 -7.5206830606481569e-05 -0.019512601656481467 0 -8.3032352182259444e-05 -0.01970285913232022 0 -7.5206830606481569e-05 -0.019512601656481467 0 0.00018128592878514498 -0.019578325863609244 0 -7.5206830606481569e-05 -0.019512601656481467 0 0.00018128592878514498 -0.019578325863609244 0 0.00022213949424742548 -0.019293619844327294 0 0.00018128592878514498 -0.019578325863609244 0 0.00060206348021997513 -0.019381212864614791 0 0.00022213949424742548 -0.019293619844327294 0 0.00018128592878514498 -0.019578325863609244 0 0.0004906641297069775 -0.019701460574213601 0 0.00060206348021997513 -0.019381212864614791 0 0.0015598960780618513 -0.019375781100859815 0 0.0015320751831081497 -0.019388465285053995 0 0.00062821984047491716 -0.019195844112309273 0 0.0012635541163765452 -0.019156755637491751 0 0.00092064036781305228 -0.019828834150437895 0 0.0004906641297069775 -0.019701460574213601 0 0.00060206348021997513 -0.019381212864614791 0 0.00092064036781305228 -0.019828834150437895 0 0.0011606557388013387 -0.020059355097859444 0 0.001176915560324836 -0.020151689396692589 0 0.0010359596906103095 -0.020304337975370439 0 0.0016801198991610543 -0.020065278568865259 0 0.0016270048116847086 -0.02007525478829084 0 0.0011606557388013387 -0.020059355097859444 0 0.001176915560324836 -0.020151689396692589 0 0.0012764152743342599 -0.020176192421258503 0 0.001176915560324836 -0.020151689396692589 0 0.0010359596906103095 -0.020304337975370439 0 0.0011369955211668458 -0.020271697708238664 0 0.0016801198991610543 -0.020065278568865259 0 0.001608832481031364 -0.020111657832371992 0 0.0012635541163765452 -0.019156755637491751 0 0.0010359596906103095 -0.020304337975370439 0 0.00092064036781305228 -0.019828834150437895 0 0.001176915560324836 -0.020151689396692589 0 0.0011896370289522849 -0.020233694488720838 0 0.0012408300703859738 -0.020231594287965261 0 0.001176915560324836 -0.020151689396692589 0 0.0011896370289522849 -0.020233694488720838 0 0.0011369955211668458 -0.020271697708238664 0 0.0011896370289522849 -0.020233694488720838 0 0.0012218908653972014 -0.020294875958343041 0 0.0012408300703859738 -0.020231594287965261 0 0.0011896370289522849 -0.020233694488720838 0 0.0012218908653972014 -0.020294875958343041 0 0.0011369955211668458 -0.020271697708238664 0 0.0010359596906103095 -0.020304337975370439 0 0.0006413669071082701 -0.020011199575073767 0 0.00054740006015246468 -0.02037116641045434 0 0.0010359596906103095 -0.020304337975370439 0 0.00092064036781305228 -0.019828834150437895 0 0.0006413669071082701 -0.020011199575073767 0 0.00025577405378299304 -0.019902775278152852 0 0.0004906641297069775 -0.019701460574213601 0 0.0006413669071082701 -0.020011199575073767 0 0.0004906641297069775 -0.019701460574213601 0 0.00092064036781305228 -0.019828834150437895 0 0.0006413669071082701 -0.020011199575073767 0 0.00025577405378299304 -0.019902775278152852 0 0.0006413669071082701 -0.020011199575073767 0 0.00054740006015246468 -0.02037116641045434 0 0.00014569726383500788 -0.021042538991586403 0 0.00054740006015246468 -0.02037116641045434 0 0.0010939174882284599 -0.020523445701455579 0 -6.7587467028746932e-06 -0.024428276685121587 0 0.00012719270362072024 -0.024617955577009236 0 0.00014569726383500788 -0.021042538991586403 0 0.00010663638969119442 -0.022348372787656581 0 8.1302770245656551e-05 -0.023471149791383403 0 0.0010359596906103095 -0.020304337975370439 0 0.00054740006015246468 -0.02037116641045434 0 0.0010939174882284599 -0.020523445701455579 0 4.5702977791028492e-07 -0.021809979785729502 0 -3.5610256345457803e-08 -0.023730883522364726 0 5.6917676103411264e-05 -0.023104490225800394 0 4.5702977791028492e-07 -0.021809979785729502 0 0.00010663638969119442 -0.022348372787656581 0 5.6917676103411264e-05 -0.023104490225800394 0 4.5702977791028492e-07 -0.021809979785729502 0 0.00014569726383500788 -0.021042538991586403 0 0.00010663638969119442 -0.022348372787656581 0 0.00010663638969119442 -0.022348372787656581 0 5.6917676103411264e-05 -0.023104490225800394 0 8.1302770245656551e-05 -0.023471149791383403 0 5.6917676103411264e-05 -0.023104490225800394 0 8.1302770245656551e-05 -0.023471149791383403 0 -6.8018005251256026e-05 -0.02442274670033763 0 -3.5610256345457803e-08 -0.023730883522364726 0 5.6917676103411264e-05 -0.023104490225800394 0 -6.8018005251256026e-05 -0.02442274670033763 0 0.00012719270362072024 -0.024617955577009236 0 0.00036073021393698214 -0.025162603610441876 0 8.1302770245656551e-05 -0.023471149791383403 0 -0.00011610038613014906 -0.025021127097283064 0 -6.8018005251256026e-05 -0.02442274670033763 0 0.0012218908653972014 -0.020294875958343041 0 0.0010939174882284599 -0.020523445701455579 0 0.001331987910984394 -0.020354244804530425 0 0.0010359596906103095 -0.020304337975370439 0 0.0011369955211668458 -0.020271697708238664 0 0.0010939174882284599 -0.020523445701455579 0 0.0012218908653972014 -0.020294875958343041 0 0.0011369955211668458 -0.020271697708238664 0 0.0010939174882284599 -0.020523445701455579 0 -0.00011610038613014906 -0.025021127097283064 0 -6.8018005251256026e-05 -0.02442274670033763 0 -0.00016838874541560365 -0.025781589459381245 0 -3.5610256345457803e-08 -0.023730883522364726 0 -6.8018005251256026e-05 -0.02442274670033763 0 -2.5628952750331874e-07 -0.025651173744944904 0 -6.8018005251256026e-05 -0.02442274670033763 0 -2.5628952750331874e-07 -0.025651173744944904 0 -0.00016838874541560365 -0.025781589459381245 0 -0.00020766432445433144 -0.026003733273962028 0 -0.00011610038613014906 -0.025021127097283064 0 -0.00016838874541560365 -0.025781589459381245 0 0.00056774760634885129 -0.026073091142926046 0 0.00036073021393698214 -0.025162603610441876 0 0.0012505927473088557 -0.020316096296713018 0 0.0012476658853500149 -0.020431344446420214 0 0.0013313419688752259 -0.020339112492977783 0 0.0012505927473088557 -0.020316096296713018 0 0.001331987910984394 -0.020354244804530425 0 0.0013313419688752259 -0.020339112492977783 0 0.0012476658853500149 -0.020431344446420214 0 0.0013313419688752259 -0.020339112492977783 0 0.0013396936344252214 -0.020450731531487226 0 0.001331987910984394 -0.020354244804530425 0 0.0013313419688752259 -0.020339112492977783 0 0.0012893739456437104 -0.020284533799076999 0 0.0012218908653972014 -0.020294875958343041 0 0.001331987910984394 -0.020354244804530425 0 0.0012893739456437104 -0.020284533799076999 0 0.0012218908653972014 -0.020294875958343041 0 0.0012893739456437104 -0.020284533799076999 0 0.0012408300703859738 -0.020231594287965261 0 0.0012893739456437104 -0.020284533799076999 0 0.0012408300703859738 -0.020231594287965261 0 0.0012764152743342599 -0.020176192421258503 0 0.0013313419688752259 -0.020339112492977783 0 0.0014905163887833073 -0.020460584743122907 0 0.0013396936344252214 -0.020450731531487226 0 0.0013313419688752259 -0.020339112492977783 0 0.0012893739456437104 -0.020284533799076999 0 0.0012764152743342599 -0.020176192421258503 0 0.0016073893475403286 -0.020077362286456134 0 0.0016270048116847086 -0.02007525478829084 0 0.0014905163887833073 -0.020460584743122907 0 0.0014012851215749425 -0.020519613476748681 0 0.0013396936344252214 -0.020450731531487226 0 0.001176915560324836 -0.020151689396692589 0 0.0012408300703859738 -0.020231594287965261 0 0.0012764152743342599 -0.020176192421258503 0 0.0014905163887833073 -0.020460584743122907 0 0.0015072216526080141 -0.0205280138152408 0 0.0014012851215749425 -0.020519613476748681 0 0.001623282951286031 -0.020574700363909227 0 0.0014905163887833073 -0.020460584743122907 0 0.0015072216526080141 -0.0205280138152408 0 0.0015072216526080141 -0.0205280138152408 0 0.0014418105886304976 -0.020587199633932036 0 0.0014754641089364416 -0.02066098862869049 0 0.0015072216526080141 -0.0205280138152408 0 0.0014418105886304976 -0.020587199633932036 0 0.0014012851215749425 -0.020519613476748681 0 0.0014418105886304976 -0.020587199633932036 0 0.0014012851215749425 -0.020519613476748681 0 0.0013564203233378156 -0.020645543314200911 0 0.0014012851215749425 -0.020519613476748681 0 0.0012772515766654839 -0.020553183596631639 0 0.0013564203233378156 -0.020645543314200911 0 0.0012476658853500149 -0.020431344446420214 0 0.0012772515766654839 -0.020553183596631639 0 0.0013396936344252214 -0.020450731531487226 0 0.0014012851215749425 -0.020519613476748681 0 0.0012772515766654839 -0.020553183596631639 0 0.0013396936344252214 -0.020450731531487226 0 0.001202430658001656 -0.02074201726643023 0 0.0012772515766654839 -0.020553183596631639 0 0.0013564203233378156 -0.020645543314200911 0 0.001202430658001656 -0.02074201726643023 0 0.0013564203233378156 -0.020645543314200911 0 0.0013428512310830526 -0.020786883245649389 0 0.0013564203233378156 -0.020645543314200911 0 0.0014343908347954366 -0.020752097410030916 0 0.0013428512310830526 -0.020786883245649389 0 0.0015072216526080141 -0.0205280138152408 0 0.0014754641089364416 -0.02066098862869049 0 0.00159353474121738 -0.020728548241965138 0 0.0014418105886304976 -0.020587199633932036 0 0.0013564203233378156 -0.020645543314200911 0 0.0014754641089364416 -0.02066098862869049 0 0.0014754641089364416 -0.02066098862869049 0 0.0015170047498276622 -0.020746621611056115 0 0.0014343908347954366 -0.020752097410030916 0 0.0014754641089364416 -0.02066098862869049 0 0.0015170047498276622 -0.020746621611056115 0 0.00159353474121738 -0.020728548241965138 0 0.0013564203233378156 -0.020645543314200911 0 0.0014754641089364416 -0.02066098862869049 0 0.0014343908347954366 -0.020752097410030916 0 0.0014343908347954366 -0.020752097410030916 0 0.0014199480161176308 -0.020850153841676027 0 0.0013428512310830526 -0.020786883245649389 0 0.0014199480161176308 -0.020850153841676027 0 0.0013077168349986401 -0.020939963072220569 0 0.0015412567360161803 -0.020944094705401439 0 0.0014343908347954366 -0.020752097410030916 0 0.0015031602800018311 -0.020802777956007382 0 0.0014199480161176308 -0.020850153841676027 0 0.0015170047498276622 -0.020746621611056115 0 0.0014343908347954366 -0.020752097410030916 0 0.0015031602800018311 -0.020802777956007382 0 0.0015170047498276622 -0.020746621611056115 0 0.0015031602800018311 -0.020802777956007382 0 0.0015794718673440315 -0.020788522572745556 0 0.0016549375399619373 -0.020734506832322738 0 0.0016587610598227816 -0.02073350838421564 0 0.0015031602800018311 -0.020802777956007382 0 0.0014199480161176308 -0.020850153841676027 0 0.0015412567360161803 -0.020944094705401439 0 0.0015031602800018311 -0.020802777956007382 0 0.0015412567360161803 -0.020944094705401439 0 0.0015763944558017608 -0.020789031760590305 0 0.001202430658001656 -0.02074201726643023 0 0.0013428512310830526 -0.020786883245649389 0 0.0013077168349986401 -0.020939963072220569 0 0.0009690245657632536 -0.026172034256356242 0 0.00088212504862664046 -0.024882536611338858 0 0.0014199480161176308 -0.020850153841676027 0 0.0013428512310830526 -0.020786883245649389 0 0.0013077168349986401 -0.020939963072220569 0 0.00085604099282529623 -0.025100410550411272 0 0.00088212504862664046 -0.024882536611338858 0 0.00045770420901440742 -0.034147163324240774 0 0.00028185149657315999 -0.034139273153338361 0 0.00036903087062393542 -0.033985499004307307 0 0.00088212504862664046 -0.024882536611338858 0 0.0010772432138847659 -0.025198018642905724 0 0.00028185149657315999 -0.034139273153338361 0 0.00036903087062393542 -0.033985499004307307 0 0.00018587586268131905 -0.033970754231089841 0 0.00036903087062393542 -0.033985499004307307 0 0.00018587586268131905 -0.033970754231089841 0 0.00030204666005302259 -0.033802630439884226 0 0.0011374919945561384 -0.026841513985593621 0 0.0010242635903656226 -0.02475427177877557 0 0.00018587586268131905 -0.033970754231089841 0 0.00030204666005302259 -0.033802630439884226 0 9.0409181125743467e-05 -0.03379533254120258 0 0.0006356952717536925 -0.024078136654261052 0 0.00031763163217384975 -0.023609851768807727 0 0.00010517688238318568 -0.024524709853358043 0 0.0025777103606606563 -0.021640861619288167 0 0.0022988126921388101 -0.022840349388286402 0 0.0020132032208894672 -0.022192458270532643 0 0.0010761461806195033 -0.024512413064877215 0 0.0015178611317744181 -0.022389970741075991 0 0.001027437841534226 -0.02359160903084077 0 0.00061221814535703564 -0.023597071992713495 0 0.0010511615237256381 -0.023489240895939869 0 0.0010761461806195033 -0.024512413064877215 0 0.0014009045244192081 -0.0234097924940046 0 -0.00033754407801881727 -0.025387550018016663 0 0.00027508429831228068 -0.025378731537283716 0 -0.00015617948181140945 -0.024608123435874377 0 0.0010761461806195033 -0.024512413064877215 0 0.0010242635903656226 -0.02475427177877557 0 0.0006356952717536925 -0.024078136654261052 0 0.00031763163217384975 -0.023609851768807727 0 0.00037217989124466405 -0.023609133952728335 0 0.0010772432138847659 -0.025198018642905724 0 0.0010242635903656226 -0.02475427177877557 0 0.00088212504862664046 -0.024882536611338858 0 0.0015178611317744181 -0.022389970741075991 0 0.00089913228710570116 -0.02454783897889053 0 0.0006356952717536925 -0.024078136654261052 0 0.00010517688238318568 -0.024524709853358043 0 0.0015178611317744181 -0.022389970741075991 0 0.0019111278282396412 -0.021148874977264986 0 0.001663350933520571 -0.022822372635134817 0 0.0020132032208894672 -0.022192458270532643 0 0.0013176941049137434 -0.022013845094472736 0 0.0022988126921388101 -0.022840349388286402 0 0.001663350933520571 -0.022822372635134817 0 0.0020132032208894672 -0.022192458270532643 0 0.0014009045244192081 -0.0234097924940046 0 0.0019757270112175855 -0.020341202219121859 0 0.0020132032208894672 -0.022192458270532643 0 0.0022083041278370217 -0.021645211836116347 0 0.0013176941049137434 -0.022013845094472736 0 0.0014009045244192081 -0.0234097924940046 0 0.0020311259030111281 -0.021008190771970636 0 0.0025777103606606563 -0.021640861619288167 0 0.0020132032208894672 -0.022192458270532643 0 0.0022083041278370217 -0.021645211836116347 0 0.0016782439445299602 -0.022210848501918703 0 0.0027093171651584561 -0.022192096884348207 0 0.0025591823734800365 -0.021841652289745311 0 0.0018342848135839472 -0.019824848693194858 0 0.0016664091055205879 -0.019432834949843891 0 0.0026744267558612327 -0.019442809108095562 0 0.0019757270112175855 -0.020341202219121859 0 0.0020311259030111281 -0.021008190771970636 0 0.0019937624944520341 -0.020165887960077011 0 0.0019508543821873637 -0.020065218865754263 0 0.0018358317186947838 -0.020159917547377892 0 0.0019111278282396412 -0.021148874977264986 0 0.0020311259030111281 -0.021008190771970636 0 0.0019111278282396412 -0.021148874977264986 0 0.0019379411074157448 -0.019356461390300717 0 0.0021584943171894843 -0.019937967308162226 0 0.0019904057643060171 -0.020080860122928475 0 0.0017382985127458027 -0.019925593328261815 0 0.0019904057643060171 -0.020080860122928475 0 0.0022621976845162185 -0.020180580685098336 0 0.0019622260049389083 -0.020235786947628336 0 0.0017325530784658291 -0.020596446486521897 0 0.001706679637980353 -0.019667976898733688 0 0.0019904057643060171 -0.020080860122928475 0 0.0019622260049389083 -0.020235786947628336 0 0.0018307724882134469 -0.020124282135085117 0 0.0031243328768344818 -0.02073682545786373 0 0.0022952507760765684 -0.022594259692479184 0 0.0027097533704002448 -0.02251732431602858 0 0.0031243328768344818 -0.02073682545786373 0 0.0014808550789896242 -0.020691914238141103 0 0.0022952507760765684 -0.022594259692479184 0 0.0019111278282396412 -0.021148874977264986 0 0.0017325530784658291 -0.020596446486521897 0 0.0021584943171894843 -0.019937967308162226 0 0.0019904057643060171 -0.020080860122928475 0 0.0022621976845162185 -0.020180580685098336 0 0.0015178611317744181 -0.022389970741075991 0 0.0016587610598227816 -0.02073350838421564 0 0.0016587610598227816 -0.02073350838421564 0 0.0016852515355402779 -0.020543593791480248 0 0.0017325530784658291 -0.020596446486521897 0 0.0016852515355402779 -0.020543593791480248 0 0.0015659932605708885 -0.020238266682049713 0 0.0021918948798735518 -0.020121890146500447 0 0.0019538243805698029 -0.021144608624900921 0 0.0017325530784658291 -0.020596446486521897 0 0.0016587610598227816 -0.02073350838421564 0 0.001623282951286031 -0.020574700363909227 0 0.0015072216526080141 -0.0205280138152408 0 0.0015891030418568315 -0.020719459845709408 0 0.0021018296084427705 -0.02025107024753359 0 0.0021765149002485325 -0.019930169106648091 0 0.0016858543427512593 -0.019899051372305222 0 0.0021281645551568004 -0.01981732265350834 0 0.0021765149002485325 -0.019930169106648091 0 0.0016858543427512593 -0.019899051372305222 0 0.0016763821381092195 -0.020544617646568158 0 0.0016852515355402779 -0.020543593791480248 0 0.0015170047498276622 -0.020746621611056115 0 0.0015794718673440315 -0.020788522572745556 0 0.00159353474121738 -0.020728548241965138 0 0.0016801198991610543 -0.020065278568865259 0 0.0016852515355402779 -0.020543593791480248 0 0.0016801198991610543 -0.020065278568865259 0 0.001706679637980353 -0.019667976898733688 0 0.0015598960780618513 -0.019375781100859815 0 0.0017082363639366737 -0.019466089755555614 0 0.00062821984047491716 -0.019195844112309273 0 0.0012635541163765452 -0.019156755637491751 0 0.0005317267880931895 -0.018544626976147893 0 0.00062821984047491716 -0.019195844112309273 0 0.0005317267880931895 -0.018544626976147893 0 0.0003427939480814709 -0.01858004377528133 0 0.001706679637980353 -0.019667976898733688 0 0.0017082363639366737 -0.019466089755555614 0 0.0017082363639366737 -0.019466089755555614 0 0.0017287288366048612 -0.01896209422482957 0 0.00060206348021997513 -0.019381212864614791 0 0.00039641940486901252 -0.018996067666489824 0 0.00022213949424742548 -0.019293619844327294 0 0.0017338011791754558 -0.019344112846227449 0 0.0016265450178533606 -0.019363806964712481 0 0.0017085136043965801 -0.019289886097785005 0 0.00039641940486901252 -0.018996067666489824 0 0.00022213949424742548 -0.019293619844327294 0 -4.9750653435984754e-05 -0.019081639856344687 0 -7.5206830606481569e-05 -0.019512601656481467 0 0.00022213949424742548 -0.019293619844327294 0 -4.9750653435984754e-05 -0.019081639856344687 0 0.0017287288366048612 -0.01896209422482957 0 0.0015878308651783304 -0.018295827376049005 0 0.0019463174697300105 -0.017810274485955239 0 0.0020856746095346832 -0.017943806236704815 0 0.0022055760252278843 -0.017760928633794113 0 0.0016794706193153507 -0.019019419202639214 0 0.0017287288366048612 -0.01896209422482957 0 -7.5206830606481569e-05 -0.019512601656481467 0 -8.7887233992455234e-05 -0.019560086500860767 0 -8.1165555815261071e-05 -0.019607914767515978 0 0.0019463174697300105 -0.017810274485955239 0 0.0020856746095346832 -0.017943806236704815 0 0.0019203848307799709 -0.018084111666642831 0 0.0017287288366048612 -0.01896209422482957 0 0.0018690725277347312 -0.0191675493044456 0 0.0020856746095346832 -0.017943806236704815 0 0.0020708132982640648 -0.01807402036876448 0 0.0019203848307799709 -0.018084111666642831 0 0.0019647273869786309 -0.01913414209761025 0 0.0020403958433993924 -0.019296257132458267 0 0.0020953766025125762 -0.019244412456300319 0 0.0016265450178533606 -0.019363806964712481 0 0.0017085136043965801 -0.019289886097785005 0 0.001639171895473628 -0.019231210727537043 0 0.0017998326941861304 -0.0194444702624317 0 0.0018690725277347312 -0.0191675493044456 0 0.0019904057643060171 -0.020080860122928475 0 0.0018307724882134469 -0.020124282135085117 0 0.0017382985127458027 -0.019925593328261815 0 0.0017998326941861304 -0.0194444702624317 0 0.0019379411074157448 -0.019356461390300717 0 0.001706679637980353 -0.019667976898733688 0 0.0017998326941861304 -0.0194444702624317 0 0.0017082363639366737 -0.019466089755555614 0 0.0017998326941861304 -0.0194444702624317 0 0.0017093456475776442 -0.019696669015116984 0 0.0016444568431283628 -0.01970869964555954 0 0.0015929457760393997 -0.019598088310288871 0 0.0019508543821873637 -0.020065218865754263 0 0.0018358317186947838 -0.020159917547377892 0 0.0018167939959514939 -0.020119142841903036 0 0.0020403958433993924 -0.019296257132458267 0 0.0020903259826716069 -0.019297592620980807 0 0.0020953766025125762 -0.019244412456300319 0 0.0019379411074157448 -0.019356461390300717 0 0.0019496548249181202 -0.019087931242890179 0 0.0016461147130813244 -0.019403128253935625 0 0.0015204388816206264 -0.019135632107374578 0 0.0014947123084154122 -0.019398992620252804 0 0.0019379411074157448 -0.019356461390300717 0 0.0019872067829365637 -0.019275677079112884 0 0.0019872067829365637 -0.019275677079112884 0 0.0019496548249181202 -0.019087931242890179 0 0.0019757270112175855 -0.020341202219121859 0 0.0021228928179344961 -0.017768015802457543 0 0.0020311259030111281 -0.021008190771970636 0 0.0019872067829365637 -0.019275677079112884 0 0.0016664091055205879 -0.019432834949843891 0 0.0028606200259567605 -0.018939239605652247 0 0.0026744267558612327 -0.019442809108095562 0 0.0018342848135839472 -0.019824848693194858 0 0.0026744267558612327 -0.019442809108095562 0 0.0027778657899971346 -0.019809286770774821 0 0.0028606200259567605 -0.018939239605652247 0 0.0026744267558612327 -0.019442809108095562 0 0.0027905961791087142 -0.019682461662191685 0 0.0019872067829365637 -0.019275677079112884 0 0.0021397537404768355 -0.017802414909269173 0 0.0021503117961887558 -0.0178262511270839 0 0.0021397537404768355 -0.017802414909269173 0 0.0026744267558612327 -0.019442809108095562 0 0.0027899685044401714 -0.019682517085089207 0 0.0027778657899971346 -0.019809286770774821 0 0.0028414626258060111 -0.01675812566542258 0 0.0027470732594308757 -0.017745813457162328 0 0.0033136913934124559 -0.017737563198242413 0 0.0021397537404768355 -0.017802414909269173 0 0.002113166306749732 -0.01757493118639479 0 0.0021397537404768355 -0.017802414909269173 0 0.0021228928179344961 -0.017768015802457543 0 0.0021228928179344961 -0.017768015802457543 0 0.002113166306749732 -0.01757493118639479 0 0.0019970303775446131 -0.01711643538565134 0 0.0021195632781611821 -0.017003115170974258 0 0.0021958724904978435 -0.01701707240710958 0 0.002113166306749732 -0.01757493118639479 0 0.002310248299742215 -0.014999322317147802 0 0.0019970303775446131 -0.01711643538565134 0 0.0021958724904978435 -0.01701707240710958 0 0.0022669497776456136 -0.017110479575783585 0 0.0019821002743545552 -0.017085502543560383 0 0.0019970303775446131 -0.01711643538565134 0 0.002054374643553878 -0.01702099748468746 0 0.0019970303775446131 -0.01711643538565134 0 0.002054374643553878 -0.01702099748468746 0 0.0021195632781611821 -0.017003115170974258 0 0.0019987501469171409 -0.016906253242430468 0 0.0019821002743545552 -0.017085502543560383 0 0.002054374643553878 -0.01702099748468746 0 0.0019872067829365637 -0.019275677079112884 0 0.0019521895968295105 -0.019165801920462064 0 0.0020019820913166637 -0.016903780872953727 0 0.002054374643553878 -0.01702099748468746 0 0.0020926208889455208 -0.016930299935259241 0 0.002054374643553878 -0.01702099748468746 0 0.0021195632781611821 -0.017003115170974258 0 0.0020926208889455208 -0.016930299935259241 0 0.0021195632781611821 -0.017003115170974258 0 0.0021609607027944407 -0.016949229064615094 0 0.0020926208889455208 -0.016930299935259241 0 0.0021609607027944407 -0.016949229064615094 0 0.0022281755706746818 -0.016903002215708594 0 0.0021958724904978435 -0.01701707240710958 0 0.0021195632781611821 -0.017003115170974258 0 0.0021609607027944407 -0.016949229064615094 0 0.0021958724904978435 -0.01701707240710958 0 0.002145017097656016 -0.016884693525346758 0 0.0020109412515383462 -0.016817898189124925 0 0.0022317182564796285 -0.016823437850631666 0 0.0021609607027944407 -0.016949229064615094 0 0.002145017097656016 -0.016884693525346758 0 0.0022281755706746818 -0.016903002215708594 0 0.0019496548249181202 -0.019087931242890179 0 0.0020871541582965273 -0.017632817077407121 0 0.0019148422335486177 -0.018142599434702967 0 0.001966252592504793 -0.01812288180713224 0 0.0021588478985455867 -0.018147573877697758 0 0.0021609607027944407 -0.016949229064615094 0 0.002145017097656016 -0.016884693525346758 0 0.0020926208889455208 -0.016930299935259241 0 0.002145017097656016 -0.016884693525346758 0 0.0020926208889455208 -0.016930299935259241 0 0.0020109412515383462 -0.016817898189124925 0 0.0020019820913166637 -0.016903780872953727 0 0.0020926208889455208 -0.016930299935259241 0 0.0020109412515383462 -0.016817898189124925 0 0.0020708132982640648 -0.01807402036876448 0 0.001966252592504793 -0.01812288180713224 0 0.0019203848307799709 -0.018084111666642831 0 0.0019148422335486177 -0.018142599434702967 0 0.001966252592504793 -0.01812288180713224 0 0.001920408197402921 -0.018084754146519052 0 0.0019496548249181202 -0.019087931242890179 0 0.0018690725277347312 -0.0191675493044456 0 0.001865634105793032 -0.019161718300842207 0 0.0018690725277347312 -0.0191675493044456 0 0.0020708132982640648 -0.01807402036876448 0 0.001966252592504793 -0.01812288180713224 0 0.0021588478985455867 -0.018147573877697758 0 0.0022281755706746818 -0.016903002215708594 0 0.0023108078870856326 -0.017088363068237473 0 0.0024390520412290052 -0.016829946648468649 0 0.0022317182564796285 -0.016823437850631666 0 0.0022281755706746818 -0.016903002215708594 0 0.0024390520412290052 -0.016829946648468649 0 0.0020871541582965273 -0.017632817077407121 0 0.002187200352611027 -0.016189748367179922 0 0.0021588478985455867 -0.018147573877697758 0 0.0024031694953429699 -0.01815290855638084 0 0.002256090023877921 -0.017987873425797399 0 0.002145017097656016 -0.016884693525346758 0 0.0022317182564796285 -0.016823437850631666 0 0.0022281755706746818 -0.016903002215708594 0 0.0022281755706746818 -0.016903002215708594 0 0.0023108078870856326 -0.017088363068237473 0 0.0022643070566324198 -0.01708873883014277 0 0.0023426427365080432 -0.015260685979643912 0 0.002310248299742215 -0.014999322317147802 0 0.0022281755706746818 -0.016903002215708594 0 0.0021958724904978435 -0.01701707240710958 0 0.0022669497776456136 -0.017110479575783585 0 0.0022711701520193666 -0.01468968087395073 0 0.002310248299742215 -0.014999322317147802 0 0.005602140868849366 -0.0094471350582920142 0 0.0043982565144748218 -0.010222326739534581 0 0.0045242783460667305 -0.011654137787024899 0 0.0022711701520193666 -0.01468968087395073 0 0.002251160740304708 -0.013618183680871018 0 0.0022711701520193666 -0.01468968087395073 0 0.002187200352611027 -0.016189748367179922 0 0.005602140868849366 -0.0094471350582920142 0 0.0043982565144748218 -0.010222326739534581 0 0.0031664206769377347 -0.0094661841006587009 0 0.0043982565144748218 -0.010222326739534581 0 0.003668760815660733 -0.011007996445184886 0 0.0031664206769377347 -0.0094661841006587009 0 0.0043982565144748218 -0.010222326739534581 0 0.003668760815660733 -0.011007996445184886 0 0.0045242783460667305 -0.011654137787024899 0 0.0051279394047404839 -0.011707842882237559 0 0.0042834129126842688 -0.011950512741412534 0 0.0029665664264529397 -0.011654211854624159 0 0.002187200352611027 -0.016189748367179922 0 0.0022573189204744045 -0.015667495712090515 0 0.003668760815660733 -0.011007996445184886 0 0.0045242783460667305 -0.011654137787024899 0 0.0027791179168487122 -0.011623111387091207 0 0.0051279394047404839 -0.011707842882237559 0 0.0042834129126842688 -0.011950512741412534 0 0.0043844565361438135 -0.013235966197165043 0 0.002187200352611027 -0.016189748367179922 0 0.0020570298559684417 -0.016452343880409438 0 0.0024031694953429699 -0.01815290855638084 0 0.0024874952453751657 -0.0179811103791046 0 0.002256090023877921 -0.017987873425797399 0 0.0024874952453751657 -0.0179811103791046 0 0.002256090023877921 -0.017987873425797399 0 0.002353684603718975 -0.017860427216334254 0 0.004414048586464 -0.013200788008374259 0 0.004248094385464511 -0.013548374988653775 0 0.0046428652477887664 -0.015642635667753139 0 0.0042834129126842688 -0.011950512741412534 0 0.004404409823031261 -0.013208765346160167 0 0.0037779140739236899 -0.012612112853129567 0 0.0020775805177283067 -0.016225497028805647 0 0.0020570298559684417 -0.016452343880409438 0 0.004404409823031261 -0.013208765346160167 0 0.004248094385464511 -0.013548374988653775 0 0.0036303808147131124 -0.013485772956306329 0 0.0020570298559684417 -0.016452343880409438 0 0.0020663396910770662 -0.01643537980299651 0 0.0020856746095346832 -0.017943806236704815 0 0.002256090023877921 -0.017987873425797399 0 0.0022055760252278843 -0.017760928633794113 0 0.0020708132982640648 -0.01807402036876448 0 0.0021588478985455867 -0.018147573877697758 0 0.002256090023877921 -0.017987873425797399 0 0.0020856746095346832 -0.017943806236704815 0 0.0020708132982640648 -0.01807402036876448 0 0.002256090023877921 -0.017987873425797399 0 0.002256090023877921 -0.017987873425797399 0 0.0022055760252278843 -0.017760928633794113 0 0.002353684603718975 -0.017860427216334254 0 0.0022055760252278843 -0.017760928633794113 0 0.002353684603718975 -0.017860427216334254 0 0.0024655184172361674 -0.017711776438604169 0 0.0020570298559684417 -0.016452343880409438 0 0.0016696541351063968 -0.017558217298348586 0 0.0015878308651783304 -0.018295827376049005 0 0.0016696541351063968 -0.017558217298348586 0 0.0024874952453751657 -0.0179811103791046 0 0.002353684603718975 -0.017860427216334254 0 0.0024655184172361674 -0.017711776438604169 0 0.004248094385464511 -0.013548374988653775 0 0.0046428652477887664 -0.015642635667753139 0 0.0039365467153729336 -0.014323573911766847 0 0.0026083842206126059 -0.0070924341804434275 0 0.0029585839207468614 -0.0075554405691545994 0 0.0025338943541793725 -0.0067194551221410794 0 0.0026083842206126059 -0.0070924341804434275 0 0.0023640300367108649 -0.0072901754902195545 0 0.0021836990879180421 -0.0068728728330706302 0 0.0026083842206126059 -0.0070924341804434275 0 0.0024083780637608062 -0.0068090164505186183 0 0.0021836990879180421 -0.0068728728330706302 0 0.0024083780637608062 -0.0068090164505186183 0 0.0022975771966127472 -0.006562945873294067 0 0.0021836990879180421 -0.0068728728330706302 0 0.0026083842206126059 -0.0070924341804434275 0 0.0024083780637608062 -0.0068090164505186183 0 0.0025338943541793725 -0.0067194551221410794 0 0.0027045409734777251 -0.0069730817497076518 0 0.0028599709421579344 -0.0067409850954057628 0 0.0027119028478945748 -0.0065902078694847826 0 0.0020296875367784672 -0.010625524524567893 0 0.001955239489592522 -0.0095177817618621995 0 0.0032073180501180753 -0.0077408334506666584 0 0.0025338943541793725 -0.0067194551221410794 0 0.0025150026618290583 -0.0064728831128251689 0 0.0027045409734777251 -0.0069730817497076518 0 0.0027119028478945748 -0.0065902078694847826 0 0.0025150026618290583 -0.0064728831128251689 0 0.0031056430536637275 -0.0077654586217145299 0 0.0032073180501180753 -0.0077408334506666584 0 0.0025338943541793725 -0.0067194551221410794 0 0.0014034416025457063 -0.014529646473881623 0 0.00089615188389037136 -0.012477531307686082 0 0.0031056430536637275 -0.0077654586217145299 0 0.0028050881134397245 -0.0082402604217333766 0 0.0025338943541793725 -0.0067194551221410794 0 0.0032148598510079447 -0.0077440459582231395 0 0.0028050881134397245 -0.0082402604217333766 0 0.0037108955055565585 -0.0087171092166981549 0 0.0014034416025457063 -0.014529646473881623 0 0.0016467367867173937 -0.014683841034484255 0 0.0031056430536637275 -0.0077654586217145299 0 0.0032148598510079447 -0.0077440459582231395 0 0.0028050881134397245 -0.0082402604217333766 0 0.0014084785340106433 -0.014525561949930516 0 0.0014034416025457063 -0.014529646473881623 0 0.0029585839207468614 -0.0075554405691545994 0 0.0026220486746376453 -0.0073987944722658308 0 0.0025444079691513792 -0.0076973782395040975 0 0.0026083842206126059 -0.0070924341804434275 0 0.0029585839207468614 -0.0075554405691545994 0 0.0026220486746376453 -0.0073987944722658308 0 0.0026083842206126059 -0.0070924341804434275 0 0.0026220486746376453 -0.0073987944722658308 0 0.0023640300367108649 -0.0072901754902195545 0 0.0026220486746376453 -0.0073987944722658308 0 0.0023640300367108649 -0.0072901754902195545 0 0.0025444079691513792 -0.0076973782395040975 0 0.0023640300367108649 -0.0072901754902195545 0 0.0025444079691513792 -0.0076973782395040975 0 0.0020386417974235719 -0.0076470832643415493 0 0.0029585839207468614 -0.0075554405691545994 0 0.0025444079691513792 -0.0076973782395040975 0 0.0027866368063107524 -0.0082397213270448272 0 0.0025444079691513792 -0.0076973782395040975 0 0.0023157755201419035 -0.0082948713535536452 0 0.0020386417974235719 -0.0076470832643415493 0 0.0025444079691513792 -0.0076973782395040975 0 0.0027866368063107524 -0.0082397213270448272 0 0.0023157755201419035 -0.0082948713535536452 0 0.0031617728832770749 -0.0090861371115950069 0 0.0027329863138019655 -0.0087217305115865409 0 0.0021058295715778684 -0.0091679034624531086 0 0.0023157755201419035 -0.0082948713535536452 0 0.0027329863138019655 -0.0087217305115865409 0 0.0021058295715778684 -0.0091679034624531086 0 0.0027866368063107524 -0.0082397213270448272 0 0.0023157755201419035 -0.0082948713535536452 0 0.0027329863138019655 -0.0087217305115865409 0 0.0022585531465239626 -0.014229540876106147 0 0.0016467367867173937 -0.014683841034484255 0 0.0024221622888901495 -0.014059519801220775 0 0.0009224148581995135 -0.01408120096839121 0 0.0013305872735601078 -0.016289750785796558 0 0.002310248299742215 -0.014999322317147802 0 0.0022585531465239626 -0.014229540876106147 0 0.0031617728832770749 -0.0090861371115950069 0 0.0027329863138019655 -0.0087217305115865409 0 0.0032934371389654713 -0.0088216122817312385 0 0.0022711701520193666 -0.01468968087395073 0 0.0022585531465239626 -0.014229540876106147 0 0.0027866368063107524 -0.0082397213270448272 0 0.0027329863138019655 -0.0087217305115865409 0 0.0032934371389654713 -0.0088216122817312385 0 0.0029585839207468614 -0.0075554405691545994 0 0.0027866368063107524 -0.0082397213270448272 0 0.0032934371389654713 -0.0088216122817312385 0 0.0028050881134397245 -0.0082402604217333766 0 0.0031110601872612791 -0.0099610682391287203 0 0.0037108955055565585 -0.0087171092166981549 0 0.0020296875367784672 -0.010625524524567893 0 0.0022585531465239626 -0.014229540876106147 0 0.0020828509911291408 -0.015982115957622205 0 0.0022501936594218216 -0.016072000809468905 0 0.0021289668283095216 -0.015886255256420071 0 0.0016467367867173937 -0.014683841034484255 0 0.0016376102644808915 -0.014731887127400548 0 0.0010526021139067648 -0.015661415938031296 0 0.0014420039026237406 -0.015757214229453587 0 0.0012680250301201098 -0.016108140890788339 0 0.002113166306749732 -0.01757493118639479 0 0.0016467367867173937 -0.014683841034484255 0 0.0010526021139067648 -0.015661415938031296 0 0.0014232309106799595 -0.015653678063871825 0 0.0014420039026237406 -0.015757214229453587 0 0.0022187542268302307 -0.016262600461001864 0 0.0020828509911291408 -0.015982115957622205 0 0.0022501936594218216 -0.016072000809468905 0 0.0022339382510036098 -0.016262469459850538 0 0.0022187542268302307 -0.016262600461001864 0 0.0022501936594218216 -0.016072000809468905 0 0.001565998334088508 -0.019021238248167441 0 0.0012019981656067817 -0.019024949255910629 0 0.0013287154764039114 -0.018860510553294792 0 0.001565998334088508 -0.019021238248167441 0 0.0013287154764039114 -0.018860510553294792 0 0.0014168898333449832 -0.018671853384556895 0 0.0012019981656067817 -0.019024949255910629 0 0.0013287154764039114 -0.018860510553294792 0 0.0012343249197269454 -0.018673993883642694 0 0.0021228928179344961 -0.017768015802457543 0 0.0020795756913040125 -0.017522691601876226 0 0.0013287154764039114 -0.018860510553294792 0 0.0014168898333449832 -0.018671853384556895 0 0.0012343249197269454 -0.018673993883642694 0 0.0020386016304667861 -0.019038277660523472 0 0.0020624694063943851 -0.017322209207601559 0 0.001077514193326864 -0.022121862157477724 0 0.00089074349400252101 -0.021692228240519904 0 0.0011306096167828994 -0.021823437206058238 0 0.0022501936594218216 -0.016072000809468905 0 0.0022652073677843347 -0.015883238340545003 0 0.0021289668283095216 -0.015886255256420071 0 0.0014168898333449832 -0.018671853384556895 0 0.0012343249197269454 -0.018673993883642694 0 0.0012667109003775532 -0.018320755000976737 0 0.0020795756913040125 -0.017522691601876226 0 0.0020624694063943851 -0.017322209207601559 0 0.0010976263582263806 -0.021625333835664982 0 0.00089074349400252101 -0.021692228240519904 0 0.0011306096167828994 -0.021823437206058238 0 0.0010976263582263806 -0.021625333835664982 0 0.00089074349400252101 -0.021692228240519904 0 0.00091895841494831734 -0.02139228675531946 0 0.0010976263582263806 -0.021625333835664982 0 0.0010578674574818895 -0.021366512272724639 0 0.00091895841494831734 -0.02139228675531946 0 0.0020624694063943851 -0.017322209207601559 0 0.002032702131771038 -0.01691717554043393 0 0.0029497925632328567 -0.016467086773852141 0 0.002767829305969392 -0.016041613417203605 0 0.0027223208444837953 -0.016509903167414738 0 0.0020272487394876137 -0.016055842972517907 0 0.0020624694063943851 -0.017322209207601559 0 0.0014034416025457063 -0.014529646473881623 0 0.0020272487394876137 -0.016055842972517907 0 0.0020008037349076033 -0.015807813632101219 0 0.0022145957444955761 -0.015768505024239793 0 0.0021289668283095216 -0.015886255256420071 0 0.0020008037349076033 -0.015807813632101219 0 0.0020835895749558853 -0.015977764859511173 0 0.0021289668283095216 -0.015886255256420071 0 0.0022145957444955761 -0.015768505024239793 0 0.0022652073677843347 -0.015883238340545003 0 0.0021289668283095216 -0.015886255256420071 0 0.0031051677770086456 -0.0069056840362198228 0 0.0028599709421579344 -0.0067409850954057628 0 0.0029867257422990052 -0.0066253299403837614 0 0.0020272487394876137 -0.016055842972517907 0 0.0014380020038128689 -0.01418249688894118 0 0.0027045409734777251 -0.0069730817497076518 0 0.0031051677770086456 -0.0069056840362198228 0 0.0028599709421579344 -0.0067409850954057628 0 0.0028599709421579344 -0.0067409850954057628 0 0.0029867257422990052 -0.0066253299403837614 0 0.0028385497646999515 -0.0065499302758163505 0 0.0028599709421579344 -0.0067409850954057628 0 0.0028385497646999515 -0.0065499302758163505 0 0.0027119028478945748 -0.0065902078694847826 0 0.00064772291310414524 -0.021631709368739014 0 0.00071419392035231791 -0.021710047406452219 0 0.00082779182149022353 -0.021546901706873723 0 0.0020814177633621681 -0.016660628885652919 0 0.0021960942182402137 -0.017620186352818777 0 0.0021960942182402137 -0.017620186352818777 0 0.002032702131771038 -0.01691717554043393 0 0.0019064384285835774 -0.018732088867375502 0 0.00066946146599077547 -0.017290558212284646 0 0.0020694774970227868 -0.0170276127960165 0 0.001652228192053036 -0.015982164017101702 0 0.0013715812793130943 -0.015328503327761764 0 0.0019490391566145914 -0.015619994646171326 0 0.0020272487394876137 -0.016055842972517907 0 0.002032702131771038 -0.01691717554043393 0 0.001652228192053036 -0.015982164017101702 0 0.0019490391566145914 -0.015619994646171326 0 0.0019194701733925305 -0.015932115408804931 0 0.0020814177633621681 -0.016660628885652919 0 0.002032702131771038 -0.01691717554043393 0 0.00071419392035231791 -0.021710047406452219 0 0.00082779182149022353 -0.021546901706873723 0 0.00099713137419748881 -0.021664458222390551 0 0.0021960942182402137 -0.017620186352818777 0 0.0015113925824639459 -0.02155096819830948 0 0.0015113925824639459 -0.02155096819830948 0 0.00094354066200864222 -0.02547282414866401 0 0.0015557092192311514 -0.021317851993416927 0 0.0018716198927096553 -0.021831068818409117 0 0.0020416987763862736 -0.021232148663755213 0 0.0015557092192311514 -0.021317851993416927 0 0.0014545659249999162 -0.021853286853000174 0 0.0018716198927096553 -0.021831068818409117 0 0.0010976263582263806 -0.021625333835664982 0 0.0010578674574818895 -0.021366512272724639 0 0.0014545659249999162 -0.021853286853000174 0 0.0021960942182402137 -0.017620186352818777 0 0.0024535610952452556 -0.018340185231594423 0 0.0010738119722496194 -0.021403065854881442 0 0.0015557092192311514 -0.021317851993416927 0 0.0014545659249999162 -0.021853286853000174 0 0.0010976263582263806 -0.021625333835664982 0 0.0011306096167828994 -0.021823437206058238 0 0.0014545659249999162 -0.021853286853000174 0 0.001077514193326864 -0.022121862157477724 0 0.0011306096167828994 -0.021823437206058238 0 0.0014545659249999162 -0.021853286853000174 0 0.001077514193326864 -0.022121862157477724 0 0.0014545659249999162 -0.021853286853000174 0 0.0015909884587830404 -0.022079961969275006 0 0.0019757270112175855 -0.020341202219121859 0 0.0020386016304667861 -0.019038277660523472 0 0.0012572033695575863 -0.022539187322120111 0 0.001077514193326864 -0.022121862157477724 0 0.0015191417974302034 -0.022332793745565419 0 0.001077514193326864 -0.022121862157477724 0 0.0015191417974302034 -0.022332793745565419 0 0.0015909884587830404 -0.022079961969275006 0 0.0017857011633687959 -0.022534470772649858 0 0.0012572033695575863 -0.022539187322120111 0 0.0015191417974302034 -0.022332793745565419 0 0.0017857011633687959 -0.022534470772649858 0 0.0018106310783256303 -0.022372871748622125 0 0.0015191417974302034 -0.022332793745565419 0 0.0015191417974302034 -0.022332793745565419 0 0.0018226467490535384 -0.022200652767762372 0 0.0015909884587830404 -0.022079961969275006 0 0.0018106310783256303 -0.022372871748622125 0 0.0015191417974302034 -0.022332793745565419 0 0.0018226467490535384 -0.022200652767762372 0 0.0014545659249999162 -0.021853286853000174 0 0.0015909884587830404 -0.022079961969275006 0 0.0018716198927096553 -0.021831068818409117 0 0.0018226467490535384 -0.022200652767762372 0 0.0015909884587830404 -0.022079961969275006 0 0.0018716198927096553 -0.021831068818409117 0 0.0018226467490535384 -0.022200652767762372 0 0.0018716198927096553 -0.021831068818409117 0 0.0019939210467374005 -0.022159733896574822 0 0.0018716198927096553 -0.021831068818409117 0 0.0021698538574716261 -0.022061611681856545 0 0.0023182694318202302 -0.021716745611573763 0 0.0018716198927096553 -0.021831068818409117 0 0.0021698538574716261 -0.022061611681856545 0 0.0019939210467374005 -0.022159733896574822 0 0.0010452560292867313 -0.024406996104818848 0 0.0010762412934723594 -0.024527253139857742 0 0.0018226467490535384 -0.022200652767762372 0 0.0019939210467374005 -0.022159733896574822 0 0.002001655487535049 -0.022400118146627426 0 0.0009315059278387879 -0.026333945165893179 0 0.0014204506997296375 -0.026324252348163768 0 0.001441658969788988 -0.026428355748153349 0 0.0021698538574716261 -0.022061611681856545 0 0.0019939210467374005 -0.022159733896574822 0 0.002001655487535049 -0.022400118146627426 0 0.0017857011633687959 -0.022534470772649858 0 0.0018106310783256303 -0.022372871748622125 0 0.0019910915569867553 -0.022449891260533143 0 0.0014009045244192081 -0.0234097924940046 0 0.0010762412934723594 -0.024527253139857742 0 0.00061221814535703564 -0.023597071992713495 0 0.0010511615237256381 -0.023489240895939869 0 0.0010702637326246928 -0.023406769556771734 0 0.0014204506997296375 -0.026324252348163768 0 0.0014526007754950599 -0.026381535204682345 0 0.001441658969788988 -0.026428355748153349 0 0.0018106310783256303 -0.022372871748622125 0 0.0018226467490535384 -0.022200652767762372 0 0.0019910915569867553 -0.022449891260533143 0 0.0010242635903656226 -0.02475427177877557 0 0.0010426121133133434 -0.024613067088962458 0 0.0018226467490535384 -0.022200652767762372 0 0.002001655487535049 -0.022400118146627426 0 0.001988514523434395 -0.022455055009428133 0 0.0010761461806195033 -0.024512413064877215 0 0.0010426121133133434 -0.024613067088962458 0 0.0010426121133133434 -0.024613067088962458 0 0.0010762412934723594 -0.024527253139857742 0 0.0010780806295601511 -0.024520734724010503 0 0.0010762412934723594 -0.024527253139857742 0 0.0009315059278387879 -0.026333945165893179 0 0.001441658969788988 -0.026428355748153349 0 0.00067528771366763259 -0.026750914032848582 0 0.0021698538574716261 -0.022061611681856545 0 0.002001655487535049 -0.022400118146627426 0 0.0025952549700590855 -0.02220604827968517 0 0.002001655487535049 -0.022400118146627426 0 0.0019890558932238339 -0.022454043312612561 0 0.0025952549700590855 -0.02220604827968517 0 0.0010762412934723594 -0.024527253139857742 0 0.0012635097954873835 -0.027438541245572032 0 0.001261277251106999 -0.026841813925826557 0 0.0012635097954873835 -0.027438541245572032 0 0.0021698538574716261 -0.022061611681856545 0 0.0023182694318202302 -0.021716745611573763 0 0.0025952549700590855 -0.02220604827968517 0 0.001261277251106999 -0.026841813925826557 0 0.00094354066200864222 -0.02547282414866401 0 0.00020858170827685272 -0.034758132876458972 0 0.00023564109298912213 -0.034798844559369609 0 0.00018806179886055697 -0.034787610538155642 0 0.0018716198927096553 -0.021831068818409117 0 0.0023182694318202302 -0.021716745611573763 0 0.0020416987763862736 -0.021232148663755213 0 0.00094354066200864222 -0.02547282414866401 0 9.8162515213198561e-05 -0.0275220698473711 0 0.00023564109298912213 -0.034798844559369609 0 0.00018777871814723736 -0.034819197264683195 0 0.00018806179886055697 -0.034787610538155642 0 7.1744827559412009e-06 -0.034863490683501447 0 -1.5765780179611909e-05 -0.034841025278858982 0 2.0941437477981722e-05 -0.034839580155839031 0 -2.7147787431592393e-05 -0.034863023147651155 0 7.1744827559412009e-06 -0.034863490683501447 0 -1.5765780179611909e-05 -0.034841025278858982 0 -2.7147787431592393e-05 -0.034863023147651155 0 -1.5765780179611909e-05 -0.034841025278858982 0 -5.4095402473456089e-05 -0.034825459515606581 0 0.00094354066200864222 -0.02547282414866401 0 0.0014431662621578192 -0.025742965763341338 0 -1.5765780179611909e-05 -0.034841025278858982 0 -9.5338212279225062e-06 -0.034816354967440011 0 -5.4095402473456089e-05 -0.034825459515606581 0 -1.5765780179611909e-05 -0.034841025278858982 0 -9.5338212279225062e-06 -0.034816354967440011 0 2.0941437477981722e-05 -0.034839580155839031 0 -9.5338212279225062e-06 -0.034816354967440011 0 -2.3067011901827473e-05 -0.034788406372995337 0 -4.5687320469370901e-05 -0.034789443146007071 0 -9.5338212279225062e-06 -0.034816354967440011 0 -2.3067011901827473e-05 -0.034788406372995337 0 3.6528841147319279e-06 -0.034800587948815874 0 -2.3067011901827473e-05 -0.034788406372995337 0 -1.1461352164529733e-05 -0.034783229290240594 0 -3.6781736459831296e-05 -0.034768963913154045 0 -2.3067011901827473e-05 -0.034788406372995337 0 3.6528841147319279e-06 -0.034800587948815874 0 -1.1461352164529733e-05 -0.034783229290240594 0 -2.3067011901827473e-05 -0.034788406372995337 0 -4.5687320469370901e-05 -0.034789443146007071 0 -4.1402844801326429e-05 -0.034761384598471529 0 -4.5687320469370901e-05 -0.034789443146007071 0 -4.1402844801326429e-05 -0.034761384598471529 0 -6.5665884622509037e-05 -0.034757638158083491 0 -9.5338212279225062e-06 -0.034816354967440011 0 -4.5687320469370901e-05 -0.034789443146007071 0 -5.4095402473456089e-05 -0.034825459515606581 0 0.00090639412097688447 -0.020959971579803709 0 0.00083795091011597679 -0.021056854445464908 0 0.0010968404354879638 -0.021287306165744001 0 -4.5687320469370901e-05 -0.034789443146007071 0 -8.0362550493054828e-05 -0.034781867328334506 0 -5.4095402473456089e-05 -0.034825459515606581 0 0.0015762772717749574 -0.024544060912778019 0 0.0014431662621578192 -0.025742965763341338 0 0.0015762772717749574 -0.024544060912778019 0 0.00085435179447050527 -0.026028306751473339 0 -4.5687320469370901e-05 -0.034789443146007071 0 -8.0362550493054828e-05 -0.034781867328334506 0 -6.5665884622509037e-05 -0.034757638158083491 0 0.0018915700114155117 -0.022590697319242476 0 0.0021246495578520646 -0.022248437384935944 0 0.0018629523477183526 -0.022161166349990505 0 0.0015762772717749574 -0.024544060912778019 0 0.00079711598705791537 -0.018145424384169589 0 0.00090479182600365865 -0.020957015606397088 0 0.00069538144511438883 -0.020977126087773693 0 0.000716285475462553 -0.02063864097867529 0 0.0018915700114155117 -0.022590697319242476 0 0.0018629523477183526 -0.022161166349990505 0 0.0016466111783191835 -0.022166043667200028 0 0.00090479182600365865 -0.020957015606397088 0 0.00083795091011597679 -0.021056854445464908 0 0.00069538144511438883 -0.020977126087773693 0 0.0015762772717749574 -0.024544060912778019 0 0.0016112839399848591 -0.024446714473697059 0 0.00083795091011597679 -0.021056854445464908 0 0.00085898544342395407 -0.021299514511007405 0 0.00067410099926298417 -0.02130670491643593 0 0.00083795091011597679 -0.021056854445464908 0 0.00085898544342395407 -0.021299514511007405 0 0.0010968404354879638 -0.021287306165744001 0 0.00082779182149022353 -0.021546901706873723 0 0.00099713137419748881 -0.021664458222390551 0 0.0010968404354879638 -0.021287306165744001 0 0.00099713137419748881 -0.021664458222390551 0 0.0012843839714782063 -0.021616194463071132 0 0.0010968404354879638 -0.021287306165744001 0 0.00082779182149022353 -0.021546901706873723 0 0.00085898544342395407 -0.021299514511007405 0 0.0010968404354879638 -0.021287306165744001 0 0.00082779182149022353 -0.021546901706873723 0 0.00085898544342395407 -0.021299514511007405 0 0.00067410099926298417 -0.02130670491643593 0 0.0020814177633621681 -0.016660628885652919 0 0.00181915119084909 -0.015761411674899684 0 0.00064772291310414524 -0.021631709368739014 0 0.00082779182149022353 -0.021546901706873723 0 0.00067410099926298417 -0.02130670491643593 0 0.0034200662736925125 -0.0074507230524075187 0 0.0032418528309159514 -0.0070996330706758343 0 0.0034745444955271267 -0.0067809361292074733 0 0.0032418528309159514 -0.0070996330706758343 0 0.0031797832990082286 -0.0068664961808853594 0 0.0034745444955271267 -0.0067809361292074733 0 0.0020814177633621681 -0.016660628885652919 0 0.0010140129660801383 -0.013017593611976097 0 0.0034200662736925125 -0.0074507230524075187 0 0.0032418528309159514 -0.0070996330706758343 0 0.0029205927703331914 -0.0068691815436191734 0 0.0013715812793130943 -0.015328503327761764 0 0.0019490391566145914 -0.015619994646171326 0 0.0010909252989436495 -0.014674315352252722 0 0.0029867257422990052 -0.0066253299403837614 0 0.0028385497646999515 -0.0065499302758163505 0 0.0028669780228406873 -0.0063528894906066443 0 0.0014380020038128689 -0.01418249688894118 0 0.0010140129660801383 -0.013017593611976097 0 0.0028385497646999515 -0.0065499302758163505 0 0.0028669780228406873 -0.0063528894906066443 0 0.0027691700442865697 -0.0064423603166961193 0 0.0032418528309159514 -0.0070996330706758343 0 0.0031064646870022517 -0.0069014272216566816 0 0.0031797832990082286 -0.0068664961808853594 0 0.0032418528309159514 -0.0070996330706758343 0 0.0029205927703331914 -0.0068691815436191734 0 0.0031064646870022517 -0.0069014272216566816 0 0.0031064646870022517 -0.0069014272216566816 0 0.0031797832990082286 -0.0068664961808853594 0 0.0030650114802063251 -0.0067823313904105233 0 0.0029205927703331914 -0.0068691815436191734 0 0.0031064646870022517 -0.0069014272216566816 0 0.0030650114802063251 -0.0067823313904105233 0 0.0030650114802063251 -0.0067823313904105233 0 0.0031617765592058273 -0.0066940281550854595 0 0.0029482237427430956 -0.0065468971849067612 0 0.0031797832990082286 -0.0068664961808853594 0 0.0030650114802063251 -0.0067823313904105233 0 0.0031617765592058273 -0.0066940281550854595 0 0.0029205927703331914 -0.0068691815436191734 0 0.0030650114802063251 -0.0067823313904105233 0 0.0029482237427430956 -0.0065468971849067612 0 0.0031617765592058273 -0.0066940281550854595 0 0.0029482237427430956 -0.0065468971849067612 0 0.0031696535680888669 -0.0064028825671331958 0 0.0031617765592058273 -0.0066940281550854595 0 0.0034745444955271267 -0.0067809361292074733 0 0.0031696535680888669 -0.0064028825671331958 0 0.0034745444955271267 -0.0067809361292074733 0 0.0034975905805647899 -0.0061642263733322818 0 0.0031696535680888669 -0.0064028825671331958 0 0.00181915119084909 -0.015761411674899684 0 0.0014274595333845937 -0.016068248069174902 0 0.0031797832990082286 -0.0068664961808853594 0 0.0031617765592058273 -0.0066940281550854595 0 0.0034745444955271267 -0.0067809361292074733 0 0.00083795091011597679 -0.021056854445464908 0 0.00067410099926298417 -0.02130670491643593 0 0.00069538144511438883 -0.020977126087773693 0 0.0034975905805647899 -0.0061642263733322818 0 0.0031236420884380935 -0.0059468015681658657 0 0.0031696535680888669 -0.0064028825671331958 0 0.0014274595333845937 -0.016068248069174902 0 0.00079711598705791537 -0.018145424384169589 0 0.0034975905805647899 -0.0061642263733322818 0 0.0031236420884380935 -0.0059468015681658657 0 0.0035197311217396278 -0.0056047722416793459 0 0.0031236420884380935 -0.0059468015681658657 0 0.0028950322241868527 -0.0061838843218442411 0 0.0027146723756450472 -0.00575207526175336 0 0.0031236420884380935 -0.0059468015681658657 0 0.0027146723756450472 -0.00575207526175336 0 0.0031444239029672313 -0.0055752362103324129 0 0.0031236420884380935 -0.0059468015681658657 0 0.0028950322241868527 -0.0061838843218442411 0 0.0031696535680888669 -0.0064028825671331958 0 0.0029482237427430956 -0.0065468971849067612 0 0.0028950322241868527 -0.0061838843218442411 0 0.0031696535680888669 -0.0064028825671331958 0 0.0028950322241868527 -0.0061838843218442411 0 0.0025245376218824113 -0.0062861546981167801 0 0.0027146723756450472 -0.00575207526175336 0 0.0029482237427430956 -0.0065468971849067612 0 0.0028950322241868527 -0.0061838843218442411 0 0.0025245376218824113 -0.0062861546981167801 0 0.00046198768316266757 -0.01030208062804404 0 0.00032660932240896259 -0.0095140542013174983 0 0.0025245376218824113 -0.0062861546981167801 0 0.0027146723756450472 -0.00575207526175336 0 0.0021587052167319604 -0.0057055606007027524 0 0.0024892514102873341 -0.0059688898645055668 0 0.0020453050953397915 -0.0059376137311196566 0 0.0021587052167319604 -0.0057055606007027524 0 0.0024892514102873341 -0.0059688898645055668 0 0.002220220591778491 -0.0062058600264596744 0 0.0020453050953397915 -0.0059376137311196566 0 0.0024892514102873341 -0.0059688898645055668 0 0.002220220591778491 -0.0062058600264596744 0 0.0024567090080697342 -0.0062828377000570135 0 0.0029205927703331914 -0.0068691815436191734 0 0.0029482237427430956 -0.0065468971849067612 0 0.0025245376218824113 -0.0062861546981167801 0 0.0010140129660801383 -0.013017593611976097 0 0.00046198768316266757 -0.01030208062804404 0 0.0024892514102873341 -0.0059688898645055668 0 0.0024567090080697342 -0.0062828377000570135 0 0.0026522007542771411 -0.0063692792506904817 0 0.0028669780228406873 -0.0063528894906066443 0 0.0024892514102873341 -0.0059688898645055668 0 0.0026522007542771411 -0.0063692792506904817 0 0.0024567090080697342 -0.0062828377000570135 0 0.0026522007542771411 -0.0063692792506904817 0 0.0025593095860699175 -0.0064014901594925885 0 0.0025593095860699175 -0.0064014901594925885 0 0.0026801373145290868 -0.0064496261427582791 0 0.002617588765380392 -0.0064785191130142892 0 0.0026522007542771411 -0.0063692792506904817 0 0.0025593095860699175 -0.0064014901594925885 0 0.0026801373145290868 -0.0064496261427582791 0 0.0025593095860699175 -0.0064014901594925885 0 0.002617588765380392 -0.0064785191130142892 0 0.0025150026618290583 -0.0064728831128251689 0 0.0028669780228406873 -0.0063528894906066443 0 0.0026522007542771411 -0.0063692792506904817 0 0.0027691700442865697 -0.0064423603166961193 0 0.0026522007542771411 -0.0063692792506904817 0 0.0026801373145290868 -0.0064496261427582791 0 0.0027691700442865697 -0.0064423603166961193 0 0.0028385497646999515 -0.0065499302758163505 0 0.0027691700442865697 -0.0064423603166961193 0 0.0027119028478945748 -0.0065902078694847826 0 0.0026801373145290868 -0.0064496261427582791 0 0.0027691700442865697 -0.0064423603166961193 0 0.0027119028478945748 -0.0065902078694847826 0 0.0026801373145290868 -0.0064496261427582791 0 0.0027119028478945748 -0.0065902078694847826 0 0.002617588765380392 -0.0064785191130142892 0 0.0027119028478945748 -0.0065902078694847826 0 0.002617588765380392 -0.0064785191130142892 0 0.0025150026618290583 -0.0064728831128251689 0 0.0024083780637608062 -0.0068090164505186183 0 0.0025338943541793725 -0.0067194551221410794 0 0.0022975771966127472 -0.006562945873294067 0 0.002220220591778491 -0.0062058600264596744 0 0.0024567090080697342 -0.0062828377000570135 0 0.0022975771966127472 -0.006562945873294067 0 0.0025338943541793725 -0.0067194551221410794 0 0.0025150026618290583 -0.0064728831128251689 0 0.0022975771966127472 -0.006562945873294067 0 0.0024567090080697342 -0.0062828377000570135 0 0.0025593095860699175 -0.0064014901594925885 0 0.0025150026618290583 -0.0064728831128251689 0 0.0024567090080697342 -0.0062828377000570135 0 0.0025150026618290583 -0.0064728831128251689 0 0.0022975771966127472 -0.006562945873294067 0 0.00014067341101406291 -0.034874764408603487 0 0.00029506099999635556 -0.034942652511206811 0 0.00033678457805959029 -0.034677365962775007 0 0.00014067341101406291 -0.034874764408603487 0 0.00029506099999635556 -0.034942652511206811 0 2.1409803788274683e-05 -0.035026256593644743 0 -0.00010465371997376277 -0.033486674187735051 0 -4.4911458145382869e-05 -0.032348384945328157 0 0.00029506099999635556 -0.034942652511206811 0 0.00033678457805959029 -0.034677365962775007 0 0.00059194784301172662 -0.034815940373705723 0 4.5871607923499764e-05 -0.034852505599222754 0 5.3260696265746178e-05 -0.034873743879212507 0 6.6096255769617629e-05 -0.034850157657393042 0 4.5871607923499764e-05 -0.034852505599222754 0 5.3260696265746178e-05 -0.034873743879212507 0 3.4888697992793638e-05 -0.03490305451948237 0 5.3260696265746178e-05 -0.034873743879212507 0 3.4888697992793638e-05 -0.03490305451948237 0 4.3087465144994457e-05 -0.034916728013783704 0 -0.00010465371997376277 -0.033486674187735051 0 -7.1040515770449039e-05 -0.034312670817870129 0 4.5871607923499764e-05 -0.034852505599222754 0 3.4888697992793638e-05 -0.03490305451948237 0 9.3667181762453883e-06 -0.0349227568028804 0 2.1409803788274683e-05 -0.035026256593644743 0 1.4259355641986754e-06 -0.034994321237173741 0 1.0557074971441404e-05 -0.034973592858076157 0 -7.1040515770449039e-05 -0.034312670817870129 0 -5.3272452752309963e-07 -0.034997870216749188 0 1.4259355641986754e-06 -0.034994321237173741 0 6.9424148324888868e-09 -0.034999978404526469 0 -1.8733114330055986e-08 -0.035000021408076343 0 2.1409803788274683e-05 -0.035026256593644743 0 1.4259355641986754e-06 -0.034994321237173741 0 -1.8733114330055986e-08 -0.035000021408076343 0 1.4259355641986754e-06 -0.034994321237173741 0 4.9249122111832619e-06 -0.034992578127594647 0 6.9424148324888868e-09 -0.034999978404526469 0 0.00014067341101406291 -0.034874764408603487 0 1.0557074971441404e-05 -0.034973592858076157 0 5.6338001791170512e-05 -0.034697393095889394 0 4.9249122111832619e-06 -0.034992578127594647 0 1.0557074971441404e-05 -0.034973592858076157 0 -1.4480579121266401e-06 -0.034996031187205116 0 1.4259355641986754e-06 -0.034994321237173741 0 4.9249122111832619e-06 -0.034992578127594647 0 1.0557074971441404e-05 -0.034973592858076157 0 0.00014067341101406291 -0.034874764408603487 0 2.1409803788274683e-05 -0.035026256593644743 0 1.0557074971441404e-05 -0.034973592858076157 0 8.6773921016810999e-05 -0.034434555730282666 0 0.00012019681716949863 -0.034295236446093495 0 4.9249122111832619e-06 -0.034992578127594647 0 -1.4480579121266401e-06 -0.034996031187205116 0 1.7753143720186568e-06 -0.034998416943180524 0 4.9249122111832619e-06 -0.034992578127594647 0 4.6626594409830894e-09 -0.034999998085378577 0 1.7753143720186568e-06 -0.034998416943180524 0 4.9249122111832619e-06 -0.034992578127594647 0 6.9424148324888868e-09 -0.034999978404526469 0 4.6626594409830894e-09 -0.034999998085378577 0 -2.3430452213686753e-09 -0.03499999355046788 0 4.6626594409830894e-09 -0.034999998085378577 0 1.0197517275222698e-06 -0.034999450125873605 0 4.6626594409830894e-09 -0.034999998085378577 0 1.7753143720186568e-06 -0.034998416943180524 0 1.0197517275222698e-06 -0.034999450125873605 0 -1.4480579121266401e-06 -0.034996031187205116 0 1.7753143720186568e-06 -0.034998416943180524 0 2.4820108557373792e-06 -0.034998990812694447 0 -1.4480579121266401e-06 -0.034996031187205116 0 2.4820108557373792e-06 -0.034998990812694447 0 2.5250181481376979e-07 -0.034998362434747687 0 1.7753143720186568e-06 -0.034998416943180524 0 1.0197517275222698e-06 -0.034999450125873605 0 2.4820108557373792e-06 -0.034998990812694447 0 0.00021475448631387605 -0.033862848288312271 0 0.00023034557531376667 -0.033843160071339098 0 5.6338001791170512e-05 -0.034697393095889394 0 0.0001266842882171336 -0.034424055506399556 0 0.00033678457805959029 -0.034677365962775007 0 0.00012019681716949863 -0.034295236446093495 0 0.00023034557531376667 -0.033843160071339098 0 0.00014067341101406291 -0.034874764408603487 0 5.6338001791170512e-05 -0.034697393095889394 0 0.00033678457805959029 -0.034677365962775007 0 0.0001266842882171336 -0.034424055506399556 0 0.00033678457805959029 -0.034677365962775007 0 0.00048496508478619918 -0.034413585098656482 0 0.00023034557531376667 -0.033843160071339098 0 0.0005021720847552259 -0.032557571255536301 0 0.00033678457805959029 -0.034677365962775007 0 0.00048496508478619918 -0.034413585098656482 0 0.00066678333840670088 -0.034577590389513316 0 0.00084419096520183326 -0.034402077194386878 0 0.00048496508478619918 -0.034413585098656482 0 0.00066678333840670088 -0.034577590389513316 0 0.00084419096520183326 -0.034402077194386878 0 0.00066678333840670088 -0.034577590389513316 0 0.00088532641168686957 -0.034688447668837372 0 0.00090491048490959054 -0.030747292849592923 0 0.0005021720847552259 -0.032557571255536301 0 0.00066678333840670088 -0.034577590389513316 0 0.00088532641168686957 -0.034688447668837372 0 0.00059194784301172662 -0.034815940373705723 0 0.00012167926822585423 -0.034751890731686157 0 0.00012060310035083437 -0.034743929126004804 0 7.1326267638610711e-05 -0.034797640369821539 0 0.00027184236481577205 -0.030633658038324012 0 -4.4911458145382869e-05 -0.032348384945328157 0 0.00033678457805959029 -0.034677365962775007 0 0.00066678333840670088 -0.034577590389513316 0 0.00059194784301172662 -0.034815940373705723 0 0.00084971592428077216 -0.028981064756024438 0 0.00076091474024490109 -0.02882406279910301 0 0.0010147260304521181 -0.028720154962679049 0 0.00044285565909205787 -0.02634371507782415 0 0.0009315059278387879 -0.026333945165893179 0 0.00067528771366763259 -0.026750914032848582 0 0.0014248445981647534 -0.028686400946467693 0 0.0012635097954873835 -0.027438541245572032 0 0.0010529321196868101 -0.02897998778507415 0 0.00084971592428077216 -0.028981064756024438 0 0.0010147260304521181 -0.028720154962679049 0 0.00090491048490959054 -0.030747292849592923 0 0.00027184236481577205 -0.030633658038324012 0 0.00012112003124441696 -0.034742128060194014 0 0.00016272064799793356 -0.034747941049640671 0 0.00014123699655999928 -0.034761126631409421 0 0.00012167926822585423 -0.034751890731686157 0 0.00012112003124441696 -0.034742128060194014 0 0.00014123699655999928 -0.034761126631409421 0 0.00027364411392881606 -0.030652026337439069 0 0.00027184236481577205 -0.030633658038324012 0 0.00020858170827685272 -0.034758132876458972 0 0.00018181961678114106 -0.034705505581894371 0 0.00016272064799793356 -0.034747941049640671 0 0.0012635097954873835 -0.027438541245572032 0 0.00027184236481577205 -0.030633658038324012 0 0.00018181961678114106 -0.034705505581894371 0 0.00012112003124441696 -0.034742128060194014 0 0.00016272064799793356 -0.034747941049640671 0 0.00020858170827685272 -0.034758132876458972 0 0.00018806179886055697 -0.034787610538155642 0 0.00016272064799793356 -0.034747941049640671 0 0.00018806179886055697 -0.034787610538155642 0 0.00016272064799793356 -0.034747941049640671 0 0.0001526652001925626 -0.034792416238427652 0 0.00016272064799793356 -0.034747941049640671 0 0.0001526652001925626 -0.034792416238427652 0 0.00014123699655999928 -0.034761126631409421 0 0.00012167926822585423 -0.034751890731686157 0 0.00012793320512375958 -0.034785913125510756 0 9.7416177859894649e-05 -0.034810641148916847 0 0.0001526652001925626 -0.034792416238427652 0 0.00014123699655999928 -0.034761126631409421 0 0.00012793320512375958 -0.034785913125510756 0 0.0001526652001925626 -0.034792416238427652 0 0.00012793320512375958 -0.034785913125510756 0 0.0001245201169057026 -0.034812082842629363 0 0.00012167926822585423 -0.034751890731686157 0 0.00014123699655999928 -0.034761126631409421 0 0.00012793320512375958 -0.034785913125510756 0 0.00012793320512375958 -0.034785913125510756 0 0.0001245201169057026 -0.034812082842629363 0 9.7416177859894649e-05 -0.034810641148916847 0 0.0001526652001925626 -0.034792416238427652 0 0.0001245201169057026 -0.034812082842629363 0 0.00013394116228587384 -0.034841074460851225 0 0.0001245201169057026 -0.034812082842629363 0 7.4888805924489977e-05 -0.034854382058147691 0 0.00013394116228587384 -0.034841074460851225 0 0.00018777871814723736 -0.034819197264683195 0 0.0001526652001925626 -0.034792416238427652 0 0.00013394116228587384 -0.034841074460851225 0 0.00018777871814723736 -0.034819197264683195 0 0.00018806179886055697 -0.034787610538155642 0 0.0001526652001925626 -0.034792416238427652 0 7.1326267638610711e-05 -0.034797640369821539 0 9.7416177859894649e-05 -0.034810641148916847 0 6.6096255769617629e-05 -0.034850157657393042 0 4.5871607923499764e-05 -0.034852505599222754 0 7.1326267638610711e-05 -0.034797640369821539 0 6.6096255769617629e-05 -0.034850157657393042 0 0.00012167926822585423 -0.034751890731686157 0 7.1326267638610711e-05 -0.034797640369821539 0 9.7416177859894649e-05 -0.034810641148916847 0 9.7416177859894649e-05 -0.034810641148916847 0 6.6096255769617629e-05 -0.034850157657393042 0 7.4888805924489977e-05 -0.034854382058147691 0 0.0001245201169057026 -0.034812082842629363 0 9.7416177859894649e-05 -0.034810641148916847 0 7.4888805924489977e-05 -0.034854382058147691 0 6.6096255769617629e-05 -0.034850157657393042 0 7.4888805924489977e-05 -0.034854382058147691 0 7.166197839832223e-05 -0.034853352611329276 0 7.4888805924489977e-05 -0.034854382058147691 0 6.5055462319481776e-05 -0.034840944952917355 0 5.0657316372236527e-05 -0.034845045472649223 0 7.4888805924489977e-05 -0.034854382058147691 0 6.5055462319481776e-05 -0.034840944952917355 0 7.166197839832223e-05 -0.034853352611329276 0 6.5055462319481776e-05 -0.034840944952917355 0 7.166197839832223e-05 -0.034853352611329276 0 6.9333920374605151e-05 -0.034832605113334004 0 6.0429425264399237e-05 -0.034875664041951512 0 6.3550834880466396e-05 -0.034879156000203013 0 5.5321500990259492e-05 -0.03493843915862526 0 4.7969574993346062e-05 -0.034920757434886186 0 4.7036255966840363e-05 -0.034939479163412106 0 9.8162515213198561e-05 -0.0275220698473711 0 -0.00025416644856049973 -0.028643072307330906 0 7.1744827559412009e-06 -0.034863490683501447 0 4.1234968979019891e-05 -0.034861912025008442 0 2.0941437477981722e-05 -0.034839580155839031 0 -0.00034977707727506976 -0.028999810523730494 0 -0.00025416644856049973 -0.028643072307330906 0 7.4888805924489977e-05 -0.034854382058147691 0 4.1234968979019891e-05 -0.034861912025008442 0 5.0657316372236527e-05 -0.034845045472649223 0 4.1234968979019891e-05 -0.034861912025008442 0 5.0657316372236527e-05 -0.034845045472649223 0 2.0941437477981722e-05 -0.034839580155839031 0 6.5055462319481776e-05 -0.034840944952917355 0 5.0657316372236527e-05 -0.034845045472649223 0 4.5636090615778798e-05 -0.034833631011028043 0 5.0657316372236527e-05 -0.034845045472649223 0 2.0941437477981722e-05 -0.034839580155839031 0 4.5636090615778798e-05 -0.034833631011028043 0 -9.5338212279225062e-06 -0.034816354967440011 0 2.0941437477981722e-05 -0.034839580155839031 0 2.1911727117811901e-05 -0.034817864822621052 0 2.0941437477981722e-05 -0.034839580155839031 0 2.1911727117811901e-05 -0.034817864822621052 0 4.5636090615778798e-05 -0.034833631011028043 0 -9.5338212279225062e-06 -0.034816354967440011 0 2.1911727117811901e-05 -0.034817864822621052 0 3.6528841147319279e-06 -0.034800587948815874 0 6.5055462319481776e-05 -0.034840944952917355 0 4.5636090615778798e-05 -0.034833631011028043 0 6.1072895399387055e-05 -0.034825152491992258 0 2.1911727117811901e-05 -0.034817864822621052 0 4.5636090615778798e-05 -0.034833631011028043 0 6.1072895399387055e-05 -0.034825152491992258 0 6.1072895399387055e-05 -0.034825152491992258 0 2.8063760754031123e-05 -0.034801209582276824 0 6.8646888294324212e-05 -0.03480942377629602 0 6.1072895399387055e-05 -0.034825152491992258 0 7.3210019103970303e-05 -0.034840998108750562 0 6.8646888294324212e-05 -0.03480942377629602 0 2.1911727117811901e-05 -0.034817864822621052 0 6.1072895399387055e-05 -0.034825152491992258 0 2.8063760754031123e-05 -0.034801209582276824 0 2.1911727117811901e-05 -0.034817864822621052 0 2.8063760754031123e-05 -0.034801209582276824 0 3.6528841147319279e-06 -0.034800587948815874 0 2.8063760754031123e-05 -0.034801209582276824 0 3.6528841147319279e-06 -0.034800587948815874 0 -1.1461352164529733e-05 -0.034783229290240594 0 6.5055462319481776e-05 -0.034840944952917355 0 6.1072895399387055e-05 -0.034825152491992258 0 6.9333920374605151e-05 -0.034832605113334004 0 6.3550834880466396e-05 -0.034879156000203013 0 6.4887117397139364e-05 -0.034878991627121665 0 6.1072895399387055e-05 -0.034825152491992258 0 6.9333920374605151e-05 -0.034832605113334004 0 7.3210019103970303e-05 -0.034840998108750562 0 4.7969574993346062e-05 -0.034920757434886186 0 5.0221479456487708e-05 -0.034919685612269206 0 7.3210019103970303e-05 -0.034840998108750562 0 5.0221479456487708e-05 -0.034919685612269206 0 2.8802188237604008e-05 -0.034956974707953233 0 2.2693002601043246e-05 -0.034960170383160759 0 5.0221479456487708e-05 -0.034919685612269206 0 2.8802188237604008e-05 -0.034956974707953233 0 4.7036255966840363e-05 -0.034939479163412106 0 4.7969574993346062e-05 -0.034920757434886186 0 5.0221479456487708e-05 -0.034919685612269206 0 4.7036255966840363e-05 -0.034939479163412106 0 5.5321500990259492e-05 -0.03493843915862526 0 4.7036255966840363e-05 -0.034939479163412106 0 2.9979652062224842e-05 -0.03494055209620224 0 2.8802188237604008e-05 -0.034956974707953233 0 4.7036255966840363e-05 -0.034939479163412106 0 2.9979652062224842e-05 -0.03494055209620224 0 3.4888697992793638e-05 -0.03490305451948237 0 2.9979652062224842e-05 -0.03494055209620224 0 4.3087465144994457e-05 -0.034916728013783704 0 3.4888697992793638e-05 -0.03490305451948237 0 9.3667181762453883e-06 -0.0349227568028804 0 2.9979652062224842e-05 -0.03494055209620224 0 5.7910052439313613e-05 -0.034871264594707151 0 6.0429425264399237e-05 -0.034875664041951512 0 5.3260696265746178e-05 -0.034873743879212507 0 6.6096255769617629e-05 -0.034850157657393042 0 7.166197839832223e-05 -0.034853352611329276 0 5.3260696265746178e-05 -0.034873743879212507 0 5.5321500990259492e-05 -0.03493843915862526 0 4.3087465144994457e-05 -0.034916728013783704 0 5.5321500990259492e-05 -0.03493843915862526 0 2.9979652062224842e-05 -0.03494055209620224 0 4.3087465144994457e-05 -0.034916728013783704 0 9.3667181762453883e-06 -0.0349227568028804 0 -1.6243337900657826e-08 -0.03499987467099136 0 9.4279060296496867e-06 -0.034971565536429168 0 9.3667181762453883e-06 -0.0349227568028804 0 2.9979652062224842e-05 -0.03494055209620224 0 9.4279060296496867e-06 -0.034971565536429168 0 2.8802188237604008e-05 -0.034956974707953233 0 2.9979652062224842e-05 -0.03494055209620224 0 9.4279060296496867e-06 -0.034971565536429168 0 9.4279060296496867e-06 -0.034971565536429168 0 1.3764474166780967e-08 -0.03499997942059424 0 1.210951921406575e-05 -0.034979236701415443 0 -1.6243337900657826e-08 -0.03499987467099136 0 9.4279060296496867e-06 -0.034971565536429168 0 1.3764474166780967e-08 -0.03499997942059424 0 1.3764474166780967e-08 -0.03499997942059424 0 1.210951921406575e-05 -0.034979236701415443 0 1.1003188343801319e-08 -0.034999956033180991 0 2.8802188237604008e-05 -0.034956974707953233 0 9.4279060296496867e-06 -0.034971565536429168 0 1.210951921406575e-05 -0.034979236701415443 0 2.8802188237604008e-05 -0.034956974707953233 0 1.210951921406575e-05 -0.034979236701415443 0 2.2693002601043246e-05 -0.034960170383160759 0 1.210951921406575e-05 -0.034979236701415443 0 2.2693002601043246e-05 -0.034960170383160759 0 1.1003188343801319e-08 -0.034999956033180991 0 1.1003188343801319e-08 -0.034999956033180991 0 1.4077927695105816e-05 -0.034971034686494734 0 6.4006869425945614e-09 -0.034999963587831265 0 2.2693002601043246e-05 -0.034960170383160759 0 1.1003188343801319e-08 -0.034999956033180991 0 1.4077927695105816e-05 -0.034971034686494734 0 2.2693002601043246e-05 -0.034960170383160759 0 1.4077927695105816e-05 -0.034971034686494734 0 3.3579263593349491e-05 -0.034937444189571114 0 1.4077927695105816e-05 -0.034971034686494734 0 3.3579263593349491e-05 -0.034937444189571114 0 1.2938402621937428e-05 -0.03497603397498069 0 1.4077927695105816e-05 -0.034971034686494734 0 6.4006869425945614e-09 -0.034999963587831265 0 1.2938402621937428e-05 -0.03497603397498069 0 5.0221479456487708e-05 -0.034919685612269206 0 3.3579263593349491e-05 -0.034937444189571114 0 6.1725930315076775e-05 -0.034882109893853513 0 5.0221479456487708e-05 -0.034919685612269206 0 2.2693002601043246e-05 -0.034960170383160759 0 3.3579263593349491e-05 -0.034937444189571114 0 3.3579263593349491e-05 -0.034937444189571114 0 4.111260019899134e-05 -0.034936284755310992 0 1.2938402621937428e-05 -0.03497603397498069 0 3.3579263593349491e-05 -0.034937444189571114 0 4.111260019899134e-05 -0.034936284755310992 0 6.1725930315076775e-05 -0.034882109893853513 0 4.111260019899134e-05 -0.034936284755310992 0 4.2770970288560333e-05 -0.034974761099610965 0 8.097939075384894e-05 -0.034916054879571987 0 4.111260019899134e-05 -0.034936284755310992 0 4.2770970288560333e-05 -0.034974761099610965 0 1.2938402621937428e-05 -0.03497603397498069 0 4.2770970288560333e-05 -0.034974761099610965 0 1.2938402621937428e-05 -0.03497603397498069 0 1.7443408746040025e-05 -0.034998590058178611 0 6.4006869425945614e-09 -0.034999963587831265 0 1.2938402621937428e-05 -0.03497603397498069 0 1.5595730153431088e-09 -0.034999979768978028 0 1.2938402621937428e-05 -0.03497603397498069 0 4.9734310829598717e-06 -0.034998488389467751 0 1.7443408746040025e-05 -0.034998590058178611 0 1.2938402621937428e-05 -0.03497603397498069 0 1.5595730153431088e-09 -0.034999979768978028 0 4.9734310829598717e-06 -0.034998488389467751 0 1.5595730153431088e-09 -0.034999979768978028 0 4.9734310829598717e-06 -0.034998488389467751 0 2.7972057785391733e-09 -0.035000016943047031 0 4.9734310829598717e-06 -0.034998488389467751 0 2.7972057785391733e-09 -0.035000016943047031 0 2.8324875810186738e-06 -0.035004409873735154 0 4.2164459799255925e-07 -0.034999265513460942 0 4.337893939585958e-05 -0.034906482957258476 0 5.6413686465312033e-11 -0.035000000013876681 0 -2.3700364448711665e-08 -0.034999907413384886 0 -9.9828107648994695e-11 -0.034999999753106983 0 5.3373657571072192e-07 -0.035000081539540012 0 6.2923121907508697e-09 -0.034999989122064173 0 5.2074333174932982e-07 -0.034999726999311517 0 4.337893939585958e-05 -0.034906482957258476 0 5.3888189128333416e-08 -0.034999423456019245 0 0.00096014784786241229 -0.034127664156708079 0 0.00079345671417932831 -0.034129878092166097 0 0.0007755654571476602 -0.034253587849430861 0 0.00096014784786241229 -0.034127664156708079 0 0.00079345671417932831 -0.034129878092166097 0 0.00078619896961956194 -0.03400589356127643 0 5.3373657571072192e-07 -0.035000081539540012 0 5.2074333174932982e-07 -0.034999726999311517 0 -9.9735952251137358e-07 -0.03499966647607429 0 4.337893939585958e-05 -0.034906482957258476 0 0.00012078865887145124 -0.034774887844726189 0 4.337893939585958e-05 -0.034906482957258476 0 0.00021762320549955153 -0.034775738875178007 0 4.9734310829598717e-06 -0.034998488389467751 0 2.8324875810186738e-06 -0.035004409873735154 0 1.7443408746040025e-05 -0.034998590058178611 0 0.00024532378486832456 -0.034748599791914699 0 0.00021762320549955153 -0.034775738875178007 0 0.00059996496875139879 -0.034385217850163199 0 0.0007755654571476602 -0.034253587849430861 0 0.00065125961855525764 -0.03413251305079338 0 0.00059996496875139879 -0.034385217850163199 0 0.00065125961855525764 -0.03413251305079338 0 0.00048162074556877462 -0.034213680813863757 0 0.00065125961855525764 -0.03413251305079338 0 0.00048272784757773403 -0.034058982547154559 0 0.00048162074556877462 -0.034213680813863757 0 0.00079345671417932831 -0.034129878092166097 0 0.00065125961855525764 -0.03413251305079338 0 0.00078619896961956194 -0.03400589356127643 0 0.00079345671417932831 -0.034129878092166097 0 0.0007755654571476602 -0.034253587849430861 0 0.00065125961855525764 -0.03413251305079338 0 0.00012689819087754136 -0.034665533313472517 0 0.00012078865887145124 -0.034774887844726189 0 -6.2646472767742602e-06 -0.034996575416838399 0 -8.8198907640511686e-07 -0.034996661596845932 0 -9.9735952251137358e-07 -0.03499966647607429 0 0.00065125961855525764 -0.03413251305079338 0 0.00060312008563986939 -0.033884277617574399 0 0.00078619896961956194 -0.03400589356127643 0 0.00060312008563986939 -0.033884277617574399 0 0.00044616892074060078 -0.033899059623591583 0 0.00048272784757773403 -0.034058982547154559 0 0.00065125961855525764 -0.03413251305079338 0 0.00060312008563986939 -0.033884277617574399 0 0.00048272784757773403 -0.034058982547154559 0 0.00060312008563986939 -0.033884277617574399 0 0.00044616892074060078 -0.033899059623591583 0 0.00041857208260146156 -0.033779031995827817 0 0.00012689819087754136 -0.034665533313472517 0 9.7777202711376082e-05 -0.034585137334617377 0 -6.2646472767742602e-06 -0.034996575416838399 0 -8.8198907640511686e-07 -0.034996661596845932 0 -3.249225770730592e-06 -0.034991884969865585 0 -8.8198907640511686e-07 -0.034996661596845932 0 2.4692627722937843e-06 -0.034996019723778603 0 9.403095533180011e-07 -0.034999194945427359 0 -8.8198907640511686e-07 -0.034996661596845932 0 2.4692627722937843e-06 -0.034996019723778603 0 -3.249225770730592e-06 -0.034991884969865585 0 -7.9058687483772025e-09 -0.035000017070560573 0 2.4692627722937843e-06 -0.034996019723778603 0 9.403095533180011e-07 -0.034999194945427359 0 6.2923121907508697e-09 -0.034999989122064173 0 -7.9058687483772025e-09 -0.035000017070560573 0 9.403095533180011e-07 -0.034999194945427359 0 6.2923121907508697e-09 -0.034999989122064173 0 9.403095533180011e-07 -0.034999194945427359 0 5.2074333174932982e-07 -0.034999726999311517 0 9.403095533180011e-07 -0.034999194945427359 0 5.2074333174932982e-07 -0.034999726999311517 0 -9.9735952251137358e-07 -0.03499966647607429 0 -8.8198907640511686e-07 -0.034996661596845932 0 9.403095533180011e-07 -0.034999194945427359 0 -9.9735952251137358e-07 -0.03499966647607429 0 0.00022040314672055041 -0.034005924074694958 0 9.7251103489097386e-05 -0.033972661561483937 0 0.00017235925862996694 -0.033909275381851935 0 9.7251103489097386e-05 -0.033972661561483937 0 9.4434381859703293e-05 -0.033893829110517949 0 0.00017235925862996694 -0.033909275381851935 0 0.00022040314672055041 -0.034005924074694958 0 0.00017235925862996694 -0.033909275381851935 0 0.00026256353608535368 -0.033910987548721301 0 9.7251103489097386e-05 -0.033972661561483937 0 9.4434381859703293e-05 -0.033893829110517949 0 7.9996554163101283e-06 -0.033909102098332145 0 9.7251103489097386e-05 -0.033972661561483937 0 1.1677601748950915e-05 -0.033998873648151892 0 7.9996554163101283e-06 -0.033909102098332145 0 9.4434381859703293e-05 -0.033893829110517949 0 5.9563964457307426e-05 -0.033840826592788885 0 7.9996554163101283e-06 -0.033909102098332145 0 9.4434381859703293e-05 -0.033893829110517949 0 5.9563964457307426e-05 -0.033840826592788885 0 0.00015113297252022435 -0.033833754877328696 0 9.4434381859703293e-05 -0.033893829110517949 0 0.00015113297252022435 -0.033833754877328696 0 0.00017235925862996694 -0.033909275381851935 0 0.00017235925862996694 -0.033909275381851935 0 0.00021487871687578985 -0.033842812210775758 0 0.00026256353608535368 -0.033910987548721301 0 0.00015113297252022435 -0.033833754877328696 0 0.00017235925862996694 -0.033909275381851935 0 0.00021487871687578985 -0.033842812210775758 0 0.00015113297252022435 -0.033833754877328696 0 0.00021487871687578985 -0.033842812210775758 0 0.0002115261885064786 -0.033792921833262289 0 0.00021487871687578985 -0.033842812210775758 0 0.00029052497756063136 -0.033839208307544909 0 0.00025668258457235314 -0.033792775252253507 0 0.00029052497756063136 -0.033839208307544909 0 0.00031673831650684222 -0.033792107763915898 0 0.00025668258457235314 -0.033792775252253507 0 0.00029052497756063136 -0.033839208307544909 0 0.00034257958546774121 -0.033891891171432209 0 0.00035757663313251285 -0.033831898880315826 0 0.00029052497756063136 -0.033839208307544909 0 0.00035757663313251285 -0.033831898880315826 0 0.00031673831650684222 -0.033792107763915898 0 0.00029052497756063136 -0.033839208307544909 0 0.00034257958546774121 -0.033891891171432209 0 0.00026256353608535368 -0.033910987548721301 0 0.00021487871687578985 -0.033842812210775758 0 0.00029052497756063136 -0.033839208307544909 0 0.00026256353608535368 -0.033910987548721301 0 0.00035757663313251285 -0.033831898880315826 0 0.00044616892074060078 -0.033899059623591583 0 0.00041857208260146156 -0.033779031995827817 0 0.00034257958546774121 -0.033891891171432209 0 0.00035757663313251285 -0.033831898880315826 0 0.00044616892074060078 -0.033899059623591583 0 0.00044616892074060078 -0.033899059623591583 0 0.00034287241352161851 -0.033983394764003472 0 0.00048272784757773403 -0.034058982547154559 0 0.00034257958546774121 -0.033891891171432209 0 0.00044616892074060078 -0.033899059623591583 0 0.00034287241352161851 -0.033983394764003472 0 0.00022040314672055041 -0.034005924074694958 0 0.00026256353608535368 -0.033910987548721301 0 0.00034287241352161851 -0.033983394764003472 0 0.00034257958546774121 -0.033891891171432209 0 0.00026256353608535368 -0.033910987548721301 0 0.00034287241352161851 -0.033983394764003472 0 0.00022040314672055041 -0.034005924074694958 0 0.00034287241352161851 -0.033983394764003472 0 0.00031629917758725396 -0.034153661885985967 0 0.00034287241352161851 -0.033983394764003472 0 0.00031629917758725396 -0.034153661885985967 0 0.00048272784757773403 -0.034058982547154559 0 0.00031629917758725396 -0.034153661885985967 0 0.00048272784757773403 -0.034058982547154559 0 0.00048162074556877462 -0.034213680813863757 0 0.00059996496875139879 -0.034385217850163199 0 0.00048162074556877462 -0.034213680813863757 0 0.00037552052696475786 -0.034342628267573568 0 0.00031629917758725396 -0.034153661885985967 0 0.00048162074556877462 -0.034213680813863757 0 0.00037552052696475786 -0.034342628267573568 0 0.00031629917758725396 -0.034153661885985967 0 0.00018638146778319825 -0.034294553198344402 0 0.00037552052696475786 -0.034342628267573568 0 0.00018638146778319825 -0.034294553198344402 0 0.00012498467093169407 -0.034113783867758013 0 8.4301997429597186e-05 -0.034247364091371593 0 0.00031629917758725396 -0.034153661885985967 0 0.00018638146778319825 -0.034294553198344402 0 0.00012498467093169407 -0.034113783867758013 0 0.00018638146778319825 -0.034294553198344402 0 8.4301997429597186e-05 -0.034247364091371593 0 8.8553576338782164e-05 -0.034383737697177487 0 0.00022040314672055041 -0.034005924074694958 0 0.00031629917758725396 -0.034153661885985967 0 0.00012498467093169407 -0.034113783867758013 0 0.00022040314672055041 -0.034005924074694958 0 9.7251103489097386e-05 -0.033972661561483937 0 0.00012498467093169407 -0.034113783867758013 0 1.1677601748950915e-05 -0.033998873648151892 0 2.5419488592594851e-05 -0.034163923985477074 0 -5.3100719582129644e-05 -0.03400742894170946 0 0.00012498467093169407 -0.034113783867758013 0 1.1677601748950915e-05 -0.033998873648151892 0 2.5419488592594851e-05 -0.034163923985477074 0 9.7251103489097386e-05 -0.033972661561483937 0 0.00012498467093169407 -0.034113783867758013 0 1.1677601748950915e-05 -0.033998873648151892 0 2.5419488592594851e-05 -0.034163923985477074 0 -5.3100719582129644e-05 -0.03400742894170946 0 -5.9214874984629672e-05 -0.034278620874260618 0 0.00012498467093169407 -0.034113783867758013 0 2.5419488592594851e-05 -0.034163923985477074 0 8.4301997429597186e-05 -0.034247364091371593 0 2.5419488592594851e-05 -0.034163923985477074 0 8.4301997429597186e-05 -0.034247364091371593 0 -1.6982586714813077e-05 -0.034308139779513636 0 2.5419488592594851e-05 -0.034163923985477074 0 -1.6982586714813077e-05 -0.034308139779513636 0 -5.9214874984629672e-05 -0.034278620874260618 0 -0.00053006584803072206 -0.029409614792630403 0 -0.00034399887560901008 -0.028969503665226597 0 -1.6982586714813077e-05 -0.034308139779513636 0 -6.9132922751604444e-05 -0.034342826593728663 0 -5.9214874984629672e-05 -0.034278620874260618 0 -1.6982586714813077e-05 -0.034308139779513636 0 1.4367888864567412e-06 -0.034452483879758723 0 -0.00010079563237300838 -0.034493704495089511 0 1.4367888864567412e-06 -0.034452483879758723 0 -8.2377623225853866e-06 -0.034547839443093739 0 -0.00010079563237300838 -0.034493704495089511 0 1.4367888864567412e-06 -0.034452483879758723 0 8.8553576338782164e-05 -0.034383737697177487 0 7.5464256533427809e-05 -0.034537831428037215 0 -1.6982586714813077e-05 -0.034308139779513636 0 1.4367888864567412e-06 -0.034452483879758723 0 8.8553576338782164e-05 -0.034383737697177487 0 8.4301997429597186e-05 -0.034247364091371593 0 -1.6982586714813077e-05 -0.034308139779513636 0 8.8553576338782164e-05 -0.034383737697177487 0 0.00018638146778319825 -0.034294553198344402 0 8.8553576338782164e-05 -0.034383737697177487 0 0.00022113591221536722 -0.034480454570612031 0 8.8553576338782164e-05 -0.034383737697177487 0 7.5464256533427809e-05 -0.034537831428037215 0 0.00022113591221536722 -0.034480454570612031 0 7.5464256533427809e-05 -0.034537831428037215 0 2.820763564836287e-05 -0.034632221544714951 0 0.00013108375293287747 -0.034771284806308068 0 7.5464256533427809e-05 -0.034537831428037215 0 0.00022113591221536722 -0.034480454570612031 0 0.00013108375293287747 -0.034771284806308068 0 2.820763564836287e-05 -0.034632221544714951 0 -8.2377623225853866e-06 -0.034547839443093739 0 -5.0580591926897106e-05 -0.034612335892034704 0 2.820763564836287e-05 -0.034632221544714951 0 6.9010542938366381e-06 -0.034702808876355934 0 -5.0580591926897106e-05 -0.034612335892034704 0 -8.2377623225853866e-06 -0.034547839443093739 0 -0.00010079563237300838 -0.034493704495089511 0 -5.0580591926897106e-05 -0.034612335892034704 0 7.5464256533427809e-05 -0.034537831428037215 0 2.820763564836287e-05 -0.034632221544714951 0 -8.2377623225853866e-06 -0.034547839443093739 0 1.4367888864567412e-06 -0.034452483879758723 0 7.5464256533427809e-05 -0.034537831428037215 0 -8.2377623225853866e-06 -0.034547839443093739 0 0.00024532378486832456 -0.034748599791914699 0 0.00021969001334549537 -0.034760336015857589 0 0.00059996496875139879 -0.034385217850163199 0 0.00037552052696475786 -0.034342628267573568 0 0.00041714494132740355 -0.034550782690147101 0 0.00037552052696475786 -0.034342628267573568 0 0.00022113591221536722 -0.034480454570612031 0 0.00041714494132740355 -0.034550782690147101 0 0.00018638146778319825 -0.034294553198344402 0 0.00037552052696475786 -0.034342628267573568 0 0.00022113591221536722 -0.034480454570612031 0 0.00022113591221536722 -0.034480454570612031 0 0.00041714494132740355 -0.034550782690147101 0 0.00013108375293287747 -0.034771284806308068 0 0.00021969001334549537 -0.034760336015857589 0 0.00019760034712317935 -0.034772335171393914 0 4.111260019899134e-05 -0.034936284755310992 0 8.097939075384894e-05 -0.034916054879571987 0 6.1725930315076775e-05 -0.034882109893853513 0 8.097939075384894e-05 -0.034916054879571987 0 6.1725930315076775e-05 -0.034882109893853513 0 0.00013108375293287747 -0.034771284806308068 0 6.1725930315076775e-05 -0.034882109893853513 0 7.3210019103970303e-05 -0.034840998108750562 0 0.00013108375293287747 -0.034771284806308068 0 5.0221479456487708e-05 -0.034919685612269206 0 6.1725930315076775e-05 -0.034882109893853513 0 7.3210019103970303e-05 -0.034840998108750562 0 6.9010542938366381e-06 -0.034702808876355934 0 3.4897744148007647e-05 -0.034768924287945348 0 -3.3676675629034023e-05 -0.034721213137164128 0 6.9010542938366381e-06 -0.034702808876355934 0 -6.0414746538132461e-05 -0.034673565491736752 0 -5.0580591926897106e-05 -0.034612335892034704 0 6.9010542938366381e-06 -0.034702808876355934 0 -3.3676675629034023e-05 -0.034721213137164128 0 -6.0414746538132461e-05 -0.034673565491736752 0 0.00013108375293287747 -0.034771284806308068 0 6.8646888294324212e-05 -0.03480942377629602 0 3.4897744148007647e-05 -0.034768924287945348 0 2.820763564836287e-05 -0.034632221544714951 0 6.9010542938366381e-06 -0.034702808876355934 0 0.00013108375293287747 -0.034771284806308068 0 6.9010542938366381e-06 -0.034702808876355934 0 0.00013108375293287747 -0.034771284806308068 0 3.4897744148007647e-05 -0.034768924287945348 0 7.3210019103970303e-05 -0.034840998108750562 0 0.00013108375293287747 -0.034771284806308068 0 6.8646888294324212e-05 -0.03480942377629602 0 2.8063760754031123e-05 -0.034801209582276824 0 6.8646888294324212e-05 -0.03480942377629602 0 3.4897744148007647e-05 -0.034768924287945348 0 2.8063760754031123e-05 -0.034801209582276824 0 3.4897744148007647e-05 -0.034768924287945348 0 -1.3575450870839315e-06 -0.034770752185235759 0 3.4897744148007647e-05 -0.034768924287945348 0 -1.3575450870839315e-06 -0.034770752185235759 0 -3.3676675629034023e-05 -0.034721213137164128 0 2.8063760754031123e-05 -0.034801209582276824 0 -1.3575450870839315e-06 -0.034770752185235759 0 -1.1461352164529733e-05 -0.034783229290240594 0 -1.1461352164529733e-05 -0.034783229290240594 0 -3.6781736459831296e-05 -0.034768963913154045 0 -3.3955275065005959e-05 -0.03475684504919057 0 -1.3575450870839315e-06 -0.034770752185235759 0 -1.1461352164529733e-05 -0.034783229290240594 0 -3.3955275065005959e-05 -0.03475684504919057 0 -2.3067011901827473e-05 -0.034788406372995337 0 -3.6781736459831296e-05 -0.034768963913154045 0 -4.1402844801326429e-05 -0.034761384598471529 0 -3.6781736459831296e-05 -0.034768963913154045 0 -4.8839654855139629e-05 -0.034760846281428164 0 -4.1402844801326429e-05 -0.034761384598471529 0 -3.6781736459831296e-05 -0.034768963913154045 0 -4.8839654855139629e-05 -0.034760846281428164 0 -4.8401003793978931e-05 -0.034755856317640721 0 -4.8839654855139629e-05 -0.034760846281428164 0 -4.8401003793978931e-05 -0.034755856317640721 0 -7.2138423141497867e-05 -0.034750848273206486 0 -3.6781736459831296e-05 -0.034768963913154045 0 -4.8401003793978931e-05 -0.034755856317640721 0 -3.3955275065005959e-05 -0.03475684504919057 0 -4.8401003793978931e-05 -0.034755856317640721 0 -3.3955275065005959e-05 -0.03475684504919057 0 -6.1557192927473646e-05 -0.034734150099628228 0 -4.8401003793978931e-05 -0.034755856317640721 0 -6.1557192927473646e-05 -0.034734150099628228 0 -7.2138423141497867e-05 -0.034750848273206486 0 -1.3575450870839315e-06 -0.034770752185235759 0 -3.3955275065005959e-05 -0.03475684504919057 0 -3.3676675629034023e-05 -0.034721213137164128 0 -6.1557192927473646e-05 -0.034734150099628228 0 -6.0414746538132461e-05 -0.034673565491736752 0 -0.00012412340735200192 -0.034621384709266526 0 -3.3676675629034023e-05 -0.034721213137164128 0 -6.1557192927473646e-05 -0.034734150099628228 0 -6.0414746538132461e-05 -0.034673565491736752 0 0.00081758954713762391 -0.027808178734255749 0 0.00011951926124357696 -0.028101078978759336 0 -3.3955275065005959e-05 -0.03475684504919057 0 -3.3676675629034023e-05 -0.034721213137164128 0 -6.1557192927473646e-05 -0.034734150099628228 0 -6.1557192927473646e-05 -0.034734150099628228 0 -7.2138423141497867e-05 -0.034750848273206486 0 -0.00012412340735200192 -0.034621384709266526 0 0.00059920585076333988 -0.026462877937120603 0 0.0005306137620161161 -0.0261666352925514 0 0.00071686677139936987 -0.026630872215986989 0 0.00038148999991841867 -0.026228171598108408 0 0.00018406324039604903 -0.027397611310731203 0 0.00059920585076333988 -0.026462877937120603 0 0.00086149294834271203 -0.025327586275396354 0 0.00059920585076333988 -0.026462877937120603 0 0.00011951926124357696 -0.028101078978759336 0 0.00059920585076333988 -0.026462877937120603 0 0.00081758954713762391 -0.027808178734255749 0 0.00059920585076333988 -0.026462877937120603 0 0.00085435179447050527 -0.026028306751473339 0 -5.0078082768217705e-05 -0.034715672834482722 0 -3.5699218577379373e-05 -0.034735270032297802 0 -4.1402844801326429e-05 -0.034761384598471529 0 -5.0078082768217705e-05 -0.034715672834482722 0 -4.1402844801326429e-05 -0.034761384598471529 0 -6.5665884622509037e-05 -0.034757638158083491 0 0.00081758954713762391 -0.027808178734255749 0 0.00076992384523887644 -0.028115655829006693 0 -4.8839654855139629e-05 -0.034760846281428164 0 -7.2138423141497867e-05 -0.034750848273206486 0 -4.1402844801326429e-05 -0.034761384598471529 0 0.0023676452129281055 -0.021896992135530268 0 0.0021246495578520646 -0.022248437384935944 0 0.0020549913623014774 -0.021954769860750248 0 0.0021246495578520646 -0.022248437384935944 0 0.0018629523477183526 -0.022161166349990505 0 0.0020549913623014774 -0.021954769860750248 0 0.00177357899974387 -0.022016160406660889 0 0.0016745933094822181 -0.02186617242585823 0 0.0016466111783191835 -0.022166043667200028 0 0.0018629523477183526 -0.022161166349990505 0 0.0018902489597274535 -0.021996660137227623 0 0.00177357899974387 -0.022016160406660889 0 0.0018629523477183526 -0.022161166349990505 0 0.0018902489597274535 -0.021996660137227623 0 0.0020549913623014774 -0.021954769860750248 0 0.0018629523477183526 -0.022161166349990505 0 0.00177357899974387 -0.022016160406660889 0 0.0016466111783191835 -0.022166043667200028 0 0.0016745933094822181 -0.02186617242585823 0 0.001787859991818672 -0.021711686147507948 0 0.0016202104627152296 -0.02156295629120384 0 0.00177357899974387 -0.022016160406660889 0 0.0016745933094822181 -0.02186617242585823 0 0.0018459055142569334 -0.021875130898823626 0 0.0018902489597274535 -0.021996660137227623 0 0.0018459055142569334 -0.021875130898823626 0 0.0020549913623014774 -0.021954769860750248 0 0.0018902489597274535 -0.021996660137227623 0 0.00177357899974387 -0.022016160406660889 0 0.0018459055142569334 -0.021875130898823626 0 0.0018459055142569334 -0.021875130898823626 0 0.001787859991818672 -0.021711686147507948 0 0.0019528667383354791 -0.021764058844701874 0 0.0016745933094822181 -0.02186617242585823 0 0.0018459055142569334 -0.021875130898823626 0 0.001787859991818672 -0.021711686147507948 0 0.0023676452129281055 -0.021896992135530268 0 0.0020549913623014774 -0.021954769860750248 0 0.0021457021009449332 -0.021728969307492435 0 0.0015763604646102959 -0.0254806342366008 0 0.0010516048265050756 -0.025091446628275234 0 0.00089262442127977426 -0.02465687530082393 0 0.0018459055142569334 -0.021875130898823626 0 0.0020549913623014774 -0.021954769860750248 0 0.0019528667383354791 -0.021764058844701874 0 0.0020549913623014774 -0.021954769860750248 0 0.0019528667383354791 -0.021764058844701874 0 0.0021457021009449332 -0.021728969307492435 0 0.00086149294834271203 -0.025327586275396354 0 0.0011201269526126857 -0.024338405869782431 0 0.0019528667383354791 -0.021764058844701874 0 0.0021457021009449332 -0.021728969307492435 0 0.0019290747806590121 -0.021549134867444111 0 0.0010516048265050756 -0.025091446628275234 0 0.00089262442127977426 -0.02465687530082393 0 0.00054349470441868272 -0.024678060178012311 0 0.0005306137620161161 -0.0261666352925514 0 0.0011201269526126857 -0.024338405869782431 0 0.0029664162858902238 -0.020369562493655832 0 0.0023633636971831223 -0.020403323046503358 0 0.0021953022208044399 -0.019736811173696137 0 0.0011201269526126857 -0.024338405869782431 0 0.0015130051411063976 -0.021030659530078356 0 -0.0016578748708973082 -0.031926519985116066 0 -0.0013586461230011904 -0.031910858270757667 0 -0.0010901742859421215 -0.032567042354165306 0 0.001787859991818672 -0.021711686147507948 0 0.0019290747806590121 -0.021549134867444111 0 0.0016202104627152296 -0.02156295629120384 0 0.001787859991818672 -0.021711686147507948 0 0.0019528667383354791 -0.021764058844701874 0 0.0019290747806590121 -0.021549134867444111 0 0.00028197943863019425 -0.028327715067349254 0 0.00029988718504853393 -0.028361547944542837 0 0.00030389116972504216 -0.028365469366637558 0 0.0011201269526126857 -0.024338405869782431 0 0.002178550351815166 -0.022791505955108416 0 -0.0013586461230011904 -0.031910858270757667 0 -0.0010901742859421215 -0.032567042354165306 0 -0.0005893839324467128 -0.032572648916066066 0 0.0005306137620161161 -0.0261666352925514 0 0.00080043013914403612 -0.02835274009356599 0 0.00031166941991346678 -0.028397300908773442 0 0.00032054735779395166 -0.028392101923812686 0 0.00031296895212641808 -0.028389841777283594 0 0.00029988718504853393 -0.028361547944542837 0 0.00030389116972504216 -0.028365469366637558 0 0.00031233509888680847 -0.028386821162830773 0 0.00032690846145400353 -0.028421017239174166 0 0.00033034868725061899 -0.028400876262583252 0 0.000348913342846749 -0.028403320204064532 0 0.00032690846145400353 -0.028421017239174166 0 0.00031166941991346678 -0.028397300908773442 0 0.00033034868725061899 -0.028400876262583252 0 0.0005306137620161161 -0.0261666352925514 0 0.00074843136198238225 -0.026749155129703463 0 0.00031166941991346678 -0.028397300908773442 0 0.00033034868725061899 -0.028400876262583252 0 0.00032054735779395166 -0.028392101923812686 0 0.00033034868725061899 -0.028400876262583252 0 0.00034096658195253407 -0.028384127364263247 0 0.00032054735779395166 -0.028392101923812686 0 0.00033034868725061899 -0.028400876262583252 0 0.000348913342846749 -0.028403320204064532 0 0.00034096658195253407 -0.028384127364263247 0 8.1959176918919123e-05 -0.028289428114520634 0 -0.00041150452927065018 -0.030281063096590989 0 0.000348913342846749 -0.028403320204064532 0 0.00036698930500681166 -0.028421590813071537 0 0.00037255138623686854 -0.028389030112016156 0 -6.9132922751604444e-05 -0.034342826593728663 0 -8.7298740533604818e-05 -0.034273033273539845 0 -5.9214874984629672e-05 -0.034278620874260618 0 -6.9132922751604444e-05 -0.034342826593728663 0 -0.00010139137714141108 -0.034366560815701622 0 -8.7298740533604818e-05 -0.034273033273539845 0 -6.9132922751604444e-05 -0.034342826593728663 0 -0.00010139137714141108 -0.034366560815701622 0 -8.8133266359767811e-05 -0.034366732674319722 0 7.5264100480464609e-05 -0.02770767797609967 0 0.0007135277130934268 -0.027714508569530151 0 -0.00012690774415403708 -0.028928753965013539 0 8.1959176918919123e-05 -0.028289428114520634 0 -8.5255273952468779e-05 -0.028370768042010951 0 -0.00010079563237300838 -0.034493704495089511 0 -0.00011435991539904961 -0.034564085457871867 0 -5.0580591926897106e-05 -0.034612335892034704 0 -0.00034399887560901008 -0.028969503665226597 0 -8.5255273952468779e-05 -0.028370768042010951 0 -0.00011435991539904961 -0.034564085457871867 0 -5.0580591926897106e-05 -0.034612335892034704 0 -0.00012412340735200192 -0.034621384709266526 0 -6.0414746538132461e-05 -0.034673565491736752 0 -5.0580591926897106e-05 -0.034612335892034704 0 -0.00012412340735200192 -0.034621384709266526 0 8.1959176918919123e-05 -0.028289428114520634 0 0.00011951926124357696 -0.028101078978759336 0 -8.5255273952468779e-05 -0.028370768042010951 0 0.00011951926124357696 -0.028101078978759336 0 0.00032690846145400353 -0.028421017239174166 0 0.000348913342846749 -0.028403320204064532 0 0.00036698930500681166 -0.028421590813071537 0 0.0005306137620161161 -0.0261666352925514 0 8.1959176918919123e-05 -0.028289428114520634 0 0.00030989999454072656 -0.026898201608284412 0 0.0014483271544808044 -0.026828159901638178 0 0.0014057856969889274 -0.027086347888374385 0 0.00098002040514860982 -0.027701201848420245 0 0.00030989999454072656 -0.026898201608284412 0 0.0014057856969889274 -0.027086347888374385 0 0.0024199544043888768 -0.0053492253971635416 0 0.0023541592764562535 -0.0050082633876339872 0 0.0020208626012818923 -0.0052512917560550917 0 0.0024199544043888768 -0.0053492253971635416 0 0.0027188698587522972 -0.0049673840332152292 0 0.0023541592764562535 -0.0050082633876339872 0 0.0027146723756450472 -0.00575207526175336 0 0.0024199544043888768 -0.0053492253971635416 0 0.0021587052167319604 -0.0057055606007027524 0 0.0027146723756450472 -0.00575207526175336 0 0.0024199544043888768 -0.0053492253971635416 0 0.0028903927913571294 -0.0053099958912385253 0 0.0024199544043888768 -0.0053492253971635416 0 0.0028903927913571294 -0.0053099958912385253 0 0.0027188698587522972 -0.0049673840332152292 0 0.0028903927913571294 -0.0053099958912385253 0 0.0031014338510990092 -0.0049395701719503271 0 0.0027188698587522972 -0.0049673840332152292 0 0.0028903927913571294 -0.0053099958912385253 0 0.0031444239029672313 -0.0055752362103324129 0 0.0033042358839282422 -0.0052647965232191759 0 0.0028903927913571294 -0.0053099958912385253 0 0.0033042358839282422 -0.0052647965232191759 0 0.0031014338510990092 -0.0049395701719503271 0 0.0027146723756450472 -0.00575207526175336 0 0.0028903927913571294 -0.0053099958912385253 0 0.0031444239029672313 -0.0055752362103324129 0 0.00079711598705791537 -0.018145424384169589 0 0.0011483137574267125 -0.01745065199594778 0 0.0031444239029672313 -0.0055752362103324129 0 0.0035197311217396278 -0.0056047722416793459 0 0.0033042358839282422 -0.0052647965232191759 0 0.0031236420884380935 -0.0059468015681658657 0 0.0031444239029672313 -0.0055752362103324129 0 0.0035197311217396278 -0.0056047722416793459 0 0.0016745933094822181 -0.02186617242585823 0 0.0016466111783191835 -0.022166043667200028 0 0.0014762503399258725 -0.021874267225660819 0 0.0011483137574267125 -0.01745065199594778 0 0.001761741141441247 -0.017733273379157952 0 0.0016745933094822181 -0.02186617242585823 0 0.0014762503399258725 -0.021874267225660819 0 0.0016202104627152296 -0.02156295629120384 0 0.0014762503399258725 -0.021874267225660819 0 0.0016202104627152296 -0.02156295629120384 0 0.0013077540704919612 -0.021578345070903476 0 0.0023633636971831223 -0.020403323046503358 0 0.0021953022208044399 -0.019736811173696137 0 0.0017585557989454725 -0.020438342176790931 0 0.0015130051411063976 -0.021030659530078356 0 0.001761741141441247 -0.017733273379157952 0 0.0021953022208044399 -0.019736811173696137 0 0.0013858381333701204 -0.019783084118746696 0 0.0017585557989454725 -0.020438342176790931 0 0.0027331291180139488 -0.0047126102649638346 0 0.0028949114039352767 -0.0050041512165774236 0 0.0026175493464249897 -0.0050074272014038138 0 0.0017375016185386491 -0.015697066247418356 0 0.001761741141441247 -0.017733273379157952 0 0.001761741141441247 -0.017733273379157952 0 0.0022232206844739043 -0.016319788107049447 0 0.0022232206844739043 -0.016319788107049447 0 0.0023375715040484953 -0.01586349924297404 0 0.0027331291180139488 -0.0047126102649638346 0 0.0026175493464249897 -0.0050074272014038138 0 0.0024159033376094123 -0.0047356585090856992 0 0.0027331291180139488 -0.0047126102649638346 0 0.0024159033376094123 -0.0047356585090856992 0 0.0025661887543260817 -0.0044320235714318352 0 0.0024159033376094123 -0.0047356585090856992 0 0.0021311484885026036 -0.0048603409714999832 0 0.0021918459416845476 -0.0046017080160577969 0 0.0024159033376094123 -0.0047356585090856992 0 0.0023270077179202071 -0.0045349717235067186 0 0.0021918459416845476 -0.0046017080160577969 0 0.0024159033376094123 -0.0047356585090856992 0 0.0023541592764562535 -0.0050082633876339872 0 0.0021311484885026036 -0.0048603409714999832 0 0.0026175493464249897 -0.0050074272014038138 0 0.0024159033376094123 -0.0047356585090856992 0 0.0023541592764562535 -0.0050082633876339872 0 0.0024050013493747331 -0.0041895862357387691 0 0.0023677761805060244 -0.0042626194778420242 0 0.0025661887543260817 -0.0044320235714318352 0 0.0022686371303000568 -0.0042008988923139335 0 0.0023677761805060244 -0.0042626194778420242 0 0.0023302452587024378 -0.0041204558068386942 0 0.0022686371303000568 -0.0042008988923139335 0 0.0023677761805060244 -0.0042626194778420242 0 0.0022576310612330906 -0.0043050437628930141 0 0.0022686371303000568 -0.0042008988923139335 0 0.0022576310612330906 -0.0043050437628930141 0 0.0021647189607408076 -0.0042080811385555106 0 0.0024050013493747331 -0.0041895862357387691 0 0.0023677761805060244 -0.0042626194778420242 0 0.0023475922971373064 -0.004148235854504018 0 0.003218431050174398 -0.013896954145801516 0 0.0033088580580566498 -0.014395276632298799 0 0.0023677761805060244 -0.0042626194778420242 0 0.0023776160996078315 -0.0044008898624279657 0 0.0025661887543260817 -0.0044320235714318352 0 0.0023677761805060244 -0.0042626194778420242 0 0.0022576310612330906 -0.0043050437628930141 0 0.0023776160996078315 -0.0044008898624279657 0 0.0022576310612330906 -0.0043050437628930141 0 0.002237534181356797 -0.0044359237331895772 0 0.0023776160996078315 -0.0044008898624279657 0 0.0024159033376094123 -0.0047356585090856992 0 0.0023270077179202071 -0.0045349717235067186 0 0.0025661887543260817 -0.0044320235714318352 0 0.002237534181356797 -0.0044359237331895772 0 0.0023270077179202071 -0.0045349717235067186 0 0.0023776160996078315 -0.0044008898624279657 0 0.0023270077179202071 -0.0045349717235067186 0 0.0023776160996078315 -0.0044008898624279657 0 0.0025661887543260817 -0.0044320235714318352 0 0.002237534181356797 -0.0044359237331895772 0 0.0023270077179202071 -0.0045349717235067186 0 0.0021918459416845476 -0.0046017080160577969 0 0.0013858381333701204 -0.019783084118746696 0 0.0010096678216544445 -0.019124778095418144 0 0.0014182422098706594 -0.019100987759504476 0 0.0017375016185386491 -0.015697066247418356 0 0.0021853486584880524 -0.014937837172579722 0 0.0032022879188758173 -0.015452331036041642 0 0.0029800253852116363 -0.020140408411355087 0 0.0032022879188758173 -0.015452331036041642 0 0.0021853486584880524 -0.014937837172579722 0 0.00063313361560281246 -0.018461702695122859 0 0.0010096678216544445 -0.019124778095418144 0 0.0014182422098706594 -0.019100987759504476 0 0.00030586102276215142 -0.033656586210892708 0 0.00012670873807647253 -0.033577867511403216 0 6.027808273128979e-05 -0.033231549069093105 0 0.00012670873807647253 -0.033577867511403216 0 -0.00016955250093077094 -0.033526254929551073 0 0.00012447692622554832 -0.033772078331508804 0 0.00010670582335617346 -0.033824038281213407 0 7.9334747954828576e-05 -0.033838331484142364 0 0.00011945596119989876 -0.033812274708340792 0 -0.00016955250093077094 -0.033526254929551073 0 6.027808273128979e-05 -0.033231549069093105 0 -0.00025076026520176446 -0.033235185871253216 0 0.00012670873807647253 -0.033577867511403216 0 -0.00016955250093077094 -0.033526254929551073 0 6.027808273128979e-05 -0.033231549069093105 0 0.0021953022208044399 -0.019736811173696137 0 0.0013858381333701204 -0.019783084118746696 0 0.0014182422098706594 -0.019100987759504476 0 -0.0005893839324467128 -0.032572648916066066 0 6.027808273128979e-05 -0.033231549069093105 0 -0.00025076026520176446 -0.033235185871253216 0 0.002178550351815166 -0.022791505955108416 0 0.0029800253852116363 -0.020140408411355087 0 0.00096754301569989556 -0.030028010618244332 0 0.0010090001306370996 -0.029996565790598641 0 -0.0010901742859421215 -0.032567042354165306 0 -0.0005893839324467128 -0.032572648916066066 0 -0.00055271729351870835 -0.033178701235938628 0 -0.0005893839324467128 -0.032572648916066066 0 -0.00025076026520176446 -0.033235185871253216 0 -0.00055271729351870835 -0.033178701235938628 0 0.00030389116972504216 -0.028365469366637558 0 0.000315537217266256 -0.028392410040106151 0 0.00031233509888680847 -0.028386821162830773 0 0.00080043013914403612 -0.02835274009356599 0 0.0010090001306370996 -0.029996565790598641 0 7.3614524413455223e-05 -0.033821856064855216 0 7.9334747954828576e-05 -0.033838331484142364 0 4.4735466093326638e-05 -0.033851131852178563 0 0.00010670582335617346 -0.033824038281213407 0 7.3614524413455223e-05 -0.033821856064855216 0 7.9334747954828576e-05 -0.033838331484142364 0 0.0011968190360332593 -0.030690983880050593 0 0.0010090001306370996 -0.029996565790598641 0 -0.00016955250093077094 -0.033526254929551073 0 -0.00025076026520176446 -0.033235185871253216 0 -0.00049416873804908356 -0.033197868102866762 0 9.233031555763088e-05 -0.033852877856942187 0 4.2457819515503185e-05 -0.033866357667263855 0 4.9404227385055958e-05 -0.033911663040389853 0 7.9334747954828576e-05 -0.033838331484142364 0 9.233031555763088e-05 -0.033852877856942187 0 4.2457819515503185e-05 -0.033866357667263855 0 7.9334747954828576e-05 -0.033838331484142364 0 9.233031555763088e-05 -0.033852877856942187 0 0.00011945596119989876 -0.033812274708340792 0 9.233031555763088e-05 -0.033852877856942187 0 0.00011261803886641579 -0.033910793596825896 0 4.9404227385055958e-05 -0.033911663040389853 0 0.00011261803886641579 -0.033910793596825896 0 4.9404227385055958e-05 -0.033911663040389853 0 9.3346260148318005e-05 -0.034005053470212626 0 0.00011261803886641579 -0.033910793596825896 0 0.00017972280580151931 -0.033833827462036337 0 0.00017264192344829652 -0.034001843754675784 0 9.233031555763088e-05 -0.033852877856942187 0 0.00011261803886641579 -0.033910793596825896 0 0.00017972280580151931 -0.033833827462036337 0 0.00017972280580151931 -0.033833827462036337 0 0.00011945596119989876 -0.033812274708340792 0 0.00012447692622554832 -0.033772078331508804 0 9.233031555763088e-05 -0.033852877856942187 0 0.00017972280580151931 -0.033833827462036337 0 0.00011945596119989876 -0.033812274708340792 0 0.00010670582335617346 -0.033824038281213407 0 0.00011945596119989876 -0.033812274708340792 0 0.00012447692622554832 -0.033772078331508804 0 0.0011968190360332593 -0.030690983880050593 0 0.0012563441347566717 -0.030913981252909541 0 0.00030586102276215142 -0.033656586210892708 0 0.00012670873807647253 -0.033577867511403216 0 0.00020167126333838392 -0.03373204859837102 0 0.00012670873807647253 -0.033577867511403216 0 0.00012447692622554832 -0.033772078331508804 0 0.00020167126333838392 -0.03373204859837102 0 0.00030586102276215142 -0.033656586210892708 0 0.00020167126333838392 -0.03373204859837102 0 0.00023327708095249403 -0.033739577258043447 0 0.00020167126333838392 -0.03373204859837102 0 0.00020084115631501976 -0.033770399685444694 0 0.00023327708095249403 -0.033739577258043447 0 0.00020167126333838392 -0.03373204859837102 0 0.00017858040679813217 -0.03379078499452328 0 0.00020084115631501976 -0.033770399685444694 0 0.00012447692622554832 -0.033772078331508804 0 0.00020167126333838392 -0.03373204859837102 0 0.00017858040679813217 -0.03379078499452328 0 0.00017972280580151931 -0.033833827462036337 0 0.00012447692622554832 -0.033772078331508804 0 0.00017858040679813217 -0.03379078499452328 0 0.00017972280580151931 -0.033833827462036337 0 0.00017858040679813217 -0.03379078499452328 0 0.00019997688742754045 -0.033760023258719248 0 0.0021863097021604218 -0.031050442852285975 0 0.0021886065144831311 -0.030644720256421849 0 0.00017972280580151931 -0.033833827462036337 0 0.00019997688742754045 -0.033760023258719248 0 0.00025316137236024882 -0.033640083532109739 0 0.00019997688742754045 -0.033760023258719248 0 0.00018569378192460518 -0.033753365185964945 0 0.00017343268948380791 -0.033709779089181782 0 0.00019997688742754045 -0.033760023258719248 0 0.00017343268948380791 -0.033709779089181782 0 0.00025316137236024882 -0.033640083532109739 0 0.00019997688742754045 -0.033760023258719248 0 0.00020084115631501976 -0.033770399685444694 0 0.00018569378192460518 -0.033753365185964945 0 0.00017858040679813217 -0.03379078499452328 0 0.00019997688742754045 -0.033760023258719248 0 0.00020084115631501976 -0.033770399685444694 0 0.00020084115631501976 -0.033770399685444694 0 0.00019473168788206648 -0.033753353327977964 0 0.00018569378192460518 -0.033753365185964945 0 0.00019473168788206648 -0.033753353327977964 0 0.00018569378192460518 -0.033753365185964945 0 0.00014568410824457103 -0.033746926494153208 0 0.00017343268948380791 -0.033709779089181782 0 0.00014568410824457103 -0.033746926494153208 0 0.00011974425291936581 -0.033630774617498235 0 0.00018569378192460518 -0.033753365185964945 0 0.00017343268948380791 -0.033709779089181782 0 0.00014568410824457103 -0.033746926494153208 0 0.00014568410824457103 -0.033746926494153208 0 9.9160381761495347e-05 -0.033761836814231609 0 0.00011974425291936581 -0.033630774617498235 0 0.0030537663601416716 -0.014758057638223136 0 0.0031137769325881347 -0.014698696821039609 0 0.0040435017399045418 -0.011069216563527854 0 0.0048857291725059177 -0.01502628137156631 0 0.002887539317067082 -0.011519710708689439 0 0.0031137769325881347 -0.014698696821039609 0 0.0035113637047327327 -0.014834192577794753 0 0.0031137769325881347 -0.014698696821039609 0 0.0039255404685856442 -0.013314122933708542 0 0.0035113637047327327 -0.014834192577794753 0 0.0039255404685856442 -0.013314122933708542 0 0.00019473168788206648 -0.033753353327977964 0 0.0001588327336254147 -0.033745041718849421 0 0.00023218319997047639 -0.033741384444643335 0 0.00019473168788206648 -0.033753353327977964 0 0.00014568410824457103 -0.033746926494153208 0 0.0001588327336254147 -0.033745041718849421 0 0.0040427377796453754 -0.013291368471859176 0 0.0041080232326130284 -0.013597765976037256 0 0.0033310525393356314 -0.012964434999096375 0 0.00020084115631501976 -0.033770399685444694 0 0.00019473168788206648 -0.033753353327977964 0 0.00023327708095249403 -0.033739577258043447 0 0.00019473168788206648 -0.033753353327977964 0 0.00023218319997047639 -0.033741384444643335 0 0.00023327708095249403 -0.033739577258043447 0 0.0028006310009745148 -0.014860168991745273 0 0.0028338632172996464 -0.014923731997930042 0 0.0028265386904321359 -0.014882345224327133 0 0.00030586102276215142 -0.033656586210892708 0 0.00023218319997047639 -0.033741384444643335 0 0.00023327708095249403 -0.033739577258043447 0 0.0032022879188758173 -0.015452331036041642 0 0.0035113637047327327 -0.014834192577794753 0 0.0032022879188758173 -0.015452331036041642 0 0.0033088580580566498 -0.014395276632298799 0 0.0022686371303000568 -0.0042008988923139335 0 0.0023302452587024378 -0.0041204558068386942 0 0.0021836930020479794 -0.0041118150784258999 0 0.0035113637047327327 -0.014834192577794753 0 0.0033088580580566498 -0.014395276632298799 0 -3.1419989288561293e-05 -0.033945037708481784 0 -2.4986146449282728e-05 -0.033921680414546157 0 -3.669708264240591e-05 -0.033956154361746059 0 -3.1419989288561293e-05 -0.033945037708481784 0 -2.4986146449282728e-05 -0.033921680414546157 0 -1.0067115335260348e-05 -0.033896940731244295 0 -3.1419989288561293e-05 -0.033945037708481784 0 -5.3100719582129644e-05 -0.03400742894170946 0 -3.669708264240591e-05 -0.033956154361746059 0 1.1677601748950915e-05 -0.033998873648151892 0 -5.3100719582129644e-05 -0.03400742894170946 0 -3.669708264240591e-05 -0.033956154361746059 0 -3.1419989288561293e-05 -0.033945037708481784 0 -5.3100719582129644e-05 -0.03400742894170946 0 -5.9251856362508025e-05 -0.033901852442806926 0 -0.00046473429181446795 -0.030846196620304297 0 -0.00041150452927065018 -0.030281063096590989 0 -5.3100719582129644e-05 -0.03400742894170946 0 -0.0001422837752546569 -0.03426297692966683 0 -5.9214874984629672e-05 -0.034278620874260618 0 -0.00041150452927065018 -0.030281063096590989 0 -0.00039478685511777216 -0.030305202890754394 0 -0.00041150452927065018 -0.030281063096590989 0 9.0156684293559854e-05 -0.030290453396102764 0 0.000348913342846749 -0.028403320204064532 0 0.00037255138623686854 -0.028389030112016156 0 0.00034096658195253407 -0.028384127364263247 0 -3.1419989288561293e-05 -0.033945037708481784 0 -5.9251856362508025e-05 -0.033901852442806926 0 -1.0067115335260348e-05 -0.033896940731244295 0 -1.0067115335260348e-05 -0.033896940731244295 0 2.1197352199636623e-05 -0.033850725804216282 0 6.4024239034428982e-06 -0.033880835991265651 0 9.0156684293559854e-05 -0.030290453396102764 0 0.00050268994192743997 -0.030191791568655143 0 0.00034096658195253407 -0.028384127364263247 0 0.00032054735779395166 -0.028392101923812686 0 0.00031304297932250376 -0.028384392445137189 0 0.0010090001306370996 -0.029996565790598641 0 0.00050268994192743997 -0.030191791568655143 0 0.000315537217266256 -0.028392410040106151 0 0.00031233509888680847 -0.028386821162830773 0 0.00031304297932250376 -0.028384392445137189 0 7.3614524413455223e-05 -0.033821856064855216 0 2.1197352199636623e-05 -0.033850725804216282 0 4.4735466093326638e-05 -0.033851131852178563 0 0.00031166941991346678 -0.028397300908773442 0 0.00031233509888680847 -0.028386821162830773 0 0.00031296895212641808 -0.028389841777283594 0 0.00031233509888680847 -0.028386821162830773 0 0.00031296895212641808 -0.028389841777283594 0 0.00031304297932250376 -0.028384392445137189 0 0.00074843136198238225 -0.026749155129703463 0 0.00080770500893739372 -0.026923882327489927 0 0.00032054735779395166 -0.028392101923812686 0 0.00031296895212641808 -0.028389841777283594 0 0.00031304297932250376 -0.028384392445137189 0 2.1197352199636623e-05 -0.033850725804216282 0 4.4735466093326638e-05 -0.033851131852178563 0 6.4024239034428982e-06 -0.033880835991265651 0 4.4735466093326638e-05 -0.033851131852178563 0 6.4024239034428982e-06 -0.033880835991265651 0 4.2457819515503185e-05 -0.033866357667263855 0 7.9334747954828576e-05 -0.033838331484142364 0 4.4735466093326638e-05 -0.033851131852178563 0 4.2457819515503185e-05 -0.033866357667263855 0 -2.4986146449282728e-05 -0.033921680414546157 0 -1.0067115335260348e-05 -0.033896940731244295 0 6.4024239034428982e-06 -0.033880835991265651 0 -2.4986146449282728e-05 -0.033921680414546157 0 6.4024239034428982e-06 -0.033880835991265651 0 -1.2005257505734473e-05 -0.033900088041522732 0 -1.2005257505734473e-05 -0.033900088041522732 0 4.2457819515503185e-05 -0.033866357667263855 0 4.9404227385055958e-05 -0.033911663040389853 0 6.4024239034428982e-06 -0.033880835991265651 0 -1.2005257505734473e-05 -0.033900088041522732 0 4.2457819515503185e-05 -0.033866357667263855 0 -1.2005257505734473e-05 -0.033900088041522732 0 4.9404227385055958e-05 -0.033911663040389853 0 -4.1004992176569652e-05 -0.033929932583805632 0 -1.2005257505734473e-05 -0.033900088041522732 0 -4.1004992176569652e-05 -0.033929932583805632 0 -4.0092730184557927e-05 -0.033917168295735073 0 -4.1004992176569652e-05 -0.033929932583805632 0 -4.0092730184557927e-05 -0.033917168295735073 0 -3.1694090944418112e-05 -0.033857868685776948 0 -2.4986146449282728e-05 -0.033921680414546157 0 -4.0092730184557927e-05 -0.033917168295735073 0 -3.669708264240591e-05 -0.033956154361746059 0 -2.4986146449282728e-05 -0.033921680414546157 0 -1.2005257505734473e-05 -0.033900088041522732 0 -4.0092730184557927e-05 -0.033917168295735073 0 -4.0092730184557927e-05 -0.033917168295735073 0 -3.669708264240591e-05 -0.033956154361746059 0 7.9996554163101283e-06 -0.033909102098332145 0 1.1677601748950915e-05 -0.033998873648151892 0 -3.669708264240591e-05 -0.033956154361746059 0 7.9996554163101283e-06 -0.033909102098332145 0 5.9563964457307426e-05 -0.033840826592788885 0 7.9996554163101283e-06 -0.033909102098332145 0 -3.1694090944418112e-05 -0.033857868685776948 0 -4.0092730184557927e-05 -0.033917168295735073 0 7.9996554163101283e-06 -0.033909102098332145 0 -3.1694090944418112e-05 -0.033857868685776948 0 2.8997976005342762e-05 -0.034286412080791008 0 3.6151852959337072e-05 -0.034367037873878556 0 -0.0001880899342707993 -0.033974974382947769 0 -0.00021577367981321215 -0.03404573724950203 0 -0.00031676494579070111 -0.034016737211485029 0 5.9563964457307426e-05 -0.033840826592788885 0 -3.1694090944418112e-05 -0.033857868685776948 0 6.2339311858975209e-05 -0.033769228326022173 0 -0.00021577367981321215 -0.03404573724950203 0 -0.0001633839992888473 -0.034119108354519721 0 -0.00030546228569563278 -0.034084116291546902 0 6.7168427150739223e-05 -0.034380496079518208 0 3.8719712649303291e-05 -0.034426888857351345 0 0.00031165740553225314 -0.034369223383153048 0 0.00029786918348384479 -0.034375814862494913 0 0.00030288562722533685 -0.034392536336339888 0 -0.0001633839992888473 -0.034119108354519721 0 -0.00010134266583827874 -0.034038952378146192 0 -2.4860525516169639e-05 -0.034160010497187851 0 -0.00021577367981321215 -0.03404573724950203 0 -0.0001633839992888473 -0.034119108354519721 0 -0.00010134266583827874 -0.034038952378146192 0 -0.0001880899342707993 -0.033974974382947769 0 -0.00021577367981321215 -0.03404573724950203 0 -0.00010134266583827874 -0.034038952378146192 0 -4.1004992176569652e-05 -0.033929932583805632 0 -0.0001880899342707993 -0.033974974382947769 0 -0.00010134266583827874 -0.034038952378146192 0 3.1882103146176676e-05 -0.034260212742588364 0 2.8997976005342762e-05 -0.034286412080791008 0 -4.1004992176569652e-05 -0.033929932583805632 0 -0.00010134266583827874 -0.034038952378146192 0 9.8440342946367606e-06 -0.034025832151122752 0 4.9404227385055958e-05 -0.033911663040389853 0 -4.1004992176569652e-05 -0.033929932583805632 0 9.8440342946367606e-06 -0.034025832151122752 0 4.9404227385055958e-05 -0.033911663040389853 0 9.8440342946367606e-06 -0.034025832151122752 0 9.3346260148318005e-05 -0.034005053470212626 0 9.8440342946367606e-06 -0.034025832151122752 0 8.2558893441225318e-05 -0.034093676849980596 0 9.3346260148318005e-05 -0.034005053470212626 0 9.8440342946367606e-06 -0.034025832151122752 0 8.2558893441225318e-05 -0.034093676849980596 0 -2.4860525516169639e-05 -0.034160010497187851 0 -0.00010134266583827874 -0.034038952378146192 0 9.8440342946367606e-06 -0.034025832151122752 0 -2.4860525516169639e-05 -0.034160010497187851 0 6.7168427150739223e-05 -0.034380496079518208 0 0.00010345336177095042 -0.034358456413973719 0 0.00031165740553225314 -0.034369223383153048 0 0.00026195430957338148 -0.034329365463143059 0 0.00028036535081467221 -0.034301338677074432 0 0.00010345336177095042 -0.034358456413973719 0 0.00012165047391339987 -0.034352036376802605 0 0.00026195430957338148 -0.034329365463143059 0 0.00028036535081467221 -0.034301338677074432 0 0.00016674058967884687 -0.034220741941159517 0 8.2558893441225318e-05 -0.034093676849980596 0 -2.4860525516169639e-05 -0.034160010497187851 0 0.00016674058967884687 -0.034220741941159517 0 0.00028036535081467221 -0.034301338677074432 0 0.00016674058967884687 -0.034220741941159517 0 0.00024701192461569358 -0.034256891858163836 0 0.00028036535081467221 -0.034301338677074432 0 0.00031393365086200439 -0.034352377995857143 0 0.00031814664716438155 -0.034319998290974783 0 0.00031393365086200439 -0.034352377995857143 0 0.00031814664716438155 -0.034319998290974783 0 0.00031492983283996418 -0.034377258838415629 0 0.00031393365086200439 -0.034352377995857143 0 0.00031492983283996418 -0.034377258838415629 0 0.00030288562722533685 -0.034392536336339888 0 0.00031165740553225314 -0.034369223383153048 0 0.00031393365086200439 -0.034352377995857143 0 0.00030288562722533685 -0.034392536336339888 0 0.00031165740553225314 -0.034369223383153048 0 0.00028036535081467221 -0.034301338677074432 0 0.00031393365086200439 -0.034352377995857143 0 0.0020920890993863959 -0.029230250161445849 0 0.0021886065144831311 -0.030644720256421849 0 0.00012462011940378236 -0.033337279753918356 0 0.00011974425291936581 -0.033630774617498235 0 -2.4716755669458101e-05 -0.033515861095586137 0 9.9160381761495347e-05 -0.033761836814231609 0 0.00011974425291936581 -0.033630774617498235 0 -2.4716755669458101e-05 -0.033515861095586137 0 0.00012462011940378236 -0.033337279753918356 0 0.00011974425291936581 -0.033630774617498235 0 0.00025316137236024882 -0.033640083532109739 0 0.0031137769325881347 -0.014698696821039609 0 0.0027367127129718119 -0.020850657332540008 0 0.00017343268948380791 -0.033709779089181782 0 0.00011974425291936581 -0.033630774617498235 0 0.00025316137236024882 -0.033640083532109739 0 0.00028796907308499981 -0.03411573076191686 0 0.00027757413277033601 -0.034012551330109345 0 0.00025144044463604203 -0.034143064916696136 0 0.00027757413277033601 -0.034012551330109345 0 0.00021653572183085514 -0.034124516152823789 0 0.00025144044463604203 -0.034143064916696136 0 0.00021653572183085514 -0.034124516152823789 0 0.0001555989804970035 -0.034086844528747461 0 0.00016674058967884687 -0.034220741941159517 0 0.00021653572183085514 -0.034124516152823789 0 0.00017264192344829652 -0.034001843754675784 0 0.0001555989804970035 -0.034086844528747461 0 0.00017972280580151931 -0.033833827462036337 0 0.00027757413277033601 -0.034012551330109345 0 0.00017264192344829652 -0.034001843754675784 0 0.00027757413277033601 -0.034012551330109345 0 0.00021653572183085514 -0.034124516152823789 0 0.00017264192344829652 -0.034001843754675784 0 0.00017264192344829652 -0.034001843754675784 0 9.3346260148318005e-05 -0.034005053470212626 0 0.0001555989804970035 -0.034086844528747461 0 0.00011261803886641579 -0.033910793596825896 0 0.00017264192344829652 -0.034001843754675784 0 9.3346260148318005e-05 -0.034005053470212626 0 8.2558893441225318e-05 -0.034093676849980596 0 0.0001555989804970035 -0.034086844528747461 0 0.00016674058967884687 -0.034220741941159517 0 8.2558893441225318e-05 -0.034093676849980596 0 9.3346260148318005e-05 -0.034005053470212626 0 0.0001555989804970035 -0.034086844528747461 0 0.00016674058967884687 -0.034220741941159517 0 0.00020263646787668812 -0.034224163557509138 0 0.00020934108457759147 -0.034196562958294409 0 0.00016674058967884687 -0.034220741941159517 0 0.00020263646787668812 -0.034224163557509138 0 0.00024701192461569358 -0.034256891858163836 0 0.00020263646787668812 -0.034224163557509138 0 0.00020934108457759147 -0.034196562958294409 0 0.00021438876590559091 -0.034205546033817383 0 0.00020934108457759147 -0.034196562958294409 0 0.00023252632336455382 -0.034185729973626344 0 0.00021438876590559091 -0.034205546033817383 0 0.00021653572183085514 -0.034124516152823789 0 0.00016674058967884687 -0.034220741941159517 0 0.00020934108457759147 -0.034196562958294409 0 0.00021653572183085514 -0.034124516152823789 0 0.00020934108457759147 -0.034196562958294409 0 0.00025144044463604203 -0.034143064916696136 0 0.00020934108457759147 -0.034196562958294409 0 0.00025144044463604203 -0.034143064916696136 0 0.00023252632336455382 -0.034185729973626344 0 0.00025144044463604203 -0.034143064916696136 0 0.00023252632336455382 -0.034185729973626344 0 0.0002584402192051225 -0.034159886737112698 0 0.00023252632336455382 -0.034185729973626344 0 0.00024222235272921761 -0.034180360054564124 0 0.00022668080899886732 -0.034188549445349048 0 0.00023252632336455382 -0.034185729973626344 0 0.00024222235272921761 -0.034180360054564124 0 0.0002584402192051225 -0.034159886737112698 0 0.00024222235272921761 -0.034180360054564124 0 0.0002584402192051225 -0.034159886737112698 0 0.00027402051734741408 -0.034161137427943022 0 0.00024222235272921761 -0.034180360054564124 0 0.00023530168727992087 -0.034186464176690301 0 0.00027402051734741408 -0.034161137427943022 0 0.00028796907308499981 -0.03411573076191686 0 0.0002584402192051225 -0.034159886737112698 0 0.00027402051734741408 -0.034161137427943022 0 0.00028796907308499981 -0.03411573076191686 0 0.00025144044463604203 -0.034143064916696136 0 0.0002584402192051225 -0.034159886737112698 0 0.0020920890993863959 -0.029230250161445849 0 0.0015683299866316655 -0.026156552325654975 0 0.00057048872828029899 -0.025434015057044991 0 0.0011888329011667022 -0.0249546495729723 0 0.00032968375387100273 -0.030109089761502388 0 0.00096212863478845967 -0.027376790996326235 0 0.00094756493117148836 -0.031225521000738648 0 0.001266845487888683 -0.030812533980684627 0 0.0014559780868351547 -0.02991776713610423 0 0.00095638663569660109 -0.025895054940214945 0 0.00096530205110259093 -0.025730121277195591 0 0.00093578823273089966 -0.025988415244674431 0 0.00018654488896633039 -0.034138745648354368 0 0.00022026731591274121 -0.034174683851967411 0 0.00023530168727992087 -0.034186464176690301 0 0.00094756493117148836 -0.031225521000738648 0 0.001266845487888683 -0.030812533980684627 0 0.0010763900911909176 -0.031687177675472231 0 0.00074591572044347895 -0.026617528728724856 0 0.00057048872828029899 -0.025434015057044991 0 0.00018654488896633039 -0.034138745648354368 0 0.00021291325604408105 -0.034155615254312002 0 0.00024690447853690655 -0.034037007459574012 0 0.00021291325604408105 -0.034155615254312002 0 0.00022026731591274121 -0.034174683851967411 0 0.00022025759579114297 -0.034177554603695835 0 0.00018654488896633039 -0.034138745648354368 0 0.00021291325604408105 -0.034155615254312002 0 0.00022026731591274121 -0.034174683851967411 0 0.00023107770575867006 -0.034184093851429065 0 0.00022026731591274121 -0.034174683851967411 0 0.00023530168727992087 -0.034186464176690301 0 0.00074591572044347895 -0.026617528728724856 0 0.00096212863478845967 -0.027376790996326235 0 0.00024222235272921761 -0.034180360054564124 0 0.00023107770575867006 -0.034184093851429065 0 0.00023530168727992087 -0.034186464176690301 0 0.00024222235272921761 -0.034180360054564124 0 0.00023107770575867006 -0.034184093851429065 0 0.00022668080899886732 -0.034188549445349048 0 0.00023107770575867006 -0.034184093851429065 0 0.00022026731591274121 -0.034174683851967411 0 0.00022668080899886732 -0.034188549445349048 0 0.00022026731591274121 -0.034174683851967411 0 0.00022668080899886732 -0.034188549445349048 0 0.00022025759579114297 -0.034177554603695835 0 0.00022668080899886732 -0.034188549445349048 0 0.00021914356807084995 -0.034186245605067792 0 0.00022025759579114297 -0.034177554603695835 0 0.00022668080899886732 -0.034188549445349048 0 0.00021914356807084995 -0.034186245605067792 0 0.00021438876590559091 -0.034205546033817383 0 0.00023252632336455382 -0.034185729973626344 0 0.00022668080899886732 -0.034188549445349048 0 0.00021438876590559091 -0.034205546033817383 0 0.00028459863059834557 -0.034145293153472742 0 0.00031493511236298043 -0.034142089124109036 0 0.00021291325604408105 -0.034155615254312002 0 0.00044051839550286959 -0.034080117805431846 0 0.00024690447853690655 -0.034037007459574012 0 0.00021291325604408105 -0.034155615254312002 0 0.00021914356807084995 -0.034186245605067792 0 0.00021552464352213996 -0.034194866267988212 0 0.00021291325604408105 -0.034155615254312002 0 0.00021914356807084995 -0.034186245605067792 0 0.00022025759579114297 -0.034177554603695835 0 0.00021914356807084995 -0.034186245605067792 0 0.00021552464352213996 -0.034194866267988212 0 0.00021438876590559091 -0.034205546033817383 0 0.00021552464352213996 -0.034194866267988212 0 0.00021438876590559091 -0.034205546033817383 0 0.00021647459498443653 -0.034215103158011816 0 0.00020263646787668812 -0.034224163557509138 0 0.00021647459498443653 -0.034215103158011816 0 0.00024701192461569358 -0.034256891858163836 0 0.00020263646787668812 -0.034224163557509138 0 0.00021438876590559091 -0.034205546033817383 0 0.00021647459498443653 -0.034215103158011816 0 0.00021552464352213996 -0.034194866267988212 0 0.00021647459498443653 -0.034215103158011816 0 0.00023770537244757731 -0.034188554842400257 0 0.00031493511236298043 -0.034142089124109036 0 0.0003621519792355781 -0.034138022572315817 0 0.00044051839550286959 -0.034080117805431846 0 0.00048161922472860213 -0.033990299220933218 0 0.00052068932703030894 -0.034048511774072997 0 0.00048161922472860213 -0.033990299220933218 0 0.0005207784091556312 -0.033970217722515281 0 0.00052068932703030894 -0.034048511774072997 0 0.00048161922472860213 -0.033990299220933218 0 0.0005207784091556312 -0.033970217722515281 0 0.0004645483290129534 -0.033872803317811929 0 0.0005207784091556312 -0.033970217722515281 0 0.0004645483290129534 -0.033872803317811929 0 0.00050088422057533366 -0.033825635681655523 0 0.00048161922472860213 -0.033990299220933218 0 0.0004645483290129534 -0.033872803317811929 0 0.00036653118847702058 -0.033954642514957063 0 0.0004645483290129534 -0.033872803317811929 0 0.00037493779631143286 -0.033753775225353867 0 0.00045534522745796616 -0.033662740355084722 0 0.0004645483290129534 -0.033872803317811929 0 0.00036653118847702058 -0.033954642514957063 0 0.00037493779631143286 -0.033753775225353867 0 0.00044051839550286959 -0.034080117805431846 0 0.00048161922472860213 -0.033990299220933218 0 0.00036653118847702058 -0.033954642514957063 0 0.00044051839550286959 -0.034080117805431846 0 0.00024690447853690655 -0.034037007459574012 0 0.00036653118847702058 -0.033954642514957063 0 0.00024690447853690655 -0.034037007459574012 0 0.00028119142656681645 -0.033942271621165671 0 0.00019642631721455582 -0.033897343676833593 0 0.00024690447853690655 -0.034037007459574012 0 0.00028119142656681645 -0.033942271621165671 0 0.00036653118847702058 -0.033954642514957063 0 0.00036653118847702058 -0.033954642514957063 0 0.00030701796887862856 -0.033888929005935563 0 0.00037493779631143286 -0.033753775225353867 0 5.6700102262071501e-05 -0.031412944684615279 0 -1.9217303140589608e-05 -0.031805301201017253 0 0.00037493779631143286 -0.033753775225353867 0 0.00019642631721455582 -0.033897343676833593 0 0.00037084483309536765 -0.033443902288426142 0 0.00028119142656681645 -0.033942271621165671 0 0.00036653118847702058 -0.033954642514957063 0 0.00030701796887862856 -0.033888929005935563 0 0.00030701796887862856 -0.033888929005935563 0 0.00037493779631143286 -0.033753775225353867 0 0.00019642631721455582 -0.033897343676833593 0 0.00028119142656681645 -0.033942271621165671 0 0.00030701796887862856 -0.033888929005935563 0 0.00019642631721455582 -0.033897343676833593 0 0.00065662882512973356 -0.032764395351565778 0 0.000693595574913452 -0.032913260939447977 0 0.00062703174715816087 -0.033155431499610741 0 0.00051127472523758541 -0.032470006839090973 0 0.00087615259075478715 -0.032399575394846392 0 0.00062703174715816087 -0.033155431499610741 0 1.4389673338417105e-05 -0.024778807684402483 0 -0.00018496850247066852 -0.025996564600663775 0 0.00072471873232114736 -0.032981319964826152 0 0.000693595574913452 -0.032913260939447977 0 0.00062703174715816087 -0.033155431499610741 0 0.00074823699299883105 -0.032864582256489742 0 0.00080097679142245904 -0.032799705308788382 0 0.00080417037175069543 -0.032920353071777889 0 0.00072471873232114736 -0.032981319964826152 0 0.00074823699299883105 -0.032864582256489742 0 0.00080417037175069543 -0.032920353071777889 0 0.00072471873232114736 -0.032981319964826152 0 0.000693595574913452 -0.032913260939447977 0 0.00074823699299883105 -0.032864582256489742 0 0.000693595574913452 -0.032913260939447977 0 0.00074823699299883105 -0.032864582256489742 0 0.00072004558994724697 -0.032826331751258563 0 0.00074823699299883105 -0.032864582256489742 0 0.00072004558994724697 -0.032826331751258563 0 0.00080097679142245904 -0.032799705308788382 0 0.00065662882512973356 -0.032764395351565778 0 0.00072004558994724697 -0.032826331751258563 0 0.00080097679142245904 -0.032799705308788382 0 0.00065662882512973356 -0.032764395351565778 0 0.000693595574913452 -0.032913260939447977 0 0.00072004558994724697 -0.032826331751258563 0 1.4389673338417105e-05 -0.024778807684402483 0 0.00057048872828029899 -0.025434015057044991 0 0.00094756493117148836 -0.031225521000738648 0 0.00051127472523758541 -0.032470006839090973 0 0.0010763900911909176 -0.031687177675472231 0 0.0022890669787098326 -0.020171906671762385 0 0.0023726079092684315 -0.019865156135719739 0 0.0027517117641506603 -0.019908949649358302 0 0.00018654488896633039 -0.034138745648354368 0 0.00024690447853690655 -0.034037007459574012 0 0.00019642631721455582 -0.033897343676833593 0 0.00032968375387100273 -0.030109089761502388 0 5.6700102262071501e-05 -0.031412944684615279 0 0.00051127472523758541 -0.032470006839090973 0 0.00087615259075478715 -0.032399575394846392 0 0.0010763900911909176 -0.031687177675472231 0 0.0003466783476533711 -0.034299238176956855 0 0.00031302060351572547 -0.034266313932885331 0 0.00039487124193128038 -0.034175579133354714 0 0.0003466783476533711 -0.034299238176956855 0 0.00039487124193128038 -0.034175579133354714 0 0.00036207513505256945 -0.034286189590127386 0 0.0003466783476533711 -0.034299238176956855 0 0.00036207513505256945 -0.034286189590127386 0 0.00032117545488897278 -0.034366399830110611 0 0.00031492983283996418 -0.034377258838415629 0 0.0003466783476533711 -0.034299238176956855 0 0.00032117545488897278 -0.034366399830110611 0 0.00031814664716438155 -0.034319998290974783 0 0.00031492983283996418 -0.034377258838415629 0 0.0003466783476533711 -0.034299238176956855 0 0.00031814664716438155 -0.034319998290974783 0 0.0003466783476533711 -0.034299238176956855 0 0.00031302060351572547 -0.034266313932885331 0 0.00028036535081467221 -0.034301338677074432 0 0.00031814664716438155 -0.034319998290974783 0 0.00031302060351572547 -0.034266313932885331 0 0.00028036535081467221 -0.034301338677074432 0 0.00031302060351572547 -0.034266313932885331 0 0.00024701192461569358 -0.034256891858163836 0 0.00031302060351572547 -0.034266313932885331 0 0.00024701192461569358 -0.034256891858163836 0 0.00023770537244757731 -0.034188554842400257 0 0.00021647459498443653 -0.034215103158011816 0 0.00024701192461569358 -0.034256891858163836 0 0.00023770537244757731 -0.034188554842400257 0 0.00031302060351572547 -0.034266313932885331 0 0.00023770537244757731 -0.034188554842400257 0 0.00039487124193128038 -0.034175579133354714 0 0.0003621519792355781 -0.034138022572315817 0 0.00038344942268280055 -0.034137728531237484 0 0.00052068932703030894 -0.034048511774072997 0 0.00051321744508953581 -0.034074830759377103 0 0.00039487124193128038 -0.034175579133354714 0 0.0005207784091556312 -0.033970217722515281 0 0.00052068932703030894 -0.034048511774072997 0 0.00051321744508953581 -0.034074830759377103 0 0.0005207784091556312 -0.033970217722515281 0 0.00051321744508953581 -0.034074830759377103 0 0.00052412295195915768 -0.033861386066454703 0 0.00051321744508953581 -0.034074830759377103 0 0.00043844468395013705 -0.03419473820536207 0 0.00039487124193128038 -0.034175579133354714 0 0.00043844468395013705 -0.03419473820536207 0 0.00039487124193128038 -0.034175579133354714 0 0.00036207513505256945 -0.034286189590127386 0 0.00043844468395013705 -0.03419473820536207 0 0.00036207513505256945 -0.034286189590127386 0 0.00033836572071168291 -0.034329036233975492 0 0.00033836572071168291 -0.034329036233975492 0 0.00025008262131495396 -0.034463615698931777 0 0.00029384405743361323 -0.034401134139100516 0 0.00033836572071168291 -0.034329036233975492 0 0.00025008262131495396 -0.034463615698931777 0 0.00029451248617011022 -0.034397083112942928 0 0.00025008262131495396 -0.034463615698931777 0 0.00029384405743361323 -0.034401134139100516 0 0.00022491393503531757 -0.034497719834834364 0 0.00036207513505256945 -0.034286189590127386 0 0.00033836572071168291 -0.034329036233975492 0 0.00029384405743361323 -0.034401134139100516 0 0.00029384405743361323 -0.034401134139100516 0 0.00027202891308086125 -0.034447010575545306 0 0.00032117545488897278 -0.034366399830110611 0 0.00036207513505256945 -0.034286189590127386 0 0.00029384405743361323 -0.034401134139100516 0 0.00032117545488897278 -0.034366399830110611 0 0.00029384405743361323 -0.034401134139100516 0 0.00027202891308086125 -0.034447010575545306 0 0.00022491393503531757 -0.034497719834834364 0 0.00027202891308086125 -0.034447010575545306 0 0.00028639208221233368 -0.034431297795047638 0 0.00025077121595373493 -0.034487150773661455 0 0.00027202891308086125 -0.034447010575545306 0 0.00032117545488897278 -0.034366399830110611 0 0.00028639208221233368 -0.034431297795047638 0 0.00031492983283996418 -0.034377258838415629 0 0.00032117545488897278 -0.034366399830110611 0 0.00028639208221233368 -0.034431297795047638 0 0.00017405054614408642 -0.034592910791644303 0 0.00015135797237425668 -0.034606365946041481 0 0.00012428953774800037 -0.034669879632795171 0 0.00017405054614408642 -0.034592910791644303 0 0.00021286121711318987 -0.034533243646660425 0 0.00020610743471933605 -0.0345499465268259 0 0.00017405054614408642 -0.034592910791644303 0 0.00012428953774800037 -0.034669879632795171 0 0.00016034483698751129 -0.03460852173170692 0 0.00021286121711318987 -0.034533243646660425 0 0.00025077121595373493 -0.034487150773661455 0 0.00020610743471933605 -0.0345499465268259 0 0.00027202891308086125 -0.034447010575545306 0 0.00021286121711318987 -0.034533243646660425 0 0.00025077121595373493 -0.034487150773661455 0 0.00027202891308086125 -0.034447010575545306 0 0.00021286121711318987 -0.034533243646660425 0 0.00022491393503531757 -0.034497719834834364 0 0.00021286121711318987 -0.034533243646660425 0 0.00015135797237425668 -0.034606365946041481 0 0.00022491393503531757 -0.034497719834834364 0 0.00017405054614408642 -0.034592910791644303 0 0.00021286121711318987 -0.034533243646660425 0 0.00015135797237425668 -0.034606365946041481 0 0.00015135797237425668 -0.034606365946041481 0 0.00017132293174493905 -0.034553917878619757 0 0.00012705392078697297 -0.034619350770833099 0 0.00015135797237425668 -0.034606365946041481 0 0.00017132293174493905 -0.034553917878619757 0 0.00022491393503531757 -0.034497719834834364 0 0.00025008262131495396 -0.034463615698931777 0 0.00017132293174493905 -0.034553917878619757 0 0.00022491393503531757 -0.034497719834834364 0 0.00025008262131495396 -0.034463615698931777 0 0.00017132293174493905 -0.034553917878619757 0 0.00018606662540910089 -0.034574855256397759 0 0.00017132293174493905 -0.034553917878619757 0 0.00010155903104266401 -0.034624931122330456 0 0.00018606662540910089 -0.034574855256397759 0 0.00010155903104266401 -0.034624931122330456 0 6.7404899414845709e-05 -0.034655803568645803 0 7.0508562330652471e-05 -0.034693958264261825 0 6.7404899414845709e-05 -0.034655803568645803 0 7.0508562330652471e-05 -0.034693958264261825 0 6.8145666026426927e-05 -0.034718525449960902 0 0.00010155903104266401 -0.034624931122330456 0 7.0508562330652471e-05 -0.034693958264261825 0 8.9887665055940144e-05 -0.034689738805631483 0 7.0508562330652471e-05 -0.034693958264261825 0 6.9554330938242391e-05 -0.034751872667415029 0 5.949137014136745e-05 -0.034790336650072057 0 7.0508562330652471e-05 -0.034693958264261825 0 6.9554330938242391e-05 -0.034751872667415029 0 8.9887665055940144e-05 -0.034689738805631483 0 0.00015135797237425668 -0.034606365946041481 0 8.9887665055940144e-05 -0.034689738805631483 0 0.00012705392078697297 -0.034619350770833099 0 0.00017132293174493905 -0.034553917878619757 0 0.00010155903104266401 -0.034624931122330456 0 0.00012705392078697297 -0.034619350770833099 0 0.00010155903104266401 -0.034624931122330456 0 8.9887665055940144e-05 -0.034689738805631483 0 0.00012705392078697297 -0.034619350770833099 0 5.9410877061193659e-11 -0.035000033694114835 0 9.4185447922455095e-06 -0.034999175526068751 0 2.6198251493453082e-06 -0.035001084212591196 0 0.00013103648912380234 -0.034706207588658305 0 8.4647535055721088e-05 -0.034658910258393523 0 6.8145666026426927e-05 -0.034718525449960902 0 0.00013103648912380234 -0.034706207588658305 0 6.8145666026426927e-05 -0.034718525449960902 0 6.6458094591670847e-05 -0.034811592347926509 0 6.7404899414845709e-05 -0.034655803568645803 0 8.4647535055721088e-05 -0.034658910258393523 0 6.8145666026426927e-05 -0.034718525449960902 0 7.0508562330652471e-05 -0.034693958264261825 0 6.8145666026426927e-05 -0.034718525449960902 0 5.949137014136745e-05 -0.034790336650072057 0 5.949137014136745e-05 -0.034790336650072057 0 6.6458094591670847e-05 -0.034811592347926509 0 5.1128305138913563e-05 -0.034872437076483485 0 6.8145666026426927e-05 -0.034718525449960902 0 5.949137014136745e-05 -0.034790336650072057 0 6.6458094591670847e-05 -0.034811592347926509 0 5.9410877061193659e-11 -0.035000033694114835 0 9.4185447922455095e-06 -0.034999175526068751 0 3.6321641103258365e-05 -0.034957454443474215 0 0.00013103648912380234 -0.034706207588658305 0 6.6458094591670847e-05 -0.034811592347926509 0 3.6321641103258365e-05 -0.034957454443474215 0 5.9410877061193659e-11 -0.035000033694114835 0 9.2687774584651671e-08 -0.034999732889911192 0 3.6321641103258365e-05 -0.034957454443474215 0 2.4688070964281562e-05 -0.03484749903287563 0 2.4971890763824235e-05 -0.034846042554396939 0 6.6458094591670847e-05 -0.034811592347926509 0 3.6321641103258365e-05 -0.034957454443474215 0 5.1128305138913563e-05 -0.034872437076483485 0 9.2687774584651671e-08 -0.034999732889911192 0 3.6487516522823737e-05 -0.034923627117989062 0 2.2801897314111128e-05 -0.034932730974816403 0 9.2687774584651671e-08 -0.034999732889911192 0 3.6321641103258365e-05 -0.034957454443474215 0 3.6487516522823737e-05 -0.034923627117989062 0 3.6321641103258365e-05 -0.034957454443474215 0 3.6487516522823737e-05 -0.034923627117989062 0 5.1128305138913563e-05 -0.034872437076483485 0 3.6487516522823737e-05 -0.034923627117989062 0 5.3550067031953692e-05 -0.034845860921328208 0 2.2801897314111128e-05 -0.034932730974816403 0 3.6487516522823737e-05 -0.034923627117989062 0 5.3550067031953692e-05 -0.034845860921328208 0 5.1128305138913563e-05 -0.034872437076483485 0 5.949137014136745e-05 -0.034790336650072057 0 5.3550067031953692e-05 -0.034845860921328208 0 5.1128305138913563e-05 -0.034872437076483485 0 6.9554330938242391e-05 -0.034751872667415029 0 5.949137014136745e-05 -0.034790336650072057 0 5.3550067031953692e-05 -0.034845860921328208 0 5.3550067031953692e-05 -0.034845860921328208 0 5.3019390865309291e-05 -0.034823232645283628 0 7.5088474106306592e-05 -0.034759438372309194 0 5.3550067031953692e-05 -0.034845860921328208 0 5.3019390865309291e-05 -0.034823232645283628 0 2.2801897314111128e-05 -0.034932730974816403 0 5.3019390865309291e-05 -0.034823232645283628 0 2.2801897314111128e-05 -0.034932730974816403 0 2.8334550055571173e-05 -0.034870131238678007 0 9.2687774584651671e-08 -0.034999732889911192 0 2.2801897314111128e-05 -0.034932730974816403 0 8.6355495254679835e-09 -0.03499981482702446 0 0.00015135797237425668 -0.034606365946041481 0 8.9887665055940144e-05 -0.034689738805631483 0 0.00010531144977280617 -0.03469026277224984 0 0.00015135797237425668 -0.034606365946041481 0 0.00010531144977280617 -0.03469026277224984 0 0.00012428953774800037 -0.034669879632795171 0 8.9887665055940144e-05 -0.034689738805631483 0 0.00010531144977280617 -0.03469026277224984 0 7.5088474106306592e-05 -0.034759438372309194 0 6.9554330938242391e-05 -0.034751872667415029 0 8.9887665055940144e-05 -0.034689738805631483 0 7.5088474106306592e-05 -0.034759438372309194 0 6.9554330938242391e-05 -0.034751872667415029 0 5.3550067031953692e-05 -0.034845860921328208 0 7.5088474106306592e-05 -0.034759438372309194 0 0.00010531144977280617 -0.03469026277224984 0 7.5088474106306592e-05 -0.034759438372309194 0 8.4273276030690964e-05 -0.034742718787906614 0 5.3019390865309291e-05 -0.034823232645283628 0 8.4273276030690964e-05 -0.034742718787906614 0 7.5433854637515442e-05 -0.034742138572021575 0 5.3019390865309291e-05 -0.034823232645283628 0 7.5088474106306592e-05 -0.034759438372309194 0 8.4273276030690964e-05 -0.034742718787906614 0 8.4273276030690964e-05 -0.034742718787906614 0 0.00012428953774800037 -0.034669879632795171 0 7.5433854637515442e-05 -0.034742138572021575 0 0.00010531144977280617 -0.03469026277224984 0 8.4273276030690964e-05 -0.034742718787906614 0 0.00012428953774800037 -0.034669879632795171 0 0.00012428953774800037 -0.034669879632795171 0 7.5433854637515442e-05 -0.034742138572021575 0 0.00016034483698751129 -0.03460852173170692 0 7.5433854637515442e-05 -0.034742138572021575 0 1.2366148027058157e-05 -0.034854975257609902 0 9.5002879941993249e-05 -0.034631020032396431 0 5.1624648012933521e-05 -0.034627431488032143 0 4.7488320025201086e-05 -0.034616029364036037 0 7.5433854637515442e-05 -0.034742138572021575 0 9.5002879941993249e-05 -0.034631020032396431 0 0.00016034483698751129 -0.03460852173170692 0 9.5002879941993249e-05 -0.034631020032396431 0 0.00018407601574976361 -0.034504940616988833 0 0.00016034483698751129 -0.03460852173170692 0 2.2801897314111128e-05 -0.034932730974816403 0 8.6355495254679835e-09 -0.03499981482702446 0 2.8334550055571173e-05 -0.034870131238678007 0 5.3019390865309291e-05 -0.034823232645283628 0 7.5433854637515442e-05 -0.034742138572021575 0 2.8334550055571173e-05 -0.034870131238678007 0 7.5433854637515442e-05 -0.034742138572021575 0 2.8334550055571173e-05 -0.034870131238678007 0 1.2366148027058157e-05 -0.034854975257609902 0 8.6355495254679835e-09 -0.03499981482702446 0 2.8334550055571173e-05 -0.034870131238678007 0 1.2366148027058157e-05 -0.034854975257609902 0 8.6355495254679835e-09 -0.03499981482702446 0 1.2366148027058157e-05 -0.034854975257609902 0 4.3251767997285691e-08 -0.03499989901623151 0 1.2366148027058157e-05 -0.034854975257609902 0 4.3251767997285691e-08 -0.03499989901623151 0 -4.4893083238173116e-06 -0.0349643931413256 0 1.2366148027058157e-05 -0.034854975257609902 0 -4.4893083238173116e-06 -0.0349643931413256 0 -4.6169407066072329e-05 -0.034936810406899069 0 2.4692627722937843e-06 -0.034996019723778603 0 -4.4893083238173116e-06 -0.0349643931413256 0 -5.1097323796933326e-05 -0.034993667358766585 0 2.0736094778494629e-05 -0.034754185960875858 0 1.7623341687448718e-05 -0.034731485080125503 0 2.4692627722937843e-06 -0.034996019723778603 0 4.3251767997285691e-08 -0.03499989901623151 0 -4.4893083238173116e-06 -0.0349643931413256 0 -7.9058687483772025e-09 -0.035000017070560573 0 2.4692627722937843e-06 -0.034996019723778603 0 4.3251767997285691e-08 -0.03499989901623151 0 4.7488320025201086e-05 -0.034616029364036037 0 4.4677937505573403e-05 -0.034584903453032001 0 -0.00010349086771199554 -0.03494457268377188 0 -0.00015083098889173314 -0.034973378297455629 0 -0.00017234191892846401 -0.034922371623161849 0 -0.00010349086771199554 -0.03494457268377188 0 -9.4114774464289439e-05 -0.034896813430814431 0 -0.00017234191892846401 -0.034922371623161849 0 1.2366148027058157e-05 -0.034854975257609902 0 -9.4114774464289439e-05 -0.034896813430814431 0 -4.6169407066072329e-05 -0.034936810406899069 0 -0.00010349086771199554 -0.03494457268377188 0 -9.4114774464289439e-05 -0.034896813430814431 0 -4.6169407066072329e-05 -0.034936810406899069 0 -4.4893083238173116e-06 -0.0349643931413256 0 -4.6169407066072329e-05 -0.034936810406899069 0 -5.1097323796933326e-05 -0.034993667358766585 0 -0.00010349086771199554 -0.03494457268377188 0 -4.6169407066072329e-05 -0.034936810406899069 0 -5.1097323796933326e-05 -0.034993667358766585 0 -6.2646472767742602e-06 -0.034996575416838399 0 -3.249225770730592e-06 -0.034991884969865585 0 -1.137141292411792e-05 -0.03498791853329216 0 -0.00010349086771199554 -0.03494457268377188 0 -5.1097323796933326e-05 -0.034993667358766585 0 -0.00015083098889173314 -0.034973378297455629 0 -6.2646472767742602e-06 -0.034996575416838399 0 -1.3444387941885588e-05 -0.034990877218369867 0 -1.137141292411792e-05 -0.03498791853329216 0 1.7623341687448718e-05 -0.034731485080125503 0 2.0071640655344017e-05 -0.034661831257175382 0 -1.3444387941885588e-05 -0.034990877218369867 0 -1.137141292411792e-05 -0.03498791853329216 0 -2.1451528308422361e-05 -0.034983820480943693 0 2.0071640655344017e-05 -0.034661831257175382 0 5.7368345193665546e-05 -0.034539317097076971 0 0.00035757663313251285 -0.033831898880315826 0 0.00041857208260146156 -0.033779031995827817 0 0.00031673831650684222 -0.033792107763915898 0 -0.00015083098889173314 -0.034973378297455629 0 -0.00017234191892846401 -0.034922371623161849 0 -0.00024235491929467537 -0.034950781329490387 0 0.00018407601574976361 -0.034504940616988833 0 0.00022789616443334083 -0.034494079379117221 0 0.00025067188126452164 -0.034451034863951395 0 -0.00017234191892846401 -0.034922371623161849 0 -0.00025127773122022245 -0.034944503499305314 0 -0.00024235491929467537 -0.034950781329490387 0 4.4677937505573403e-05 -0.034584903453032001 0 6.2128890684973366e-05 -0.034531261326100564 0 0.00022789616443334083 -0.034494079379117221 0 0.00025067188126452164 -0.034451034863951395 0 0.00025538594401271496 -0.034470063397577536 0 0.00025238024164120473 -0.033694470506811396 0 0.00023125413727998674 -0.03371128147686802 0 0.00021554051115098288 -0.033688090201548872 0 5.7368345193665546e-05 -0.034539317097076971 0 6.0998058220853338e-05 -0.034515330596330399 0 5.9534202464737761e-05 -0.034508920526593635 0 6.7810044188557154e-05 -0.034514661279638606 0 5.202298393862138e-05 -0.034511061925005131 0 6.2128890684973366e-05 -0.034531261326100564 0 5.7368345193665546e-05 -0.034539317097076971 0 0.00041857208260146156 -0.033779031995827817 0 0.0002843693530635623 -0.033746934434923131 0 0.00031673831650684222 -0.033792107763915898 0 0.00025238024164120473 -0.033694470506811396 0 0.0002481118956544849 -0.033723633856697695 0 0.0002843693530635623 -0.033746934434923131 0 0.0002481118956544849 -0.033723633856697695 0 0.00023125413727998674 -0.03371128147686802 0 0.00022440127254492017 -0.033742184334164038 0 0.00041857208260146156 -0.033779031995827817 0 0.00025238024164120473 -0.033694470506811396 0 0.0002843693530635623 -0.033746934434923131 0 0.00025238024164120473 -0.033694470506811396 0 0.0002481118956544849 -0.033723633856697695 0 0.00023125413727998674 -0.03371128147686802 0 9.7777202711376082e-05 -0.034585137334617377 0 5.7368345193665546e-05 -0.034539317097076971 0 0.0002481118956544849 -0.033723633856697695 0 0.0002843693530635623 -0.033746934434923131 0 0.00022440127254492017 -0.033742184334164038 0 0.00025668258457235314 -0.033792775252253507 0 0.0002115261885064786 -0.033792921833262289 0 0.00022440127254492017 -0.033742184334164038 0 0.0002843693530635623 -0.033746934434923131 0 0.00025668258457235314 -0.033792775252253507 0 0.00022440127254492017 -0.033742184334164038 0 0.0002843693530635623 -0.033746934434923131 0 0.00031673831650684222 -0.033792107763915898 0 0.00025668258457235314 -0.033792775252253507 0 0.00015113297252022435 -0.033833754877328696 0 0.0002115261885064786 -0.033792921833262289 0 0.00017792004068873665 -0.033778020802624417 0 0.0001749160871078096 -0.033737248138624186 0 6.2339311858975209e-05 -0.033769228326022173 0 0.00021554051115098288 -0.033688090201548872 0 0.00021487871687578985 -0.033842812210775758 0 0.00025668258457235314 -0.033792775252253507 0 0.0002115261885064786 -0.033792921833262289 0 0.00012947947169439361 -0.033781128517919215 0 0.0001749160871078096 -0.033737248138624186 0 6.2339311858975209e-05 -0.033769228326022173 0 3.6151852959337072e-05 -0.034367037873878556 0 6.0998058220853338e-05 -0.034515330596330399 0 0.0002115261885064786 -0.033792921833262289 0 0.00017792004068873665 -0.033778020802624417 0 0.00022440127254492017 -0.033742184334164038 0 0.00015113297252022435 -0.033833754877328696 0 0.00017792004068873665 -0.033778020802624417 0 0.00012947947169439361 -0.033781128517919215 0 0.00017792004068873665 -0.033778020802624417 0 0.00012947947169439361 -0.033781128517919215 0 0.0001749160871078096 -0.033737248138624186 0 0.00023125413727998674 -0.03371128147686802 0 0.00021151274982578473 -0.033719938999227199 0 0.00021554051115098288 -0.033688090201548872 0 0.00023125413727998674 -0.03371128147686802 0 0.00021151274982578473 -0.033719938999227199 0 0.00022440127254492017 -0.033742184334164038 0 0.0001749160871078096 -0.033737248138624186 0 0.00021151274982578473 -0.033719938999227199 0 0.00022440127254492017 -0.033742184334164038 0 0.0001749160871078096 -0.033737248138624186 0 0.00021151274982578473 -0.033719938999227199 0 0.00021554051115098288 -0.033688090201548872 0 0.00017792004068873665 -0.033778020802624417 0 0.0001749160871078096 -0.033737248138624186 0 0.00022440127254492017 -0.033742184334164038 0 5.9563964457307426e-05 -0.033840826592788885 0 0.00012947947169439361 -0.033781128517919215 0 6.2339311858975209e-05 -0.033769228326022173 0 5.9563964457307426e-05 -0.033840826592788885 0 0.00015113297252022435 -0.033833754877328696 0 0.00012947947169439361 -0.033781128517919215 0 -0.00031676494579070111 -0.034016737211485029 0 -0.00030546228569563278 -0.034084116291546902 0 -0.00043972097028838599 -0.034053590309897713 0 0.00029786918348384479 -0.034375814862494913 0 0.00028506380495889447 -0.034382086026219658 0 0.00030288562722533685 -0.034392536336339888 0 -0.00021577367981321215 -0.03404573724950203 0 -0.00031676494579070111 -0.034016737211485029 0 -0.00030546228569563278 -0.034084116291546902 0 0.00029786918348384479 -0.034375814862494913 0 0.00026993287097787204 -0.034369292317794765 0 0.00028506380495889447 -0.034382086026219658 0 3.8719712649303291e-05 -0.034426888857351345 0 6.0998058220853338e-05 -0.034515330596330399 0 0.00026728696126573681 -0.034370062502633018 0 0.00026993287097787204 -0.034369292317794765 0 0.00028506380495889447 -0.034382086026219658 0 6.2128890684973366e-05 -0.034531261326100564 0 6.0998058220853338e-05 -0.034515330596330399 0 6.2128890684973366e-05 -0.034531261326100564 0 0.00011679564562602023 -0.034536716811205376 0 0.00025067188126452164 -0.034451034863951395 0 0.00027668222010831123 -0.034446864503764239 0 0.00025538594401271496 -0.034470063397577536 0 0.00025538594401271496 -0.034470063397577536 0 0.00027381573580730133 -0.034450461555196717 0 0.00023745371391440529 -0.03450104332636876 0 0.00027668222010831123 -0.034446864503764239 0 0.00025538594401271496 -0.034470063397577536 0 0.00027381573580730133 -0.034450461555196717 0 0.00027668222010831123 -0.034446864503764239 0 0.00027381573580730133 -0.034450461555196717 0 0.00030288562722533685 -0.034392536336339888 0 0.00027381573580730133 -0.034450461555196717 0 0.00030288562722533685 -0.034392536336339888 0 0.00029462488420221872 -0.034412678641014119 0 0.00011679564562602023 -0.034536716811205376 0 0.00013533981834836599 -0.034538480528199161 0 0.00027381573580730133 -0.034450461555196717 0 0.00028639208221233368 -0.034431297795047638 0 0.00029462488420221872 -0.034412678641014119 0 0.00031492983283996418 -0.034377258838415629 0 0.00030288562722533685 -0.034392536336339888 0 0.00029462488420221872 -0.034412678641014119 0 0.00031492983283996418 -0.034377258838415629 0 0.00028639208221233368 -0.034431297795047638 0 0.00029462488420221872 -0.034412678641014119 0 0.00027381573580730133 -0.034450461555196717 0 0.00025077121595373493 -0.034487150773661455 0 0.00023745371391440529 -0.03450104332636876 0 0.00027381573580730133 -0.034450461555196717 0 0.00028639208221233368 -0.034431297795047638 0 0.00025077121595373493 -0.034487150773661455 0 0.00020610743471933605 -0.0345499465268259 0 0.00020465357599824623 -0.034539645516680706 0 0.00023745371391440529 -0.03450104332636876 0 0.00025077121595373493 -0.034487150773661455 0 0.00020610743471933605 -0.0345499465268259 0 0.00023745371391440529 -0.03450104332636876 0 0.00020610743471933605 -0.0345499465268259 0 0.00016034483698751129 -0.03460852173170692 0 0.00020465357599824623 -0.034539645516680706 0 0.00017405054614408642 -0.034592910791644303 0 0.00020610743471933605 -0.0345499465268259 0 0.00016034483698751129 -0.03460852173170692 0 0.00018407601574976361 -0.034504940616988833 0 0.00016034483698751129 -0.03460852173170692 0 0.00020465357599824623 -0.034539645516680706 0 0.00018407601574976361 -0.034504940616988833 0 0.00022789616443334083 -0.034494079379117221 0 0.00020465357599824623 -0.034539645516680706 0 0.00022789616443334083 -0.034494079379117221 0 0.00020465357599824623 -0.034539645516680706 0 0.00023745371391440529 -0.03450104332636876 0 0.00022789616443334083 -0.034494079379117221 0 0.00025538594401271496 -0.034470063397577536 0 0.00023745371391440529 -0.03450104332636876 0 0.0021892110393080446 0.00691490920504928 0 0.0027713746778354857 0.0053105350702206504 0 0.00098344191139330592 0.0052984024879870195 0 0.0021892110393080446 0.00691490920504928 0 0.0042931974623449066 0.0054457009750985318 0 0.0027713746778354857 0.0053105350702206504 0 0.00067301299711624565 0.004836887400196852 0 -9.3300033436757043e-05 0.005447879683727147 0 0.0021892110393080446 0.00691490920504928 0 0.00043209599411527492 0.0072746452412073143 0 0.00098344191139330592 0.0052984024879870195 0 0.00043209599411527492 0.0072746452412073143 0 0.00098344191139330592 0.0052984024879870195 0 -0.0006894006340069696 0.0071111254450762816 0 0.0021892110393080446 0.00691490920504928 0 0.001198466363098973 0.0078457324838665105 0 0.00043209599411527492 0.0072746452412073143 0 0.001198466363098973 0.0078457324838665105 0 0.00043209599411527492 0.0072746452412073143 0 0.0004938209908655443 0.0084958800505828755 0 0.00043209599411527492 0.0072746452412073143 0 0.0004938209908655443 0.0084958800505828755 0 -0.00074902343574383687 0.0080991295638052404 0 0.00043209599411527492 0.0072746452412073143 0 -0.0006894006340069696 0.0071111254450762816 0 -0.00074902343574383687 0.0080991295638052404 0 0.0004938209908655443 0.0084958800505828755 0 -0.00074902343574383687 0.0080991295638052404 0 -0.00029866132659508434 0.0092542813004879935 0 0.001198466363098973 0.0078457324838665105 0 0.0004938209908655443 0.0084958800505828755 0 0.0016648339334582954 0.0089088961686581564 0 0.0004938209908655443 0.0084958800505828755 0 0.0016648339334582954 0.0089088961686581564 0 0.00074117302763956503 0.0095997371210142252 0 0.0021892110393080446 0.00691490920504928 0 0.0016648339334582954 0.0089088961686581564 0 0.0038592421583214273 0.00861684781955473 0 0.0021892110393080446 0.00691490920504928 0 0.001198466363098973 0.0078457324838665105 0 0.0016648339334582954 0.0089088961686581564 0 0.0037137087358101897 0.0081436855873034258 0 0.0051356580704514897 0.0078334237314639735 0 0.0042931974623449066 0.0054457009750985318 0 0.0037137087358101897 0.0081436855873034258 0 0.0051356580704514897 0.0078334237314639735 0 0.0049675528617664092 0.0094421298034349822 0 0.00609492572650809 0.0070570003418603004 0 0.0051356580704514897 0.0078334237314639735 0 0.0066726981263451838 0.0087806298624518789 0 0.00609492572650809 0.0070570003418603004 0 0.00596511807124932 0.0055719323640334535 0 0.0042931974623449066 0.0054457009750985318 0 0.00609492572650809 0.0070570003418603004 0 0.0051356580704514897 0.0078334237314639735 0 0.0042931974623449066 0.0054457009750985318 0 0.0036675307210228608 0.0093567767619916146 0 0.0038341993033212348 0.0084410410052790565 0 0.0021892110393080446 0.00691490920504928 0 0.0038592421583214273 0.00861684781955473 0 0.0042931974623449066 0.0054457009750985318 0 0.0042931974623449066 0.0054457009750985318 0 0.0060803320829410385 0.0042838465663690099 0 0.0035789654854279278 0.0036718042968307964 0 0.0042931974623449066 0.0054457009750985318 0 0.0035789654854279278 0.0036718042968307964 0 0.0027713746778354857 0.0053105350702206504 0 0.00596511807124932 0.0055719323640334535 0 0.0042931974623449066 0.0054457009750985318 0 0.0060803320829410385 0.0042838465663690099 0 0.0060803320829410385 0.0042838465663690099 0 0.0035789654854279278 0.0036718042968307964 0 0.0057721564483177038 0.0021504880325137398 0 0.0022367071361891135 0.003549152195403161 0 0.0040371487620204103 0.0019612102640406818 0 0.00043679572866067278 0.0020241146601311542 0 0.00094951777446301204 0.0013184072453413446 0 0.00099811863862574787 0.0044599700991703409 0 -0.00058465967883181949 0.0044759903203542154 0 0.00087876849288933692 0.0028246827001918592 0 0.00099811863862574787 0.0044599700991703409 0 -0.00068596318255326986 0.0057473127371815095 0 -0.00058465967883181949 0.0044759903203542154 0 0.0022367071361891135 0.003549152195403161 0 0.00067301299711624565 0.004836887400196852 0 0.0035789654854279278 0.0036718042968307964 0 0.0027713746778354857 0.0053105350702206504 0 0.00098344191139330592 0.0052984024879870195 0 -0.00068596318255326986 0.0057473127371815095 0 -0.0013318698757635774 0.0052171598713092035 0 -0.00058465967883181949 0.0044759903203542154 0 -0.00068596318255326986 0.0057473127371815095 0 -0.0013318698757635774 0.0052171598713092035 0 -0.0016361748848787386 0.0061367347979773852 0 -0.0013318698757635774 0.0052171598713092035 0 -0.00058465967883181949 0.0044759903203542154 0 -0.0017065645395609383 0.0042624298095282169 0 -0.00058465967883181949 0.0044759903203542154 0 -0.0017065645395609383 0.0042624298095282169 0 -0.00058755401359662784 0.002678807084813229 0 -0.002259629957285624 0.0046381800061762839 0 -0.003315065694831231 0.0047029574931060948 0 -0.0035533326925423626 0.0052794124139525726 0 -0.002259629957285624 0.0046381800061762839 0 -0.003315065694831231 0.0047029574931060948 0 -0.0032993330201320586 0.0035500796228701854 0 -0.0040217214639625435 0.0051586875527412455 0 -0.0039645597410604104 0.0053817153633034303 0 -0.0042941627236656151 0.0053594794695279585 0 -0.0040461814665649302 0.0052732112768766343 0 -0.003315065694831231 0.0047029574931060948 0 -0.0032993330201320586 0.0035500796228701854 0 -0.0040461814665649302 0.0052732112768766343 0 -0.0040217214639625435 0.0051586875527412455 0 -0.0042941627236656151 0.0053594794695279585 0 -0.003382293089667178 0.0044164997296299744 0 -0.0032622804611437527 0.0042779466120234947 0 -0.0040217214639625435 0.0051586875527412455 0 -0.0036634541950923459 0.0053151172253845481 0 -0.0039645597410604104 0.0053817153633034303 0 -0.0040461814665649302 0.0052732112768766343 0 -0.003315065694831231 0.0047029574931060948 0 -0.0035533326925423626 0.0052794124139525726 0 -0.0040461814665649302 0.0052732112768766343 0 -0.0040217214639625435 0.0051586875527412455 0 -0.0042697398706933749 0.0057164582332266478 0 -0.0040461814665649302 0.0052732112768766343 0 -0.0035533326925423626 0.0052794124139525726 0 -0.0042697398706933749 0.0057164582332266478 0 -0.0035533326925423626 0.0052794124139525726 0 -0.0034996012993713434 0.0058478791053968113 0 -0.0042697398706933749 0.0057164582332266478 0 -0.002259629957285624 0.0046381800061762839 0 -0.0035533326925423626 0.0052794124139525726 0 -0.0034996012993713434 0.0058478791053968113 0 -0.0013318698757635774 0.0052171598713092035 0 -0.0017065645395609383 0.0042624298095282169 0 -0.0019916702945092803 0.0054639412465192902 0 -0.0017065645395609383 0.0042624298095282169 0 -0.0028852682056903795 0.0056360512060197659 0 -0.0019916702945092803 0.0054639412465192902 0 -0.0028852682056903795 0.0056360512060197659 0 -0.0019916702945092803 0.0054639412465192902 0 -0.0024017655267645453 0.0060999246409786214 0 -0.0022509325499919224 0.0046948738985630109 0 -0.0028788369843992185 0.005372712543795035 0 -0.0013318698757635774 0.0052171598713092035 0 -0.0019916702945092803 0.0054639412465192902 0 -0.0016361748848787386 0.0061367347979773852 0 -0.0020225903920841467 0.01444107745934051 0 -0.0020910636978475343 0.014220139814385035 0 -0.0032102813285092616 0.0053657820346198508 0 -0.0034766852049686776 0.0049405519004046697 0 -0.0030445158013648545 0.0046551980335550148 0 -0.0032102813285092616 0.0053657820346198508 0 -0.0030445158013648545 0.0046551980335550148 0 -0.0025586750289166055 0.0054948670514309312 0 -0.0032102813285092616 0.0053657820346198508 0 -0.0034766852049686776 0.0049405519004046697 0 -0.0036634541950923459 0.0053151172253845481 0 -0.0040217214639625435 0.0051586875527412455 0 -0.0036634541950923459 0.0053151172253845481 0 -0.0037214625075164122 0.0049752975670144719 0 -0.0034766852049686776 0.0049405519004046697 0 -0.0036634541950923459 0.0053151172253845481 0 -0.0037214625075164122 0.0049752975670144719 0 -0.0012176688735976804 0.01091299981020223 0 -0.0013158920030467323 0.011883888161777677 0 -0.0034766852049686776 0.0049405519004046697 0 -0.0037201300494245 0.0044611062290996839 0 -0.0030445158013648545 0.0046551980335550148 0 -0.0040217214639625435 0.0051586875527412455 0 -0.0037214625075164122 0.0049752975670144719 0 -0.0037201300494245 0.0044611062290996839 0 -0.0034766852049686776 0.0049405519004046697 0 -0.0037214625075164122 0.0049752975670144719 0 -0.0037201300494245 0.0044611062290996839 0 -0.0012576933434769158 0.022841101617401601 0 -0.0013441516311418792 0.023302811194533025 0 -0.00093909893306470306 0.023502224234133968 0 -0.0020225903920841467 0.01444107745934051 0 -0.0017259105827697151 0.01519202658393818 0 -0.0012576933434769158 0.022841101617401601 0 -0.0013441516311418792 0.023302811194533025 0 -0.0016758587139268754 0.023157788351638103 0 -0.0013441516311418792 0.023302811194533025 0 -0.0012967047515813218 0.02363234404055423 0 -0.0015295647874858916 0.023500733263477156 0 -0.0013441516311418792 0.023302811194533025 0 -0.00093909893306470306 0.023502224234133968 0 -0.0012967047515813218 0.02363234404055423 0 -0.0013158920030467323 0.011883888161777677 0 -0.0017259105827697151 0.01519202658393818 0 -0.0042697398706933749 0.0057164582332266478 0 -0.0046766201802285025 0.0070516511653451394 0 -0.00444108320367545 0.0071227432185653333 0 -0.0037201300494245 0.0044611062290996839 0 -0.0030445158013648545 0.0046551980335550148 0 -0.0034903880785438195 0.00383345057979404 0 -0.00062036416311339517 0.02250032160056701 0 -8.0515130064098656e-06 0.023709117533330291 0 -0.00098546998402518956 0.0235591299025294 0 -0.0017259105827697151 0.01519202658393818 0 -0.0010128319379157998 0.016405697761543873 0 -0.00444108320367545 0.0071227432185653333 0 -0.0036997755676945929 0.0073399935657453503 0 -0.0036704058565465683 0.0091004668173956371 0 -0.0046766201802285025 0.0070516511653451394 0 -0.00444108320367545 0.0071227432185653333 0 -0.0036704058565465683 0.0091004668173956371 0 -0.0017259105827697151 0.01519202658393818 0 -0.0023359435950681402 0.018470688827594443 0 -0.00093909893306470306 0.023502224234133968 0 -0.0012967047515813218 0.02363234404055423 0 -0.0011278256498641435 0.024047822157590156 0 -0.0012967047515813218 0.02363234404055423 0 -0.0011278256498641435 0.024047822157590156 0 -0.0015869171077644265 0.023782228700762267 0 -0.0012967047515813218 0.02363234404055423 0 -0.0015295647874858916 0.023500733263477156 0 -0.0015869171077644265 0.023782228700762267 0 -0.00068596318255326986 0.0057473127371815095 0 -0.0016361748848787386 0.0061367347979773852 0 -0.0020806585198859151 0.0071983931713208949 0 0.00098344191139330592 0.0052984024879870195 0 -0.0006894006340069696 0.0071111254450762816 0 -0.0020806585198859151 0.0071983931713208949 0 -0.0020086407782235693 0.0065695253292442192 0 -0.0016361748848787386 0.0061367347979773852 0 -0.0020806585198859151 0.0071983931713208949 0 -0.0020086407782235693 0.0065695253292442192 0 -0.0022653446612288172 0.0068884175784271161 0 -0.0026084043841050307 0.0067296829716314331 0 -0.0022653446612288172 0.0068884175784271161 0 -0.0023563811402957761 0.0070729098500749068 0 -0.0026084043841050307 0.0067296829716314331 0 -0.0022653446612288172 0.0068884175784271161 0 -0.0023563811402957761 0.0070729098500749068 0 -0.0020806585198859151 0.0071983931713208949 0 -0.0020086407782235693 0.0065695253292442192 0 -0.0022653446612288172 0.0068884175784271161 0 -0.0020806585198859151 0.0071983931713208949 0 -0.0020086407782235693 0.0065695253292442192 0 -0.0024017655267645453 0.0060999246409786214 0 -0.0026084043841050307 0.0067296829716314331 0 -0.0020086407782235693 0.0065695253292442192 0 -0.0016361748848787386 0.0061367347979773852 0 -0.0024017655267645453 0.0060999246409786214 0 -0.0019916702945092803 0.0054639412465192902 0 -0.0016361748848787386 0.0061367347979773852 0 -0.0024017655267645453 0.0060999246409786214 0 -0.0028852682056903795 0.0056360512060197659 0 -0.0028061478898865674 0.0062803110567115541 0 -0.0033400514601123693 0.0066733781694398968 0 -0.0034996012993713434 0.0058478791053968113 0 -0.0042697398706933749 0.0057164582332266478 0 -0.00444108320367545 0.0071227432185653333 0 -0.0028852682056903795 0.0056360512060197659 0 -0.00444108320367545 0.0071227432185653333 0 -0.0033400514601123693 0.0066733781694398968 0 -0.0028788369843992185 0.005372712543795035 0 -0.0032300546613314336 0.0057501627650152322 0 -0.0024017655267645453 0.0060999246409786214 0 -0.0028061478898865674 0.0062803110567115541 0 -0.0026084043841050307 0.0067296829716314331 0 -0.0028852682056903795 0.0056360512060197659 0 -0.0024017655267645453 0.0060999246409786214 0 -0.0028061478898865674 0.0062803110567115541 0 -0.00444108320367545 0.0071227432185653333 0 -0.0033400514601123693 0.0066733781694398968 0 -0.0036997755676945929 0.0073399935657453503 0 -0.0033400514601123693 0.0066733781694398968 0 -0.0026084043841050307 0.0067296829716314331 0 -0.0030540849623495389 0.0073936576285881005 0 -0.0028061478898865674 0.0062803110567115541 0 -0.0033400514601123693 0.0066733781694398968 0 -0.0026084043841050307 0.0067296829716314331 0 -0.0026084043841050307 0.0067296829716314331 0 -0.0025868839396705708 0.007138786056751026 0 -0.0030540849623495389 0.0073936576285881005 0 -0.0023563811402957761 0.0070729098500749068 0 -0.0026084043841050307 0.0067296829716314331 0 -0.0025868839396705708 0.007138786056751026 0 -0.00051019249665457144 0.014909015615528392 0 -0.0010128319379157998 0.016405697761543873 0 -0.0025868839396705708 0.007138786056751026 0 -0.0030540849623495389 0.0073936576285881005 0 -0.0023170850831699032 0.0073705463952378749 0 -0.0030540849623495389 0.0073936576285881005 0 -0.0036997755676945929 0.0073399935657453503 0 -0.0036704058565465683 0.0091004668173956371 0 -0.0023170850831699032 0.0073705463952378749 0 -0.0025391833963052334 0.0091671570968545023 0 -0.0041635343644357689 0.0099548793269769297 0 -0.0030540849623495389 0.0073936576285881005 0 -0.0023170850831699032 0.0073705463952378749 0 -0.0036704058565465683 0.0091004668173956371 0 -0.0033400514601123693 0.0066733781694398968 0 -0.0030540849623495389 0.0073936576285881005 0 -0.0036997755676945929 0.0073399935657453503 0 -0.0018412202242674993 0.0086397742934716353 0 -0.0023170850831699032 0.0073705463952378749 0 -0.0025391833963052334 0.0091671570968545023 0 -0.0018412202242674993 0.0086397742934716353 0 -0.0018546213608370862 0.0077639261406205898 0 -0.0014686661921586783 0.0081368508893135631 0 -0.0018412202242674993 0.0086397742934716353 0 -0.0018546213608370862 0.0077639261406205898 0 -0.0023170850831699032 0.0073705463952378749 0 -0.0018546213608370862 0.0077639261406205898 0 -0.0013841045142625968 0.007663450426046812 0 -0.0014686661921586783 0.0081368508893135631 0 -0.0018546213608370862 0.0077639261406205898 0 -0.0020806585198859151 0.0071983931713208949 0 -0.0013841045142625968 0.007663450426046812 0 -0.0023563811402957761 0.0070729098500749068 0 -0.0020806585198859151 0.0071983931713208949 0 -0.0023170850831699032 0.0073705463952378749 0 -0.0018546213608370862 0.0077639261406205898 0 -0.0020806585198859151 0.0071983931713208949 0 -0.0023170850831699032 0.0073705463952378749 0 -0.0023563811402957761 0.0070729098500749068 0 -0.0025868839396705708 0.007138786056751026 0 -0.0023170850831699032 0.0073705463952378749 0 -0.0006894006340069696 0.0071111254450762816 0 -0.0013841045142625968 0.007663450426046812 0 -0.00074902343574383687 0.0080991295638052404 0 -0.0006894006340069696 0.0071111254450762816 0 -0.0020806585198859151 0.0071983931713208949 0 -0.0013841045142625968 0.007663450426046812 0 -0.0013841045142625968 0.007663450426046812 0 -0.00074902343574383687 0.0080991295638052404 0 -0.0014686661921586783 0.0081368508893135631 0 -0.00074902343574383687 0.0080991295638052404 0 -0.0011594791361901669 0.0088122000120053022 0 -0.00029866132659508434 0.0092542813004879935 0 -0.00074902343574383687 0.0080991295638052404 0 -0.0014686661921586783 0.0081368508893135631 0 -0.0011594791361901669 0.0088122000120053022 0 -0.0018412202242674993 0.0086397742934716353 0 -0.0014686661921586783 0.0081368508893135631 0 -0.0011594791361901669 0.0088122000120053022 0 -0.0011594791361901669 0.0088122000120053022 0 -0.0013056262179652967 0.0098411090128783102 0 -0.00029866132659508434 0.0092542813004879935 0 -0.0018412202242674993 0.0086397742934716353 0 -0.0011594791361901669 0.0088122000120053022 0 -0.0013056262179652967 0.0098411090128783102 0 -0.0013056262179652967 0.0098411090128783102 0 -0.0010778733117283309 0.011635672456052078 0 8.6713555548672259e-05 0.010631100503165616 0 -0.0013056262179652967 0.0098411090128783102 0 -0.0022514245003078135 0.010603113834763152 0 -0.0010778733117283309 0.011635672456052078 0 -0.0013056262179652967 0.0098411090128783102 0 -0.0022514245003078135 0.010603113834763152 0 -0.0025391833963052334 0.0091671570968545023 0 -0.0018412202242674993 0.0086397742934716353 0 -0.0013056262179652967 0.0098411090128783102 0 -0.0025391833963052334 0.0091671570968545023 0 -0.0022514245003078135 0.010603113834763152 0 -0.0025391833963052334 0.0091671570968545023 0 -0.0041635343644357689 0.0099548793269769297 0 -0.0022514245003078135 0.010603113834763152 0 -0.0041635343644357689 0.0099548793269769297 0 -0.0026936481422914498 0.012727572899017442 0 -0.0010128319379157998 0.016405697761543873 0 -0.00058461002415422729 0.016117686214140205 0 0.00070792806562387052 0.016218275226055123 0 0.0011631469573324536 0.01709646712672366 0 0.00063020986594280494 0.017140226219644079 0 -0.0022514245003078135 0.010603113834763152 0 -0.0026936481422914498 0.012727572899017442 0 -0.0010778733117283309 0.011635672456052078 0 -0.0026936481422914498 0.012727572899017442 0 -0.0010778733117283309 0.011635672456052078 0 -0.00077631322344297077 0.013393952409561986 0 -0.0011278256498641435 0.024047822157590156 0 -0.0016971197881993248 0.024067547566831667 0 -0.0016615926757173069 0.024432950151758205 0 -0.0023359435950681402 0.018470688827594443 0 -0.0025188358139160596 0.019488570823812522 0 -0.0011278256498641435 0.024047822157590156 0 -0.0015869171077644265 0.023782228700762267 0 -0.0016971197881993248 0.024067547566831667 0 -8.0515130064098656e-06 0.023709117533330291 0 -0.00098546998402518956 0.0235591299025294 0 -0.00074920226467362907 0.024670828964042501 0 0.00070792806562387052 0.016218275226055123 0 0.00015489849389621916 0.016946697117883935 0 0.00063020986594280494 0.017140226219644079 0 -0.0010128319379157998 0.016405697761543873 0 -0.001585163337094114 0.018809805967670918 0 -0.00098546998402518956 0.0235591299025294 0 -0.00074920226467362907 0.024670828964042501 0 -0.0012946799850586286 0.024601244309270031 0 -0.0011278256498641435 0.024047822157590156 0 -0.0012946799850586286 0.024601244309270031 0 -0.0016615926757173069 0.024432950151758205 0 -0.00074920226467362907 0.024670828964042501 0 -0.0012946799850586286 0.024601244309270031 0 -0.001263820985880977 0.024934755307082362 0 -0.0012946799850586286 0.024601244309270031 0 -0.0014869250517295777 0.024920034000972358 0 -0.001263820985880977 0.024934755307082362 0 -0.0012946799850586286 0.024601244309270031 0 -0.0014869250517295777 0.024920034000972358 0 -0.0015567506526775587 0.024687636604885502 0 -0.0012946799850586286 0.024601244309270031 0 -0.0015567506526775587 0.024687636604885502 0 -0.0016615926757173069 0.024432950151758205 0 0.00015489849389621916 0.016946697117883935 0 -0.0004107305002324936 0.017671864654574806 0 -0.00034975632763678701 0.017639542371119331 0 -0.00074920226467362907 0.024670828964042501 0 -0.0013479723812742698 0.025369169262204307 0 -0.001263820985880977 0.024934755307082362 0 0.00015489849389621916 0.016946697117883935 0 -0.00034975632763678701 0.017639542371119331 0 0.00025358830050100918 0.017588212865096743 0 -0.001585163337094114 0.018809805967670918 0 -0.0021221281538085076 0.020643352604945119 0 -0.00041319270514036087 0.017670437189363928 0 -0.00034975632763678701 0.017639542371119331 0 -0.00036670562287719925 0.017821165161033822 0 -0.0021221281538085076 0.020643352604945119 0 -0.0021184602467240617 0.020640576984140974 0 -0.0013479723812742698 0.025369169262204307 0 -0.0014112647118383181 0.025104468302873894 0 -0.0016078969258441782 0.025229687776513892 0 -0.0014112647118383181 0.025104468302873894 0 -0.0014869250517295777 0.024920034000972358 0 -0.0016078969258441782 0.025229687776513892 0 -0.0013479723812742698 0.025369169262204307 0 -0.0014112647118383181 0.025104468302873894 0 -0.001263820985880977 0.024934755307082362 0 -0.0014112647118383181 0.025104468302873894 0 -0.0014869250517295777 0.024920034000972358 0 -0.001263820985880977 0.024934755307082362 0 -0.00034975632763678701 0.017639542371119331 0 0.00025358830050100918 0.017588212865096743 0 -0.00017538542998373822 0.017922206950694117 0 0.00015489849389621916 0.016946697117883935 0 0.00025358830050100918 0.017588212865096743 0 0.00063020986594280494 0.017140226219644079 0 0.00025358830050100918 0.017588212865096743 0 0.00063020986594280494 0.017140226219644079 0 0.00083620706769746498 0.017729052426699064 0 0.00031030239365669013 0.01805557297052018 0 -6.4172668556520632e-05 0.018317441665039531 0 0.00072302176048972037 0.01841515198977392 0 0.00031030239365669013 0.01805557297052018 0 0.00083620706769746498 0.017729052426699064 0 0.00072302176048972037 0.01841515198977392 0 0.00025358830050100918 0.017588212865096743 0 0.00031030239365669013 0.01805557297052018 0 0.00083620706769746498 0.017729052426699064 0 0.00025358830050100918 0.017588212865096743 0 0.00031030239365669013 0.01805557297052018 0 -0.00017538542998373822 0.017922206950694117 0 -0.00017538542998373822 0.017922206950694117 0 -6.4172668556520632e-05 0.018317441665039531 0 -0.00045724976395117057 0.018069070782971621 0 0.00031030239365669013 0.01805557297052018 0 -0.00017538542998373822 0.017922206950694117 0 -6.4172668556520632e-05 0.018317441665039531 0 -6.4172668556520632e-05 0.018317441665039531 0 -0.00045724976395117057 0.018069070782971621 0 -0.00058051759089928264 0.018415069567656935 0 -0.00045724976395117057 0.018069070782971621 0 -0.00036670562287719925 0.017821165161033822 0 -0.0005338071287294394 0.01781156161751242 0 -0.00017538542998373822 0.017922206950694117 0 -0.00045724976395117057 0.018069070782971621 0 -0.00036670562287719925 0.017821165161033822 0 -0.00034975632763678701 0.017639542371119331 0 -0.00017538542998373822 0.017922206950694117 0 -0.00036670562287719925 0.017821165161033822 0 -0.00041319270514036087 0.017670437189363928 0 -0.00036670562287719925 0.017821165161033822 0 -0.0005338071287294394 0.01781156161751242 0 -0.0021221281538085076 0.020643352604945119 0 -0.0021017352220046408 0.020614436370516978 0 -0.00058461002415422729 0.016117686214140205 0 0.00017232494635054007 0.0166088090603672 0 -0.0026936481422914498 0.012727572899017442 0 -0.00077631322344297077 0.013393952409561986 0 -0.001227694964592653 0.015543523201469721 0 0.0011631469573324536 0.01709646712672366 0 0.00063020986594280494 0.017140226219644079 0 0.00083620706769746498 0.017729052426699064 0 0.0011631469573324536 0.01709646712672366 0 0.00083620706769746498 0.017729052426699064 0 0.001619312125096475 0.017978199239599906 0 0.00017232494635054007 0.0166088090603672 0 0.00011676201307193388 0.017046498652730047 0 0.00083620706769746498 0.017729052426699064 0 0.001619312125096475 0.017978199239599906 0 0.00072302176048972037 0.01841515198977392 0 0.0014336336152652135 0.018058031675051475 0 0.00070942481669641346 0.018404677767248679 0 0.0012868607110340389 0.018557638143805375 0 0.00017232494635054007 0.0166088090603672 0 0.0004101664789606512 0.016981360530196356 0 -0.00022027010307590177 0.015213020141576264 0 0.0013255962855532166 0.015742147863205755 0 0.00060942357552820061 0.016774098947533529 0 0.0013255962855532166 0.015742147863205755 0 0.0028546692317299054 0.015207436024862176 0 0.0012025054813241214 0.014513819657831533 0 0.00017232494635054007 0.0166088090603672 0 0.00059191175609149137 0.016262031079246956 0 -0.00022027010307590177 0.015213020141576264 0 0.0013255962855532166 0.015742147863205755 0 0.0012025054813241214 0.014513819657831533 0 0.0028546692317299054 0.015207436024862176 0 0.0041776907891496471 0.016059949848303799 0 0.0023511650843680552 0.016654443272619102 0 0.0013255962855532166 0.015742147863205755 0 0.0028546692317299054 0.015207436024862176 0 0.0023511650843680552 0.016654443272619102 0 0.0032024048926630215 0.011982649355507973 0 0.0033659801736503937 0.011041417277155099 0 0.0028546692317299054 0.015207436024862176 0 0.0024431055529881333 0.013739275764659817 0 0.0012025054813241214 0.014513819657831533 0 0.0028546692317299054 0.015207436024862176 0 0.0024431055529881333 0.013739275764659817 0 0.0033260706512375023 0.012109566416662072 0 0.00080722418290038813 0.01611016303508311 0 0.00059191175609149137 0.016262031079246956 0 0.0024431055529881333 0.013739275764659817 0 0.00057002225208021358 0.014682845747331254 0 0.00055994333012026698 0.012396553901100647 0 -0.00077631322344297077 0.013393952409561986 0 0.00057002225208021358 0.014682845747331254 0 0.00055994333012026698 0.012396553901100647 0 -0.00077631322344297077 0.013393952409561986 0 -0.001227694964592653 0.015543523201469721 0 0.00057002225208021358 0.014682845747331254 0 -0.0010778733117283309 0.011635672456052078 0 -0.00077631322344297077 0.013393952409561986 0 0.00055994333012026698 0.012396553901100647 0 -0.0010778733117283309 0.011635672456052078 0 0.00055994333012026698 0.012396553901100647 0 8.6713555548672259e-05 0.010631100503165616 0 0.00055994333012026698 0.012396553901100647 0 0.0017552950769913957 0.010719952838218668 0 8.6713555548672259e-05 0.010631100503165616 0 0.0024431055529881333 0.013739275764659817 0 0.00055994333012026698 0.012396553901100647 0 0.0020305055896080852 0.01224784626418242 0 0.0024431055529881333 0.013739275764659817 0 0.0020305055896080852 0.01224784626418242 0 0.0033260706512375023 0.012109566416662072 0 0.0020305055896080852 0.01224784626418242 0 0.0017552950769913957 0.010719952838218668 0 0.0033260706512375023 0.012109566416662072 0 0.00055994333012026698 0.012396553901100647 0 0.0020305055896080852 0.01224784626418242 0 0.0017552950769913957 0.010719952838218668 0 0.0016648339334582954 0.0089088961686581564 0 0.0038592421583214273 0.00861684781955473 0 0.0017552950769913957 0.010719952838218668 0 0.0038592421583214273 0.00861684781955473 0 0.0017552950769913957 0.010719952838218668 0 0.0033260706512375023 0.012109566416662072 0 0.0016648339334582954 0.0089088961686581564 0 0.0017552950769913957 0.010719952838218668 0 0.00074117302763956503 0.0095997371210142252 0 -0.0013056262179652967 0.0098411090128783102 0 -0.00029866132659508434 0.0092542813004879935 0 8.6713555548672259e-05 0.010631100503165616 0 0.00074117302763956503 0.0095997371210142252 0 -0.00029866132659508434 0.0092542813004879935 0 8.6713555548672259e-05 0.010631100503165616 0 0.0004938209908655443 0.0084958800505828755 0 0.00074117302763956503 0.0095997371210142252 0 -0.00029866132659508434 0.0092542813004879935 0 0.0017552950769913957 0.010719952838218668 0 0.00074117302763956503 0.0095997371210142252 0 8.6713555548672259e-05 0.010631100503165616 0 0.0051356580704514897 0.0078334237314639735 0 0.0049675528617664092 0.0094421298034349822 0 0.0066726981263451838 0.0087806298624518789 0 0.0049675528617664092 0.0094421298034349822 0 0.0066726981263451838 0.0087806298624518789 0 0.0066191593611306006 0.010957207948894158 0 0.0037137087358101897 0.0081436855873034258 0 0.0049675528617664092 0.0094421298034349822 0 0.0030567377458868236 0.011696841615599519 0 0.0036675307210228608 0.0093567767619916146 0 0.0033659801736503937 0.011041417277155099 0 0.0049675528617664092 0.0094421298034349822 0 0.0030567377458868236 0.011696841615599519 0 0.0050842488201830417 0.011954084460766491 0 0.0084578076456768726 0.007571356288694985 0 0.0087945057442018072 0.0073479419059514252 0 0.0049675528617664092 0.0094421298034349822 0 0.0050842488201830417 0.011954084460766491 0 0.0071747469464008362 0.01240783991562055 0 0.0051294322424218176 0.014156545450016577 0 0.0068778356730325096 0.014643900597421971 0 0.0071747469464008362 0.01240783991562055 0 0.0050842488201830417 0.011954084460766491 0 0.0051294322424218176 0.014156545450016577 0 0.0071747469464008362 0.01240783991562055 0 0.0028546692317299054 0.015207436024862176 0 0.0030567377458868236 0.011696841615599519 0 0.0051294322424218176 0.014156545450016577 0 0.0030567377458868236 0.011696841615599519 0 0.0050842488201830417 0.011954084460766491 0 0.0051294322424218176 0.014156545450016577 0 0.0051294322424218176 0.014156545450016577 0 0.0041776907891496471 0.016059949848303799 0 0.0055592281452604584 0.016549543051232758 0 0.0028546692317299054 0.015207436024862176 0 0.0051294322424218176 0.014156545450016577 0 0.0041776907891496471 0.016059949848303799 0 0.0051294322424218176 0.014156545450016577 0 0.0068778356730325096 0.014643900597421971 0 0.0055592281452604584 0.016549543051232758 0 0.0068778356730325096 0.014643900597421971 0 0.007190992053457218 0.01623408712205637 0 0.0055592281452604584 0.016549543051232758 0 0.0082143567437016844 0.012676597996222939 0 0.009554220506118637 0.010819487229366301 0 0.0066191593611306006 0.010957207948894158 0 0.0068778356730325096 0.014643900597421971 0 0.0088106715830271257 0.014823377756230487 0 0.007190992053457218 0.01623408712205637 0 0.0087266090992879769 0.005307715379697796 0 0.0087945057442018072 0.0073479419059514252 0 0.0068778356730325096 0.014643900597421971 0 0.0088106715830271257 0.014823377756230487 0 0.0071747469464008362 0.01240783991562055 0 0.0087266090992879769 0.005307715379697796 0 0.0058534489016510635 -0.0017360660137513094 0 0.0082143567437016844 0.012676597996222939 0 0.010664761692387193 0.01289522447469086 0 0.0097742997963427645 0.014419180697734919 0 0.0014333227944092735 -0.032781202841124318 0 0.0013575129704602666 -0.032808790009121833 0 0.0014037803144091037 -0.032592371581016043 0 0.0014333227944092735 -0.032781202841124318 0 0.0013575129704602666 -0.032808790009121833 0 0.001372402895856555 -0.03290107607442011 0 0.0068809972679837886 -0.0056093484975527552 0 0.0074047124873776677 -0.0079323379140598324 0 0.010664761692387193 0.01289522447469086 0 0.009554220506118637 0.010819487229366301 0 0.011581327902626266 0.011338696363234124 0 0.0082143567437016844 0.012676597996222939 0 0.010664761692387193 0.01289522447469086 0 0.009554220506118637 0.010819487229366301 0 0.009554220506118637 0.010819487229366301 0 0.010977671337919026 0.01011316194759574 0 0.011581327902626266 0.011338696363234124 0 0.009554220506118637 0.010819487229366301 0 0.010977671337919026 0.01011316194759574 0 0.010279383289615297 0.008532448274354407 0 0.010977671337919026 0.01011316194759574 0 0.010279383289615297 0.008532448274354407 0 0.012481839858752329 0.0097604708842359261 0 0.010517651028015468 -0.0060732391275303398 0 0.0076910281305259667 -0.0093458262249976991 0 0.009554220506118637 0.010819487229366301 0 0.010279383289615297 0.008532448274354407 0 0.0082782521607340578 0.0093340599263208382 0 0.010279383289615297 0.008532448274354407 0 0.0082782521607340578 0.0093340599263208382 0 0.0083115070125708949 0.0074890766492543758 0 0.0082782521607340578 0.0093340599263208382 0 0.0066726981263451838 0.0087806298624518789 0 0.0083115070125708949 0.0074890766492543758 0 0.009554220506118637 0.010819487229366301 0 0.0082782521607340578 0.0093340599263208382 0 0.0066191593611306006 0.010957207948894158 0 0.0082782521607340578 0.0093340599263208382 0 0.0066726981263451838 0.0087806298624518789 0 0.0066191593611306006 0.010957207948894158 0 0.0023726079092684315 -0.019865156135719739 0 0.0027517117641506603 -0.019908949649358302 0 0.0026438074706165503 -0.019630680105283627 0 1.4389673338417105e-05 -0.024778807684402483 0 0.0013385514730220585 -0.021174466151051639 0 0.00065662882512973356 -0.032764395351565778 0 0.0009375018363719 -0.032625287213143915 0 0.00080097679142245904 -0.032799705308788382 0 0.0009375018363719 -0.032625287213143915 0 0.00091048355695489292 -0.032838760306049285 0 0.0010235051486031095 -0.032788377491179084 0 0.0009375018363719 -0.032625287213143915 0 0.00080097679142245904 -0.032799705308788382 0 0.00091048355695489292 -0.032838760306049285 0 0.00080097679142245904 -0.032799705308788382 0 0.00080417037175069543 -0.032920353071777889 0 0.00091048355695489292 -0.032838760306049285 0 0.00080417037175069543 -0.032920353071777889 0 0.00091048355695489292 -0.032838760306049285 0 0.00086581400641910344 -0.032972738482393051 0 0.00091048355695489292 -0.032838760306049285 0 0.00086581400641910344 -0.032972738482393051 0 0.00097473174506296266 -0.032918496574911041 0 0.00091048355695489292 -0.032838760306049285 0 0.0010235051486031095 -0.032788377491179084 0 0.00097473174506296266 -0.032918496574911041 0 0.0010235051486031095 -0.032788377491179084 0 0.0011277890527893631 -0.032842109473878223 0 0.0011273929767583726 -0.032681868697282998 0 0.0010235051486031095 -0.032788377491179084 0 0.0011277890527893631 -0.032842109473878223 0 0.00097473174506296266 -0.032918496574911041 0 0.0009375018363719 -0.032625287213143915 0 0.0010235051486031095 -0.032788377491179084 0 0.0011273929767583726 -0.032681868697282998 0 0.0009375018363719 -0.032625287213143915 0 0.0011273929767583726 -0.032681868697282998 0 0.0011372559463286441 -0.032514226326782913 0 0.0013385514730220585 -0.021174466151051639 0 0.0033635681128048782 -0.016479958297752315 0 0.0011273929767583726 -0.032681868697282998 0 0.0012608166969770265 -0.032591219960126844 0 0.0011372559463286441 -0.032514226326782913 0 0.0011273929767583726 -0.032681868697282998 0 0.0012608166969770265 -0.032591219960126844 0 0.0012501752190296183 -0.032748619694742728 0 0.0011277890527893631 -0.032842109473878223 0 0.0011273929767583726 -0.032681868697282998 0 0.0012501752190296183 -0.032748619694742728 0 0.0011277890527893631 -0.032842109473878223 0 0.0012501752190296183 -0.032748619694742728 0 0.001238110960145696 -0.032878950974648935 0 0.0012501752190296183 -0.032748619694742728 0 0.0013575129704602666 -0.032808790009121833 0 0.001238110960145696 -0.032878950974648935 0 0.0012501752190296183 -0.032748619694742728 0 0.0013575129704602666 -0.032808790009121833 0 0.0014037803144091037 -0.032592371581016043 0 0.0012608166969770265 -0.032591219960126844 0 0.0012501752190296183 -0.032748619694742728 0 0.0014037803144091037 -0.032592371581016043 0 0.010977671337919026 0.01011316194759574 0 0.011581327902626266 0.011338696363234124 0 0.012481839858752329 0.0097604708842359261 0 0.0074047124873776677 -0.0079323379140598324 0 0.0076910281305259667 -0.0093458262249976991 0 0.0012608166969770265 -0.032591219960126844 0 0.0014037803144091037 -0.032592371581016043 0 0.0013272027626241255 -0.032396500107395892 0 0.01263589801923101 0.0097829804624912156 0 0.013777428579503367 0.0078320288528296884 0 0.012274194407446608 0.0082782500553353015 0 0.010279383289615297 0.008532448274354407 0 0.01263589801923101 0.0097829804624912156 0 0.012274194407446608 0.0082782500553353015 0 0.0076910281305259667 -0.0093458262249976991 0 0.006817843531933666 -0.0086044996487030755 0 0.0036253676318628563 -0.019397535771163647 0 0.0031597175272811934 -0.019218779921673305 0 0.0033558910113560057 -0.01893438960305668 0 0.0036253676318628563 -0.019397535771163647 0 0.0031943088150990758 -0.019648415992316124 0 0.0031597175272811934 -0.019218779921673305 0 0.0076910281305259667 -0.0093458262249976991 0 0.0033635681128048782 -0.016479958297752315 0 0.0012608166969770265 -0.032591219960126844 0 0.0013272027626241255 -0.032396500107395892 0 0.0011372559463286441 -0.032514226326782913 0 0.0031943088150990758 -0.019648415992316124 0 0.0028900403210667938 -0.019448844245744126 0 0.0031597175272811934 -0.019218779921673305 0 0.0027517117641506603 -0.019908949649358302 0 0.0031943088150990758 -0.019648415992316124 0 0.0028900403210667938 -0.019448844245744126 0 0.0028900403210667938 -0.019448844245744126 0 0.0031597175272811934 -0.019218779921673305 0 0.002885186058311224 -0.019080870853939204 0 0.002885186058311224 -0.019080870853939204 0 0.0025344166949823645 -0.019321429939922197 0 0.0026659663306814146 -0.018866620586529246 0 0.0011888329011667022 -0.0249546495729723 0 0.0013937467473051079 -0.025832392677159723 0 0.00094678994069227773 -0.026059692754812017 0 0.00093578823273089966 -0.025988415244674431 0 0.00090853885246534134 -0.026214634375951715 0 0.0028900403210667938 -0.019448844245744126 0 0.002885186058311224 -0.019080870853939204 0 0.0025344166949823645 -0.019321429939922197 0 0.00095638663569660109 -0.025895054940214945 0 0.00094678994069227773 -0.026059692754812017 0 0.00093578823273089966 -0.025988415244674431 0 0.0028900403210667938 -0.019448844245744126 0 0.0025344166949823645 -0.019321429939922197 0 0.0026438074706165503 -0.019630680105283627 0 0.0027517117641506603 -0.019908949649358302 0 0.0028900403210667938 -0.019448844245744126 0 0.0026438074706165503 -0.019630680105283627 0 0.0023726079092684315 -0.019865156135719739 0 0.0025344166949823645 -0.019321429939922197 0 0.0026438074706165503 -0.019630680105283627 0 0.00012462011940378236 -0.033337279753918356 0 -0.00013619811498701001 -0.033155034389907204 0 -0.00010302806014249804 -0.032986751683461955 0 0.0026549823988897313 -0.018530763523154057 0 0.0027691102976384087 -0.018514011332074049 0 0.002742626793588178 -0.01820884328312208 0 0.0027691102976384087 -0.018514011332074049 0 0.0026921711859023327 -0.018800157965088663 0 0.0030070286503083776 -0.018809830960104339 0 0.00161354141092464 -0.025137574015215342 0 0.0014625865091858049 -0.025761723079763335 0 0.0027691102976384087 -0.018514011332074049 0 0.002590764112038822 -0.018841514772712321 0 0.0026693876513472227 -0.018954283856083651 0 0.0026549823988897313 -0.018530763523154057 0 0.0027691102976384087 -0.018514011332074049 0 0.002590764112038822 -0.018841514772712321 0 0.0022214416427830267 -0.024582721426830972 0 0.0015683299866316655 -0.026156552325654975 0 0.0010639371514078897 -0.026962397837366568 0 0.001346288848308873 -0.025586538169097634 0 0.0014508905713179786 -0.026003083592073501 0 0.00096212863478845967 -0.027376790996326235 0 0.0015683299866316655 -0.026156552325654975 0 0.001346288848308873 -0.025586538169097634 0 0.0014508905713179786 -0.026003083592073501 0 0.0015025000643689864 -0.025810308407463671 0 0.0015683299866316655 -0.026156552325654975 0 0.0014625865091858049 -0.025761723079763335 0 0.0013937467473051079 -0.025832392677159723 0 0.0014625865091858049 -0.025761723079763335 0 0.00096212863478845967 -0.027376790996326235 0 0.0013937467473051079 -0.025832392677159723 0 0.002885186058311224 -0.019080870853939204 0 0.0026659663306814146 -0.018866620586529246 0 0.0026818096383491689 -0.018805681091738944 0 0.0012666226134231044 -0.025206486002447702 0 0.0014625865091858049 -0.025761723079763335 0 0.0030070286503083776 -0.018809830960104339 0 0.0031038406646358924 -0.018465665552329109 0 0.0033558910113560057 -0.01893438960305668 0 0.0031597175272811934 -0.019218779921673305 0 0.002885186058311224 -0.019080870853939204 0 0.0030070286503083776 -0.018809830960104339 0 0.0031597175272811934 -0.019218779921673305 0 0.0030070286503083776 -0.018809830960104339 0 0.0033558910113560057 -0.01893438960305668 0 0.002885186058311224 -0.019080870853939204 0 0.0026921711859023327 -0.018800157965088663 0 0.0030070286503083776 -0.018809830960104339 0 0.0027691102976384087 -0.018514011332074049 0 0.0030070286503083776 -0.018809830960104339 0 0.0031038406646358924 -0.018465665552329109 0 0.0027691102976384087 -0.018514011332074049 0 0.0031038406646358924 -0.018465665552329109 0 0.002742626793588178 -0.01820884328312208 0 0.0061335432389630308 -0.0091936743516834018 0 0.006817843531933666 -0.0086044996487030755 0 0.015000611155806224 0.0058023125956569045 0 0.013443933848029945 0.0063374442222307878 0 0.012824909927376118 0.0049327894420099841 0 0.015000611155806224 0.0058023125956569045 0 0.013443933848029945 0.0063374442222307878 0 0.013777428579503367 0.0078320288528296884 0 0.013443933848029945 0.0063374442222307878 0 0.013777428579503367 0.0078320288528296884 0 0.012197915987010553 0.0067561485535658173 0 0.013777428579503367 0.0078320288528296884 0 0.012274194407446608 0.0082782500553353015 0 0.012197915987010553 0.0067561485535658173 0 0.012197915987010553 0.0067561485535658173 0 0.012824909927376118 0.0049327894420099841 0 0.010411742392177853 0.0058927857316120732 0 0.013443933848029945 0.0063374442222307878 0 0.012197915987010553 0.0067561485535658173 0 0.012824909927376118 0.0049327894420099841 0 0.010132607787523876 0.0032493013118950419 0 0.0095028989416266769 0.0027518223417474404 0 0.013213451194895198 0.0026690560085074989 0 0.010823521760532692 0.0032310824800135529 0 0.011516311151124586 0.0012311609279779564 0 0.012824909927376118 0.0049327894420099841 0 0.013213451194895198 0.0026690560085074989 0 0.010823521760532692 0.0032310824800135529 0 0.013213451194895198 0.0026690560085074989 0 0.014462417952803347 0.0040465226022715108 0 0.01481651325801696 0.0027823884527033156 0 0.013213451194895198 0.0026690560085074989 0 0.01481651325801696 0.0027823884527033156 0 0.014413374724392575 0.001664517186614039 0 0.015000611155806224 0.0058023125956569045 0 0.012824909927376118 0.0049327894420099841 0 0.014462417952803347 0.0040465226022715108 0 0.012824909927376118 0.0049327894420099841 0 0.013213451194895198 0.0026690560085074989 0 0.014462417952803347 0.0040465226022715108 0 0.0031038406646358924 -0.018465665552329109 0 0.0028406069157731043 -0.017934553634222798 0 0.002742626793588178 -0.01820884328312208 0 0.0061335432389630308 -0.0091936743516834018 0 0.0052489239666890525 -0.010732118093381905 0 0.015000611155806224 0.0058023125956569045 0 0.014462417952803347 0.0040465226022715108 0 0.016288939707571306 0.0036033541707024374 0 0.01481651325801696 0.0027823884527033156 0 0.016288939707571306 0.0036033541707024374 0 0.015659320289980311 0.0019696168398296156 0 0.014462417952803347 0.0040465226022715108 0 0.01481651325801696 0.0027823884527033156 0 0.016288939707571306 0.0036033541707024374 0 0.0024462099920414962 -0.017418083389784698 0 0.0025961334554878189 -0.01767753394964312 0 0.0025520236505710133 -0.017977837406912691 0 0.0052489239666890525 -0.010732118093381905 0 0.0039255404685856442 -0.013314122933708542 0 0.0028406069157731043 -0.017934553634222798 0 0.0025961334554878189 -0.01767753394964312 0 0.0025457412899290905 -0.017378513097499937 0 0.016288939707571306 0.0036033541707024374 0 0.017550143895035224 0.0013547948019764404 0 0.015659320289980311 0.0019696168398296156 0 0.0028406069157731043 -0.017934553634222798 0 0.0025961334554878189 -0.01767753394964312 0 0.0025520236505710133 -0.017977837406912691 0 0.00012462011940378236 -0.033337279753918356 0 -0.00013619811498701001 -0.033155034389907204 0 -2.4716755669458101e-05 -0.033515861095586137 0 0.0026759863015453204 -0.018538115386921163 0 0.0025520236505710133 -0.017977837406912691 0 0.002742626793588178 -0.01820884328312208 0 0.0022214416427830267 -0.024582721426830972 0 0.0027367127129718119 -0.020850657332540008 0 0.0028406069157731043 -0.017934553634222798 0 0.0025520236505710133 -0.017977837406912691 0 0.002742626793588178 -0.01820884328312208 0 0.0022214416427830267 -0.024582721426830972 0 0.0023078469206334693 -0.024072158271908048 0 0.0083115070125708949 0.0074890766492543758 0 0.010411742392177853 0.0058927857316120732 0 0.0077214914052855504 0.0053202125776979654 0 0.00609492572650809 0.0070570003418603004 0 0.00596511807124932 0.0055719323640334535 0 0.0077214914052855504 0.0053202125776979654 0 0.00609492572650809 0.0070570003418603004 0 0.0083115070125708949 0.0074890766492543758 0 0.0077214914052855504 0.0053202125776979654 0 0.00609492572650809 0.0070570003418603004 0 0.0066726981263451838 0.0087806298624518789 0 0.0083115070125708949 0.0074890766492543758 0 0.010279383289615297 0.008532448274354407 0 0.0083115070125708949 0.0074890766492543758 0 0.010411742392177853 0.0058927857316120732 0 0.010279383289615297 0.008532448274354407 0 0.012197915987010553 0.0067561485535658173 0 0.010411742392177853 0.0058927857316120732 0 0.010279383289615297 0.008532448274354407 0 0.012274194407446608 0.0082782500553353015 0 0.012197915987010553 0.0067561485535658173 0 0.010411742392177853 0.0058927857316120732 0 0.0093342956737234306 0.0039814156594036318 0 0.0077214914052855504 0.0053202125776979654 0 0.012824909927376118 0.0049327894420099841 0 0.010411742392177853 0.0058927857316120732 0 0.011208407514042338 0.0035443943785994116 0 0.010411742392177853 0.0058927857316120732 0 0.011208407514042338 0.0035443943785994116 0 0.0093342956737234306 0.0039814156594036318 0 0.0095028989416266769 0.0027518223417474404 0 0.0080193919948211827 0.00161907866150586 0 0.011208407514042338 0.0035443943785994116 0 0.0093342956737234306 0.0039814156594036318 0 0.0095549293136030951 0.002069928655529196 0 0.0093342956737234306 0.0039814156594036318 0 0.0077515024844558317 0.0030719318396586789 0 0.0095549293136030951 0.002069928655529196 0 0.0093342956737234306 0.0039814156594036318 0 0.0077515024844558317 0.0030719318396586789 0 0.0077214914052855504 0.0053202125776979654 0 0.0060803320829410385 0.0042838465663690099 0 0.0077515024844558317 0.0030719318396586789 0 0.0077214914052855504 0.0053202125776979654 0 0.00596511807124932 0.0055719323640334535 0 0.0060803320829410385 0.0042838465663690099 0 0.0077214914052855504 0.0053202125776979654 0 0.0060803320829410385 0.0042838465663690099 0 0.0077515024844558317 0.0030719318396586789 0 0.0057721564483177038 0.0021504880325137398 0 0.0077515024844558317 0.0030719318396586789 0 0.0078754425496715113 0.00058434830692814029 0 0.0057721564483177038 0.0021504880325137398 0 0.0059443987031083242 0.00010616616980772909 0 0.0040371487620204103 0.0019612102640406818 0 0.0043883062256299061 0.0015941883719985833 0 0.004554629233906809 0.0017387532490351154 0 0.0027794383396817926 0.0031022995719131568 0 0.0034009366452319462 0.0013174172479961128 0 0.0043883062256299061 0.0015941883719985833 0 0.0027794383396817926 0.0031022995719131568 0 0.0034009366452319462 0.0013174172479961128 0 0.0043883062256299061 0.0015941883719985833 0 0.0041809929155504598 0.0011352746370427715 0 0.0046096243251385286 0.0012945245612266179 0 0.0045527032320250215 0.0017364891019524366 0 0.0050944703801523543 0.00094573083136500872 0 0.004436752742477245 0.001229628162555937 0 0.0043883062256299061 0.0015941883719985833 0 0.0041809929155504598 0.0011352746370427715 0 0.0046096243251385286 0.0012945245612266179 0 0.004436752742477245 0.001229628162555937 0 0.0043883062256299061 0.0015941883719985833 0 0.0046096243251385286 0.0012945245612266179 0 0.0043883062256299061 0.0015941883719985833 0 0.0045527032320250215 0.0017364891019524366 0 0.0059425441265221939 0.00010751141425306889 0 0.0059443987031083242 0.00010616616980772909 0 0.0077515024844558317 0.0030719318396586789 0 0.0078754425496715113 0.00058434830692814029 0 0.0095549293136030951 0.002069928655529196 0 0.0059443987031083242 0.00010616616980772909 0 0.0080193919948211827 0.00161907866150586 0 0.0088793199602332316 0.0015396532073726679 0 0.010209973874403491 -5.7250155981368639e-05 0 0.011516311151124586 0.0012311609279779564 0 0.010823521760532692 0.0032310824800135529 0 0.0088793199602332316 0.0015396532073726679 0 0.011516311151124586 0.0012311609279779564 0 0.010209973874403491 -5.7250155981368639e-05 0 0.0092494703322122465 -0.0019068829930774113 0 0.012047893188886327 -0.00081348565199760084 0 0.010209973874403491 -5.7250155981368639e-05 0 0.011516311151124586 0.0012311609279779564 0 0.012047893188886327 -0.00081348565199760084 0 0.010209973874403491 -5.7250155981368639e-05 0 0.0088797596869991148 -0.0001643637738403126 0 0.0092494703322122465 -0.0019068829930774113 0 0.0069430339091367593 -0.0001476462405383013 0 0.0088793199602332316 0.0015396532073726679 0 0.0088797596869991148 -0.0001643637738403126 0 0.0069430339091367593 -0.0001476462405383013 0 0.0088797596869991148 -0.0001643637738403126 0 0.0092494703322122465 -0.0019068829930774113 0 0.0088793199602332316 0.0015396532073726679 0 0.010209973874403491 -5.7250155981368639e-05 0 0.0088797596869991148 -0.0001643637738403126 0 0.0056196992204315477 -0.0022430743282508578 0 0.0041526697912798649 -0.002265822952071111 0 0.0062403882963188639 0.00044401549262871519 0 0.0050944703801523543 0.00094573083136500872 0 0.0050656613170705104 -1.2573451841776964e-05 0 0.0012633762805961276 -0.0042357560520084195 0 0.0013847383693028987 -0.0043277492830235296 0 0.0015078087325413262 -0.0042801784631874692 0 0.0012633762805961276 -0.0042357560520084195 0 0.0015252966109472799 -0.0041364586042256391 0 0.0015078087325413262 -0.0042801784631874692 0 0.0056196992204315477 -0.0022430743282508578 0 0.0063033045447370541 -0.0049912518458056273 0 0.0056196992204315477 -0.0022430743282508578 0 0.0053216507791500021 -0.0021906958393115221 0 0.0013847383693028987 -0.0043277492830235296 0 0.0011994872875008928 -0.0043715201046373494 0 0.0014343821918919983 -0.0044972408487031932 0 0.0012314827011597139 -0.0041903093279906916 0 0.0013847383693028987 -0.0043277492830235296 0 0.0011994872875008928 -0.0043715201046373494 0 0.0012314827011597139 -0.0041903093279906916 0 0.0011994872875008928 -0.0043715201046373494 0 0.0010553140374214471 -0.0042484938524925712 0 0.0011994872875008928 -0.0043715201046373494 0 0.0010553140374214471 -0.0042484938524925712 0 0.00099621744433869017 -0.0043943275608201837 0 0.00091752750479813907 -0.0042973249450780288 0 0.0010553140374214471 -0.0042484938524925712 0 0.00099621744433869017 -0.0043943275608201837 0 0.0029622180757481031 -0.0022200992304707936 0 0.0041526697912798649 -0.002265822952071111 0 0.0029622180757481031 -0.0022200992304707936 0 0.0029116607910112764 -0.002295475732295871 0 0.00087216683841737986 -0.004187194276822459 0 0.00081881087326526577 -0.0044550325003657335 0 0.00066485093087572181 -0.0041757019666856608 0 0.0029622180757481031 -0.0022200992304707936 0 0.0023328870465836472 -0.002593049387044577 0 0.0034009366452319462 0.0013174172479961128 0 0.0041018082631708594 0.00056928262635358982 0 0.0023862041325243572 0.0011666092683350073 0 0.0038882775693028287 -0.00047392491100872383 0 0.0041018082631708594 0.00056928262635358982 0 0.0023862041325243572 0.0011666092683350073 0 0.0029622180757481031 -0.0022200992304707936 0 0.0019825306963119362 -0.00027183266309644782 0 0.0034009366452319462 0.0013174172479961128 0 0.0041018082631708594 0.00056928262635358982 0 0.0041809929155504598 0.0011352746370427715 0 0.0041018082631708594 0.00056928262635358982 0 0.0041809929155504598 0.0011352746370427715 0 0.004568192517754803 0.00089469755669659677 0 0.0059443987031083242 0.00010616616980772909 0 0.0056196992204315477 -0.0022430743282508578 0 0.0045527032320250215 0.0017364891019524366 0 0.0062403882963188639 0.00044401549262871519 0 0.0050944703801523543 0.00094573083136500872 0 0.004436752742477245 0.001229628162555937 0 0.0041809929155504598 0.0011352746370427715 0 0.004568192517754803 0.00089469755669659677 0 0.0046096243251385286 0.0012945245612266179 0 0.004436752742477245 0.001229628162555937 0 0.004568192517754803 0.00089469755669659677 0 0.0046096243251385286 0.0012945245612266179 0 0.004568192517754803 0.00089469755669659677 0 0.0050944703801523543 0.00094573083136500872 0 0.004568192517754803 0.00089469755669659677 0 0.0050944703801523543 0.00094573083136500872 0 0.0050656613170705104 -1.2573451841776964e-05 0 0.0038882775693028287 -0.00047392491100872383 0 0.0041018082631708594 0.00056928262635358982 0 0.0050656613170705104 -1.2573451841776964e-05 0 0.0041018082631708594 0.00056928262635358982 0 0.004568192517754803 0.00089469755669659677 0 0.0050656613170705104 -1.2573451841776964e-05 0 0.0023302452587024378 -0.0041204558068386942 0 0.0021836930020479794 -0.0041118150784258999 0 0.0020613387979626103 -0.0039130595895500875 0 0.0033088580580566498 -0.014395276632298799 0 0.0041238200303010258 -0.012079634215014746 0 0.0020757621473550163 -0.0041181239570105268 0 0.0020613387979626103 -0.0039130595895500875 0 0.0019232118608031017 -0.0041273443887674208 0 0.0021836930020479794 -0.0041118150784258999 0 0.0020757621473550163 -0.0041181239570105268 0 0.0021647189607408076 -0.0042080811385555106 0 0.0021836930020479794 -0.0041118150784258999 0 0.0020757621473550163 -0.0041181239570105268 0 0.0020613387979626103 -0.0039130595895500875 0 0.0040427377796453754 -0.013291368471859176 0 0.0037613665490396912 -0.012797432237311878 0 0.0033310525393356314 -0.012964434999096375 0 0.017550143895035224 0.0013547948019764404 0 0.016483473735710259 0.00094289334855102895 0 0.015659320289980311 0.0019696168398296156 0 0.0039255404685856442 -0.013314122933708542 0 0.0041238200303010258 -0.012079634215014746 0 0.0024462099920414962 -0.017418083389784698 0 0.0025961334554878189 -0.01767753394964312 0 0.0025457412899290905 -0.017378513097499937 0 0.015659320289980311 0.0019696168398296156 0 0.014819122806137817 0.0002864787297455048 0 0.014413374724392575 0.001664517186614039 0 0.016483473735710259 0.00094289334855102895 0 0.015659320289980311 0.0019696168398296156 0 0.014819122806137817 0.0002864787297455048 0 0.01481651325801696 0.0027823884527033156 0 0.015659320289980311 0.0019696168398296156 0 0.014413374724392575 0.001664517186614039 0 0.0041238200303010258 -0.012079634215014746 0 0.0059127870831072989 -0.0086667711742015353 0 0.0018407895938671432 -0.0040026665759961555 0 0.0019232118608031017 -0.0041273443887674208 0 0.0017555003796029193 -0.0042447897600052902 0 0.0020613387979626103 -0.0039130595895500875 0 0.0018407895938671432 -0.0040026665759961555 0 0.0019232118608031017 -0.0041273443887674208 0 0.0059127870831072989 -0.0086667711742015353 0 0.0063033045447370541 -0.0049912518458056273 0 0.014819122806137817 0.0002864787297455048 0 0.013212167341688768 0.0009984400453787129 0 0.012047893188886327 -0.00081348565199760084 0 0.0018407895938671432 -0.0040026665759961555 0 0.0015252966109472799 -0.0041364586042256391 0 0.0017555003796029193 -0.0042447897600052902 0 0.014819122806137817 0.0002864787297455048 0 0.013212167341688768 0.0009984400453787129 0 0.014413374724392575 0.001664517186614039 0 0.013213451194895198 0.0026690560085074989 0 0.013212167341688768 0.0009984400453787129 0 0.014413374724392575 0.001664517186614039 0 0.013213451194895198 0.0026690560085074989 0 0.013212167341688768 0.0009984400453787129 0 0.011516311151124586 0.0012311609279779564 0 0.013212167341688768 0.0009984400453787129 0 0.011516311151124586 0.0012311609279779564 0 0.012047893188886327 -0.00081348565199760084 0 0.0015078087325413262 -0.0042801784631874692 0 0.0016020830885905143 -0.0044143342024934602 0 0.0017555003796029193 -0.0042447897600052902 0 0.0015252966109472799 -0.0041364586042256391 0 0.0015078087325413262 -0.0042801784631874692 0 0.0017555003796029193 -0.0042447897600052902 0 0.0013847383693028987 -0.0043277492830235296 0 0.0015078087325413262 -0.0042801784631874692 0 0.0016020830885905143 -0.0044143342024934602 0 0.0013847383693028987 -0.0043277492830235296 0 0.0016020830885905143 -0.0044143342024934602 0 0.0014343821918919983 -0.0044972408487031932 0 0.0016020830885905143 -0.0044143342024934602 0 0.0017668182181812516 -0.0044191641850034767 0 0.0017555003796029193 -0.0042447897600052902 0 0.0016020830885905143 -0.0044143342024934602 0 0.0016751136820237847 -0.0045308489969218581 0 0.0015869484664436694 -0.004542811951446726 0 0.0016020830885905143 -0.0044143342024934602 0 0.0017668182181812516 -0.0044191641850034767 0 0.0016751136820237847 -0.0045308489969218581 0 0.0017668182181812516 -0.0044191641850034767 0 0.0017732570998083112 -0.0045945152987085852 0 0.0016751136820237847 -0.0045308489969218581 0 0.0019232118608031017 -0.0041273443887674208 0 0.0017555003796029193 -0.0042447897600052902 0 0.0018862016995120601 -0.0043078758236793054 0 0.0019232118608031017 -0.0041273443887674208 0 0.0018862016995120601 -0.0043078758236793054 0 0.0020265540741195905 -0.0042434415724006986 0 0.0020757621473550163 -0.0041181239570105268 0 0.0019232118608031017 -0.0041273443887674208 0 0.0020265540741195905 -0.0042434415724006986 0 0.0018862016995120601 -0.0043078758236793054 0 0.0019527367300840404 -0.0044277588629895058 0 0.0020265540741195905 -0.0042434415724006986 0 0.0017668182181812516 -0.0044191641850034767 0 0.0017555003796029193 -0.0042447897600052902 0 0.0018862016995120601 -0.0043078758236793054 0 0.0017668182181812516 -0.0044191641850034767 0 0.0018862016995120601 -0.0043078758236793054 0 0.0019527367300840404 -0.0044277588629895058 0 0.0017668182181812516 -0.0044191641850034767 0 0.0019527367300840404 -0.0044277588629895058 0 0.0017732570998083112 -0.0045945152987085852 0 0.0019527367300840404 -0.0044277588629895058 0 0.0021014073244353185 -0.0044785833162266867 0 0.0019778278712468244 -0.0046630544307798465 0 0.0019527367300840404 -0.0044277588629895058 0 0.0021014073244353185 -0.0044785833162266867 0 0.0021291011789908373 -0.0043312464073696644 0 0.002237534181356797 -0.0044359237331895772 0 0.0021014073244353185 -0.0044785833162266867 0 0.0021918459416845476 -0.0046017080160577969 0 0.002237534181356797 -0.0044359237331895772 0 0.0021014073244353185 -0.0044785833162266867 0 0.0021291011789908373 -0.0043312464073696644 0 0.0022576310612330906 -0.0043050437628930141 0 0.002237534181356797 -0.0044359237331895772 0 0.0021291011789908373 -0.0043312464073696644 0 0.0022576310612330906 -0.0043050437628930141 0 0.0021291011789908373 -0.0043312464073696644 0 0.0021647189607408076 -0.0042080811385555106 0 0.0019527367300840404 -0.0044277588629895058 0 0.0021291011789908373 -0.0043312464073696644 0 0.0020265540741195905 -0.0042434415724006986 0 0.0021291011789908373 -0.0043312464073696644 0 0.0020265540741195905 -0.0042434415724006986 0 0.0021647189607408076 -0.0042080811385555106 0 0.0020757621473550163 -0.0041181239570105268 0 0.0020265540741195905 -0.0042434415724006986 0 0.0021647189607408076 -0.0042080811385555106 0 0.0022686371303000568 -0.0042008988923139335 0 0.0021836930020479794 -0.0041118150784258999 0 0.0021647189607408076 -0.0042080811385555106 0 0.0021311484885026036 -0.0048603409714999832 0 0.0019778278712468244 -0.0046630544307798465 0 0.00189507517494932 -0.0049667278516848084 0 0.0023541592764562535 -0.0050082633876339872 0 0.0021311484885026036 -0.0048603409714999832 0 0.0020208626012818923 -0.0052512917560550917 0 0.0021311484885026036 -0.0048603409714999832 0 0.00189507517494932 -0.0049667278516848084 0 0.0020208626012818923 -0.0052512917560550917 0 0.0021311484885026036 -0.0048603409714999832 0 0.0021918459416845476 -0.0046017080160577969 0 0.0019778278712468244 -0.0046630544307798465 0 0.0021014073244353185 -0.0044785833162266867 0 0.0021918459416845476 -0.0046017080160577969 0 0.0019778278712468244 -0.0046630544307798465 0 0.0019527367300840404 -0.0044277588629895058 0 0.0019778278712468244 -0.0046630544307798465 0 0.0017732570998083112 -0.0045945152987085852 0 0.0019778278712468244 -0.0046630544307798465 0 0.0017732570998083112 -0.0045945152987085852 0 0.0017528313190632238 -0.0048322882860813458 0 0.00189507517494932 -0.0049667278516848084 0 0.0017528313190632238 -0.0048322882860813458 0 0.0016072739908647073 -0.0052147912085437577 0 0.0019778278712468244 -0.0046630544307798465 0 0.00189507517494932 -0.0049667278516848084 0 0.0017528313190632238 -0.0048322882860813458 0 0.0013700053035206835 -0.0049260023701645393 0 0.0011837430549762763 -0.0050790993180795663 0 0.001424147628374485 -0.0051892902695535271 0 0.0014877435314149157 -0.0050239299778677294 0 0.001529486940619805 -0.0052598130776619163 0 0.0017528313190632238 -0.0048322882860813458 0 0.00153260751172283 -0.0047803747196571355 0 0.0016072739908647073 -0.0052147912085437577 0 0.0017732570998083112 -0.0045945152987085852 0 0.0017528313190632238 -0.0048322882860813458 0 0.00153260751172283 -0.0047803747196571355 0 0.0015228843354468196 -0.0049892243655062108 0 0.0014877435314149157 -0.0050239299778677294 0 0.0017732570998083112 -0.0045945152987085852 0 0.0016751136820237847 -0.0045308489969218581 0 0.0016670233056557296 -0.0046321474843138439 0 0.0016751136820237847 -0.0045308489969218581 0 0.0016670233056557296 -0.0046321474843138439 0 0.0015869484664436694 -0.004542811951446726 0 0.0016020830885905143 -0.0044143342024934602 0 0.0015869484664436694 -0.004542811951446726 0 0.0014343821918919983 -0.0044972408487031932 0 0.0016670233056557296 -0.0046321474843138439 0 0.0015869484664436694 -0.004542811951446726 0 0.001549297362355077 -0.0046300865482565836 0 0.0015869484664436694 -0.004542811951446726 0 0.001549297362355077 -0.0046300865482565836 0 0.0014343821918919983 -0.0044972408487031932 0 0.0014877435314149157 -0.0050239299778677294 0 0.001392448172988313 -0.0050610635291542735 0 0.001549297362355077 -0.0046300865482565836 0 0.0015143280518464426 -0.0047767857469105182 0 0.0014093676458433657 -0.0046373747284097445 0 0.0016670233056557296 -0.0046321474843138439 0 0.001549297362355077 -0.0046300865482565836 0 0.0015143280518464426 -0.0047767857469105182 0 0.0011837430549762763 -0.0050790993180795663 0 0.0012410601301905979 -0.0052883888618621613 0 0.001424147628374485 -0.0051892902695535271 0 0.0012410601301905979 -0.0052883888618621613 0 0.0014968865278146399 -0.0054689722896838567 0 0.0011316477530836555 -0.0054976219214824557 0 0.001529486940619805 -0.0052598130776619163 0 0.0015781776476741401 -0.005529998580154267 0 0.0012410601301905979 -0.0052883888618621613 0 0.001424147628374485 -0.0051892902695535271 0 0.0014968865278146399 -0.0054689722896838567 0 0.00189507517494932 -0.0049667278516848084 0 0.0016072739908647073 -0.0052147912085437577 0 0.0020208626012818923 -0.0052512917560550917 0 0.0016072739908647073 -0.0052147912085437577 0 0.0020208626012818923 -0.0052512917560550917 0 0.0016742179303264849 -0.0056259442016589742 0 0.0020208626012818923 -0.0052512917560550917 0 0.0021587052167319604 -0.0057055606007027524 0 0.0016742179303264849 -0.0056259442016589742 0 0.0024199544043888768 -0.0053492253971635416 0 0.0020208626012818923 -0.0052512917560550917 0 0.0021587052167319604 -0.0057055606007027524 0 0.0010220296822978927 -0.0046392532759097441 0 0.00097580585369712422 -0.0049545433398247504 0 0.00078642364820093733 -0.0048089567331228511 0 0.0010220296822978927 -0.0046392532759097441 0 0.00081881087326526577 -0.0044550325003657335 0 0.00078642364820093733 -0.0048089567331228511 0 0.00081881087326526577 -0.0044550325003657335 0 0.00078642364820093733 -0.0048089567331228511 0 0.00054818280376104863 -0.004566619785671161 0 0.00087216683841737986 -0.004187194276822459 0 0.00081881087326526577 -0.0044550325003657335 0 0.00099621744433869017 -0.0043943275608201837 0 0.0010220296822978927 -0.0046392532759097441 0 0.00099621744433869017 -0.0043943275608201837 0 0.0011280331547049317 -0.0044764321725666145 0 0.0010220296822978927 -0.0046392532759097441 0 0.00081881087326526577 -0.0044550325003657335 0 0.00099621744433869017 -0.0043943275608201837 0 0.0010220296822978927 -0.0046392532759097441 0 0.0011280331547049317 -0.0044764321725666145 0 0.0012664164412119967 -0.004561666265336055 0 0.0011994872875008928 -0.0043715201046373494 0 0.00099621744433869017 -0.0043943275608201837 0 0.0011280331547049317 -0.0044764321725666145 0 0.0011994872875008928 -0.0043715201046373494 0 0.0011280331547049317 -0.0044764321725666145 0 0.0012664164412119967 -0.004561666265336055 0 0.0011994872875008928 -0.0043715201046373494 0 0.0012664164412119967 -0.004561666265336055 0 0.0014343821918919983 -0.0044972408487031932 0 0.0012664164412119967 -0.004561666265336055 0 0.0014343821918919983 -0.0044972408487031932 0 0.0014093676458433657 -0.0046373747284097445 0 0.001549297362355077 -0.0046300865482565836 0 0.0014343821918919983 -0.0044972408487031932 0 0.0014093676458433657 -0.0046373747284097445 0 0.0015143280518464426 -0.0047767857469105182 0 0.0014093676458433657 -0.0046373747284097445 0 0.0012625038797379245 -0.0047518843302409627 0 0.0012664164412119967 -0.004561666265336055 0 0.0014093676458433657 -0.0046373747284097445 0 0.0012625038797379245 -0.0047518843302409627 0 0.0010220296822978927 -0.0046392532759097441 0 0.0012625038797379245 -0.0047518843302409627 0 0.00097580585369712422 -0.0049545433398247504 0 0.0010220296822978927 -0.0046392532759097441 0 0.0012664164412119967 -0.004561666265336055 0 0.0012625038797379245 -0.0047518843302409627 0 0.0013123433908614631 -0.0049968213339203387 0 0.00095357641494920339 -0.0053016423935914776 0 0.00097580585369712422 -0.0049545433398247504 0 0.0012625038797379245 -0.0047518843302409627 0 0.0013123433908614631 -0.0049968213339203387 0 0.00097580585369712422 -0.0049545433398247504 0 0.0015143280518464426 -0.0047767857469105182 0 0.0012625038797379245 -0.0047518843302409627 0 0.0013123433908614631 -0.0049968213339203387 0 0.001392448172988313 -0.0050610635291542735 0 0.0012937928708340349 -0.0051212432496156772 0 0.0011837430549762763 -0.0050790993180795663 0 0.0012410601301905979 -0.0052883888618621613 0 0.0010136777297114962 -0.0052321023015572564 0 0.0012410601301905979 -0.0052883888618621613 0 0.0010136777297114962 -0.0052321023015572564 0 0.0011316477530836555 -0.0054976219214824557 0 0.0010136777297114962 -0.0052321023015572564 0 0.0011316477530836555 -0.0054976219214824557 0 0.00096465380009118785 -0.0054903554877818892 0 0.0012937928708340349 -0.0051212432496156772 0 0.0012455829216317434 -0.0051546305844626782 0 0.0010136777297114962 -0.0052321023015572564 0 0.00095357641494920339 -0.0053016423935914776 0 0.00096465380009118785 -0.0054903554877818892 0 0.00095357641494920339 -0.0053016423935914776 0 0.00097580585369712422 -0.0049545433398247504 0 0.00072399638890777748 -0.0052308441948345731 0 0.00097580585369712422 -0.0049545433398247504 0 0.00078642364820093733 -0.0048089567331228511 0 0.00072399638890777748 -0.0052308441948345731 0 0.00078642364820093733 -0.0048089567331228511 0 0.00072399638890777748 -0.0052308441948345731 0 0.0005727575446488395 -0.0049948729644805493 0 0.00072399638890777748 -0.0052308441948345731 0 0.00039831478498277727 -0.0052987886750378204 0 0.0005727575446488395 -0.0049948729644805493 0 0.00039831478498277727 -0.0052987886750378204 0 0.00031853961680384997 -0.0050058313576136779 0 0.0005727575446488395 -0.0049948729644805493 0 8.2827028258958987e-05 -0.0052821980109385783 0 1.5263873869148263e-05 -0.0053687255927682498 0 0.00039831478498277727 -0.0052987886750378204 0 0.00031853961680384997 -0.0050058313576136779 0 5.8549956478082953e-05 -0.0053377401947823479 0 0.00031853961680384997 -0.0050058313576136779 0 0.00054818280376104863 -0.004566619785671161 0 0.00028923701983174911 -0.0047133368559470748 0 0.00031853961680384997 -0.0050058313576136779 0 5.2775890523872487e-05 -0.0048419423119997942 0 0.00028923701983174911 -0.0047133368559470748 0 0.00031853961680384997 -0.0050058313576136779 0 0.0005727575446488395 -0.0049948729644805493 0 0.00054818280376104863 -0.004566619785671161 0 0.00078642364820093733 -0.0048089567331228511 0 0.0005727575446488395 -0.0049948729644805493 0 0.00054818280376104863 -0.004566619785671161 0 -6.9821091551238807e-05 -0.005026608619383777 0 -0.00031266475415509735 -0.0051677314103381914 0 -0.00017092979493784141 -0.0053449138258772951 0 -6.9821091551238807e-05 -0.005026608619383777 0 -0.00017092979493784141 -0.0053449138258772951 0 2.9402185323873259e-05 -0.0052914665502017113 0 0.00031853961680384997 -0.0050058313576136779 0 -6.9821091551238807e-05 -0.005026608619383777 0 2.9402185323873259e-05 -0.0052914665502017113 0 0.00031853961680384997 -0.0050058313576136779 0 5.2775890523872487e-05 -0.0048419423119997942 0 -6.9821091551238807e-05 -0.005026608619383777 0 5.2775890523872487e-05 -0.0048419423119997942 0 -6.9821091551238807e-05 -0.005026608619383777 0 -0.00011731857716042621 -0.0048374022569727506 0 -6.9821091551238807e-05 -0.005026608619383777 0 -0.00025018386642331727 -0.0047916349952264285 0 -0.00031266475415509735 -0.0051677314103381914 0 -0.002769334184413586 0.0045188109270833518 0 -0.002231911450759347 0.0032130464852779786 0 -6.9821091551238807e-05 -0.005026608619383777 0 -0.00011731857716042621 -0.0048374022569727506 0 -0.00025018386642331727 -0.0047916349952264285 0 -0.0025667585329589471 0.0043778494766384774 0 -0.0022943542173053844 0.0044723463179074437 0 -0.002769334184413586 0.0045188109270833518 0 -0.0022943542173053844 0.0044723463179074437 0 -0.0026474469314158354 0.0046159748075642985 0 -0.0026506965345714588 0.0046016178596358188 0 -0.0026235361507453304 0.0046077991807017219 0 -0.00011731857716042621 -0.0048374022569727506 0 -0.00025018386642331727 -0.0047916349952264285 0 -5.5929796332115002e-05 -0.00473437742501083 0 -0.0025667585329589471 0.0043778494766384774 0 -0.002769334184413586 0.0045188109270833518 0 -0.0050692858575151741 0.0084557446977063279 0 -0.0049748068750948837 0.0089021198462252028 0 -0.0046453471737770528 0.0085629492277620456 0 -0.0015589071136789989 -0.0044974435223649831 0 -5.5929796332115002e-05 -0.00473437742501083 0 -0.00024727969485897005 -0.0040990187480536211 0 5.2775890523872487e-05 -0.0048419423119997942 0 -0.00011731857716042621 -0.0048374022569727506 0 -5.5929796332115002e-05 -0.00473437742501083 0 5.2775890523872487e-05 -0.0048419423119997942 0 -5.5929796332115002e-05 -0.00473437742501083 0 0.00028923701983174911 -0.0047133368559470748 0 -5.5929796332115002e-05 -0.00473437742501083 0 -0.00024727969485897005 -0.0040990187480536211 0 0.00031353036679949986 -0.0044450613174668299 0 -5.5929796332115002e-05 -0.00473437742501083 0 0.00028923701983174911 -0.0047133368559470748 0 0.00031353036679949986 -0.0044450613174668299 0 -0.00024727969485897005 -0.0040990187480536211 0 -4.3924743054859309e-05 -0.0025772533200374877 0 -0.0014241993975912018 -0.0028284593909874579 0 -0.00024727969485897005 -0.0040990187480536211 0 0.00058777549881051461 -0.0039269033008790819 0 -4.3924743054859309e-05 -0.0025772533200374877 0 -0.00024727969485897005 -0.0040990187480536211 0 0.00031353036679949986 -0.0044450613174668299 0 0.00058777549881051461 -0.0039269033008790819 0 -0.0015589071136789989 -0.0044974435223649831 0 -0.00024727969485897005 -0.0040990187480536211 0 -0.0014241993975912018 -0.0028284593909874579 0 -0.0051312809723039138 0.0082608615346023637 0 -0.0052981522948106407 0.0075158779705514524 0 -0.0047513045592884433 0.0076513259401027713 0 -0.0025667585329589471 0.0043778494766384774 0 -0.0026709992754573742 0.0037398350921477642 0 0.00054818280376104863 -0.004566619785671161 0 0.00028923701983174911 -0.0047133368559470748 0 0.00031353036679949986 -0.0044450613174668299 0 0.00054818280376104863 -0.004566619785671161 0 0.00031353036679949986 -0.0044450613174668299 0 0.00058777549881051461 -0.0039269033008790819 0 0.0020373963036632455 -0.0027456307186453396 0 0.0023328870465836472 -0.002593049387044577 0 0.00054818280376104863 -0.004566619785671161 0 0.00058777549881051461 -0.0039269033008790819 0 0.00066485093087572181 -0.0041757019666856608 0 0.00081881087326526577 -0.0044550325003657335 0 0.00054818280376104863 -0.004566619785671161 0 0.00066485093087572181 -0.0041757019666856608 0 0.003143280412852046 -0.0030332010019885418 0 0.0014533974650442108 -0.0017266899187557971 0 0.0031180037227532681 0.00037950047435561133 0 0.0054115319451586664 -0.0021481347572954606 0 0.003143280412852046 -0.0030332010019885418 0 0.0031180037227532681 0.00037950047435561133 0 0.0014380812988095022 -0.00015067663905129558 0 0.0014533974650442108 -0.0017266899187557971 0 0.0031180037227532681 0.00037950047435561133 0 0.0014380812988095022 -0.00015067663905129558 0 0.00040469150040334207 -0.00097286975737048329 0 0.00035251374268669604 0.00026883493764194805 0 0.0014380812988095022 -0.00015067663905129558 0 0.0014533974650442108 -0.0017266899187557971 0 0.00040469150040334207 -0.00097286975737048329 0 0.0014533974650442108 -0.0017266899187557971 0 -4.3924743054859309e-05 -0.0025772533200374877 0 0.00040469150040334207 -0.00097286975737048329 0 0.00058777549881051461 -0.0039269033008790819 0 0.003143280412852046 -0.0030332010019885418 0 0.0014533974650442108 -0.0017266899187557971 0 0.00058777549881051461 -0.0039269033008790819 0 0.0014533974650442108 -0.0017266899187557971 0 -4.3924743054859309e-05 -0.0025772533200374877 0 -4.3924743054859309e-05 -0.0025772533200374877 0 -0.0014241993975912018 -0.0028284593909874579 0 -0.00068386094740067582 -0.0012318292808234461 0 -4.3924743054859309e-05 -0.0025772533200374877 0 0.00040469150040334207 -0.00097286975737048329 0 -0.00068386094740067582 -0.0012318292808234461 0 -0.0052981522948106407 0.0075158779705514524 0 -0.0051210529427499485 0.0069996472660828054 0 -0.0054679832982822644 0.0067591015043980702 0 -0.0014241993975912018 -0.0028284593909874579 0 -0.0011468226887108067 -0.00067626156925981577 0 -0.00068386094740067582 -0.0012318292808234461 0 -0.0052981522948106407 0.0075158779705514524 0 -0.0047559658318370637 0.0070643723181417501 0 -0.0047513045592884433 0.0076513259401027713 0 -0.0026709992754573742 0.0037398350921477642 0 -0.0026032423583499504 0.003703404179818748 0 -0.0052981522948106407 0.0075158779705514524 0 -0.0051210529427499485 0.0069996472660828054 0 -0.0047559658318370637 0.0070643723181417501 0 -0.0054679832982822644 0.0067591015043980702 0 -0.0049614985158215937 0.0066563259404082914 0 -0.004924802486532774 0.0060819451899731761 0 -0.0051210529427499485 0.0069996472660828054 0 -0.0049614985158215937 0.0066563259404082914 0 -0.0047559658318370637 0.0070643723181417501 0 -0.0051210529427499485 0.0069996472660828054 0 -0.0054679832982822644 0.0067591015043980702 0 -0.0049614985158215937 0.0066563259404082914 0 -0.0012023870609223263 -0.00054170801958753321 0 -0.00033113702190590364 -0.00020844625019045737 0 -0.0005255322864711041 0.0013790917830615004 0 0.00040469150040334207 -0.00097286975737048329 0 -0.00068386094740067582 -0.0012318292808234461 0 -0.00033113702190590364 -0.00020844625019045737 0 -0.0012023870609223263 -0.00054170801958753321 0 -0.00068386094740067582 -0.0012318292808234461 0 -0.00033113702190590364 -0.00020844625019045737 0 -0.0026032423583499504 0.003703404179818748 0 -0.0025397690797714198 0.0036105033161007434 0 0.00040469150040334207 -0.00097286975737048329 0 -0.00033113702190590364 -0.00020844625019045737 0 0.00035251374268669604 0.00026883493764194805 0 -0.0026032423583499504 0.003703404179818748 0 -0.002591461713141422 0.0033859854636657137 0 -0.0005255322864711041 0.0013790917830615004 0 -0.00058755401359662784 0.002678807084813229 0 0.00075772007624848542 0.0012371922147202967 0 0.00035251374268669604 0.00026883493764194805 0 -0.0005255322864711041 0.0013790917830615004 0 0.00075772007624848542 0.0012371922147202967 0 -0.00033113702190590364 -0.00020844625019045737 0 0.00035251374268669604 0.00026883493764194805 0 -0.0005255322864711041 0.0013790917830615004 0 -0.00082713191090844529 5.0530065801531286e-06 0 -0.0005255322864711041 0.0013790917830615004 0 -0.0020963085242423772 0.0016532311175640924 0 -0.0026032423583499504 0.003703404179818748 0 -0.0029857906798466428 0.0040055105819851991 0 -0.0005255322864711041 0.0013790917830615004 0 -0.00058755401359662784 0.002678807084813229 0 -0.0020963085242423772 0.0016532311175640924 0 -0.0022509325499919224 0.0046948738985630109 0 -0.0018901074890666405 0.0043007547807683748 0 -0.002259629957285624 0.0046381800061762839 0 -0.00058755401359662784 0.002678807084813229 0 -0.0020724973045970234 0.0031366869687718107 0 -0.00058755401359662784 0.002678807084813229 0 -0.0020724973045970234 0.0031366869687718107 0 -0.0020963085242423772 0.0016532311175640924 0 -0.00058465967883181949 0.0044759903203542154 0 -0.00058755401359662784 0.002678807084813229 0 0.00097231015100078977 0.0026966852538571448 0 -0.00058755401359662784 0.002678807084813229 0 0.00097231015100078977 0.0026966852538571448 0 0.00075772007624848542 0.0012371922147202967 0 0.00099811863862574787 0.0044599700991703409 0 0.00087876849288933692 0.0028246827001918592 0 0.0027794383396817926 0.0031022995719131568 0 0.00087876849288933692 0.0028246827001918592 0 0.0027794383396817926 0.0031022995719131568 0 0.0023862041325243572 0.0011666092683350073 0 0.0034009366452319462 0.0013174172479961128 0 0.0027794383396817926 0.0031022995719131568 0 0.0023862041325243572 0.0011666092683350073 0 0.00097231015100078977 0.0026966852538571448 0 0.0031180037227532681 0.00037950047435561133 0 0.00075772007624848542 0.0012371922147202967 0 0.0014380812988095022 -0.00015067663905129558 0 0.0031180037227532681 0.00037950047435561133 0 0.00075772007624848542 0.0012371922147202967 0 0.00094951777446301204 0.0013184072453413446 0 0.0019825306963119362 -0.00027183266309644782 0 0.0014380812988095022 -0.00015067663905129558 0 0.00035251374268669604 0.00026883493764194805 0 0.00075772007624848542 0.0012371922147202967 0 -0.0034350928013254138 0.0060932342914593431 0 -0.0037851444648866238 0.0063061789324134416 0 -0.0035203712269325552 0.006676432845698777 0 -0.0034350928013254138 0.0060932342914593431 0 -0.00381050793336215 0.0056932113707648998 0 -0.0037851444648866238 0.0063061789324134416 0 -0.0034350928013254138 0.0060932342914593431 0 -0.0031614469612866701 0.0063973181373796449 0 -0.0035203712269325552 0.006676432845698777 0 -0.0029764169355892827 0.0059759302423977017 0 -0.0027902305562159031 0.0065686487060339143 0 -0.0025652124209329559 0.0062244040110356258 0 -0.0031614469612866701 0.0063973181373796449 0 -0.0029764169355892827 0.0059759302423977017 0 -0.0027902305562159031 0.0065686487060339143 0 -0.0034350928013254138 0.0060932342914593431 0 -0.0031614469612866701 0.0063973181373796449 0 -0.0029764169355892827 0.0059759302423977017 0 -0.0032102813285092616 0.0053657820346198508 0 -0.0029764169355892827 0.0059759302423977017 0 -0.0025586750289166055 0.0054948670514309312 0 -0.0029764169355892827 0.0059759302423977017 0 -0.0025586750289166055 0.0054948670514309312 0 -0.0025652124209329559 0.0062244040110356258 0 -0.0032102813285092616 0.0053657820346198508 0 -0.0029764169355892827 0.0059759302423977017 0 -0.0034332704738495637 0.0057146437277575497 0 -0.0032102813285092616 0.0053657820346198508 0 -0.0036634541950923459 0.0053151172253845481 0 -0.0034332704738495637 0.0057146437277575497 0 -0.0034350928013254138 0.0060932342914593431 0 -0.0029764169355892827 0.0059759302423977017 0 -0.0034332704738495637 0.0057146437277575497 0 -0.0034350928013254138 0.0060932342914593431 0 -0.0034332704738495637 0.0057146437277575497 0 -0.00381050793336215 0.0056932113707648998 0 -0.0036634541950923459 0.0053151172253845481 0 -0.0039645597410604104 0.0053817153633034303 0 -0.00381050793336215 0.0056932113707648998 0 -0.0036634541950923459 0.0053151172253845481 0 -0.0034332704738495637 0.0057146437277575497 0 -0.00381050793336215 0.0056932113707648998 0 -0.0039645597410604104 0.0053817153633034303 0 -0.00381050793336215 0.0056932113707648998 0 -0.0042941627236656151 0.0053594794695279585 0 -0.00381050793336215 0.0056932113707648998 0 -0.0042941627236656151 0.0053594794695279585 0 -0.0041712756817575821 0.006097166810870568 0 -0.0032622804611437527 0.0042779466120234947 0 -0.0029857906798466428 0.0040055105819851991 0 -0.0042941627236656151 0.0053594794695279585 0 -0.004924802486532774 0.0060819451899731761 0 -0.0041712756817575821 0.006097166810870568 0 -0.0020724973045970234 0.0031366869687718107 0 -0.0032993330201320586 0.0035500796228701854 0 -0.0020963085242423772 0.0016532311175640924 0 -0.002259629957285624 0.0046381800061762839 0 -0.0020724973045970234 0.0031366869687718107 0 -0.0032993330201320586 0.0035500796228701854 0 -0.004924802486532774 0.0060819451899731761 0 -0.0041712756817575821 0.006097166810870568 0 -0.0045526247995584471 0.0065043045949271941 0 -0.0049614985158215937 0.0066563259404082914 0 -0.004924802486532774 0.0060819451899731761 0 -0.0045526247995584471 0.0065043045949271941 0 -0.0037851444648866238 0.0063061789324134416 0 -0.0041712756817575821 0.006097166810870568 0 -0.0041297303931497652 0.0067721850958496737 0 -0.00381050793336215 0.0056932113707648998 0 -0.0037851444648866238 0.0063061789324134416 0 -0.0041712756817575821 0.006097166810870568 0 -0.0041712756817575821 0.006097166810870568 0 -0.0041297303931497652 0.0067721850958496737 0 -0.0045526247995584471 0.0065043045949271941 0 -0.0037851444648866238 0.0063061789324134416 0 -0.0041297303931497652 0.0067721850958496737 0 -0.0035203712269325552 0.006676432845698777 0 -0.0041297303931497652 0.0067721850958496737 0 -0.0037423128078841882 0.0071545809597459561 0 -0.0035203712269325552 0.006676432845698777 0 -0.0041297303931497652 0.0067721850958496737 0 -0.0045526247995584471 0.0065043045949271941 0 -0.0047559658318370637 0.0070643723181417501 0 -0.0049614985158215937 0.0066563259404082914 0 -0.0045526247995584471 0.0065043045949271941 0 -0.0047559658318370637 0.0070643723181417501 0 -0.0041297303931497652 0.0067721850958496737 0 -0.0047559658318370637 0.0070643723181417501 0 -0.0042303683893929935 0.0074226656215736313 0 -0.0047559658318370637 0.0070643723181417501 0 -0.0042303683893929935 0.0074226656215736313 0 -0.0047513045592884433 0.0076513259401027713 0 -0.0042303683893929935 0.0074226656215736313 0 -0.0037423128078841882 0.0071545809597459561 0 -0.0035560336418247436 0.0077360766516447041 0 -0.0041297303931497652 0.0067721850958496737 0 -0.0042303683893929935 0.0074226656215736313 0 -0.0037423128078841882 0.0071545809597459561 0 -0.0037423128078841882 0.0071545809597459561 0 -0.0031467216628228343 0.0072104301751798718 0 -0.0035560336418247436 0.0077360766516447041 0 -0.0035203712269325552 0.006676432845698777 0 -0.0031002010965645267 0.0067707749685764606 0 -0.0031467216628228343 0.0072104301751798718 0 -0.0037423128078841882 0.0071545809597459561 0 -0.0035203712269325552 0.006676432845698777 0 -0.0031467216628228343 0.0072104301751798718 0 -0.0031614469612866701 0.0063973181373796449 0 -0.0035203712269325552 0.006676432845698777 0 -0.0031002010965645267 0.0067707749685764606 0 -0.0027902305562159031 0.0065686487060339143 0 -0.0027646430872567142 0.0069100985560325784 0 -0.002428176854852165 0.0067248757071109028 0 -0.0027902305562159031 0.0065686487060339143 0 -0.0031002010965645267 0.0067707749685764606 0 -0.0027646430872567142 0.0069100985560325784 0 -0.0031614469612866701 0.0063973181373796449 0 -0.0027902305562159031 0.0065686487060339143 0 -0.0031002010965645267 0.0067707749685764606 0 -0.0031002010965645267 0.0067707749685764606 0 -0.0027646430872567142 0.0069100985560325784 0 -0.0031467216628228343 0.0072104301751798718 0 -0.0031467216628228343 0.0072104301751798718 0 -0.0026291634332711446 0.007511482220364814 0 -0.0035560336418247436 0.0077360766516447041 0 -0.0035255494750352345 0.0059331601924461665 0 -0.003590415532908532 0.0058315761903878173 0 -0.0023341457481398397 0.013186886399383795 0 -0.0021712122926587454 0.013554246797271895 0 -0.0031467216628228343 0.0072104301751798718 0 -0.0026291634332711446 0.007511482220364814 0 -0.0021531813895595262 0.0072752034701899443 0 -0.0027646430872567142 0.0069100985560325784 0 -0.0031467216628228343 0.0072104301751798718 0 -0.0024100389665528445 0.0072160505377661301 0 -0.0026291634332711446 0.007511482220364814 0 -0.0026289439778969799 0.0078986796307397838 0 -0.0034286462433164317 0.0078657541862282646 0 -0.0026291634332711446 0.007511482220364814 0 -0.0026289439778969799 0.0078986796307397838 0 -0.0021967188863674784 0.0077535213839538854 0 -0.0026289439778969799 0.0078986796307397838 0 -0.0027718528080944872 0.008237791629154256 0 -0.0034286462433164317 0.0078657541862282646 0 -0.0026289439778969799 0.0078986796307397838 0 -0.0027718528080944872 0.008237791629154256 0 -0.0020477147795308153 0.0081393371345242528 0 -0.0027718528080944872 0.008237791629154256 0 -0.0031947450129844812 0.0083193898146625353 0 -0.0029177000164460555 0.0085561298351083358 0 -0.0034286462433164317 0.0078657541862282646 0 -0.0031947450129844812 0.0083193898146625353 0 -0.0035335665779071003 0.0086891149255517268 0 -0.0027718528080944872 0.008237791629154256 0 -0.0034286462433164317 0.0078657541862282646 0 -0.0031947450129844812 0.0083193898146625353 0 -0.0031947450129844812 0.0083193898146625353 0 -0.0035335665779071003 0.0086891149255517268 0 -0.0029177000164460555 0.0085561298351083358 0 -0.0035335665779071003 0.0086891149255517268 0 -0.0027203607218800933 0.0090638575904742353 0 -0.0031571841728763195 0.0090532147015227743 0 -0.0027933420388169599 0.010214538832037681 0 -0.0025300318265287559 0.010391591079617898 0 -0.0035335665779071003 0.0086891149255517268 0 -0.0038713635288980682 0.0091758878857257867 0 -0.0031571841728763195 0.0090532147015227743 0 -0.0035335665779071003 0.0086891149255517268 0 -0.002624926504394018 0.0089607240315903256 0 -0.0029177000164460555 0.0085561298351083358 0 -0.0027718528080944872 0.008237791629154256 0 -0.0029177000164460555 0.0085561298351083358 0 -0.0024445395013618339 0.0085687997662031879 0 -0.002624926504394018 0.0089607240315903256 0 -0.0029177000164460555 0.0085561298351083358 0 -0.0024445395013618339 0.0085687997662031879 0 -0.0025667585329589471 0.0043778494766384774 0 -0.0034704135539881187 0.005400408173504765 0 -0.0051312809723039138 0.0082608615346023637 0 -0.0047513045592884433 0.0076513259401027713 0 -0.0043426139001971056 0.0079870430319552328 0 -0.0050692858575151741 0.0084557446977063279 0 -0.004242732488322117 0.0081655571185147435 0 -0.0046453471737770528 0.0085629492277620456 0 -0.0042303683893929935 0.0074226656215736313 0 -0.0047513045592884433 0.0076513259401027713 0 -0.0043426139001971056 0.0079870430319552328 0 -0.0042303683893929935 0.0074226656215736313 0 -0.0035560336418247436 0.0077360766516447041 0 -0.0043426139001971056 0.0079870430319552328 0 -0.003590415532908532 0.0058315761903878173 0 -0.0034704135539881187 0.005400408173504765 0 -0.0034286462433164317 0.0078657541862282646 0 -0.0035335665779071003 0.0086891149255517268 0 -0.004242732488322117 0.0081655571185147435 0 -0.0035335665779071003 0.0086891149255517268 0 -0.0042943812086838314 0.0087290588899787344 0 -0.0038713635288980682 0.0091758878857257867 0 -0.0035335665779071003 0.0086891149255517268 0 -0.004242732488322117 0.0081655571185147435 0 -0.0042943812086838314 0.0087290588899787344 0 -0.0049748068750948837 0.0089021198462252028 0 -0.0042943812086838314 0.0087290588899787344 0 -0.0038713635288980682 0.0091758878857257867 0 -0.0049748068750948837 0.0089021198462252028 0 -0.0042943812086838314 0.0087290588899787344 0 -0.0046453471737770528 0.0085629492277620456 0 -0.004242732488322117 0.0081655571185147435 0 -0.0042943812086838314 0.0087290588899787344 0 -0.0046453471737770528 0.0085629492277620456 0 -0.0030591636820848679 0.0092982299985183963 0 -0.0029915352023774117 0.0093723868330684631 0 -0.0030231200199153296 0.0094613537064507994 0 -0.0030591636820848679 0.0092982299985183963 0 -0.0029915352023774117 0.0093723868330684631 0 -0.0029023686509741979 0.0093492737059516096 0 -0.002769334184413586 0.0045188109270833518 0 -0.0027166219601804037 0.0057086835054239752 0 -0.0029915352023774117 0.0093723868330684631 0 -0.0029023686509741979 0.0093492737059516096 0 -0.0029336414938845507 0.0094328038521472139 0 -0.0029023686509741979 0.0093492737059516096 0 -0.0029336414938845507 0.0094328038521472139 0 -0.0028526056067944799 0.0094479225588029667 0 -0.0029336414938845507 0.0094328038521472139 0 -0.0028526056067944799 0.0094479225588029667 0 -0.0029056476210393149 0.0095382197989641627 0 -0.0029336414938845507 0.0094328038521472139 0 -0.0030231200199153296 0.0094613537064507994 0 -0.0029056476210393149 0.0095382197989641627 0 -0.0029915352023774117 0.0093723868330684631 0 -0.0029336414938845507 0.0094328038521472139 0 -0.0030231200199153296 0.0094613537064507994 0 -0.0028016514370328219 0.0093779993366108084 0 -0.0026157299313340279 0.0093407952487493603 0 -0.0026600953773141659 0.0094693694391047873 0 -0.0027203607218800933 0.0090638575904742353 0 -0.0028016514370328219 0.0093779993366108084 0 -0.0026157299313340279 0.0093407952487493603 0 -0.0027203607218800933 0.0090638575904742353 0 -0.0028016514370328219 0.0093779993366108084 0 -0.0031571841728763195 0.0090532147015227743 0 -0.0038713635288980682 0.0091758878857257867 0 -0.0028016514370328219 0.0093779993366108084 0 -0.0031571841728763195 0.0090532147015227743 0 -0.0027166219601804037 0.0057086835054239752 0 -0.0026237881590827003 0.0060958069416922377 0 -0.0029023686509741979 0.0093492737059516096 0 -0.0028016514370328219 0.0093779993366108084 0 -0.0028526056067944799 0.0094479225588029667 0 -0.0028016514370328219 0.0093779993366108084 0 -0.0028526056067944799 0.0094479225588029667 0 -0.0027727549337995712 0.0094726043329738351 0 -0.0028526056067944799 0.0094479225588029667 0 -0.0027727549337995712 0.0094726043329738351 0 -0.0027936896184838863 0.0095603063255931594 0 -0.0028016514370328219 0.0093779993366108084 0 -0.0027727549337995712 0.0094726043329738351 0 -0.0026600953773141659 0.0094693694391047873 0 -0.0027727549337995712 0.0094726043329738351 0 -0.0026941350314821332 0.0095325700382090043 0 -0.0026600953773141659 0.0094693694391047873 0 -0.0026941350314821332 0.0095325700382090043 0 -0.0027936896184838863 0.0095603063255931594 0 -0.0026812817769927455 0.0096192178711438491 0 -0.0027727549337995712 0.0094726043329738351 0 -0.0026941350314821332 0.0095325700382090043 0 -0.0027936896184838863 0.0095603063255931594 0 -0.0027936896184838863 0.0095603063255931594 0 -0.0028320667198756962 0.009627693414130039 0 -0.0029056476210393149 0.0095382197989641627 0 -0.0028526056067944799 0.0094479225588029667 0 -0.0027936896184838863 0.0095603063255931594 0 -0.0029056476210393149 0.0095382197989641627 0 -0.0027936896184838863 0.0095603063255931594 0 -0.0028320667198756962 0.009627693414130039 0 -0.0027689776942037333 0.0096622929841127091 0 -0.0028320667198756962 0.009627693414130039 0 -0.0027689776942037333 0.0096622929841127091 0 -0.0028515564527495682 0.0096859864476582479 0 -0.0027689776942037333 0.0096622929841127091 0 -0.0026812817769927455 0.0096192178711438491 0 -0.0026867663183660685 0.0097405060033207633 0 -0.0027936896184838863 0.0095603063255931594 0 -0.0027689776942037333 0.0096622929841127091 0 -0.0026812817769927455 0.0096192178711438491 0 -0.0027689776942037333 0.0096622929841127091 0 -0.0026867663183660685 0.0097405060033207633 0 -0.0027911092057418792 0.0097369543861952051 0 -0.0027689776942037333 0.0096622929841127091 0 -0.0027911092057418792 0.0097369543861952051 0 -0.0028515564527495682 0.0096859864476582479 0 -0.0027911092057418792 0.0097369543861952051 0 -0.0028507992035739374 0.009765070593750402 0 -0.0028515564527495682 0.0096859864476582479 0 -0.0027911092057418792 0.0097369543861952051 0 -0.0027957217930194536 0.0098242703491361241 0 -0.0028507992035739374 0.009765070593750402 0 -0.0027957217930194536 0.0098242703491361241 0 -0.0028622364029134515 0.0098178493297962511 0 -0.0028507992035739374 0.009765070593750402 0 0.0023980906210184778 0.019726385946286146 0 0.0030283689205501049 0.019107570158495891 0 0.0022187378029504784 0.019122680256060929 0 -0.0026867663183660685 0.0097405060033207633 0 -0.0027911092057418792 0.0097369543861952051 0 -0.0027957217930194536 0.0098242703491361241 0 -0.0011740435709882567 0.012131181640887782 0 -0.0010564703332214408 0.0096188225404925682 0 -0.00031185301144937786 -0.0059018524144753177 0 -0.00037113345774822566 -0.0058961095086830107 0 -0.00032387638148468506 -0.0058380824795684584 0 -0.00022499764541610972 -0.0058668875872843742 0 -0.0002670811097326892 -0.0059358356253810972 0 -0.00019150016593669908 -0.0059494296130125574 0 -0.00031185301144937786 -0.0059018524144753177 0 -0.00022499764541610972 -0.0058668875872843742 0 -0.0002670811097326892 -0.0059358356253810972 0 -0.00031185301144937786 -0.0059018524144753177 0 -0.00032387638148468506 -0.0058380824795684584 0 -0.00022499764541610972 -0.0058668875872843742 0 -0.0002670811097326892 -0.0059358356253810972 0 -0.00019150016593669908 -0.0059494296130125574 0 -0.00026476772059323765 -0.0060004491627651561 0 -0.00031185301144937786 -0.0059018524144753177 0 -0.00037113345774822566 -0.0058961095086830107 0 -0.0003324653141812491 -0.0059634172354483999 0 -0.0002670811097326892 -0.0059358356253810972 0 -0.0003324653141812491 -0.0059634172354483999 0 -0.00026476772059323765 -0.0060004491627651561 0 -0.00031185301144937786 -0.0059018524144753177 0 -0.0002670811097326892 -0.0059358356253810972 0 -0.0003324653141812491 -0.0059634172354483999 0 -0.0029227657033918482 0.0097761973653092676 0 -0.0028622364029134515 0.0098178493297962511 0 -0.0028507992035739374 0.009765070593750402 0 -0.0029227657033918482 0.0097761973653092676 0 -0.0028507992035739374 0.009765070593750402 0 -0.0028880325317243464 0.0097237608154460611 0 -0.0028507992035739374 0.009765070593750402 0 -0.0028880325317243464 0.0097237608154460611 0 -0.0028515564527495682 0.0096859864476582479 0 -0.0029227657033918482 0.0097761973653092676 0 -0.0028880325317243464 0.0097237608154460611 0 -0.0029135268404037202 0.0096818048769080726 0 -0.0028880325317243464 0.0097237608154460611 0 -0.0028515564527495682 0.0096859864476582479 0 -0.0029135268404037202 0.0096818048769080726 0 -0.0029227657033918482 0.0097761973653092676 0 -0.0029135268404037202 0.0096818048769080726 0 -0.0029782502430430054 0.0096234271544278337 0 -0.00098556506584328274 0.0032123637975883784 0 -0.0016703352522122082 0.0028370808856729543 0 -0.00032387638148468506 -0.0058380824795684584 0 -0.00035607558547679603 -0.0055298538833442271 0 -0.0001706708319379629 -0.0055501455282193895 0 -0.00015656992608460365 -0.0055938922145424737 0 -9.7486218095791679e-05 -0.0055156416313168893 0 -0.00037113345774822566 -0.0058961095086830107 0 -0.00032387638148468506 -0.0058380824795684584 0 -0.00035607558547679603 -0.0055298538833442271 0 -0.00032387638148468506 -0.0058380824795684584 0 -0.00022499764541610972 -0.0058668875872843742 0 -0.00015013213146208713 -0.0056215585632657323 0 -0.0028320667198756962 0.009627693414130039 0 -0.0028987440331819918 0.0096287881960561636 0 -0.0029056476210393149 0.0095382197989641627 0 -0.0029782502430430054 0.0096234271544278337 0 -0.0028987440331819918 0.0096287881960561636 0 -0.0029056476210393149 0.0095382197989641627 0 -0.0028515564527495682 0.0096859864476582479 0 -0.0029135268404037202 0.0096818048769080726 0 -0.0028987440331819918 0.0096287881960561636 0 -0.0028320667198756962 0.009627693414130039 0 -0.0028515564527495682 0.0096859864476582479 0 -0.0028987440331819918 0.0096287881960561636 0 -0.0029135268404037202 0.0096818048769080726 0 -0.0029782502430430054 0.0096234271544278337 0 -0.0028987440331819918 0.0096287881960561636 0 -0.00031266475415509735 -0.0051677314103381914 0 -0.00035607558547679603 -0.0055298538833442271 0 -0.00017092979493784141 -0.0053449138258772951 0 -0.002231911450759347 0.0032130464852779786 0 -0.0016703352522122082 0.0028370808856729543 0 -0.0030231200199153296 0.0094613537064507994 0 -0.0029782502430430054 0.0096234271544278337 0 -0.0029056476210393149 0.0095382197989641627 0 -0.00017092979493784141 -0.0053449138258772951 0 2.9402185323873259e-05 -0.0052914665502017113 0 -0.0001706708319379629 -0.0055501455282193895 0 1.5263873869148263e-05 -0.0053687255927682498 0 -9.7486218095791679e-05 -0.0055156416313168893 0 5.8549956478082953e-05 -0.0053377401947823479 0 4.5376300130194983e-05 -0.0055978519441514185 0 0.00025517785994716631 -0.0055469139425345067 0 4.5376300130194983e-05 -0.0055978519441514185 0 0.00025517785994716631 -0.0055469139425345067 0 0.00010903539114357492 -0.0057315415757736247 0 5.8549956478082953e-05 -0.0053377401947823479 0 4.5376300130194983e-05 -0.0055978519441514185 0 -0.00015013213146208713 -0.0056215585632657323 0 -0.00035607558547679603 -0.0055298538833442271 0 -0.00017092979493784141 -0.0053449138258772951 0 -0.0001706708319379629 -0.0055501455282193895 0 4.5376300130194983e-05 -0.0055978519441514185 0 -0.00015013213146208713 -0.0056215585632657323 0 -3.5993053748752051e-05 -0.0057361860238955148 0 0.00072399638890777748 -0.0052308441948345731 0 0.00039831478498277727 -0.0052987886750378204 0 0.00055687504457893144 -0.0055137498172207139 0 0.00039831478498277727 -0.0052987886750378204 0 0.00055687504457893144 -0.0055137498172207139 0 0.00025517785994716631 -0.0055469139425345067 0 0.00039831478498277727 -0.0052987886750378204 0 5.8549956478082953e-05 -0.0053377401947823479 0 0.00025517785994716631 -0.0055469139425345067 0 0.00025517785994716631 -0.0055469139425345067 0 0.00038401802944953458 -0.0057736868465268609 0 0.00010903539114357492 -0.0057315415757736247 0 0.00055687504457893144 -0.0055137498172207139 0 0.00038401802944953458 -0.0057736868465268609 0 0.0006466751561553355 -0.0057408651278859869 0 0.00055687504457893144 -0.0055137498172207139 0 0.00025517785994716631 -0.0055469139425345067 0 0.00038401802944953458 -0.0057736868465268609 0 0.00038401802944953458 -0.0057736868465268609 0 0.0006466751561553355 -0.0057408651278859869 0 0.00061339672227311241 -0.0060278220723195665 0 0.00038401802944953458 -0.0057736868465268609 0 0.00014729554681936963 -0.0058807696379951629 0 0.00010903539114357492 -0.0057315415757736247 0 0.00028184492622144628 -0.0060182992814043768 0 0.00014729554681936963 -0.0058807696379951629 0 1.259154234732918e-05 -0.0060026601168021929 0 0.00028184492622144628 -0.0060182992814043768 0 1.259154234732918e-05 -0.0060026601168021929 0 6.4099659868878124e-05 -0.0062100976208026839 0 0.00038401802944953458 -0.0057736868465268609 0 0.00028184492622144628 -0.0060182992814043768 0 0.00014729554681936963 -0.0058807696379951629 0 0.00038401802944953458 -0.0057736868465268609 0 0.00028184492622144628 -0.0060182992814043768 0 0.00061339672227311241 -0.0060278220723195665 0 -0.00022499764541610972 -0.0058668875872843742 0 -0.00015013213146208713 -0.0056215585632657323 0 -0.000124603152894575 -0.0058397805324760608 0 -0.00015013213146208713 -0.0056215585632657323 0 -0.000124603152894575 -0.0058397805324760608 0 -3.5993053748752051e-05 -0.0057361860238955148 0 -0.000124603152894575 -0.0058397805324760608 0 -3.5993053748752051e-05 -0.0057361860238955148 0 -1.9901372188548008e-05 -0.0058824340947678869 0 4.5376300130194983e-05 -0.0055978519441514185 0 -3.5993053748752051e-05 -0.0057361860238955148 0 0.00010903539114357492 -0.0057315415757736247 0 0.00014729554681936963 -0.0058807696379951629 0 0.00010903539114357492 -0.0057315415757736247 0 -1.9901372188548008e-05 -0.0058824340947678869 0 -3.5993053748752051e-05 -0.0057361860238955148 0 0.00010903539114357492 -0.0057315415757736247 0 -1.9901372188548008e-05 -0.0058824340947678869 0 -1.9901372188548008e-05 -0.0058824340947678869 0 1.259154234732918e-05 -0.0060026601168021929 0 -9.8598643459616827e-05 -0.0059569641540311146 0 0.00014729554681936963 -0.0058807696379951629 0 -1.9901372188548008e-05 -0.0058824340947678869 0 1.259154234732918e-05 -0.0060026601168021929 0 1.259154234732918e-05 -0.0060026601168021929 0 -9.8598643459616827e-05 -0.0059569641540311146 0 -8.2177693783472644e-05 -0.006038525734763908 0 -9.8598643459616827e-05 -0.0059569641540311146 0 -0.00014859275039011044 -0.0060124378790844951 0 -8.2177693783472644e-05 -0.006038525734763908 0 -0.000124603152894575 -0.0058397805324760608 0 -1.9901372188548008e-05 -0.0058824340947678869 0 -9.8598643459616827e-05 -0.0059569641540311146 0 -0.000124603152894575 -0.0058397805324760608 0 -9.8598643459616827e-05 -0.0059569641540311146 0 -0.00019150016593669908 -0.0059494296130125574 0 -0.00022499764541610972 -0.0058668875872843742 0 -0.000124603152894575 -0.0058397805324760608 0 -0.00019150016593669908 -0.0059494296130125574 0 -9.8598643459616827e-05 -0.0059569641540311146 0 -0.00019150016593669908 -0.0059494296130125574 0 -0.00014859275039011044 -0.0060124378790844951 0 -0.00019150016593669908 -0.0059494296130125574 0 -0.00020722719099954668 -0.0060240126556913333 0 -0.00014859275039011044 -0.0060124378790844951 0 -0.00020722719099954668 -0.0060240126556913333 0 -0.00014859275039011044 -0.0060124378790844951 0 -0.00016410803297429752 -0.0060851021545378671 0 -0.00020722719099954668 -0.0060240126556913333 0 -0.00016410803297429752 -0.0060851021545378671 0 -0.00024774751007739621 -0.0060862951290509316 0 -0.00016410803297429752 -0.0060851021545378671 0 -0.00010287708796694751 -0.0061026528800136853 0 -8.2177693783472644e-05 -0.006038525734763908 0 -0.00014859275039011044 -0.0060124378790844951 0 -0.00016410803297429752 -0.0060851021545378671 0 -8.2177693783472644e-05 -0.006038525734763908 0 -0.00058973957375260655 -0.0033121163112561527 0 -0.00056390650744430899 -0.0028659508708945456 0 1.259154234732918e-05 -0.0060026601168021929 0 6.4099659868878124e-05 -0.0062100976208026839 0 -6.7945412341744964e-05 -0.0063206584827123343 0 1.259154234732918e-05 -0.0060026601168021929 0 -8.2177693783472644e-05 -0.006038525734763908 0 -3.1400047477185165e-05 -0.0061042229461797217 0 -0.00060229278194458898 -0.0029445967181220981 0 -0.00056390650744430899 -0.0028659508708945456 0 -0.00010287708796694751 -0.0061026528800136853 0 -8.2177693783472644e-05 -0.006038525734763908 0 -3.1400047477185165e-05 -0.0061042229461797217 0 6.4099659868878124e-05 -0.0062100976208026839 0 -9.8470685772955835e-05 -0.0063564924279044151 0 -4.6253152036672767e-05 -0.0066450085238520017 0 -9.8470685772955835e-05 -0.0063564924279044151 0 -4.6253152036672767e-05 -0.0066450085238520017 0 -0.00012898813498705701 -0.0067551229729892826 0 -0.00023544924949145664 -0.0014534983149109427 0 -4.1636772367594556e-05 -0.0012826222822036033 0 -0.0001856347743202125 -0.0011368277935999286 0 -0.00056390650744430899 -0.0028659508708945456 0 -0.00011336119301443189 -0.0030888701972620974 0 -0.00013534525446373214 -0.0061855065550189539 0 -0.00024000092824203007 -0.0062672862013851728 0 -0.00024032931132175417 -0.0061733040260623295 0 -0.00019027450415219367 -0.0013893622865419918 0 0.0004355821069500731 0.00049167872859061379 0 -0.00016410803297429752 -0.0060851021545378671 0 -0.00013534525446373214 -0.0061855065550189539 0 -0.00024032931132175417 -0.0061733040260623295 0 -0.00010287708796694751 -0.0061026528800136853 0 -3.1400047477185165e-05 -0.0061042229461797217 0 -0.00013534525446373214 -0.0061855065550189539 0 -0.00056390650744430899 -0.0028659508708945456 0 -0.00019027450415219367 -0.0013893622865419918 0 -0.00016410803297429752 -0.0060851021545378671 0 -0.00010287708796694751 -0.0061026528800136853 0 -0.00013534525446373214 -0.0061855065550189539 0 0.00026651543310013718 -0.0063462904248638031 0 0.00041934149912972339 -0.0062194357361120122 0 0.00028184492622144628 -0.0060182992814043768 0 0.0003512797145169137 -0.0062858148833338148 0 0.00061339672227311241 -0.0060278220723195665 0 6.3142179439998816e-05 -0.0066018276088819659 0 0.00013927121062644313 -0.0066968666209253147 0 0.00020599505638681925 -0.0064276161927308969 0 0.00028184492622144628 -0.0060182992814043768 0 6.4099659868878124e-05 -0.0062100976208026839 0 0.0003512797145169137 -0.0062858148833338148 0 -4.6253152036672767e-05 -0.0066450085238520017 0 6.3142179439998816e-05 -0.0066018276088819659 0 6.0272244751578489e-05 -0.0067143632383363551 0 6.4099659868878124e-05 -0.0062100976208026839 0 -4.6253152036672767e-05 -0.0066450085238520017 0 0.0003512797145169137 -0.0062858148833338148 0 0.00018918644747822189 -0.0064089630051026945 0 0.00026651543310013718 -0.0063462904248638031 0 6.3142179439998816e-05 -0.0066018276088819659 0 6.0272244751578489e-05 -0.0067143632383363551 0 0.00013927121062644313 -0.0066968666209253147 0 0.00013927121062644313 -0.0066968666209253147 0 0.00017410729409886023 -0.0068124746735438889 0 0.00025768206740720467 -0.0067369252843819984 0 6.0272244751578489e-05 -0.0067143632383363551 0 0.00017410729409886023 -0.0068124746735438889 0 6.0666615799521786e-05 -0.0068366020727542165 0 6.0272244751578489e-05 -0.0067143632383363551 0 0.00013927121062644313 -0.0066968666209253147 0 0.00017410729409886023 -0.0068124746735438889 0 6.0272244751578489e-05 -0.0067143632383363551 0 6.0666615799521786e-05 -0.0068366020727542165 0 -1.156743212187119e-05 -0.006767313422909183 0 -4.6253152036672767e-05 -0.0066450085238520017 0 6.0272244751578489e-05 -0.0067143632383363551 0 -1.156743212187119e-05 -0.006767313422909183 0 6.0666615799521786e-05 -0.0068366020727542165 0 -1.156743212187119e-05 -0.006767313422909183 0 -3.449403069971277e-05 -0.0068501544003093115 0 6.0666615799521786e-05 -0.0068366020727542165 0 3.6657982498200539e-05 -0.0069339151647523885 0 0.00014780848205678352 -0.0069249949238951274 0 6.0666615799521786e-05 -0.0068366020727542165 0 3.6657982498200539e-05 -0.0069339151647523885 0 -3.449403069971277e-05 -0.0068501544003093115 0 0.00017410729409886023 -0.0068124746735438889 0 0.00014780848205678352 -0.0069249949238951274 0 0.00022799041000433072 -0.0069146812846644038 0 0.00017410729409886023 -0.0068124746735438889 0 6.0666615799521786e-05 -0.0068366020727542165 0 0.00014780848205678352 -0.0069249949238951274 0 -5.3590274630908347e-05 -0.0010886775473836281 0 -0.0001856347743202125 -0.0011368277935999286 0 -0.00013655565175188259 -0.00082454064921083496 0 0.00038755061981664285 -0.0029043766608923198 0 0.0004355821069500731 0.00049167872859061379 0 -5.3590274630908347e-05 -0.0010886775473836281 0 -0.00013655565175188259 -0.00082454064921083496 0 0.00014960858870316621 -0.0011122497482199715 0 -4.1636772367594556e-05 -0.0012826222822036033 0 -5.3590274630908347e-05 -0.0010886775473836281 0 0.00014960858870316621 -0.0011122497482199715 0 -4.1636772367594556e-05 -0.0012826222822036033 0 -5.3590274630908347e-05 -0.0010886775473836281 0 -0.0001856347743202125 -0.0011368277935999286 0 -0.00011336119301443189 -0.0030888701972620974 0 0.00038755061981664285 -0.0029043766608923198 0 -0.00012898813498705701 -0.0067551229729892826 0 -3.449403069971277e-05 -0.0068501544003093115 0 -0.00012873228318317052 -0.0069002085301839173 0 -4.6253152036672767e-05 -0.0066450085238520017 0 -0.00012898813498705701 -0.0067551229729892826 0 -1.156743212187119e-05 -0.006767313422909183 0 -0.00012898813498705701 -0.0067551229729892826 0 -1.156743212187119e-05 -0.006767313422909183 0 -3.449403069971277e-05 -0.0068501544003093115 0 3.6657982498200539e-05 -0.0069339151647523885 0 -3.449403069971277e-05 -0.0068501544003093115 0 -0.00012873228318317052 -0.0069002085301839173 0 0.00045279555089196256 -0.0011638443687840519 0 0.00071613971912501341 -0.0011640332290330903 0 0.00070326520851863607 -0.0014141045532901294 0 0.00045279555089196256 -0.0011638443687840519 0 0.00071613971912501341 -0.0011640332290330903 0 0.00059076382103661078 -0.0010275061397253113 0 0.00071613971912501341 -0.0011640332290330903 0 0.00070326520851863607 -0.0014141045532901294 0 0.00087368848033958306 -0.0012636667615347752 0 0.00071613971912501341 -0.0011640332290330903 0 0.00087261875246125923 -0.0010996033521169014 0 0.00078227649731370654 -0.00099861580850453156 0 0.00071613971912501341 -0.0011640332290330903 0 0.00087368848033958306 -0.0012636667615347752 0 0.00087261875246125923 -0.0010996033521169014 0 0.0004355821069500731 0.00049167872859061379 0 0.00042435378848010871 0.0010468826280377664 0 0.00022131312459734747 0.0014359308471212223 0 0.0005938034340614289 0.0013203772801021975 0 0.00062603705047485452 0.0017920396703792636 0 0.0012878086872398914 0.0041443944946038015 0 0.00068875912828812984 0.0040349009244335671 0 0.0014862880728868995 0.0050765892657781819 0 0.0005938034340614289 0.0013203772801021975 0 0.00090188689088057435 0.0015612041991099556 0 0.0007728094146183639 0.00097601921243151406 0 0.0005938034340614289 0.0013203772801021975 0 0.00090188689088057435 0.0015612041991099556 0 0.00062603705047485452 0.0017920396703792636 0 0.00042435378848010871 0.0010468826280377664 0 0.00043882682395289128 0.0017084861332558792 0 0.00037282619107893657 0.0032461846775365183 0 0.00043882682395289128 0.0017084861332558792 0 0.00090188689088057435 0.0015612041991099556 0 0.00062603705047485452 0.0017920396703792636 0 0.0010302908681107264 0.0021459127683569478 0 0.00087368848033958306 -0.0012636667615347752 0 0.00087261875246125923 -0.0010996033521169014 0 0.0010424006589610311 -0.0011130904484444755 0 0.0010891438244280218 0.0032082852731784807 0 0.00071712601053142426 0.003132944040279328 0 0.00053474409434452479 0.003434522974557788 0 0.0010891438244280218 0.0032082852731784807 0 0.00053474409434452479 0.003434522974557788 0 0.00068875912828812984 0.0040349009244335671 0 0.00053474409434452479 0.003434522974557788 0 6.8411166845667727e-05 0.003882976437805212 0 0.0003910577120259298 0.0026913421762125448 0 0.0012878086872398914 0.0041443944946038015 0 0.0010891438244280218 0.0032082852731784807 0 0.00068875912828812984 0.0040349009244335671 0 0.00071712601053142426 0.003132944040279328 0 0.00053474409434452479 0.003434522974557788 0 0.0003910577120259298 0.0026913421762125448 0 0.00053474409434452479 0.003434522974557788 0 6.8411166845667727e-05 0.003882976437805212 0 0.00068875912828812984 0.0040349009244335671 0 0.00027323866113485376 0.002407433264763054 0 0.00035915714847188656 0.0020376336721774353 0 -6.0408095710737474e-05 0.0031895798936177541 0 6.8411166845667727e-05 0.003882976437805212 0 0.00039874246719373812 0.0026928963525727607 0 -0.00033490148194911454 0.0030957669985964319 0 -6.0408095710737474e-05 0.0031895798936177541 0 -0.00041048008409389907 0.0036615800399287151 0 -6.0408095710737474e-05 0.0031895798936177541 0 -0.00041048008409389907 0.0036615800399287151 0 6.8411166845667727e-05 0.003882976437805212 0 -0.00041048008409389907 0.0036615800399287151 0 0.00022185630820259372 0.0044275665344436239 0 -0.0010471923639552619 0.0037818272288904658 0 -0.00041048008409389907 0.0036615800399287151 0 6.8411166845667727e-05 0.003882976437805212 0 0.00022185630820259372 0.0044275665344436239 0 0.0013074357745600147 0.0074712943102298625 0 0.00099540550497495008 0.008533726862206931 0 0.00022185630820259372 0.0044275665344436239 0 0.00068875912828812984 0.0040349009244335671 0 0.0014862880728868995 0.0050765892657781819 0 6.8411166845667727e-05 0.003882976437805212 0 0.00022185630820259372 0.0044275665344436239 0 0.00068875912828812984 0.0040349009244335671 0 0.0028061455574266828 0.017990881810017213 0 0.0031230253069085487 0.018511498631984386 0 0.0036170728592889844 0.018395669500931033 0 0.0013074357745600147 0.0074712943102298625 0 0.00025151570724808134 0.0048942668654743818 0 0.0028061455574266828 0.017990881810017213 0 0.002530544537998581 0.018589687295767657 0 0.0021963729431598044 0.01820461969518359 0 0.0028061455574266828 0.017990881810017213 0 0.0031230253069085487 0.018511498631984386 0 0.002530544537998581 0.018589687295767657 0 0.0030283689205501049 0.019107570158495891 0 0.002530544537998581 0.018589687295767657 0 0.0022187378029504784 0.019122680256060929 0 -0.0010564703332214408 0.0096188225404925682 0 7.0459694784391313e-05 0.004902610181470899 0 0.0030283689205501049 0.019107570158495891 0 0.0031230253069085487 0.018511498631984386 0 0.002530544537998581 0.018589687295767657 0 0.0030283689205501049 0.019107570158495891 0 0.0031230253069085487 0.018511498631984386 0 0.0036345564885211208 0.018474056678119178 0 -0.0029227657033918482 0.0097761973653092676 0 -0.0028622364029134515 0.0098178493297962511 0 -0.0028794452184260516 0.0099035091488922262 0 -0.00037113345774822566 -0.0058961095086830107 0 -0.0003324653141812491 -0.0059634172354483999 0 -0.00038161320043123036 -0.0061276164365201115 0 -0.00098556506584328274 0.0032123637975883784 0 7.0459694784391313e-05 0.004902610181470899 0 -0.0027957217930194536 0.0098242703491361241 0 -0.0028622364029134515 0.0098178493297962511 0 -0.0028794452184260516 0.0099035091488922262 0 -0.0003324653141812491 -0.0059634172354483999 0 -0.00032123398465201783 -0.0060246268468103137 0 -0.00038161320043123036 -0.0061276164365201115 0 -0.0003324653141812491 -0.0059634172354483999 0 -0.00032123398465201783 -0.0060246268468103137 0 -0.00026476772059323765 -0.0060004491627651561 0 -0.00032123398465201783 -0.0060246268468103137 0 -0.00026476772059323765 -0.0060004491627651561 0 -0.0002798070275990182 -0.0060415920418517106 0 -0.00020722719099954668 -0.0060240126556913333 0 -0.0002798070275990182 -0.0060415920418517106 0 -0.00024774751007739621 -0.0060862951290509316 0 -0.00019150016593669908 -0.0059494296130125574 0 -0.00020722719099954668 -0.0060240126556913333 0 -0.00026476772059323765 -0.0060004491627651561 0 -0.00020722719099954668 -0.0060240126556913333 0 -0.00026476772059323765 -0.0060004491627651561 0 -0.0002798070275990182 -0.0060415920418517106 0 -0.00032123398465201783 -0.0060246268468103137 0 -0.0003107915582481062 -0.0060790823155038899 0 -0.00038161320043123036 -0.0061276164365201115 0 -0.0002798070275990182 -0.0060415920418517106 0 -0.00024774751007739621 -0.0060862951290509316 0 -0.0003107915582481062 -0.0060790823155038899 0 -0.00032123398465201783 -0.0060246268468103137 0 -0.0002798070275990182 -0.0060415920418517106 0 -0.0003107915582481062 -0.0060790823155038899 0 -0.00024774751007739621 -0.0060862951290509316 0 -0.00028724613768770846 -0.0061054283346908605 0 -0.0003107915582481062 -0.0060790823155038899 0 -0.00028724613768770846 -0.0061054283346908605 0 -0.0003107915582481062 -0.0060790823155038899 0 -0.0003271930230478575 -0.0061175951319533085 0 0.00022131312459734747 0.0014359308471212223 0 0.0005938034340614289 0.0013203772801021975 0 0.00071057786945936301 0.00094426457054134388 0 -0.0003271930230478575 -0.0061175951319533085 0 -0.00024032931132175417 -0.0061733040260623295 0 -0.00037142363058223249 -0.0061369708206386268 0 0.0004355821069500731 0.00049167872859061379 0 0.00011791777810659611 0.0046470686879449517 0 -0.00028724613768770846 -0.0061054283346908605 0 -0.0003271930230478575 -0.0061175951319533085 0 -0.00024032931132175417 -0.0061733040260623295 0 -0.00024000092824203007 -0.0062672862013851728 0 -0.00024032931132175417 -0.0061733040260623295 0 -0.00037142363058223249 -0.0061369708206386268 0 -0.00016410803297429752 -0.0060851021545378671 0 -0.00024774751007739621 -0.0060862951290509316 0 -0.00024032931132175417 -0.0061733040260623295 0 -0.00024774751007739621 -0.0060862951290509316 0 -0.00028724613768770846 -0.0061054283346908605 0 -0.00024032931132175417 -0.0061733040260623295 0 0.0005938034340614289 0.0013203772801021975 0 0.0007728094146183639 0.00097601921243151406 0 0.00071057786945936301 0.00094426457054134388 0 0.0031230253069085487 0.018511498631984386 0 0.0036345564885211208 0.018474056678119178 0 0.0036170728592889844 0.018395669500931033 0 0.00037282619107893657 0.0032461846775365183 0 0.00025151570724808134 0.0048942668654743818 0 -0.0003107915582481062 -0.0060790823155038899 0 -0.0003271930230478575 -0.0061175951319533085 0 -0.00038161320043123036 -0.0061276164365201115 0 7.0459694784391313e-05 0.004902610181470899 0 0.00011791777810659611 0.0046470686879449517 0 4.3178766930606999e-05 0.0045544291641875963 0 0.00011791777810659611 0.0046470686879449517 0 -0.0003271930230478575 -0.0061175951319533085 0 -0.00038161320043123036 -0.0061276164365201115 0 -0.00037041805311008931 -0.0061377405042087937 0 7.0459694784391313e-05 0.004902610181470899 0 0.00025151570724808134 0.0048942668654743818 0 -0.00014015943561354727 0.0034398648512132964 0 -0.0001482377100077583 0.0034013991150721222 0 -0.0001175787112635106 0.0034170106368668876 0 0.00025151570724808134 0.0048942668654743818 0 0.00011791777810659611 0.0046470686879449517 0 0.002220220591778491 -0.0062058600264596744 0 0.0022975771966127472 -0.006562945873294067 0 0.0020218519731140818 -0.0065251211558960713 0 0.0020218519731140818 -0.0065251211558960713 0 0.0016712901011589729 -0.0063444904497588286 0 0.0017353198487050469 -0.0068235795680959147 0 0.002220220591778491 -0.0062058600264596744 0 0.0020218519731140818 -0.0065251211558960713 0 0.0016712901011589729 -0.0063444904497588286 0 0.0022975771966127472 -0.006562945873294067 0 0.0020218519731140818 -0.0065251211558960713 0 0.0021836990879180421 -0.0068728728330706302 0 0.0016423505488216068 -0.005896739814721292 0 0.0016217118002115718 -0.0057755848736387562 0 0.0016712901011589729 -0.0063444904497588286 0 0.0020453050953397915 -0.0059376137311196566 0 0.0017178367002357716 -0.005982191862322927 0 0.0016712901011589729 -0.0063444904497588286 0 0.0015782945786568432 -0.005841082205044471 0 0.0013242295406839268 -0.0062038911007990865 0 0.002220220591778491 -0.0062058600264596744 0 0.0016712901011589729 -0.0063444904497588286 0 0.0020453050953397915 -0.0059376137311196566 0 0.0020453050953397915 -0.0059376137311196566 0 0.0021587052167319604 -0.0057055606007027524 0 0.0016742179303264849 -0.0056259442016589742 0 0.0016217118002115718 -0.0057755848736387562 0 0.0015781776476741401 -0.005529998580154267 0 0.0020453050953397915 -0.0059376137311196566 0 0.0017178367002357716 -0.005982191862322927 0 0.0016742179303264849 -0.0056259442016589742 0 0.0015782945786568432 -0.005841082205044471 0 0.0014968865278146399 -0.0054689722896838567 0 0.0012119499970031564 -0.0058492970521964562 0 0.0014968865278146399 -0.0054689722896838567 0 0.0011316477530836555 -0.0054976219214824557 0 0.0012119499970031564 -0.0058492970521964562 0 0.0012119499970031564 -0.0058492970521964562 0 0.0013242295406839268 -0.0062038911007990865 0 0.0010506401560135702 -0.0063187946613056179 0 0.0013242295406839268 -0.0062038911007990865 0 0.0010506401560135702 -0.0063187946613056179 0 0.0011411868389101182 -0.0068579342016081395 0 0.0016712901011589729 -0.0063444904497588286 0 0.0013242295406839268 -0.0062038911007990865 0 0.0011411868389101182 -0.0068579342016081395 0 0.0015782945786568432 -0.005841082205044471 0 0.0012119499970031564 -0.0058492970521964562 0 0.0013242295406839268 -0.0062038911007990865 0 0.0010506401560135702 -0.0063187946613056179 0 0.00073417957156841831 -0.006388173918272802 0 0.00095686857902200974 -0.0066451132075397955 0 0.00073417957156841831 -0.006388173918272802 0 0.00045381201452723569 -0.006155322836421959 0 0.00047764436399354467 -0.0065743123359317118 0 0.00064844831174793046 -0.0060304505034650801 0 0.00057207593167882341 -0.0060925272184424537 0 0.00073417957156841831 -0.006388173918272802 0 0.00089567413258086323 -0.0057835898011536014 0 0.00045381201452723569 -0.006155322836421959 0 0.0012119499970031564 -0.0058492970521964562 0 0.0010506401560135702 -0.0063187946613056179 0 0.00089567413258086323 -0.0057835898011536014 0 0.0010506401560135702 -0.0063187946613056179 0 0.00073417957156841831 -0.006388173918272802 0 0.00089567413258086323 -0.0057835898011536014 0 0.0011316477530836555 -0.0054976219214824557 0 0.0012119499970031564 -0.0058492970521964562 0 0.00089567413258086323 -0.0057835898011536014 0 0.0011316477530836555 -0.0054976219214824557 0 0.00096465380009118785 -0.0054903554877818892 0 0.00089567413258086323 -0.0057835898011536014 0 0.00095357641494920339 -0.0053016423935914776 0 0.00096465380009118785 -0.0054903554877818892 0 0.00081215542321035397 -0.0055879477420603552 0 0.00089567413258086323 -0.0057835898011536014 0 0.00081215542321035397 -0.0055879477420603552 0 0.0008164538193552466 -0.0058289183487104943 0 0.00096465380009118785 -0.0054903554877818892 0 0.00089567413258086323 -0.0057835898011536014 0 0.00081215542321035397 -0.0055879477420603552 0 0.00095357641494920339 -0.0053016423935914776 0 0.00072399638890777748 -0.0052308441948345731 0 0.00081215542321035397 -0.0055879477420603552 0 0.00072399638890777748 -0.0052308441948345731 0 0.00055687504457893144 -0.0055137498172207139 0 0.00081215542321035397 -0.0055879477420603552 0 0.00055687504457893144 -0.0055137498172207139 0 0.00081215542321035397 -0.0055879477420603552 0 0.0006466751561553355 -0.0057408651278859869 0 0.0006466751561553355 -0.0057408651278859869 0 0.0008164538193552466 -0.0058289183487104943 0 0.00061339672227311241 -0.0060278220723195665 0 0.00081215542321035397 -0.0055879477420603552 0 0.0006466751561553355 -0.0057408651278859869 0 0.0008164538193552466 -0.0058289183487104943 0 0.00045381201452723569 -0.006155322836421959 0 0.00020599505638681925 -0.0064276161927308969 0 0.00047764436399354467 -0.0065743123359317118 0 0.00057207593167882341 -0.0060925272184424537 0 0.00041934149912972339 -0.0062194357361120122 0 0.00013927121062644313 -0.0066968666209253147 0 0.00020599505638681925 -0.0064276161927308969 0 0.00025768206740720467 -0.0067369252843819984 0 0.00020599505638681925 -0.0064276161927308969 0 0.00047764436399354467 -0.0065743123359317118 0 0.00025768206740720467 -0.0067369252843819984 0 0.00047764436399354467 -0.0065743123359317118 0 0.00025768206740720467 -0.0067369252843819984 0 0.00052815840887810448 -0.0068759816802248441 0 -0.00040778868810883669 -0.0078266974176162962 0 -0.00041242692720425025 -0.0080724630753155127 0 0.00017410729409886023 -0.0068124746735438889 0 0.00025768206740720467 -0.0067369252843819984 0 0.00027474795489697729 -0.0068468287258548087 0 0.00017410729409886023 -0.0068124746735438889 0 0.00027474795489697729 -0.0068468287258548087 0 0.00022799041000433072 -0.0069146812846644038 0 0.00027474795489697729 -0.0068468287258548087 0 0.00022799041000433072 -0.0069146812846644038 0 0.00031713513139020597 -0.0069809512291977883 0 -0.00041242692720425025 -0.0080724630753155127 0 -0.00040482872232131315 -0.0087835842457983544 0 0.00031985553775976171 -0.0070781058282461404 0 0.00056458979013860927 -0.0071624402243969871 0 0.00040112363817507656 -0.0073668617213629908 0 -0.00023158761854832771 -0.0085504541475332277 0 -0.00040482872232131315 -0.0087835842457983544 0 0.00056458979013860927 -0.0071624402243969871 0 0.00060169234057008778 -0.0073153637966199758 0 0.00042142268658602303 -0.0073406404500078364 0 0.00025768206740720467 -0.0067369252843819984 0 0.00031985553775976171 -0.0070781058282461404 0 0.00052815840887810448 -0.0068759816802248441 0 0.00031985553775976171 -0.0070781058282461404 0 0.00052815840887810448 -0.0068759816802248441 0 0.00056458979013860927 -0.0071624402243969871 0 0.00052815840887810448 -0.0068759816802248441 0 0.0006954206172604554 -0.0070086008498215458 0 0.00056458979013860927 -0.0071624402243969871 0 0.00056458979013860927 -0.0071624402243969871 0 0.00077010190274780883 -0.00725914264862951 0 0.00060169234057008778 -0.0073153637966199758 0 0.0006954206172604554 -0.0070086008498215458 0 0.00056458979013860927 -0.0071624402243969871 0 0.00077010190274780883 -0.00725914264862951 0 0.00077010190274780883 -0.00725914264862951 0 0.00090618330330509975 -0.0070087774210807014 0 0.00098578391412221808 -0.0071984053252247236 0 0.0006954206172604554 -0.0070086008498215458 0 0.00077010190274780883 -0.00725914264862951 0 0.00090618330330509975 -0.0070087774210807014 0 0.0006954206172604554 -0.0070086008498215458 0 0.00090618330330509975 -0.0070087774210807014 0 0.00076017855132093576 -0.0067814926787603718 0 0.00090618330330509975 -0.0070087774210807014 0 0.00076017855132093576 -0.0067814926787603718 0 0.0010068539384753361 -0.0068513084711950226 0 0.00076017855132093576 -0.0067814926787603718 0 0.00095686857902200974 -0.0066451132075397955 0 0.0010068539384753361 -0.0068513084711950226 0 0.00047764436399354467 -0.0065743123359317118 0 0.00052815840887810448 -0.0068759816802248441 0 0.00076017855132093576 -0.0067814926787603718 0 0.00052815840887810448 -0.0068759816802248441 0 0.0006954206172604554 -0.0070086008498215458 0 0.00076017855132093576 -0.0067814926787603718 0 0.00073417957156841831 -0.006388173918272802 0 0.00047764436399354467 -0.0065743123359317118 0 0.00076017855132093576 -0.0067814926787603718 0 0.00073417957156841831 -0.006388173918272802 0 0.00076017855132093576 -0.0067814926787603718 0 0.00095686857902200974 -0.0066451132075397955 0 0.0010506401560135702 -0.0063187946613056179 0 0.00095686857902200974 -0.0066451132075397955 0 0.0011411868389101182 -0.0068579342016081395 0 0.00095307856787910355 -0.0081054104779709896 0 0.00093134486699320549 -0.0083515682603564189 0 0.0011411868389101182 -0.0068579342016081395 0 0.0010068539384753361 -0.0068513084711950226 0 0.0011576213649234258 -0.0069848453656023001 0 0.0011411868389101182 -0.0068579342016081395 0 0.00055441356617208189 -0.0078323499748598931 0 0.0015018974866093302 -0.0073355392022149855 0 0.00095686857902200974 -0.0066451132075397955 0 0.0011411868389101182 -0.0068579342016081395 0 0.0010068539384753361 -0.0068513084711950226 0 0.00090618330330509975 -0.0070087774210807014 0 0.00098578391412221808 -0.0071984053252247236 0 0.0011576213649234258 -0.0069848453656023001 0 0.00090618330330509975 -0.0070087774210807014 0 0.0010068539384753361 -0.0068513084711950226 0 0.0011576213649234258 -0.0069848453656023001 0 0.00098578391412221808 -0.0071984053252247236 0 0.0011575253479614901 -0.0072552467809825459 0 0.0011576213649234258 -0.0069848453656023001 0 0.00089795334944894477 -0.0089850039717056344 0 0.00093134486699320549 -0.0083515682603564189 0 -8.3606586566917053e-05 -0.0091069359348006119 0 0.00055441356617208189 -0.0078323499748598931 0 0.00080560281289467192 -0.0086606585596297591 0 -8.3606586566917053e-05 -0.0091069359348006119 0 0.00080560281289467192 -0.0086606585596297591 0 0.00075007083494814657 -0.0094412525051645671 0 0.00055441356617208189 -0.0078323499748598931 0 0.0015015343943329794 -0.0082511403414428346 0 0.0015018974866093302 -0.0073355392022149855 0 0.00055441356617208189 -0.0078323499748598931 0 0.0015015343943329794 -0.0082511403414428346 0 0.00080560281289467192 -0.0086606585596297591 0 0.0015015343943329794 -0.0082511403414428346 0 0.00080560281289467192 -0.0086606585596297591 0 0.001304289323790575 -0.0088756607540350207 0 0.00080560281289467192 -0.0086606585596297591 0 0.001304289323790575 -0.0088756607540350207 0 0.00075007083494814657 -0.0094412525051645671 0 0.0015015343943329794 -0.0082511403414428346 0 0.001304289323790575 -0.0088756607540350207 0 0.0021058295715778684 -0.0091679034624531086 0 0.0023157755201419035 -0.0082948713535536452 0 0.0015015343943329794 -0.0082511403414428346 0 0.0021058295715778684 -0.0091679034624531086 0 0.0015015343943329794 -0.0082511403414428346 0 0.0020386417974235719 -0.0076470832643415493 0 0.0015018974866093302 -0.0073355392022149855 0 0.0023157755201419035 -0.0082948713535536452 0 0.0015015343943329794 -0.0082511403414428346 0 0.0020386417974235719 -0.0076470832643415493 0 0.0023640300367108649 -0.0072901754902195545 0 0.0020386417974235719 -0.0076470832643415493 0 0.0019496097495118991 -0.0071796734478533873 0 0.0023640300367108649 -0.0072901754902195545 0 0.0019496097495118991 -0.0071796734478533873 0 0.0021836990879180421 -0.0068728728330706302 0 0.0020386417974235719 -0.0076470832643415493 0 0.0019496097495118991 -0.0071796734478533873 0 0.0015018974866093302 -0.0073355392022149855 0 0.0011411868389101182 -0.0068579342016081395 0 0.0015018974866093302 -0.0073355392022149855 0 0.0017353198487050469 -0.0068235795680959147 0 0.0019496097495118991 -0.0071796734478533873 0 0.0015018974866093302 -0.0073355392022149855 0 0.0017353198487050469 -0.0068235795680959147 0 0.0016712901011589729 -0.0063444904497588286 0 0.0011411868389101182 -0.0068579342016081395 0 0.0017353198487050469 -0.0068235795680959147 0 0.0020218519731140818 -0.0065251211558960713 0 0.0017353198487050469 -0.0068235795680959147 0 0.0021836990879180421 -0.0068728728330706302 0 0.0019496097495118991 -0.0071796734478533873 0 0.0017353198487050469 -0.0068235795680959147 0 0.0021836990879180421 -0.0068728728330706302 0 0.0016696541351063968 -0.017558217298348586 0 0.0013704167072230774 -0.017470291901045053 0 0.0046428652477887664 -0.015642635667753139 0 0.0032264761173054104 -0.01461943956714633 0 0.0023625439645284848 -0.016119905102460808 0 0.0032264761173054104 -0.01461943956714633 0 0.0020881614618235432 -0.014539084085416642 0 0.002734186676719522 -0.013558419032774213 0 0.0046428652477887664 -0.015642635667753139 0 0.0032264761173054104 -0.01461943956714633 0 0.0039365467153729336 -0.014323573911766847 0 0.0032264761173054104 -0.01461943956714633 0 0.0020881614618235432 -0.014539084085416642 0 0.0023625439645284848 -0.016119905102460808 0 0.0012678554118943388 -0.01519910831211968 0 0.0020881614618235432 -0.014539084085416642 0 0.0023625439645284848 -0.016119905102460808 0 0.0012678554118943388 -0.01519910831211968 0 -0.00037381092439475511 -0.016630905827988228 0 0.0023625439645284848 -0.016119905102460808 0 0.0012678554118943388 -0.01519910831211968 0 0.00024889956094264467 -0.015253628584770041 0 -0.00037381092439475511 -0.016630905827988228 0 0.00024889956094264467 -0.015253628584770041 0 0.001053316523405237 -0.014270034155629446 0 0.00033558863365866037 -0.014271704272972922 0 0.0012678554118943388 -0.01519910831211968 0 0.00024889956094264467 -0.015253628584770041 0 0.001053316523405237 -0.014270034155629446 0 0.0012678554118943388 -0.01519910831211968 0 0.001053316523405237 -0.014270034155629446 0 0.0020881614618235432 -0.014539084085416642 0 0.001053316523405237 -0.014270034155629446 0 0.0020881614618235432 -0.014539084085416642 0 0.0018372731592171472 -0.013587682180671103 0 0.001053316523405237 -0.014270034155629446 0 0.0018372731592171472 -0.013587682180671103 0 0.0011335191945284668 -0.012997723145799094 0 0.0018372731592171472 -0.013587682180671103 0 0.0020534018820937095 -0.012530422233421568 0 0.002734186676719522 -0.013558419032774213 0 0.001053316523405237 -0.014270034155629446 0 0.0011335191945284668 -0.012997723145799094 0 0.0002761459880391545 -0.013529970069608557 0 0.001053316523405237 -0.014270034155629446 0 0.0002761459880391545 -0.013529970069608557 0 0.00033558863365866037 -0.014271704272972922 0 0.0011335191945284668 -0.012997723145799094 0 0.0020534018820937095 -0.012530422233421568 0 0.00092061525162472036 -0.01160914399674343 0 0.0011335191945284668 -0.012997723145799094 0 0.00019596387256202896 -0.01253655653768526 0 0.0002761459880391545 -0.013529970069608557 0 0.0011335191945284668 -0.012997723145799094 0 0.00092061525162472036 -0.01160914399674343 0 0.00019596387256202896 -0.01253655653768526 0 0.0018372731592171472 -0.013587682180671103 0 0.0011335191945284668 -0.012997723145799094 0 0.0020534018820937095 -0.012530422233421568 0 0.0020534018820937095 -0.012530422233421568 0 0.003015681073331986 -0.01274073305537873 0 0.002734186676719522 -0.013558419032774213 0 0.0020881614618235432 -0.014539084085416642 0 0.0018372731592171472 -0.013587682180671103 0 0.002734186676719522 -0.013558419032774213 0 0.003015681073331986 -0.01274073305537873 0 0.002734186676719522 -0.013558419032774213 0 0.0036303808147131124 -0.013485772956306329 0 0.0032264761173054104 -0.01461943956714633 0 0.0039365467153729336 -0.014323573911766847 0 0.0036303808147131124 -0.013485772956306329 0 0.0032264761173054104 -0.01461943956714633 0 0.002734186676719522 -0.013558419032774213 0 0.0036303808147131124 -0.013485772956306329 0 0.004248094385464511 -0.013548374988653775 0 0.0039365467153729336 -0.014323573911766847 0 0.0036303808147131124 -0.013485772956306329 0 0.004404409823031261 -0.013208765346160167 0 0.0036303808147131124 -0.013485772956306329 0 0.0037779140739236899 -0.012612112853129567 0 0.003015681073331986 -0.01274073305537873 0 0.0036303808147131124 -0.013485772956306329 0 0.0037779140739236899 -0.012612112853129567 0 0.0042834129126842688 -0.011950512741412534 0 0.0037779140739236899 -0.012612112853129567 0 0.0029665664264529397 -0.011654211854624159 0 0.003015681073331986 -0.01274073305537873 0 0.0037779140739236899 -0.012612112853129567 0 0.0029665664264529397 -0.011654211854624159 0 0.0020534018820937095 -0.012530422233421568 0 0.003015681073331986 -0.01274073305537873 0 0.0029665664264529397 -0.011654211854624159 0 0.0027791179168487122 -0.011623111387091207 0 0.0028023463812866453 -0.010675637140985284 0 0.001888403161040513 -0.010406210871667468 0 0.003668760815660733 -0.011007996445184886 0 0.0027791179168487122 -0.011623111387091207 0 0.0028023463812866453 -0.010675637140985284 0 0.003668760815660733 -0.011007996445184886 0 0.0028023463812866453 -0.010675637140985284 0 0.0031664206769377347 -0.0094661841006587009 0 0.0028023463812866453 -0.010675637140985284 0 0.0031664206769377347 -0.0094661841006587009 0 0.001888403161040513 -0.010406210871667468 0 0.002251160740304708 -0.013618183680871018 0 0.0019874388242943205 -0.013286965809550924 0 0.0031664206769377347 -0.0094661841006587009 0 0.00075007083494814657 -0.0094412525051645671 0 0.001888403161040513 -0.010406210871667468 0 0.001304289323790575 -0.0088756607540350207 0 0.0021058295715778684 -0.0091679034624531086 0 0.00075007083494814657 -0.0094412525051645671 0 0.00075007083494814657 -0.0094412525051645671 0 0.001888403161040513 -0.010406210871667468 0 0.00045693146398511887 -0.01041014121572318 0 0.0020534018820937095 -0.012530422233421568 0 0.0029665664264529397 -0.011654211854624159 0 0.00092061525162472036 -0.01160914399674343 0 0.0022573189204744045 -0.015667495712090515 0 0.0021361658915608197 -0.015494838723100708 0 0.001888403161040513 -0.010406210871667468 0 0.00092061525162472036 -0.01160914399674343 0 0.00045693146398511887 -0.01041014121572318 0 0.0027791179168487122 -0.011623111387091207 0 0.001888403161040513 -0.010406210871667468 0 0.00092061525162472036 -0.01160914399674343 0 0.00092061525162472036 -0.01160914399674343 0 -0.00076324285335273192 -0.011342740794948476 0 0.00019596387256202896 -0.01253655653768526 0 0.00092061525162472036 -0.01160914399674343 0 -0.00076324285335273192 -0.011342740794948476 0 0.00045693146398511887 -0.01041014121572318 0 -0.00076324285335273192 -0.011342740794948476 0 -0.00038618043309878391 -0.013093297780266895 0 0.00019596387256202896 -0.01253655653768526 0 0.0011575253479614901 -0.0072552467809825459 0 0.0011433597853532506 -0.0075395228640989164 0 0.0010375016138474556 -0.007375134038879739 0 -8.3606586566917053e-05 -0.0091069359348006119 0 -0.00076324285335273192 -0.011342740794948476 0 0.00045693146398511887 -0.01041014121572318 0 0.00089795334944894477 -0.0089850039717056344 0 0.00090098946566657023 -0.0098889554083261815 0 -8.3606586566917053e-05 -0.0091069359348006119 0 0.00075007083494814657 -0.0094412525051645671 0 0.00045693146398511887 -0.01041014121572318 0 0.00098578391412221808 -0.0071984053252247236 0 0.0010375016138474556 -0.007375134038879739 0 0.00092442305617279087 -0.0073695338137231958 0 0.00098578391412221808 -0.0071984053252247236 0 0.0011575253479614901 -0.0072552467809825459 0 0.0010375016138474556 -0.007375134038879739 0 0.0010375016138474556 -0.007375134038879739 0 0.00097772527242996469 -0.007517321322566814 0 0.00092442305617279087 -0.0073695338137231958 0 0.0011433597853532506 -0.0075395228640989164 0 0.0010375016138474556 -0.007375134038879739 0 0.00097772527242996469 -0.007517321322566814 0 0.0011433597853532506 -0.0075395228640989164 0 0.00097772527242996469 -0.007517321322566814 0 0.0010307133620424966 -0.0076381402481376665 0 0.00097772527242996469 -0.007517321322566814 0 0.0010307133620424966 -0.0076381402481376665 0 0.00088406738730316024 -0.0076605185796152627 0 0.0011433597853532506 -0.0075395228640989164 0 0.0010307133620424966 -0.0076381402481376665 0 0.0011196115827859924 -0.00782766045524615 0 -0.0022896466850780002 -0.013947555874157596 0 -0.0018809272175380931 -0.014027950195944654 0 -0.0021363986942689091 -0.014185655825678807 0 0.00099606950975139759 -0.010912506822723097 0 0.00043906222950903953 -0.010345320126899015 0 0.0010307133620424966 -0.0076381402481376665 0 0.0011196115827859924 -0.00782766045524615 0 0.00088406738730316024 -0.0076605185796152627 0 -0.00076324285335273192 -0.011342740794948476 0 -0.00038618043309878391 -0.013093297780266895 0 -0.0012195859487500128 -0.013938472359185128 0 0.00090098946566657023 -0.0098889554083261815 0 0.00099606950975139759 -0.010912506822723097 0 -0.00038618043309878391 -0.013093297780266895 0 0.00019596387256202896 -0.01253655653768526 0 0.0002761459880391545 -0.013529970069608557 0 -0.00038618043309878391 -0.013093297780266895 0 0.0002761459880391545 -0.013529970069608557 0 -0.00022779311074598476 -0.014051507874096154 0 0.0002761459880391545 -0.013529970069608557 0 -0.00022779311074598476 -0.014051507874096154 0 0.00033558863365866037 -0.014271704272972922 0 -0.00038618043309878391 -0.013093297780266895 0 -0.00022779311074598476 -0.014051507874096154 0 -0.0012195859487500128 -0.013938472359185128 0 -0.0016660747376063786 -0.014509836315601958 0 -0.0010121631717179252 -0.015583479685104439 0 -0.0016654540420487501 -0.016466213459652053 0 0.00099606950975139759 -0.010912506822723097 0 0.00098674894481238042 -0.010953015510364438 0 0.00024889956094264467 -0.015253628584770041 0 -0.0016188445350368179 -0.013980071580990877 0 -0.0016660747376063786 -0.014509836315601958 0 0.00024889956094264467 -0.015253628584770041 0 -0.0016660747376063786 -0.014509836315601958 0 -0.0010121631717179252 -0.015583479685104439 0 0.00024889956094264467 -0.015253628584770041 0 -0.00022779311074598476 -0.014051507874096154 0 0.00033558863365866037 -0.014271704272972922 0 0.0010672594885683369 -0.011164610061008854 0 0.00099606950975139759 -0.010912506822723097 0 0.00024889956094264467 -0.015253628584770041 0 -0.00022779311074598476 -0.014051507874096154 0 -0.0012195859487500128 -0.013938472359185128 0 0.00024889956094264467 -0.015253628584770041 0 -0.0010121631717179252 -0.015583479685104439 0 -0.00037381092439475511 -0.016630905827988228 0 -0.00098616196139731153 -0.013834031473475209 0 -0.00087338599601558128 -0.013852821674624295 0 -0.0022896466850780002 -0.013947555874157596 0 -0.0019046056074148575 -0.013032740864928455 0 -0.0024248875968792679 -0.012506600438959804 0 -0.0022896466850780002 -0.013947555874157596 0 -0.0016660747376063786 -0.014509836315601958 0 -0.0016654540420487501 -0.016466213459652053 0 -0.0022896466850780002 -0.013947555874157596 0 -0.0024248875968792679 -0.012506600438959804 0 -0.0032861016228459979 -0.012243965435406075 0 -0.0022896466850780002 -0.013947555874157596 0 -0.0018809272175380931 -0.014027950195944654 0 -0.0016660747376063786 -0.014509836315601958 0 -0.0013627936025089502 -0.01329997304786462 0 -0.0019046056074148575 -0.013032740864928455 0 -0.0018867051324713289 -0.013787595341008273 0 -0.0022896466850780002 -0.013947555874157596 0 -0.0019046056074148575 -0.013032740864928455 0 -0.0018867051324713289 -0.013787595341008273 0 -0.0019046056074148575 -0.013032740864928455 0 -0.0014339506833090645 -0.012684670436634073 0 -0.0019332322464914791 -0.01202292893500994 0 -0.0013627936025089502 -0.01329997304786462 0 -0.0019046056074148575 -0.013032740864928455 0 -0.0014339506833090645 -0.012684670436634073 0 -0.0013627936025089502 -0.01329997304786462 0 -0.0014339506833090645 -0.012684670436634073 0 -0.00095881697562748443 -0.012883178759264388 0 -0.0014339506833090645 -0.012684670436634073 0 -0.00095881697562748443 -0.012883178759264388 0 -0.001014484129827535 -0.012109673093510659 0 -0.00095881697562748443 -0.012883178759264388 0 -0.0001952438506258702 -0.012874110397660394 0 -0.001014484129827535 -0.012109673093510659 0 -0.00095881697562748443 -0.012883178759264388 0 -0.00068979128217690222 -0.013499388427098193 0 -0.0001952438506258702 -0.012874110397660394 0 -0.0013627936025089502 -0.01329997304786462 0 -0.00095881697562748443 -0.012883178759264388 0 -0.00068979128217690222 -0.013499388427098193 0 -0.0013627936025089502 -0.01329997304786462 0 -0.00068979128217690222 -0.013499388427098193 0 -0.0010334263249886125 -0.014088821191554442 0 -0.00068979128217690222 -0.013499388427098193 0 -0.0010334263249886125 -0.014088821191554442 0 4.2261140767730474e-05 -0.014369128518379801 0 -0.0010334263249886125 -0.014088821191554442 0 -0.0018867051324713289 -0.013787595341008273 0 -0.0021363986942689091 -0.014185655825678807 0 -0.0013627936025089502 -0.01329997304786462 0 -0.0010334263249886125 -0.014088821191554442 0 -0.0018867051324713289 -0.013787595341008273 0 -0.0022896466850780002 -0.013947555874157596 0 -0.0018867051324713289 -0.013787595341008273 0 -0.0021363986942689091 -0.014185655825678807 0 0.00097772527242996469 -0.007517321322566814 0 0.00088406738730316024 -0.0076605185796152627 0 0.00082907133596764738 -0.0074842983104189227 0 0.00088406738730316024 -0.0076605185796152627 0 0.00082907133596764738 -0.0074842983104189227 0 0.00065452301275897688 -0.0074994024407906484 0 0.00043906222950903953 -0.010345320126899015 0 0.00013322282929292587 -0.0097661045946174502 0 0.00077010190274780883 -0.00725914264862951 0 0.00098578391412221808 -0.0071984053252247236 0 0.00092442305617279087 -0.0073695338137231958 0 0.00077010190274780883 -0.00725914264862951 0 0.00082907133596764738 -0.0074842983104189227 0 0.00092442305617279087 -0.0073695338137231958 0 0.00077010190274780883 -0.00725914264862951 0 0.00082907133596764738 -0.0074842983104189227 0 0.00065452301275897688 -0.0074994024407906484 0 0.00097772527242996469 -0.007517321322566814 0 0.00082907133596764738 -0.0074842983104189227 0 0.00092442305617279087 -0.0073695338137231958 0 0.00077010190274780883 -0.00725914264862951 0 0.00060169234057008778 -0.0073153637966199758 0 0.00065452301275897688 -0.0074994024407906484 0 0.00060169234057008778 -0.0073153637966199758 0 0.00065452301275897688 -0.0074994024407906484 0 0.00042142268658602303 -0.0073406404500078364 0 -0.0010334263249886125 -0.014088821191554442 0 -0.0008680271031900038 -0.015142124700467996 0 4.2261140767730474e-05 -0.014369128518379801 0 -0.0010334263249886125 -0.014088821191554442 0 -0.0021363986942689091 -0.014185655825678807 0 -0.0008680271031900038 -0.015142124700467996 0 -0.0008680271031900038 -0.015142124700467996 0 0.00031489796241970704 -0.015936474117929415 0 4.2261140767730474e-05 -0.014369128518379801 0 -0.00058584745077207648 -0.0097789791031354448 0 -0.00082431055505966585 -0.010078954584415666 0 -0.00049946604184409498 -0.010273505266579122 0 -0.00040482872232131315 -0.0087835842457983544 0 -0.00020556468896145821 -0.010596603719711481 0 0.00013322282929292587 -0.0097661045946174502 0 -0.00040482872232131315 -0.0087835842457983544 0 0.00031713513139020597 -0.0069809512291977883 0 0.00021966431419979121 -0.006995101158127735 0 0.00023652137547656063 -0.0070841785943382956 0 -0.00040482872232131315 -0.0087835842457983544 0 -7.3990334435274438e-05 -0.0077179214704479479 0 0.00014780848205678352 -0.0069249949238951274 0 0.00022799041000433072 -0.0069146812846644038 0 0.00021966431419979121 -0.006995101158127735 0 0.00022799041000433072 -0.0069146812846644038 0 0.00031713513139020597 -0.0069809512291977883 0 0.00021966431419979121 -0.006995101158127735 0 0.00021966431419979121 -0.006995101158127735 0 0.00023652137547656063 -0.0070841785943382956 0 0.00014365715199239772 -0.0070446523057755292 0 -0.00082431055505966585 -0.010078954584415666 0 -0.00083798360719507139 -0.010296366396280574 0 -0.00049946604184409498 -0.010273505266579122 0 -0.00082431055505966585 -0.010078954584415666 0 -0.00083798360719507139 -0.010296366396280574 0 -0.0010396654948574289 -0.010348259530085261 0 -7.3990334435274438e-05 -0.0077179214704479479 0 0.00039619434830817868 -0.0064772911399148727 0 -0.00083798360719507139 -0.010296366396280574 0 -0.00089303460510596568 -0.010497650421336513 0 -0.0010396654948574289 -0.010348259530085261 0 -0.00089303460510596568 -0.010497650421336513 0 -0.00068382702306013922 -0.010427312679762516 0 -0.00059528513637029253 -0.010646237026228505 0 -0.00083798360719507139 -0.010296366396280574 0 -0.00068382702306013922 -0.010427312679762516 0 -0.00049946604184409498 -0.010273505266579122 0 -0.00083798360719507139 -0.010296366396280574 0 -0.00089303460510596568 -0.010497650421336513 0 -0.00068382702306013922 -0.010427312679762516 0 -0.00020556468896145821 -0.010596603719711481 0 -0.00018830778010587511 -0.011030947094622845 0 -0.00068979128217690222 -0.013499388427098193 0 4.2261140767730474e-05 -0.014369128518379801 0 -0.0001952438506258702 -0.012874110397660394 0 -0.00068382702306013922 -0.010427312679762516 0 -0.00049946604184409498 -0.010273505266579122 0 -0.00059528513637029253 -0.010646237026228505 0 -0.00049946604184409498 -0.010273505266579122 0 -0.00059528513637029253 -0.010646237026228505 0 -0.00043015750095598104 -0.010728207993396854 0 -0.00043015750095598104 -0.010728207993396854 0 -0.00059103459174002411 -0.010761914365566038 0 -0.0005078654556197311 -0.010843503649100011 0 -0.00059528513637029253 -0.010646237026228505 0 -0.00043015750095598104 -0.010728207993396854 0 -0.00059103459174002411 -0.010761914365566038 0 0.00051176782882495159 -0.0066893458725233819 0 0.00065880212334527627 -0.0071473739077297207 0 -0.00083899098454556266 -0.01051845557390031 0 -0.00059528513637029253 -0.010646237026228505 0 -0.00059103459174002411 -0.010761914365566038 0 0.00051176782882495159 -0.0066893458725233819 0 0.00052873706298571814 -0.0068749558399798976 0 -0.0007453548417590501 -0.010583004421019506 0 -0.00059103459174002411 -0.010761914365566038 0 -0.00068377662607002707 -0.010746952910411195 0 -0.0007453548417590501 -0.010583004421019506 0 -0.00068377662607002707 -0.010746952910411195 0 -0.0008603336471281588 -0.010529945364632129 0 0.00085436450633927653 -0.0078508376248647444 0 0.00038232022779785058 -0.0062342624115691832 0 5.8031006929109732e-05 -0.011399719550766614 0 0.00052555697790907104 -0.011466093431005787 0 0.00037243397635781245 -0.011189796391870651 0 5.8031006929109732e-05 -0.011399719550766614 0 8.5026223781338101e-05 -0.01096207187571889 0 -0.00048787552352833009 -0.010890516416178204 0 8.5026223781338101e-05 -0.01096207187571889 0 0.00031206690034379627 -0.010634450790126209 0 0.00050661346727033099 -0.01090851871076136 0 8.5026223781338101e-05 -0.01096207187571889 0 0.00050661346727033099 -0.01090851871076136 0 0.00037243397635781245 -0.011189796391870651 0 5.8031006929109732e-05 -0.011399719550766614 0 8.5026223781338101e-05 -0.01096207187571889 0 0.00037243397635781245 -0.011189796391870651 0 -0.00059103459174002411 -0.010761914365566038 0 -0.00068377662607002707 -0.010746952910411195 0 -0.00048787552352833009 -0.010890516416178204 0 -0.00059103459174002411 -0.010761914365566038 0 -0.0005078654556197311 -0.010843503649100011 0 -0.00048787552352833009 -0.010890516416178204 0 8.5026223781338101e-05 -0.01096207187571889 0 -0.00048787552352833009 -0.010890516416178204 0 -0.0001553224014876978 -0.010727739513904913 0 0.00085436450633927653 -0.0078508376248647444 0 0.00092952032341946436 -0.0082804551442695606 0 -0.0005078654556197311 -0.010843503649100011 0 -0.00048787552352833009 -0.010890516416178204 0 -0.0006037839763497763 -0.01095930781643728 0 -0.00048787552352833009 -0.010890516416178204 0 -0.0001553224014876978 -0.010727739513904913 0 -0.00040322888202234779 -0.010390398206035212 0 -0.00048787552352833009 -0.010890516416178204 0 -0.00040322888202234779 -0.010390398206035212 0 -0.0006037839763497763 -0.01095930781643728 0 -0.0001553224014876978 -0.010727739513904913 0 -0.00040322888202234779 -0.010390398206035212 0 -0.00014620504889662284 -0.0101433347857734 0 -0.0001553224014876978 -0.010727739513904913 0 -0.00014620504889662284 -0.0101433347857734 0 0.00017912544816005787 -0.0096822493830055999 0 -0.0001553224014876978 -0.010727739513904913 0 0.00031206690034379627 -0.010634450790126209 0 0.00043802148240108384 -0.010043581320142886 0 -0.00074568035934785473 -0.0086837725154275992 0 -0.00057493667895406036 -0.0082282991314065086 0 8.5026223781338101e-05 -0.01096207187571889 0 -0.0001553224014876978 -0.010727739513904913 0 0.00031206690034379627 -0.010634450790126209 0 -0.00014620504889662284 -0.0101433347857734 0 -0.0001842485769217698 -0.0098912012957547563 0 0.00017912544816005787 -0.0096822493830055999 0 -3.1227491605128109e-07 -0.0088535976156458186 0 -0.0001842485769217698 -0.0098912012957547563 0 -8.1734153075224422e-07 -0.010531369223937529 0 -3.1227491605128109e-07 -0.0088535976156458186 0 -0.0001842485769217698 -0.0098912012957547563 0 0.00017912544816005787 -0.0096822493830055999 0 -0.0001842485769217698 -0.0098912012957547563 0 -8.1734153075224422e-07 -0.010531369223937529 0 -0.00020800427784604998 -0.010736452757595801 0 -0.00040322888202234779 -0.010390398206035212 0 -0.00014620504889662284 -0.0101433347857734 0 -0.0001842485769217698 -0.0098912012957547563 0 -0.0004106548987793329 -0.01205176993090277 0 -0.00043385114487865401 -0.01215406906646895 0 -0.00040322888202234779 -0.010390398206035212 0 -0.0001842485769217698 -0.0098912012957547563 0 -0.00067633759763571961 -0.0099837641562979928 0 -0.00067633759763571961 -0.0099837641562979928 0 -0.00112042975180294 -0.010556775701446074 0 -0.00069071400577274647 -0.010452279480744441 0 -0.00040322888202234779 -0.010390398206035212 0 -0.00067633759763571961 -0.0099837641562979928 0 -0.00069071400577274647 -0.010452279480744441 0 -0.00067633759763571961 -0.0099837641562979928 0 -0.0015431337209566378 -0.010137104678794208 0 -0.00112042975180294 -0.010556775701446074 0 -0.00043385114487865401 -0.01215406906646895 0 -0.00052558986695121007 -0.012459348762058361 0 -8.1734153075224422e-07 -0.010531369223937529 0 -0.00020800427784604998 -0.010736452757595801 0 1.2444079560438159e-06 -0.012203814163615044 0 -0.00020800427784604998 -0.010736452757595801 0 1.2444079560438159e-06 -0.012203814163615044 0 0.00063321125224346045 -0.010526716353564862 0 -1.6461932129860634e-06 -0.012207234906770127 0 -0.00052558986695121007 -0.012459348762058361 0 1.5246164679707276e-06 -0.012209486551368451 0 0.00033011762431934784 -0.014056629991277539 0 -0.00013689344095544573 -0.013710921541436386 0 -0.00052558986695121007 -0.012459348762058361 0 -0.00060042772372304303 -0.013160761437564139 0 -0.0016060391428859575 -0.0099841356948721441 0 -0.0017666741808244832 -0.011006734854286885 0 -0.0027638736534139974 -0.010359604812518413 0 -0.0017764022830453025 -0.010917697779702864 0 -0.00112042975180294 -0.010556775701446074 0 -0.0012498955067043144 -0.011335754557235997 0 -0.00052558986695121007 -0.012459348762058361 0 -0.00059781835233330323 -0.012182353236505905 0 -0.0015431337209566378 -0.010137104678794208 0 -0.0017764022830453025 -0.010917697779702864 0 -0.00112042975180294 -0.010556775701446074 0 -0.00112042975180294 -0.010556775701446074 0 -0.00069071400577274647 -0.010452279480744441 0 -0.0006037839763497763 -0.01095930781643728 0 -0.00040322888202234779 -0.010390398206035212 0 -0.00069071400577274647 -0.010452279480744441 0 -0.0006037839763497763 -0.01095930781643728 0 -0.00112042975180294 -0.010556775701446074 0 -0.0006037839763497763 -0.01095930781643728 0 -0.0012498955067043144 -0.011335754557235997 0 -0.0006037839763497763 -0.01095930781643728 0 -0.0012498955067043144 -0.011335754557235997 0 -0.001014484129827535 -0.012109673093510659 0 -0.0001952438506258702 -0.012874110397660394 0 -0.0006037839763497763 -0.01095930781643728 0 -0.001014484129827535 -0.012109673093510659 0 -0.00018830778010587511 -0.011030947094622845 0 -0.00021364386954237944 -0.011043256469271161 0 -0.00043015750095598104 -0.010728207993396854 0 -0.0005078654556197311 -0.010843503649100011 0 -0.0006037839763497763 -0.01095930781643728 0 -0.0014339506833090645 -0.012684670436634073 0 -0.001014484129827535 -0.012109673093510659 0 -0.0019332322464914791 -0.01202292893500994 0 -0.0019046056074148575 -0.013032740864928455 0 -0.0019332322464914791 -0.01202292893500994 0 -0.0024248875968792679 -0.012506600438959804 0 -0.0017666741808244832 -0.011006734854286885 0 -0.0019332322464914791 -0.01202292893500994 0 -0.0026901054254609329 -0.011386468737124974 0 -0.00059781835233330323 -0.012182353236505905 0 -0.00062948600986254661 -0.01214252203835561 0 -0.0017764022830453025 -0.010917697779702864 0 -0.0012498955067043144 -0.011335754557235997 0 -0.0019332322464914791 -0.01202292893500994 0 -0.0012498955067043144 -0.011335754557235997 0 -0.001014484129827535 -0.012109673093510659 0 -0.0019332322464914791 -0.01202292893500994 0 -0.0019332322464914791 -0.01202292893500994 0 -0.0024248875968792679 -0.012506600438959804 0 -0.0026901054254609329 -0.011386468737124974 0 -0.0024248875968792679 -0.012506600438959804 0 -0.0032861016228459979 -0.012243965435406075 0 -0.0026901054254609329 -0.011386468737124974 0 -0.0032861016228459979 -0.012243965435406075 0 -0.0039416458802471657 -0.010737795619183598 0 -0.0026901054254609329 -0.011386468737124974 0 -0.0016654540420487501 -0.016466213459652053 0 -0.00071233490031997267 -0.018056584845140132 0 -0.00027916824377743996 -0.017402610830391074 0 -0.0010121631717179252 -0.015583479685104439 0 -0.0016654540420487501 -0.016466213459652053 0 -0.00037381092439475511 -0.016630905827988228 0 -0.0016654540420487501 -0.016466213459652053 0 -0.00037381092439475511 -0.016630905827988228 0 -0.00027916824377743996 -0.017402610830391074 0 -0.00087338599601558128 -0.013852821674624295 0 -0.00050174327690740979 -0.013899289118380745 0 -0.00050174327690740979 -0.013899289118380745 0 -0.00060042772372304303 -0.013160761437564139 0 -0.0039416458802471657 -0.010737795619183598 0 -0.0026901054254609329 -0.011386468737124974 0 -0.0027638736534139974 -0.010359604812518413 0 -0.0017666741808244832 -0.011006734854286885 0 -0.0026901054254609329 -0.011386468737124974 0 -0.0027638736534139974 -0.010359604812518413 0 0.00033011762431934784 -0.014056629991277539 0 -0.00013065612245050632 -0.014141623745612751 0 -0.00013689344095544573 -0.013710921541436386 0 -0.00013065612245050632 -0.014141623745612751 0 -0.00013689344095544573 -0.013710921541436386 0 -0.00012554236435520445 -0.014104546645755363 0 -1.4876528614286723e-06 -0.014127679378964399 0 -0.00013689344095544573 -0.013710921541436386 0 -0.00012554236435520445 -0.014104546645755363 0 1.5246164679707276e-06 -0.012209486551368451 0 -1.4876528614286723e-06 -0.014127679378964399 0 -0.00013689344095544573 -0.013710921541436386 0 -1.4876528614286723e-06 -0.014127679378964399 0 -3.1658178359015973e-05 -0.014451189942466126 0 1.445913808758123e-06 -0.015980768581689803 0 -1.4876528614286723e-06 -0.014127679378964399 0 -0.00012554236435520445 -0.014104546645755363 0 -3.1658178359015973e-05 -0.014451189942466126 0 -0.00050174327690740979 -0.013899289118380745 0 -0.00025823249719443927 -0.01451559207184781 0 -0.00010359861599138268 -0.014125043413949644 0 -0.00012554236435520445 -0.014104546645755363 0 -3.1658178359015973e-05 -0.014451189942466126 0 -0.00010359861599138268 -0.014125043413949644 0 -0.00013065612245050632 -0.014141623745612751 0 -0.00012554236435520445 -0.014104546645755363 0 0.0003999003557204497 -0.017782573684322747 0 0.00051900286432424701 -0.017518308711231577 0 0.00027773663313211894 -0.017729370561550162 0 0.00051900286432424701 -0.017518308711231577 0 6.114772364956005e-05 -0.01712450320983519 0 4.4419237171578427e-05 -0.017848988453617886 0 0.00051900286432424701 -0.017518308711231577 0 4.4419237171578427e-05 -0.017848988453617886 0 0.00027773663313211894 -0.017729370561550162 0 0.00051900286432424701 -0.017518308711231577 0 6.114772364956005e-05 -0.01712450320983519 0 1.3176409506827501e-06 -0.015987062161628152 0 -0.00025823249719443927 -0.01451559207184781 0 -0.00019898132762131149 -0.014679145340279632 0 6.114772364956005e-05 -0.01712450320983519 0 1.3176409506827501e-06 -0.015987062161628152 0 -2.6887970020918351e-05 -0.017573166653503329 0 -4.3567719068372374e-07 -0.01796860166351472 0 1.3176409506827501e-06 -0.015987062161628152 0 -2.6887970020918351e-05 -0.017573166653503329 0 6.114772364956005e-05 -0.01712450320983519 0 -2.6887970020918351e-05 -0.017573166653503329 0 4.4419237171578427e-05 -0.017848988453617886 0 0.00012919479306552364 -0.018515303057682064 0 -2.6887970020918351e-05 -0.017573166653503329 0 4.4419237171578427e-05 -0.017848988453617886 0 0.00048215274268781182 -0.01760549165154645 0 4.4419237171578427e-05 -0.017848988453617886 0 0.00031898726710607116 -0.017430330767779403 0 4.4419237171578427e-05 -0.017848988453617886 0 0.00014980839490384414 -0.017633979272095826 0 0.00031898726710607116 -0.017430330767779403 0 0.0003999003557204497 -0.017782573684322747 0 0.00027773663313211894 -0.017729370561550162 0 0.00014980839490384414 -0.017633979272095826 0 -0.00050174327690740979 -0.013899289118380745 0 -0.00054545109217952103 -0.014091769780238066 0 4.4419237171578427e-05 -0.017848988453617886 0 0.00027773663313211894 -0.017729370561550162 0 0.00014980839490384414 -0.017633979272095826 0 -0.00071233490031997267 -0.018056584845140132 0 -0.00027916824377743996 -0.017402610830391074 0 0.00014980839490384414 -0.017633979272095826 0 -0.00027916824377743996 -0.017402610830391074 0 0.00014980839490384414 -0.017633979272095826 0 0.00022576570164981001 -0.01700263348749681 0 0.0011470204667811902 -0.017461529126739577 0 0.0013704167072230774 -0.017470291901045053 0 -0.00037381092439475511 -0.016630905827988228 0 -0.00027916824377743996 -0.017402610830391074 0 0.00022576570164981001 -0.01700263348749681 0 0.00014980839490384414 -0.017633979272095826 0 0.00031898726710607116 -0.017430330767779403 0 0.00022576570164981001 -0.01700263348749681 0 0.00058006060428631833 -0.017056835440894532 0 0.00031898726710607116 -0.017430330767779403 0 0.00022576570164981001 -0.01700263348749681 0 0.00095951111953787441 -0.00059891168075562129 0 0.00074655238321212744 -0.00064370096240203988 0 0.00087981070486325898 -0.00045771636441683481 0 0.00095951111953787441 -0.00059891168075562129 0 0.00074655238321212744 -0.00064370096240203988 0 0.00085858588519493529 -0.00077941381645685879 0 0.00095951111953787441 -0.00059891168075562129 0 0.0011402227058690286 -0.00067116622769204876 0 0.0010125080280907997 -0.00076030860951237006 0 0.00074655238321212744 -0.00064370096240203988 0 0.00070129723071930914 -0.0004638124934866268 0 0.00059332840193818007 -0.00059860891361492323 0 0.00074655238321212744 -0.00064370096240203988 0 0.00070129723071930914 -0.0004638124934866268 0 0.00087981070486325898 -0.00045771636441683481 0 0.00070129723071930914 -0.0004638124934866268 0 0.00087981070486325898 -0.00045771636441683481 0 0.00086759119026351709 -0.00024844563415531601 0 0.00070129723071930914 -0.0004638124934866268 0 0.00086759119026351709 -0.00024844563415531601 0 0.00075451705297262164 -0.00019191015538478002 0 0.00095951111953787441 -0.00059891168075562129 0 0.00087981070486325898 -0.00045771636441683481 0 0.0010621987331791373 -0.00038129003474094651 0 0.00087981070486325898 -0.00045771636441683481 0 0.0010621987331791373 -0.00038129003474094651 0 0.00086759119026351709 -0.00024844563415531601 0 0.0018651282956278783 0.0049867633853734866 0 0.0021899921982908343 0.0038629990152321842 0 0.0030151513614369739 0.0064512374678487834 0 0.0031690128293665062 0.0074013391324651134 0 0.004028913898363109 0.0055671094045917488 0 0.00088661756207296144 0.00059373901751594261 0 0.00057615086236388689 0.0011129359319536683 0 0.00069362951424595818 0.00027153591529225247 0 0.0001621221768601135 0.0012614636752489637 0 0.00057615086236388689 0.0011129359319536683 0 0.00069362951424595818 0.00027153591529225247 0 0.0032080531058794161 0.0056938500829448674 0 0.0030151513614369739 0.0064512374678487834 0 0.004028913898363109 0.0055671094045917488 0 0.00068847887252588126 0.0023621181454436466 0 0.00081596603505886196 0.0047302191373393386 0 0.00055762332450760615 0.00046139567521200488 0 0.00050178643348720603 0.00032798549506752336 0 0.00023674937701648486 0.00070560624491160988 0 0.0032080531058794161 0.0056938500829448674 0 0.0030151513614369739 0.0064512374678487834 0 0.0020853838442836375 0.0065082978022356743 0 0.0016343307727787477 0.0040490949989047181 0 0.00081596603505886196 0.0047302191373393386 0 0.0030151513614369739 0.0064512374678487834 0 0.0025814351366263092 0.0070863611403807949 0 0.0020853838442836375 0.0065082978022356743 0 0.0030151513614369739 0.0064512374678487834 0 0.0025814351366263092 0.0070863611403807949 0 0.0031690128293665062 0.0074013391324651134 0 0.0025814351366263092 0.0070863611403807949 0 0.0031690128293665062 0.0074013391324651134 0 0.0025569637948177045 0.0077775041284962824 0 0.0025814351366263092 0.0070863611403807949 0 0.0025569637948177045 0.0077775041284962824 0 0.0020703883723546851 0.0075435504226836533 0 0.00068908061263633349 0.00072360685220925771 0 0.00053207590826080079 0.0012267804755692236 0 0.00095951111953787441 -0.00059891168075562129 0 0.0010621987331791373 -0.00038129003474094651 0 0.0011402227058690286 -0.00067116622769204876 0 0.00088661756207296144 0.00059373901751594261 0 0.00057615086236388689 0.0011129359319536683 0 0.00065889251313206961 0.0014780658959469548 0 0.0001621221768601135 0.0012614636752489637 0 0.00057615086236388689 0.0011129359319536683 0 0.00069536963753777598 0.0015201205553053033 0 0.00053342980774037337 0.0012292498743896787 0 0.00053207590826080079 0.0012267804755692236 0 0.00053207590826080079 0.0012267804755692236 0 0.00049171107998688944 0.0013760427973628822 0 0.00072180760800599048 0.00149791758233122 0 0.00090644942008859491 0.0023530621001070758 0 0.0003910577120259298 0.0026913421762125448 0 0.0011402227058690286 -0.00067116622769204876 0 0.0010903154117597659 -0.00089199014650671545 0 0.0010125080280907997 -0.00076030860951237006 0 0.00069536963753777598 0.0015201205553053033 0 0.00016544704416007465 0.0020847966711027479 0 0.00039874246719373812 0.0026928963525727607 0 0.00053207590826080079 0.0012267804755692236 0 0.00035915714847188656 0.0020376336721774353 0 0.0001621221768601135 0.0012614636752489637 0 0.00069536963753777598 0.0015201205553053033 0 0.00016544704416007465 0.0020847966711027479 0 0.0031690128293665062 0.0074013391324651134 0 0.0025569637948177045 0.0077775041284962824 0 0.0023029389575898434 0.009250235819910739 0 0.0001621221768601135 0.0012614636752489637 0 0.00016544704416007465 0.0020847966711027479 0 -0.00044847731540718515 0.0025103932846521158 0 0.0018651282956278783 0.0049867633853734866 0 0.0014372566132014326 0.0065574552612548045 0 0.0025569637948177045 0.0077775041284962824 0 0.0023029389575898434 0.009250235819910739 0 0.0022071980117071071 0.0081621701407037697 0 0.00016544704416007465 0.0020847966711027479 0 -3.5626423309152055e-05 0.0025968315042526691 0 -0.00044847731540718515 0.0025103932846521158 0 0.00016544704416007465 0.0020847966711027479 0 -3.5626423309152055e-05 0.0025968315042526691 0 0.00039874246719373812 0.0026928963525727607 0 -3.5626423309152055e-05 0.0025968315042526691 0 -7.0944424831420079e-06 0.0028348430634761615 0 0.00039874246719373812 0.0026928963525727607 0 -6.0408095710737474e-05 0.0031895798936177541 0 -7.0944424831420079e-06 0.0028348430634761615 0 0.00039874246719373812 0.0026928963525727607 0 -0.00033490148194911454 0.0030957669985964319 0 -3.5626423309152055e-05 0.0025968315042526691 0 -0.00044847731540718515 0.0025103932846521158 0 -0.00033490148194911454 0.0030957669985964319 0 -3.5626423309152055e-05 0.0025968315042526691 0 -7.0944424831420079e-06 0.0028348430634761615 0 -0.00033490148194911454 0.0030957669985964319 0 -6.0408095710737474e-05 0.0031895798936177541 0 -7.0944424831420079e-06 0.0028348430634761615 0 0.0010889404610220945 0.0032044855755126913 0 0.00090644942008859491 0.0023530621001070758 0 0.00067570653543140005 0.0028399843194053353 0 0.00043882682395289128 0.0017084861332558792 0 0.00049171107998688944 0.0013760427973628822 0 0.00090644942008859491 0.0023530621001070758 0 0.0003910577120259298 0.0026913421762125448 0 0.00067570653543140005 0.0028399843194053353 0 0.00071712601053142426 0.003132944040279328 0 0.0003910577120259298 0.0026913421762125448 0 0.00067570653543140005 0.0028399843194053353 0 0.0010891438244280218 0.0032082852731784807 0 0.00071712601053142426 0.003132944040279328 0 0.00067570653543140005 0.0028399843194053353 0 0.00043882682395289128 0.0017084861332558792 0 0.00048268186483950681 0.0017618247998406891 0 0.00094710543928905289 -0.00095987903465899384 0 0.00085858588519493529 -0.00077941381645685879 0 0.00078227649731370654 -0.00099861580850453156 0 0.00087261875246125923 -0.0010996033521169014 0 0.0010424006589610311 -0.0011130904484444755 0 0.00094710543928905289 -0.00095987903465899384 0 0.0010424006589610311 -0.0011130904484444755 0 0.0010903154117597659 -0.00089199014650671545 0 0.00094710543928905289 -0.00095987903465899384 0 0.00087261875246125923 -0.0010996033521169014 0 0.00094710543928905289 -0.00095987903465899384 0 0.00078227649731370654 -0.00099861580850453156 0 0.00094710543928905289 -0.00095987903465899384 0 0.00085858588519493529 -0.00077941381645685879 0 0.0010125080280907997 -0.00076030860951237006 0 0.0010903154117597659 -0.00089199014650671545 0 0.00094710543928905289 -0.00095987903465899384 0 0.0010125080280907997 -0.00076030860951237006 0 0.00095951111953787441 -0.00059891168075562129 0 0.00085858588519493529 -0.00077941381645685879 0 0.0010125080280907997 -0.00076030860951237006 0 0.00085858588519493529 -0.00077941381645685879 0 0.00067989026755842729 -0.00081429441023761874 0 0.00078227649731370654 -0.00099861580850453156 0 0.00074655238321212744 -0.00064370096240203988 0 0.00067989026755842729 -0.00081429441023761874 0 0.00061188615660877008 -0.00070564934997960609 0 0.00074655238321212744 -0.00064370096240203988 0 0.00085858588519493529 -0.00077941381645685879 0 0.00067989026755842729 -0.00081429441023761874 0 0.00071613971912501341 -0.0011640332290330903 0 0.00078227649731370654 -0.00099861580850453156 0 0.00059076382103661078 -0.0010275061397253113 0 0.00078227649731370654 -0.00099861580850453156 0 0.00059076382103661078 -0.0010275061397253113 0 0.00049764060577811304 -0.00086205109784786779 0 0.00038755061981664285 -0.0029043766608923198 0 0.00038919278587112556 -0.0036573010526594861 0 0.00067989026755842729 -0.00081429441023761874 0 0.00078227649731370654 -0.00099861580850453156 0 0.00051510795720074347 -0.00085870156703903835 0 0.00026105764469130731 -0.0033880394873785427 0 0.00038919278587112556 -0.0036573010526594861 0 0.00045279555089196256 -0.0011638443687840519 0 0.00059076382103661078 -0.0010275061397253113 0 0.00049764060577811304 -0.00086205109784786779 0 -0.00016319854912198416 -0.004397485607544346 0 -0.00024551107345201348 -0.0049581975133165049 0 0.00032985043780568821 -0.004899156457097314 0 0.00038755061981664285 -0.0029043766608923198 0 0.00049562544200042473 -0.0049490891429298436 0 3.6657982498200539e-05 -0.0069339151647523885 0 -0.00012873228318317052 -0.0069002085301839173 0 2.1102786033570917e-05 -0.0070417661632923099 0 -0.00024551107345201348 -0.0049581975133165049 0 0.00032985043780568821 -0.004899156457097314 0 0.00032874211311709179 -0.0050206856532070774 0 0.00038919278587112556 -0.0036573010526594861 0 0.00021247005074876983 -0.0046325765327327696 0 -0.00024551107345201348 -0.0049581975133165049 0 0.00032874211311709179 -0.0050206856532070774 0 0.00023208711447012299 -0.0051990699395182633 0 0.00041950462856490749 -0.0007225347372051339 0 0.00051638111839064646 -0.00085327345429648757 0 0.00029359937406340554 -0.00072407763375605442 0 0.00041950462856490749 -0.0007225347372051339 0 0.00052723640308054739 -0.00078315522104649925 0 0.00051857413567420315 -0.00068549848083837648 0 0.00052723640308054739 -0.00078315522104649925 0 0.00061188615660877008 -0.00070564934997960609 0 0.00051857413567420315 -0.00068549848083837648 0 0.00067989026755842729 -0.00081429441023761874 0 0.00052723640308054739 -0.00078315522104649925 0 0.00061188615660877008 -0.00070564934997960609 0 0.00067989026755842729 -0.00081429441023761874 0 0.00052723640308054739 -0.00078315522104649925 0 0.00051510795720074347 -0.00085870156703903835 0 0.00041950462856490749 -0.0007225347372051339 0 0.00052723640308054739 -0.00078315522104649925 0 0.00051638111839064646 -0.00085327345429648757 0 0.00039549363996005155 -0.0036054959234574132 0 0.00038919278587112556 -0.0036573010526594861 0 0.00014780848205678352 -0.0069249949238951274 0 0.00021966431419979121 -0.006995101158127735 0 0.00014365715199239772 -0.0070446523057755292 0 3.6657982498200539e-05 -0.0069339151647523885 0 0.00014780848205678352 -0.0069249949238951274 0 0.00014365715199239772 -0.0070446523057755292 0 3.6657982498200539e-05 -0.0069339151647523885 0 0.00014365715199239772 -0.0070446523057755292 0 2.1102786033570917e-05 -0.0070417661632923099 0 0.00032874211311709179 -0.0050206856532070774 0 0.00023208711447012299 -0.0051990699395182633 0 0.00070580675428276039 -0.0054357916683325626 0 0.00032985043780568821 -0.004899156457097314 0 0.00032874211311709179 -0.0050206856532070774 0 0.00083328506026364554 -0.0054128679193194106 0 0.00024228724017615977 -0.0058394969230604835 0 0.00028458154382487723 -0.0059527268119428873 0 0.00023652137547656063 -0.0070841785943382956 0 0.00014365715199239772 -0.0070446523057755292 0 0.00016047464201910118 -0.0071794072720734389 0 0.00049562544200042473 -0.0049490891429298436 0 0.00039619434830817868 -0.0064772911399148727 0 0.00014365715199239772 -0.0070446523057755292 0 2.1102786033570917e-05 -0.0070417661632923099 0 0.00016047464201910118 -0.0071794072720734389 0 0.00032874211311709179 -0.0050206856532070774 0 0.00083328506026364554 -0.0054128679193194106 0 0.00071659380729998854 -0.0054526283320131689 0 0.00047770062791270096 -0.0063861580768148542 0 0.00020727598867435997 -0.006112832577955564 0 0.00010618099758725136 -0.0062380080061719264 0 0.00051176782882495159 -0.0066893458725233819 0 0.00039619434830817868 -0.0064772911399148727 0 0.00051176782882495159 -0.0066893458725233819 0 0.00038232022779785058 -0.0062342624115691832 0 0.00083328506026364554 -0.0054128679193194106 0 0.00071659380729998854 -0.0054526283320131689 0 0.00076147502848739025 -0.0055020145120315894 0 0.00039619434830817868 -0.0064772911399148727 0 0.00038232022779785058 -0.0062342624115691832 0 0.00028458154382487723 -0.0059527268119428873 0 0.00038232022779785058 -0.0062342624115691832 0 0.00020841772761567533 -0.000646908858655736 0 0.00021336425076162646 -0.00064547966462269576 0 0.00023226724899564873 -0.00064364858806009999 0 0.00021247005074876983 -0.0046325765327327696 0 0.00028458154382487723 -0.0059527268119428873 0 0.00021336425076162646 -0.00064547966462269576 0 0.00023226724899564873 -0.00064364858806009999 0 0.00023309441440945975 -0.00070418506430462767 0 0.00029359937406340554 -0.00072407763375605442 0 0.00020841772761567533 -0.000646908858655736 0 0.00023226724899564873 -0.00064364858806009999 0 0.00023226724899564873 -0.00064364858806009999 0 0.00034300104712497445 -0.00062552291139859515 0 0.00037644458038922656 -0.00043047271616297684 0 0.00029359937406340554 -0.00072407763375605442 0 0.00023226724899564873 -0.00064364858806009999 0 0.00034300104712497445 -0.00062552291139859515 0 0.00023309441440945975 -0.00070418506430462767 0 0.00014877422463086413 -0.000709199905287818 0 0.00017464046901153685 -0.00081033632859309787 0 0.00023226724899564873 -0.00064364858806009999 0 0.00023309441440945975 -0.00070418506430462767 0 0.00014877422463086413 -0.000709199905287818 0 0.00047283763730392034 -0.0017226560426747922 0 0.00038921935410481844 -0.0018885165429551019 0 0.00058002300077597264 -0.01196441906528721 0 0.00096756457172132812 -0.011495470871084568 0 0.00052555697790907104 -0.011466093431005787 0 0.00038232022779785058 -0.0062342624115691832 0 0.00035322592322107303 -0.0057847985819480825 0 5.8031006929109732e-05 -0.011399719550766614 0 0.00058002300077597264 -0.01196441906528721 0 0.00052555697790907104 -0.011466093431005787 0 0.00096756457172132812 -0.011495470871084568 0 0.00052555697790907104 -0.011466093431005787 0 0.00069357857137631348 -0.011209960579744818 0 0.00052555697790907104 -0.011466093431005787 0 0.00037243397635781245 -0.011189796391870651 0 0.00069357857137631348 -0.011209960579744818 0 0.00059332840193818007 -0.00059860891361492323 0 0.00045770794563134673 -0.00059445729553195292 0 0.00053312597046260444 -0.00046671185608614866 0 0.00070129723071930914 -0.0004638124934866268 0 0.00059332840193818007 -0.00059860891361492323 0 0.00053312597046260444 -0.00046671185608614866 0 0.00074655238321212744 -0.00064370096240203988 0 0.00061188615660877008 -0.00070564934997960609 0 0.00059332840193818007 -0.00059860891361492323 0 0.00061188615660877008 -0.00070564934997960609 0 0.00059332840193818007 -0.00059860891361492323 0 0.00051857413567420315 -0.00068549848083837648 0 0.00059332840193818007 -0.00059860891361492323 0 0.00051857413567420315 -0.00068549848083837648 0 0.00045770794563134673 -0.00059445729553195292 0 0.00034300104712497445 -0.00062552291139859515 0 0.00045770794563134673 -0.00059445729553195292 0 0.00037644458038922656 -0.00043047271616297684 0 0.00041950462856490749 -0.0007225347372051339 0 0.00034300104712497445 -0.00062552291139859515 0 0.00045770794563134673 -0.00059445729553195292 0 0.00041950462856490749 -0.0007225347372051339 0 0.00051857413567420315 -0.00068549848083837648 0 0.00045770794563134673 -0.00059445729553195292 0 0.00041950462856490749 -0.0007225347372051339 0 0.00029359937406340554 -0.00072407763375605442 0 0.00034300104712497445 -0.00062552291139859515 0 0.00045770794563134673 -0.00059445729553195292 0 0.00037644458038922656 -0.00043047271616297684 0 0.00053312597046260444 -0.00046671185608614866 0 -2.6849008820591843e-05 -0.0020986415062062163 0 5.7305882698651573e-05 -0.0024762377728036328 0 0.00037644458038922656 -0.00043047271616297684 0 0.00053312597046260444 -0.00046671185608614866 0 0.00056661158671441876 -0.00024540778311055861 0 0.00070129723071930914 -0.0004638124934866268 0 0.00053312597046260444 -0.00046671185608614866 0 0.00056661158671441876 -0.00024540778311055861 0 5.7305882698651573e-05 -0.0024762377728036328 0 0.00024403752975128218 -0.0022929904623001486 0 4.1404165739836249e-05 -0.0008113236838798324 0 0.00017464046901153685 -0.00081033632859309787 0 9.6692474427050775e-05 -0.00091690490973342755 0 0.00038921935410481844 -0.0018885165429551019 0 5.7305882698651573e-05 -0.0024762377728036328 0 0.00014877422463086413 -0.000709199905287818 0 4.1404165739836249e-05 -0.0008113236838798324 0 0.00017464046901153685 -0.00081033632859309787 0 0.0013651792218803507 -0.011012927795684585 0 0.0013761686610819588 -0.010387393378571671 0 0.0017619273427055188 -0.010520857746708896 0 0.00032374764220558514 -0.0052730362945099321 0 0.00029527377706370535 -0.0046391032010327515 0 0.0013761686610819588 -0.010387393378571671 0 0.0017619273427055188 -0.010520857746708896 0 0.0015102965902152594 -0.010050587350735253 0 -0.00051389481723491438 -0.0040219079496564966 0 -0.00086147645076349664 -0.0033742391510173417 0 5.6014931366079457e-05 -0.0034938712855575719 0 -0.00086147645076349664 -0.0033742391510173417 0 -0.00043537056064767892 -0.0028468708919202231 0 5.6014931366079457e-05 -0.0034938712855575719 0 0.00029527377706370535 -0.0046391032010327515 0 0.00037088762651721775 -0.0042102263375816415 0 5.7305882698651573e-05 -0.0024762377728036328 0 0.00029527377706370535 -0.0046391032010327515 0 0.00050661346727033099 -0.01090851871076136 0 0.00037243397635781245 -0.011189796391870651 0 0.00069357857137631348 -0.011209960579744818 0 0.00050661346727033099 -0.01090851871076136 0 0.00069357857137631348 -0.011209960579744818 0 0.00095927299415734309 -0.010923792404964588 0 0.00035322592322107303 -0.0057847985819480825 0 0.00032374764220558514 -0.0052730362945099321 0 0.00096756457172132812 -0.011495470871084568 0 0.0013651792218803507 -0.011012927795684585 0 0.00095927299415734309 -0.010923792404964588 0 0.00096756457172132812 -0.011495470871084568 0 0.00069357857137631348 -0.011209960579744818 0 0.00095927299415734309 -0.010923792404964588 0 0.0013651792218803507 -0.011012927795684585 0 0.00095927299415734309 -0.010923792404964588 0 0.0010486526589537186 -0.01054079329652099 0 0.0013651792218803507 -0.011012927795684585 0 0.0013761686610819588 -0.010387393378571671 0 0.0010486526589537186 -0.01054079329652099 0 0.0013761686610819588 -0.010387393378571671 0 0.0010486526589537186 -0.01054079329652099 0 0.0011583327085071757 -0.010240514852777136 0 0.0010486526589537186 -0.01054079329652099 0 0.00068546908688471586 -0.010525216969343965 0 0.0009150235830531413 -0.010140847307748804 0 0.00095927299415734309 -0.010923792404964588 0 0.0010486526589537186 -0.01054079329652099 0 0.00068546908688471586 -0.010525216969343965 0 0.00031206690034379627 -0.010634450790126209 0 0.00068546908688471586 -0.010525216969343965 0 0.00043802148240108384 -0.010043581320142886 0 0.00050661346727033099 -0.01090851871076136 0 0.00095927299415734309 -0.010923792404964588 0 0.00068546908688471586 -0.010525216969343965 0 0.00031206690034379627 -0.010634450790126209 0 0.00050661346727033099 -0.01090851871076136 0 0.00068546908688471586 -0.010525216969343965 0 0.00043802148240108384 -0.010043581320142886 0 0.0009150235830531413 -0.010140847307748804 0 0.0010786699539177655 -0.0097472396244508899 0 0.00068546908688471586 -0.010525216969343965 0 0.00043802148240108384 -0.010043581320142886 0 0.0009150235830531413 -0.010140847307748804 0 0.0009150235830531413 -0.010140847307748804 0 0.0011185927298973523 -0.010039832900821492 0 0.0010786699539177655 -0.0097472396244508899 0 0.0010486526589537186 -0.01054079329652099 0 0.0009150235830531413 -0.010140847307748804 0 0.0011583327085071757 -0.010240514852777136 0 0.0013761686610819588 -0.010387393378571671 0 0.0011583327085071757 -0.010240514852777136 0 0.0013223355478973061 -0.01003010653513158 0 0.0009150235830531413 -0.010140847307748804 0 0.0011583327085071757 -0.010240514852777136 0 0.0011185927298973523 -0.010039832900821492 0 0.0011583327085071757 -0.010240514852777136 0 0.0011185927298973523 -0.010039832900821492 0 0.0013223355478973061 -0.01003010653513158 0 0.0011185927298973523 -0.010039832900821492 0 0.0010786699539177655 -0.0097472396244508899 0 0.0013223355478973061 -0.01003010653513158 0 0.0010786699539177655 -0.0097472396244508899 0 0.0013223355478973061 -0.01003010653513158 0 0.0015125758250987523 -0.010050288724058064 0 0.00043802148240108384 -0.010043581320142886 0 0.0010786699539177655 -0.0097472396244508899 0 0.0010451980536700697 -0.0093718128947263401 0 0.0010786699539177655 -0.0097472396244508899 0 0.0011539183170264937 -0.0093778711282446608 0 0.0015125758250987523 -0.010050288724058064 0 0.0010786699539177655 -0.0097472396244508899 0 0.0011539183170264937 -0.0093778711282446608 0 0.0010451980536700697 -0.0093718128947263401 0 1.3760115838455778e-07 -0.0069640055113238276 0 2.4641552903041114e-05 -0.007009412761054247 0 -1.3729931858274425e-07 -0.0071451206565314295 0 2.462808643391566e-05 -0.0067475001370630346 0 -2.9103401446388151e-05 -0.0068546146114147784 0 3.1503972735405041e-06 -0.0069570685273126556 0 2.462808643391566e-05 -0.0067475001370630346 0 -3.1227491605128109e-07 -0.0088535976156458186 0 0.00017912544816005787 -0.0096822493830055999 0 1.1142147125003344e-06 -0.0071483275905143973 0 -0.00057493667895406036 -0.0082282991314065086 0 -2.9103401446388151e-05 -0.0068546146114147784 0 0.00018048410334531648 -0.004500004845663326 0 7.051721612783964e-05 -0.004489639614738701 0 0.00013678930014223751 -0.0044427234411475959 0 0.00037088762651721775 -0.0042102263375816415 0 0.00026944050738581199 -0.0051435566569349618 0 0.00020332667494706846 -0.0044709566042152194 0 0.00013678930014223751 -0.0044427234411475959 0 0.00020664833609569241 -0.0044228024628464894 0 0.00020332667494706846 -0.0044709566042152194 0 0.00018048410334531648 -0.004500004845663326 0 0.00013678930014223751 -0.0044427234411475959 0 0.0003673198316579824 -0.0042148920300296771 0 0.00037088762651721775 -0.0042102263375816415 0 0.00029527377706370535 -0.0046391032010327515 0 0.00026944050738581199 -0.0051435566569349618 0 -1.6555130182868984e-05 -0.004658349154269081 0 -7.5410329597146655e-06 -0.0046472057027079289 0 -2.3118240990655584e-05 -0.0046461659596254579 0 0.0013761686610819588 -0.010387393378571671 0 0.0013223355478973061 -0.01003010653513158 0 0.0015102965902152594 -0.010050587350735253 0 0.00029693660516717438 -0.0051685116448755217 0 0.00026944050738581199 -0.0051435566569349618 0 2.6573986235475343e-06 -0.0043662132808413631 0 0.00013794053174414513 -0.0043706479563658191 0 0.00013678930014223751 -0.0044427234411475959 0 8.8941960551768449e-08 -0.0069634685374234308 0 1.2927378611960904e-06 -0.0068765880465789728 0 -8.9392336012201019e-08 -0.0054618141348026237 0 2.462808643391566e-05 -0.0067475001370630346 0 -9.4540293259814015e-05 -0.0053486344443066441 0 1.2927378611960904e-06 -0.0068765880465789728 0 -8.9392336012201019e-08 -0.0054618141348026237 0 -3.9576055327585461e-06 -0.00527484970381623 0 2.6573986235475343e-06 -0.0043662132808413631 0 7.051721612783964e-05 -0.004489639614738701 0 0.00013678930014223751 -0.0044427234411475959 0 2.462808643391566e-05 -0.0067475001370630346 0 0.00026944050738581199 -0.0051435566569349618 0 -8.9392336012201019e-08 -0.0054618141348026237 0 -3.9576055327585461e-06 -0.00527484970381623 0 8.9323033090366331e-08 -0.0039614130086157969 0 -9.4540293259814015e-05 -0.0053486344443066441 0 0.00013335293764083522 -0.0040390071397726048 0 0.00013794053174414513 -0.0043706479563658191 0 0.00020664833609569241 -0.0044228024628464894 0 0.00027284971469084218 -0.004375453745761441 0 0.00013794053174414513 -0.0043706479563658191 0 0.00013678930014223751 -0.0044427234411475959 0 0.00020664833609569241 -0.0044228024628464894 0 -3.9576055327585461e-06 -0.00527484970381623 0 8.9323033090366331e-08 -0.0039614130086157969 0 7.8378182803969289e-06 -0.0038008069187684323 0 0.00027284971469084218 -0.004375453745761441 0 0.00036876286410806355 -0.0044799279951815187 0 0.00028165345749249602 -0.004454079879645181 0 1.3235631211084821e-06 -0.0039608652916397038 0 0.00013335293764083522 -0.0040390071397726048 0 2.0766784628825132e-09 -0.0039596391390654918 0 -1.7503342880126069e-09 -0.003750054852715728 0 -7.1699796226592338e-06 -0.0037018321102341547 0 0.00020664833609569241 -0.0044228024628464894 0 0.00027284971469084218 -0.004375453745761441 0 0.00028165345749249602 -0.004454079879645181 0 -1.7503342880126069e-09 -0.003750054852715728 0 -7.1699796226592338e-06 -0.0037018321102341547 0 -0.00029684166269190222 -0.0035865430214659789 0 -7.1699796226592338e-06 -0.0037018321102341547 0 -0.0001930043334000077 -0.0034905895430760625 0 -0.00029684166269190222 -0.0035865430214659789 0 2.1013140636132277e-07 -0.0037452523843660959 0 -5.8252888012478266e-05 -0.0023756849873527298 0 4.2765807204228664e-07 -0.0037480517732244277 0 0.00019315122365847352 -0.0010708009467142235 0 4.8876255134822401e-07 -0.0017604403127145598 0 0.00013335293764083522 -0.0040390071397726048 0 0.00027031123322874255 -0.0022405281251964048 0 0.00027031123322874255 -0.0022405281251964048 0 -5.8252888012478266e-05 -0.0023756849873527298 0 0.00036876286410806355 -0.0044799279951815187 0 0.00033373943661943245 -0.0045127921653754779 0 0.00028165345749249602 -0.004454079879645181 0 0.00027031123322874255 -0.0022405281251964048 0 0.00032454656732028753 -0.0022408724575491436 0 0.00064761994621498787 -0.0010285686250129005 0 8.0746799050802605e-05 -0.0015543774268847756 0 0.0012349002358523307 -0.0016847573291382362 0 0.00091811098424218231 -3.7957853301805513e-05 0 0.00092899216350125985 -6.0245271778522142e-05 0 0.00087462608894328729 -9.4579017141052931e-05 0 0.00032454656732028753 -0.0022408724575491436 0 0.00038957953754588257 -0.0013612768036831582 0 0.00027031123322874255 -0.0022405281251964048 0 0.00038957953754588257 -0.0013612768036831582 0 -0.00022311724425848936 -0.001463529798453858 0 -0.00021379205257526275 -0.0014732085058613688 0 -0.00021177797451192248 -0.0014632916777593554 0 0.00020332667494706846 -0.0044709566042152194 0 0.00018098214343251624 -0.0044986802014539322 0 0.00033373943661943245 -0.0045127921653754779 0 0.00020332667494706846 -0.0044709566042152194 0 0.00033373943661943245 -0.0045127921653754779 0 0.00028165345749249602 -0.004454079879645181 0 0.00037088762651721775 -0.0042102263375816415 0 0.00032454656732028753 -0.0022408724575491436 0 0.00020332667494706846 -0.0044709566042152194 0 0.00020664833609569241 -0.0044228024628464894 0 0.00028165345749249602 -0.004454079879645181 0 -0.00043537056064767892 -0.0028468708919202231 0 0.00062482004006744101 -0.0029658004362126521 0 5.6014931366079457e-05 -0.0034938712855575719 0 0.0007743569042238242 -5.0274380798286614e-05 0 0.0008742318959430378 -6.53782809695485e-05 0 0.00075451705297262164 -0.00019191015538478002 0 0.00091811098424218231 -3.7957853301805513e-05 0 0.0007743569042238242 -5.0274380798286614e-05 0 0.0008742318959430378 -6.53782809695485e-05 0 0.00032454656732028753 -0.0022408724575491436 0 0.00024403752975128218 -0.0022929904623001486 0 0.0023139937083120248 0.0032166469449180653 0 0.0022492700630474755 0.0036120816918761168 0 0.00092899216350125985 -6.0245271778522142e-05 0 0.00093931870934631852 -7.1084399186426521e-05 0 0.00080581827916140572 -1.9307068401175502e-06 0 0.00092899216350125985 -6.0245271778522142e-05 0 0.00085271510563631424 0.00022975824168138532 0 0.000847562178101194 5.5032475480456993e-06 0 0.00091811098424218231 -3.7957853301805513e-05 0 0.00092899216350125985 -6.0245271778522142e-05 0 0.0008742318959430378 -6.53782809695485e-05 0 0.00092899216350125985 -6.0245271778522142e-05 0 0.000847562178101194 5.5032475480456993e-06 0 0.00087462608894328729 -9.4579017141052931e-05 0 0.00092899216350125985 -6.0245271778522142e-05 0 0.0008742318959430378 -6.53782809695485e-05 0 0.00093931870934631852 -7.1084399186426521e-05 0 0.00068908061263633349 0.00072360685220925771 0 0.00073677306815046327 0.00056493949621001848 0 0.0008742318959430378 -6.53782809695485e-05 0 0.00093931870934631852 -7.1084399186426521e-05 0 0.00086759119026351709 -0.00024844563415531601 0 0.0010621987331791373 -0.00038129003474094651 0 0.00093931870934631852 -7.1084399186426521e-05 0 0.00086759119026351709 -0.00024844563415531601 0 0.0008742318959430378 -6.53782809695485e-05 0 0.00086759119026351709 -0.00024844563415531601 0 0.00075451705297262164 -0.00019191015538478002 0 0.00070129723071930914 -0.0004638124934866268 0 0.00058069837882571834 -0.00018821953738510974 0 0.00075451705297262164 -0.00019191015538478002 0 0.00058069837882571834 -0.00018821953738510974 0 0.0007743569042238242 -5.0274380798286614e-05 0 0.00075451705297262164 -0.00019191015538478002 0 0.0018442966141057416 0.0048910508380535338 0 0.0013662327032391917 0.0043578063051962802 0 0.0010282291112866668 0.00474963868175882 0 0.0018442966141057416 0.0048910508380535338 0 0.002206391992696875 0.0042988174492046708 0 0.001813755761307001 0.0043342349030527855 0 0.0018442966141057416 0.0048910508380535338 0 0.001813755761307001 0.0043342349030527855 0 0.0013662327032391917 0.0043578063051962802 0 0.00055762332450760615 0.00046139567521200488 0 0.00050178643348720603 0.00032798549506752336 0 0.00085271510563631424 0.00022975824168138532 0 0.00088661756207296144 0.00059373901751594261 0 0.00093931870934631852 -7.1084399186426521e-05 0 0.00069362951424595818 0.00027153591529225247 0 0.00050178643348720603 0.00032798549506752336 0 0.00085271510563631424 0.00022975824168138532 0 0.000745677236121576 -6.7088262422470161e-06 0 0.0016343307727787477 0.0040490949989047181 0 0.0022492700630474755 0.0036120816918761168 0 0.0032080531058794161 0.0056938500829448674 0 0.004028913898363109 0.0055671094045917488 0 0.0043476650784348841 0.0048900253179430782 0 0.0021899921982908343 0.0038629990152321842 0 0.0022492700630474755 0.0036120816918761168 0 0.00093931870934631852 -7.1084399186426521e-05 0 0.00069362951424595818 0.00027153591529225247 0 0.00080581827916140572 -1.9307068401175502e-06 0 0.00068847887252588126 0.0023621181454436466 0 0.00048323428631595817 -1.6868670857955116e-05 0 0.0024307555719713845 0.0040456825642141278 0 0.0018377228663022159 0.0037931778621467321 0 0.0027488630776224096 0.0036816475945378093 0 0.0018442966141057416 0.0048910508380535338 0 0.002206391992696875 0.0042988174492046708 0 0.0024299592403122902 0.004041738712374913 0 0.00046939380588490722 4.1312325627499608e-05 0 0.00048323428631595817 -1.6868670857955116e-05 0 0.00085271510563631424 0.00022975824168138532 0 0.000847562178101194 5.5032475480456993e-06 0 0.000745677236121576 -6.7088262422470161e-06 0 0.00048323428631595817 -1.6868670857955116e-05 0 0.00038957953754588257 -0.0013612768036831582 0 0.000847562178101194 5.5032475480456993e-06 0 0.000745677236121576 -6.7088262422470161e-06 0 0.00087462608894328729 -9.4579017141052931e-05 0 0.002206391992696875 0.0042988174492046708 0 0.0024307555719713845 0.0040456825642141278 0 0.0018377228663022159 0.0037931778621467321 0 0.002206391992696875 0.0042988174492046708 0 0.0018377228663022159 0.0037931778621467321 0 0.001813755761307001 0.0043342349030527855 0 0.0018377228663022159 0.0037931778621467321 0 0.001813755761307001 0.0043342349030527855 0 0.0013662327032391917 0.0043578063051962802 0 -0.0001862302175597238 -0.001474360971313505 0 -0.00018438826209676932 -0.0014647616674756676 0 -0.00016347243034162039 -0.0014757358094826224 0 -0.0001862302175597238 -0.001474360971313505 0 -0.00018438826209676932 -0.0014647616674756676 0 -0.00020100684657761716 -0.0014652178440509318 0 0.00021600532714272425 0.0008272072989100014 0 8.411497116471187e-05 -0.00013786382628504389 0 8.2676077583288365e-05 0.0010599457398780955 0 -0.00018438826209676932 -0.0014647616674756676 0 -0.00020100684657761716 -0.0014652178440509318 0 -0.00020953700680713112 -0.0014511827559024165 0 -0.00042960747870409696 -0.0013838000026240153 0 -5.8252888012478266e-05 -0.0023756849873527298 0 -0.0001862302175597238 -0.001474360971313505 0 -0.00021379205257526275 -0.0014732085058613688 0 -0.00020100684657761716 -0.0014652178440509318 0 0.00021600532714272425 0.0008272072989100014 0 0.00038416830486220704 -0.00080099994962137073 0 0.00019592209189103275 -0.00097066156946700127 0 5.9600892258914762e-05 -0.00092460214806530953 0 0.00038957953754588257 -0.0013612768036831582 0 -0.00021379205257526275 -0.0014732085058613688 0 -0.00020100684657761716 -0.0014652178440509318 0 -0.00021177797451192248 -0.0014632916777593554 0 -0.00020100684657761716 -0.0014652178440509318 0 -0.00021177797451192248 -0.0014632916777593554 0 -0.00020953700680713112 -0.0014511827559024165 0 -0.00022311724425848936 -0.001463529798453858 0 -0.00021177797451192248 -0.0014632916777593554 0 -0.00020953700680713112 -0.0014511827559024165 0 0.00019315122365847352 -0.0010708009467142235 0 0.00019592209189103275 -0.00097066156946700127 0 4.8876255134822401e-07 -0.0017604403127145598 0 -5.8252888012478266e-05 -0.0023756849873527298 0 -5.1067230154210269e-05 -0.0023655602453784967 0 0.00019592209189103275 -0.00097066156946700127 0 4.8876255134822401e-07 -0.0017604403127145598 0 8.411497116471187e-05 -0.00013786382628504389 0 8.411497116471187e-05 -0.00013786382628504389 0 -1.5412478079869204e-08 0.0002272285294361738 0 8.2676077583288365e-05 0.0010599457398780955 0 4.8876255134822401e-07 -0.0017604403127145598 0 8.411497116471187e-05 -0.00013786382628504389 0 -1.5412478079869204e-08 0.0002272285294361738 0 0.00021600532714272425 0.0008272072989100014 0 0.00019592209189103275 -0.00097066156946700127 0 8.411497116471187e-05 -0.00013786382628504389 0 -1.5412478079869204e-08 0.0002272285294361738 0 -3.4954448194102015e-05 0.0015324047824467205 0 8.2676077583288365e-05 0.0010599457398780955 0 -3.4954448194102015e-05 0.0015324047824467205 0 -9.2491270184754472e-05 0.0024360260119345224 0 -3.0124808590973733e-07 0.0022147830594914323 0 -1.5412478079869204e-08 0.0002272285294361738 0 -3.4954448194102015e-05 0.0015324047824467205 0 -3.0124808590973733e-07 0.0022147830594914323 0 -3.4954448194102015e-05 0.0015324047824467205 0 -9.2491270184754472e-05 0.0024360260119345224 0 5.8585827399236218e-05 0.0019862143214948304 0 -9.2491270184754472e-05 0.0024360260119345224 0 5.1302668043802518e-05 0.0024130221231176453 0 5.8585827399236218e-05 0.0019862143214948304 0 0.00021600532714272425 0.0008272072989100014 0 8.2676077583288365e-05 0.0010599457398780955 0 0.00018084227074109443 0.0022814717559786397 0 5.8585827399236218e-05 0.0019862143214948304 0 8.2676077583288365e-05 0.0010599457398780955 0 0.00018084227074109443 0.0022814717559786397 0 5.1302668043802518e-05 0.0024130221231176453 0 5.8585827399236218e-05 0.0019862143214948304 0 0.00018084227074109443 0.0022814717559786397 0 -0.00042960747870409696 -0.0013838000026240153 0 -0.00052740924584889165 -0.00068507687774803285 0 -3.4954448194102015e-05 0.0015324047824467205 0 5.8585827399236218e-05 0.0019862143214948304 0 8.2676077583288365e-05 0.0010599457398780955 0 -1.0263021967818836e-06 0.0042020322198785638 0 -0.00033154857601121028 0.0032106458655408831 0 -0.0003578649201210443 0.004008856844941869 0 -9.2491270184754472e-05 0.0024360260119345224 0 -3.0124808590973733e-07 0.0022147830594914323 0 -0.00033154857601121028 0.0032106458655408831 0 -1.0263021967818836e-06 0.0042020322198785638 0 -3.0124808590973733e-07 0.0022147830594914323 0 -0.00033154857601121028 0.0032106458655408831 0 -9.2491270184754472e-05 0.0024360260119345224 0 -0.00033154857601121028 0.0032106458655408831 0 -0.00025888560468811901 0.003332701835725906 0 -0.00033154857601121028 0.0032106458655408831 0 -0.00056121214933330847 0.0037320983595607862 0 -0.0003578649201210443 0.004008856844941869 0 -0.00056121214933330847 0.0037320983595607862 0 -0.00062505841178498605 0.0037159678019993347 0 -0.0003578649201210443 0.004008856844941869 0 -0.00056121214933330847 0.0037320983595607862 0 -0.00068318869573961852 0.0052118185679930554 0 -0.00062505841178498605 0.0037159678019993347 0 -0.00033154857601121028 0.0032106458655408831 0 -0.00056121214933330847 0.0037320983595607862 0 -0.00025888560468811901 0.003332701835725906 0 -0.00056121214933330847 0.0037320983595607862 0 -0.00025888560468811901 0.003332701835725906 0 -0.00027132927599219227 0.0044364271430250516 0 -0.00025888560468811901 0.003332701835725906 0 -0.00027132927599219227 0.0044364271430250516 0 9.4630454480734548e-05 0.0032728526656752655 0 -0.0010452531673409557 0.00016757201063607823 0 -0.00090020785679969237 -5.6263869500641958e-05 0 -0.00056121214933330847 0.0037320983595607862 0 -0.00027132927599219227 0.0044364271430250516 0 -0.00068318869573961852 0.0052118185679930554 0 -0.00027132927599219227 0.0044364271430250516 0 -0.00017326654427728328 0.0051676491413866227 0 0.0003523331122697178 0.0048188578755327715 0 -0.00027132927599219227 0.0044364271430250516 0 -0.00017326654427728328 0.0051676491413866227 0 -0.00068318869573961852 0.0052118185679930554 0 -0.00017326654427728328 0.0051676491413866227 0 -0.00068318869573961852 0.0052118185679930554 0 -0.00051606130277167389 0.0056156993110826033 0 -0.00068318869573961852 0.0052118185679930554 0 -0.00072378795288606686 0.0059390541407210867 0 -0.00085488968163465796 0.0067321524857674201 0 -0.00068318869573961852 0.0052118185679930554 0 -0.00072378795288606686 0.0059390541407210867 0 -0.00068677961808160813 0.0058231459990268847 0 -0.00027109569646671151 0.0058912530323811906 0 -0.00034446182883231193 0.0058440885602488724 0 0.0018377228663022159 0.0037931778621467321 0 0.0013662327032391917 0.0043578063051962802 0 0.00092585158326338973 0.0039078745307779984 0 5.9600892258914762e-05 -0.00092460214806530953 0 -0.00052740924584889165 -0.00068507687774803285 0 0.00075652829827919813 0.0043521227974227129 0 0.0013662327032391917 0.0043578063051962802 0 0.00092585158326338973 0.0039078745307779984 0 5.1302668043802518e-05 0.0024130221231176453 0 0.00018084227074109443 0.0022814717559786397 0 9.4630454480734548e-05 0.0032728526656752655 0 -0.00052740924584889165 -0.00068507687774803285 0 -0.00090020785679969237 -5.6263869500641958e-05 0 -9.2491270184754472e-05 0.0024360260119345224 0 5.1302668043802518e-05 0.0024130221231176453 0 9.4630454480734548e-05 0.0032728526656752655 0 -9.2491270184754472e-05 0.0024360260119345224 0 -0.00025888560468811901 0.003332701835725906 0 9.4630454480734548e-05 0.0032728526656752655 0 0.00075652829827919813 0.0043521227974227129 0 0.00092585158326338973 0.0039078745307779984 0 0.0003045599412397118 0.0042431543042873001 0 0.00075652829827919813 0.0043521227974227129 0 0.0003045599412397118 0.0042431543042873001 0 0.0003523331122697178 0.0048188578755327715 0 -0.00027132927599219227 0.0044364271430250516 0 0.0003045599412397118 0.0042431543042873001 0 0.0003523331122697178 0.0048188578755327715 0 -0.00017326654427728328 0.0051676491413866227 0 0.0003523331122697178 0.0048188578755327715 0 0.00019949220477174557 0.0053294457520757866 0 0.0003523331122697178 0.0048188578755327715 0 0.00090320349173086511 0.0052805545881510849 0 0.00019949220477174557 0.0053294457520757866 0 0.0018442966141057416 0.0048910508380535338 0 0.0010282291112866668 0.00474963868175882 0 0.00090320349173086511 0.0052805545881510849 0 0.0003523331122697178 0.0048188578755327715 0 0.0010282291112866668 0.00474963868175882 0 0.00090320349173086511 0.0052805545881510849 0 0.00075652829827919813 0.0043521227974227129 0 0.0003523331122697178 0.0048188578755327715 0 0.0010282291112866668 0.00474963868175882 0 0.00075652829827919813 0.0043521227974227129 0 0.0013662327032391917 0.0043578063051962802 0 0.0010282291112866668 0.00474963868175882 0 0.0018442966141057416 0.0048910508380535338 0 0.00090320349173086511 0.0052805545881510849 0 0.001234901889859967 0.0057680777421933969 0 0.001234901889859967 0.0057680777421933969 0 0.00057939502528487794 0.0062444915475116164 0 0.00044262261492945153 0.005630498479945293 0 0.00090320349173086511 0.0052805545881510849 0 0.001234901889859967 0.0057680777421933969 0 0.00044262261492945153 0.005630498479945293 0 0.0025814351366263092 0.0070863611403807949 0 0.0020853838442836375 0.0065082978022356743 0 0.0020703883723546851 0.0075435504226836533 0 0.0021280459150636506 0.0064554148253851132 0 0.0012428538803161246 0.0076996166106507585 0 0.0011815865221466329 0.0071457508146025436 0 0.0020853838442836375 0.0065082978022356743 0 0.0012187397903916024 0.0077222772894825131 0 0.0020703883723546851 0.0075435504226836533 0 0.00081596603505886196 0.0047302191373393386 0 0.00047833107634346483 0.0057111394311603024 0 0.00081596603505886196 0.0047302191373393386 0 0.00071396133030163364 0.0060111227435196658 0 0.0012187397903916024 0.0077222772894825131 0 0.0020703883723546851 0.0075435504226836533 0 0.0016854513220101795 0.0081378823261125683 0 0.0025569637948177045 0.0077775041284962824 0 0.0020703883723546851 0.0075435504226836533 0 0.0022071980117071071 0.0081621701407037697 0 -6.9457575337740485e-05 0.0067148383585841839 0 0.00057939502528487794 0.0062444915475116164 0 0.00044262261492945153 0.005630498479945293 0 0.00064507653766922724 0.0072147169319739975 0 0.00071043374967703432 0.0069274814526420203 0 -0.00014873203524710097 0.0061442065213242868 0 -6.4022756136413402e-05 0.0058514215021912494 0 0.00044262261492945153 0.005630498479945293 0 0.0012428538803161246 0.0076996166106507585 0 0.00023565692754288247 0.007835959868299559 0 0.0011815865221466329 0.0071457508146025436 0 0.00064507653766922724 0.0072147169319739975 0 0.00071396133030163364 0.0060111227435196658 0 -6.4022756136413402e-05 0.0058514215021912494 0 2.7178630371408697e-05 0.0056217569950107234 0 0.00044262261492945153 0.005630498479945293 0 0.00090320349173086511 0.0052805545881510849 0 0.00044262261492945153 0.005630498479945293 0 0.00019949220477174557 0.0053294457520757866 0 2.7178630371408697e-05 0.0056217569950107234 0 0.00044262261492945153 0.005630498479945293 0 0.00019949220477174557 0.0053294457520757866 0 2.7178630371408697e-05 0.0056217569950107234 0 0.00019949220477174557 0.0053294457520757866 0 -0.00012895851914293535 0.0054943353853093178 0 -0.00017326654427728328 0.0051676491413866227 0 -0.00012895851914293535 0.0054943353853093178 0 -0.00051606130277167389 0.0056156993110826033 0 -0.00012895851914293535 0.0054943353853093178 0 -0.00051606130277167389 0.0056156993110826033 0 -0.00026262338459772175 0.0057494750454288356 0 -0.00017326654427728328 0.0051676491413866227 0 0.00019949220477174557 0.0053294457520757866 0 -0.00012895851914293535 0.0054943353853093178 0 -0.00051606130277167389 0.0056156993110826033 0 -0.00026262338459772175 0.0057494750454288356 0 -0.00047596132809876241 0.0058905820688064823 0 2.7178630371408697e-05 0.0056217569950107234 0 -0.00012895851914293535 0.0054943353853093178 0 -0.00026262338459772175 0.0057494750454288356 0 -6.4022756136413402e-05 0.0058514215021912494 0 2.7178630371408697e-05 0.0056217569950107234 0 -0.00026262338459772175 0.0057494750454288356 0 -0.00051606130277167389 0.0056156993110826033 0 -0.00068677961808160813 0.0058231459990268847 0 -0.00058645288337925408 0.0058270310131058288 0 -0.00068318869573961852 0.0052118185679930554 0 -0.00051606130277167389 0.0056156993110826033 0 -0.00068677961808160813 0.0058231459990268847 0 -0.00051606130277167389 0.0056156993110826033 0 -0.00058645288337925408 0.0058270310131058288 0 -0.00047596132809876241 0.0058905820688064823 0 -0.00068677961808160813 0.0058231459990268847 0 -0.00060341536536996708 0.0059380917148261769 0 -0.00062823560565129874 0.0060086247383250597 0 -0.00068677961808160813 0.0058231459990268847 0 -0.00058645288337925408 0.0058270310131058288 0 -0.00060341536536996708 0.0059380917148261769 0 -0.00060341536536996708 0.0059380917148261769 0 -0.00046352993175577487 0.0060323083892702264 0 -0.00051994225703650841 0.0060469022067081999 0 -0.00058645288337925408 0.0058270310131058288 0 -0.00060341536536996708 0.0059380917148261769 0 -0.00047596132809876241 0.0058905820688064823 0 -0.00060341536536996708 0.0059380917148261769 0 -0.00046352993175577487 0.0060323083892702264 0 -0.00047596132809876241 0.0058905820688064823 0 -6.4022756136413402e-05 0.0058514215021912494 0 -0.00026262338459772175 0.0057494750454288356 0 -0.00030585302500190032 0.006016458735761958 0 -0.00026262338459772175 0.0057494750454288356 0 -0.00047596132809876241 0.0058905820688064823 0 -0.00030585302500190032 0.006016458735761958 0 -0.00046352993175577487 0.0060323083892702264 0 -0.00030585302500190032 0.006016458735761958 0 -0.00037174910829099487 0.006072904170141313 0 -0.00046352993175577487 0.0060323083892702264 0 -0.00047596132809876241 0.0058905820688064823 0 -0.00030585302500190032 0.006016458735761958 0 -0.00030585302500190032 0.006016458735761958 0 -0.00030266029713667709 0.006127601868409588 0 -0.00037174910829099487 0.006072904170141313 0 -0.00014873203524710097 0.0061442065213242868 0 -0.00030585302500190032 0.006016458735761958 0 -0.00030266029713667709 0.006127601868409588 0 -0.00014873203524710097 0.0061442065213242868 0 -6.4022756136413402e-05 0.0058514215021912494 0 -0.00030585302500190032 0.006016458735761958 0 0.00064507653766922724 0.0072147169319739975 0 0.00064122022978477234 0.0072080659397036409 0 0.00064507653766922724 0.0072147169319739975 0 0.00057289998725058909 0.009845084998543285 0 0.00023565692754288247 0.007835959868299559 0 -0.00037164369898123162 0.0091343899628777651 0 0.00035622940044722443 0.008939769263819921 0 -0.00027075492075859318 0.0061283416226340258 0 -0.00030266029713667709 0.006127601868409588 0 -0.00038273539943036751 0.0061293259105537103 0 -0.00030266029713667709 0.006127601868409588 0 -0.00037174910829099487 0.006072904170141313 0 -0.00041138356783453571 0.0061026452597099925 0 -0.00046352993175577487 0.0060323083892702264 0 -0.00037174910829099487 0.006072904170141313 0 -0.00041138356783453571 0.0061026452597099925 0 -0.00030266029713667709 0.006127601868409588 0 -0.00041138356783453571 0.0061026452597099925 0 -0.00038273539943036751 0.0061293259105537103 0 -0.00046352993175577487 0.0060323083892702264 0 -0.00041138356783453571 0.0061026452597099925 0 -0.00051994225703650841 0.0060469022067081999 0 -0.00041138356783453571 0.0061026452597099925 0 -0.00051994225703650841 0.0060469022067081999 0 -0.00045234244442224 0.0061165691888529763 0 -0.00051994225703650841 0.0060469022067081999 0 -0.00045234244442224 0.0061165691888529763 0 -0.00049969743439363175 0.0060813467760255247 0 -0.00045234244442224 0.0061165691888529763 0 -0.00043344377710464289 0.0061620953701629864 0 -0.00046945638803006569 0.0061515317702009673 0 -0.00045234244442224 0.0061165691888529763 0 -0.00049969743439363175 0.0060813467760255247 0 -0.00046945638803006569 0.0061515317702009673 0 -0.00037164369898123162 0.0091343899628777651 0 -0.00032716000207163502 0.0098329306588496486 0 -0.00097479365255847682 0.010419617665697427 0 0.00057289998725058909 0.009845084998543285 0 0.00036761708880229683 0.013180231293720188 0 -0.00045234244442224 0.0061165691888529763 0 -0.00038273539943036751 0.0061293259105537103 0 -0.00043344377710464289 0.0061620953701629864 0 -0.00037164369898123162 0.0091343899628777651 0 -6.9607010974665458e-05 0.0095176666631040449 0 0.00035622940044722443 0.008939769263819921 0 -0.00037164369898123162 0.0091343899628777651 0 -6.9607010974665458e-05 0.0095176666631040449 0 -0.00032716000207163502 0.0098329306588496486 0 -0.00041138356783453571 0.0061026452597099925 0 -0.00045234244442224 0.0061165691888529763 0 -0.00038273539943036751 0.0061293259105537103 0 -0.00032716000207163502 0.0098329306588496486 0 6.0073262729670179e-05 0.0099904498731983159 0 -0.00097479365255847682 0.010419617665697427 0 -6.9607010974665458e-05 0.0095176666631040449 0 6.0073262729670179e-05 0.0099904498731983159 0 0.00032590161966770172 0.0096297590540382512 0 -6.9607010974665458e-05 0.0095176666631040449 0 -0.00032716000207163502 0.0098329306588496486 0 6.0073262729670179e-05 0.0099904498731983159 0 6.0073262729670179e-05 0.0099904498731983159 0 0.00032590161966770172 0.0096297590540382512 0 0.00075186738190298117 0.0097673360224000347 0 0.00075186738190298117 0.0097673360224000347 0 0.0019039276135642705 0.0097351459084995089 0 0.00040994935725745176 0.010361969807670351 0 6.0073262729670179e-05 0.0099904498731983159 0 0.00075186738190298117 0.0097673360224000347 0 0.00040994935725745176 0.010361969807670351 0 0.00032590161966770172 0.0096297590540382512 0 0.00072255648055126714 0.0093604971575946931 0 0.00075186738190298117 0.0097673360224000347 0 0.00032590161966770172 0.0096297590540382512 0 0.00072255648055126714 0.0093604971575946931 0 0.00035622940044722443 0.008939769263819921 0 -6.9607010974665458e-05 0.0095176666631040449 0 0.00032590161966770172 0.0096297590540382512 0 0.00035622940044722443 0.008939769263819921 0 0.0010452806274661747 0.0089916798584565513 0 0.00072255648055126714 0.0093604971575946931 0 0.00035622940044722443 0.008939769263819921 0 0.00072255648055126714 0.0093604971575946931 0 0.0011319697851153985 0.0094749761331392075 0 0.00075186738190298117 0.0097673360224000347 0 0.0010452806274661747 0.0089916798584565513 0 0.00072255648055126714 0.0093604971575946931 0 0.0011319697851153985 0.0094749761331392075 0 0.0011319697851153985 0.0094749761331392075 0 0.00075186738190298117 0.0097673360224000347 0 0.0019039276135642705 0.0097351459084995089 0 0.0019039276135642705 0.0097351459084995089 0 0.0023029389575898434 0.009250235819910739 0 0.0014262435773554349 0.011102490885269642 0 0.0019039276135642705 0.0097351459084995089 0 0.0023029389575898434 0.009250235819910739 0 0.0018700137155156333 0.0090981146280954134 0 0.0023029389575898434 0.009250235819910739 0 0.0018700137155156333 0.0090981146280954134 0 0.0019202842943928039 0.0086741907883812822 0 0.0019039276135642705 0.0097351459084995089 0 0.0018700137155156333 0.0090981146280954134 0 0.0014797167799613575 0.0092097069157405179 0 0.0011319697851153985 0.0094749761331392075 0 0.0019039276135642705 0.0097351459084995089 0 0.0014797167799613575 0.0092097069157405179 0 0.0018700137155156333 0.0090981146280954134 0 0.0014797167799613575 0.0092097069157405179 0 0.0015205448317813911 0.008730604610470356 0 0.0010452806274661747 0.0089916798584565513 0 0.0011319697851153985 0.0094749761331392075 0 0.0014797167799613575 0.0092097069157405179 0 0.0010452806274661747 0.0089916798584565513 0 0.0015205448317813911 0.008730604610470356 0 0.0011650490446534162 0.0085044333350738216 0 0.0010452806274661747 0.0089916798584565513 0 0.0014797167799613575 0.0092097069157405179 0 0.0015205448317813911 0.008730604610470356 0 0.0015205448317813911 0.008730604610470356 0 0.0019202842943928039 0.0086741907883812822 0 0.0016854513220101795 0.0081378823261125683 0 0.0015205448317813911 0.008730604610470356 0 0.0016854513220101795 0.0081378823261125683 0 0.0011650490446534162 0.0085044333350738216 0 0.0023029389575898434 0.009250235819910739 0 0.0019202842943928039 0.0086741907883812822 0 0.0022071980117071071 0.0081621701407037697 0 0.0018700137155156333 0.0090981146280954134 0 0.0015205448317813911 0.008730604610470356 0 0.0019202842943928039 0.0086741907883812822 0 0.0020703883723546851 0.0075435504226836533 0 0.0022071980117071071 0.0081621701407037697 0 0.0016854513220101795 0.0081378823261125683 0 0.0019202842943928039 0.0086741907883812822 0 0.0022071980117071071 0.0081621701407037697 0 0.0016854513220101795 0.0081378823261125683 0 0.0012187397903916024 0.0077222772894825131 0 0.0016854513220101795 0.0081378823261125683 0 0.0011650490446534162 0.0085044333350738216 0 0.00047833107634346483 0.0057111394311603024 0 0.00030894977244747853 0.0061114775125205387 0 0.0012428538803161246 0.0076996166106507585 0 0.00023565692754288247 0.007835959868299559 0 0.00035622940044722443 0.008939769263819921 0 0.0012187397903916024 0.0077222772894825131 0 0.00035622940044722443 0.008939769263819921 0 0.0011650490446534162 0.0085044333350738216 0 0.0010452806274661747 0.0089916798584565513 0 0.00035622940044722443 0.008939769263819921 0 0.0011650490446534162 0.0085044333350738216 0 0.0014064043303692883 0.018970020627104126 0 0.0017951702886974444 0.018914268005230942 0 0.0014414489636940485 0.018684683652770595 0 0.0014064043303692883 0.018970020627104126 0 0.0016472237312382427 0.01927896607413343 0 0.0017951702886974444 0.018914268005230942 0 0.00099910937118950684 0.0163559238521702 0 0.0012071058416161819 0.016682301681142313 0 0.0015159915420757161 0.01937591243421766 0 0.0011023099901403552 0.019299823247255762 0 0.0012117483098849388 0.019538325659053397 0 0.0013620803829970157 0.01905561542729679 0 0.0016131555591285688 0.01939421565400043 0 0.0011023099901403552 0.019299823247255762 0 0.0014477810169080704 0.017351770589979453 0 0.00099910937118950684 0.0163559238521702 0 0.0016472237312382427 0.01927896607413343 0 0.0017951702886974444 0.018914268005230942 0 0.0019403511342410656 0.019330093090285449 0 -0.00051964751021915559 0.0060213531280500715 0 -0.00046515371239114103 0.005962343941587245 0 -0.00054146571500014382 0.0060939419052772233 0 0.00099910937118950684 0.0163559238521702 0 0.00013873952313965979 0.014943476317507644 0 0.00030234686804343742 0.013645690990873375 0 0.00013873952313965979 0.014943476317507644 0 -0.00049969743439363175 0.0060813467760255247 0 -0.00046945638803006569 0.0061515317702009673 0 -0.00054146571500014382 0.0060939419052772233 0 -0.00049969743439363175 0.0060813467760255247 0 -0.00051964751021915559 0.0060213531280500715 0 -0.00054146571500014382 0.0060939419052772233 0 -0.00051994225703650841 0.0060469022067081999 0 -0.00051964751021915559 0.0060213531280500715 0 -0.0005628166758668905 0.0059972365203206646 0 -0.00051994225703650841 0.0060469022067081999 0 -0.00049969743439363175 0.0060813467760255247 0 -0.00051964751021915559 0.0060213531280500715 0 -0.00051964751021915559 0.0060213531280500715 0 -0.00046515371239114103 0.005962343941587245 0 -0.0005628166758668905 0.0059972365203206646 0 -0.00046515371239114103 0.005962343941587245 0 -0.0005628166758668905 0.0059972365203206646 0 -0.00045280853059911816 0.0061439007205971253 0 -0.00060341536536996708 0.0059380917148261769 0 -0.0005628166758668905 0.0059972365203206646 0 -0.00062823560565129874 0.0060086247383250597 0 -0.00060341536536996708 0.0059380917148261769 0 -0.00051994225703650841 0.0060469022067081999 0 -0.0005628166758668905 0.0059972365203206646 0 -0.00062823560565129874 0.0060086247383250597 0 -0.00045280853059911816 0.0061439007205971253 0 -0.0005959317382486835 0.0063294445307717408 0 -0.0005628166758668905 0.0059972365203206646 0 -0.00062823560565129874 0.0060086247383250597 0 -0.00045280853059911816 0.0061439007205971253 0 -0.00072378795288606686 0.0059390541407210867 0 -0.00068677961808160813 0.0058231459990268847 0 -0.00062823560565129874 0.0060086247383250597 0 -0.00045280853059911816 0.0061439007205971253 0 -0.00015136508315222259 0.0061540086244913587 0 -0.00022007384765189409 0.0066358374504328268 0 0.0017951702886974444 0.018914268005230942 0 0.0016586255411865283 0.018440756346165692 0 0.0014414489636940485 0.018684683652770595 0 0.00030234686804343742 0.013645690990873375 0 0.00060898666474494296 0.01317361471499272 0 -0.00046515371239114103 0.005962343941587245 0 -0.00045280853059911816 0.0061439007205971253 0 -0.00015136508315222259 0.0061540086244913587 0 0.0014064043303692883 0.018970020627104126 0 0.0014414489636940485 0.018684683652770595 0 0.0011188400399269834 0.018660851157625349 0 0.0014477810169080704 0.017351770589979453 0 0.0015300262006816897 0.017586417658866649 0 0.0014414489636940485 0.018684683652770595 0 0.0013163857685912841 0.018466494007272165 0 0.0011188400399269834 0.018660851157625349 0 0.0016586255411865283 0.018440756346165692 0 0.0014414489636940485 0.018684683652770595 0 0.0013163857685912841 0.018466494007272165 0 0.0016586255411865283 0.018440756346165692 0 0.0013163857685912841 0.018466494007272165 0 0.0013337270831545785 0.018205898275264077 0 0.0013163857685912841 0.018466494007272165 0 0.0013337270831545785 0.018205898275264077 0 0.0010826717504138572 0.018319034295731212 0 0.0013337270831545785 0.018205898275264077 0 0.0014855912997442996 0.017869631090829372 0 0.0011295894377450029 0.017966928360978303 0 0.0016586255411865283 0.018440756346165692 0 0.0013337270831545785 0.018205898275264077 0 0.0014855912997442996 0.017869631090829372 0 0.0010398201853174856 0.013299692861430627 0 0.0010544469628595891 0.013313514338180924 0 -0.00015136508315222259 0.0061540086244913587 0 8.6003218766150116e-05 0.0070744918217358994 0 -0.00022007384765189409 0.0066358374504328268 0 -0.00015136508315222259 0.0061540086244913587 0 8.6003218766150116e-05 0.0070744918217358994 0 0.0001885186128730791 0.0071242282236968924 0 0.00060898666474494296 0.01317361471499272 0 0.0010544469628595891 0.013313514338180924 0 -0.00022007384765189409 0.0066358374504328268 0 -0.00022252689983667245 0.0068679704132563685 0 -9.8494658124383301e-05 0.0070482107937442943 0 -0.00022007384765189409 0.0066358374504328268 0 -0.00022252689983667245 0.0068679704132563685 0 -0.00035828080147278971 0.0066214398270570676 0 8.6003218766150116e-05 0.0070744918217358994 0 -0.00022007384765189409 0.0066358374504328268 0 -9.8494658124383301e-05 0.0070482107937442943 0 8.6003218766150116e-05 0.0070744918217358994 0 -9.8494658124383301e-05 0.0070482107937442943 0 2.3979789950456206e-05 0.0073345177569391655 0 -9.8494658124383301e-05 0.0070482107937442943 0 -7.1459530456115822e-05 0.0073973855261921699 0 2.3979789950456206e-05 0.0073345177569391655 0 -9.8494658124383301e-05 0.0070482107937442943 0 -7.1459530456115822e-05 0.0073973855261921699 0 -0.00015534236495783922 0.0071823447857726989 0 -7.1459530456115822e-05 0.0073973855261921699 0 -6.5604783101272256e-06 0.0076368378279724732 0 2.3979789950456206e-05 0.0073345177569391655 0 -0.00015534236495783922 0.0071823447857726989 0 -0.00013853009064114023 0.007462139118964887 0 -0.00027433276492746698 0.0069787780462771008 0 -0.00022252689983667245 0.0068679704132563685 0 -0.00015534236495783922 0.0071823447857726989 0 -0.00027433276492746698 0.0069787780462771008 0 -0.00022252689983667245 0.0068679704132563685 0 -9.8494658124383301e-05 0.0070482107937442943 0 -0.00015534236495783922 0.0071823447857726989 0 -7.1459530456115822e-05 0.0073973855261921699 0 -0.00015534236495783922 0.0071823447857726989 0 -0.00013853009064114023 0.007462139118964887 0 -7.1459530456115822e-05 0.0073973855261921699 0 -0.00013853009064114023 0.007462139118964887 0 -6.627432978062285e-05 0.0076241058833895108 0 -7.1459530456115822e-05 0.0073973855261921699 0 -6.627432978062285e-05 0.0076241058833895108 0 -6.5604783101272256e-06 0.0076368378279724732 0 0.0010544469628595891 0.013313514338180924 0 0.00053399711426363493 0.013672298494719879 0 -6.5604783101272256e-06 0.0076368378279724732 0 5.8791787373509267e-05 0.0074682580736463063 0 -2.9084624454137197e-05 0.0079874995793290104 0 -6.627432978062285e-05 0.0076241058833895108 0 -6.5604783101272256e-06 0.0076368378279724732 0 -5.082481238803768e-05 0.0078478242834642952 0 -6.5604783101272256e-06 0.0076368378279724732 0 -2.9084624454137197e-05 0.0079874995793290104 0 -5.082481238803768e-05 0.0078478242834642952 0 5.8791787373509267e-05 0.0074682580736463063 0 6.6056587585782038e-05 0.0073730938204228623 0 8.8751147810058373e-05 0.0082110281072705696 0 5.8791787373509267e-05 0.0074682580736463063 0 -2.9084624454137197e-05 0.0079874995793290104 0 8.8751147810058373e-05 0.0082110281072705696 0 8.6003218766150116e-05 0.0070744918217358994 0 2.3979789950456206e-05 0.0073345177569391655 0 0.00012142848383890151 0.0072347677572988031 0 5.8791787373509267e-05 0.0074682580736463063 0 2.3979789950456206e-05 0.0073345177569391655 0 0.00012142848383890151 0.0072347677572988031 0 0.0010445538459912132 0.013282961608727169 0 0.0010544469628595891 0.013313514338180924 0 -6.5604783101272256e-06 0.0076368378279724732 0 5.8791787373509267e-05 0.0074682580736463063 0 2.3979789950456206e-05 0.0073345177569391655 0 -0.00072378795288606686 0.0059390541407210867 0 -0.0005959317382486835 0.0063294445307717408 0 -0.00085488968163465796 0.0067321524857674201 0 -0.00072378795288606686 0.0059390541407210867 0 -0.00062823560565129874 0.0060086247383250597 0 -0.0005959317382486835 0.0063294445307717408 0 -0.00045280853059911816 0.0061439007205971253 0 -0.00022007384765189409 0.0066358374504328268 0 -0.00035828080147278971 0.0066214398270570676 0 -0.00045280853059911816 0.0061439007205971253 0 -0.0005959317382486835 0.0063294445307717408 0 -0.00035828080147278971 0.0066214398270570676 0 -0.0005959317382486835 0.0063294445307717408 0 -0.00035828080147278971 0.0066214398270570676 0 -0.00039681499722001408 0.0069828522600217996 0 -0.00022252689983667245 0.0068679704132563685 0 -0.00035828080147278971 0.0066214398270570676 0 -0.00027433276492746698 0.0069787780462771008 0 -0.00035828080147278971 0.0066214398270570676 0 -0.00027433276492746698 0.0069787780462771008 0 -0.00039681499722001408 0.0069828522600217996 0 -0.00013853009064114023 0.007462139118964887 0 -0.00027433276492746698 0.0069787780462771008 0 -0.00039681499722001408 0.0069828522600217996 0 -0.00039681499722001408 0.0069828522600217996 0 -0.00085488968163465796 0.0067321524857674201 0 -0.0002732386255090189 0.0076497107170313446 0 -0.0005959317382486835 0.0063294445307717408 0 -0.00039681499722001408 0.0069828522600217996 0 -0.00085488968163465796 0.0067321524857674201 0 -0.00062505841178498605 0.0037159678019993347 0 -0.0003578649201210443 0.004008856844941869 0 8.8211012781390502e-05 0.0045527792492137337 0 -0.00034446182883231193 0.0058440885602488724 0 -0.00043756002797432417 0.0058148270717405179 0 -0.00013853009064114023 0.007462139118964887 0 -0.00039681499722001408 0.0069828522600217996 0 -0.0002732386255090189 0.0076497107170313446 0 -0.0003578649201210443 0.004008856844941869 0 8.8211012781390502e-05 0.0045527792492137337 0 4.63335973806507e-07 0.006189818500465869 0 -0.00043756002797432417 0.0058148270717405179 0 -0.00047302027759374291 0.0058282659272354967 0 8.8211012781390502e-05 0.0045527792492137337 0 4.63335973806507e-07 0.006189818500465869 0 4.0004714213163463e-05 0.0071749214015905663 0 -1.0263021967818836e-06 0.0042020322198785638 0 -0.0003578649201210443 0.004008856844941869 0 4.63335973806507e-07 0.006189818500465869 0 -9.3347137639020474e-05 0.0080791138770337605 0 -9.599987831456874e-05 0.00792231257816421 0 -9.781465399500661e-05 0.008728128566684137 0 -9.3347137639020474e-05 0.0080791138770337605 0 -8.4588240318219586e-05 0.0078035102816646999 0 -9.599987831456874e-05 0.00792231257816421 0 -9.3347137639020474e-05 0.0080791138770337605 0 -2.9084624454137197e-05 0.0079874995793290104 0 -9.781465399500661e-05 0.008728128566684137 0 -9.3347137639020474e-05 0.0080791138770337605 0 -5.082481238803768e-05 0.0078478242834642952 0 -8.4588240318219586e-05 0.0078035102816646999 0 -6.627432978062285e-05 0.0076241058833895108 0 -5.082481238803768e-05 0.0078478242834642952 0 -8.4588240318219586e-05 0.0078035102816646999 0 -9.3347137639020474e-05 0.0080791138770337605 0 -2.9084624454137197e-05 0.0079874995793290104 0 -5.082481238803768e-05 0.0078478242834642952 0 -0.00013853009064114023 0.007462139118964887 0 -8.4588240318219586e-05 0.0078035102816646999 0 -0.00010769634788175442 0.0077016698183463017 0 -0.00013853009064114023 0.007462139118964887 0 -0.0002732386255090189 0.0076497107170313446 0 -0.00010769634788175442 0.0077016698183463017 0 -0.00013853009064114023 0.007462139118964887 0 -6.627432978062285e-05 0.0076241058833895108 0 -8.4588240318219586e-05 0.0078035102816646999 0 -8.4588240318219586e-05 0.0078035102816646999 0 -0.00010769634788175442 0.0077016698183463017 0 -9.599987831456874e-05 0.00792231257816421 0 -0.00010769634788175442 0.0077016698183463017 0 4.0004714213163463e-05 0.0071749214015905663 0 -9.599987831456874e-05 0.00792231257816421 0 -0.0002732386255090189 0.0076497107170313446 0 -0.00010769634788175442 0.0077016698183463017 0 4.0004714213163463e-05 0.0071749214015905663 0 4.63335973806507e-07 0.006189818500465869 0 4.0004714213163463e-05 0.0071749214015905663 0 -2.4215697472461771e-07 0.0081782559624575951 0 4.0004714213163463e-05 0.0071749214015905663 0 -2.4215697472461771e-07 0.0081782559624575951 0 -9.599987831456874e-05 0.00792231257816421 0 -2.4215697472461771e-07 0.0081782559624575951 0 -9.599987831456874e-05 0.00792231257816421 0 -9.781465399500661e-05 0.008728128566684137 0 -2.4215697472461771e-07 0.0081782559624575951 0 -9.781465399500661e-05 0.008728128566684137 0 -5.0708985483228475e-07 0.010166157130591928 0 -2.9084624454137197e-05 0.0079874995793290104 0 -9.781465399500661e-05 0.008728128566684137 0 8.8751147810058373e-05 0.0082110281072705696 0 -9.781465399500661e-05 0.008728128566684137 0 0.00037311259646995106 0.0092909457192222253 0 8.8751147810058373e-05 0.0082110281072705696 0 0.00037619212892720113 0.01431844835086553 0 0.00053399711426363493 0.013672298494719879 0 -9.781465399500661e-05 0.008728128566684137 0 -5.0708985483228475e-07 0.010166157130591928 0 0.00037311259646995106 0.0092909457192222253 0 -5.0708985483228475e-07 0.010166157130591928 0 1.8562094053508911e-06 0.012150615688423468 0 0.00037311259646995106 0.0092909457192222253 0 -7.7236779603105347e-07 0.012157070758925465 0 0.00037619212892720113 0.01431844835086553 0 4.9520168285914351e-07 0.012155604414212033 0 -5.0670775665603981e-06 0.01281669103704731 0 0.0014197141348220651 0.014257661968212468 0 0.00048854033829859832 0.015186589949667732 0 0.00020918061250200566 0.014967809031550105 0 -7.4368661899803742e-05 0.01295471840984954 0 4.9520168285914351e-07 0.012155604414212033 0 -4.9667705924757624e-07 0.013494638441057001 0 -7.4368661899803742e-05 0.01295471840984954 0 -6.0168989939641671e-05 0.012845912038631339 0 8.3036322086504035e-07 0.013261248051925526 0 -7.4368661899803742e-05 0.01295471840984954 0 4.9520168285914351e-07 0.012155604414212033 0 -5.0670775665603981e-06 0.01281669103704731 0 0.00049694823296560556 0.01510653140813613 0 0.00048854033829859832 0.015186589949667732 0 -7.4368661899803742e-05 0.01295471840984954 0 -5.0670775665603981e-06 0.01281669103704731 0 -6.0168989939641671e-05 0.012845912038631339 0 0.0026873361617644567 0.016555171712780363 0 0.0021870048158814603 0.018196491887868285 0 0.0016508428370240475 0.017228607778251744 0 0.00048854033829859832 0.015186589949667732 0 0.00045738687804271894 0.017011515521313251 0 -5.0670775665603981e-06 0.01281669103704731 0 -0.00016844377922988122 0.013543590162106179 0 0.0014197141348220651 0.014257661968212468 0 0.00048854033829859832 0.015186589949667732 0 0.00037619212892720113 0.01431844835086553 0 7.082147842003737e-05 0.017138987237916247 0 0.00049816204045874358 0.017340414539828639 0 0.00035932892073351039 0.017750346251706798 0 7.082147842003737e-05 0.017138987237916247 0 0.00035932892073351039 0.017750346251706798 0 -7.5194067209357869e-05 0.017780673511649681 0 -7.5194067209357869e-05 0.017780673511649681 0 0.00012298516664494656 0.018151260030157778 0 -0.00021989578684367638 0.018417049229150426 0 0.00045738687804271894 0.017011515521313251 0 0.00042139237540530811 0.018124357690545538 0 0.00035932892073351039 0.017750346251706798 0 -7.5194067209357869e-05 0.017780673511649681 0 0.00012298516664494656 0.018151260030157778 0 0.00035932892073351039 0.017750346251706798 0 0.00012298516664494656 0.018151260030157778 0 0.00046468890756165218 0.018175090925868283 0 0.00046468890756165218 0.018175090925868283 0 0.00078608465256237614 0.018199376153919252 0 0.00079886604411659511 0.017831282826179105 0 0.00035932892073351039 0.017750346251706798 0 0.00046468890756165218 0.018175090925868283 0 0.00079886604411659511 0.017831282826179105 0 0.00097530626092046286 0.015806116239297448 0 0.0011636396367081126 0.016275303039053366 0 0.0013337270831545785 0.018205898275264077 0 0.0011295894377450029 0.017966928360978303 0 0.0010826717504138572 0.018319034295731212 0 0.00078608465256237614 0.018199376153919252 0 0.00079886604411659511 0.017831282826179105 0 0.0010826717504138572 0.018319034295731212 0 0.0011295894377450029 0.017966928360978303 0 0.00077570522821435216 0.01785591510294128 0 0.0010826717504138572 0.018319034295731212 0 0.0014855912997442996 0.017869631090829372 0 0.0011295894377450029 0.017966928360978303 0 0.00099348858136044291 0.017618387309381662 0 0.0011295894377450029 0.017966928360978303 0 0.00099348858136044291 0.017618387309381662 0 0.00077570522821435216 0.01785591510294128 0 0.00049816204045874358 0.017340414539828639 0 0.00035932892073351039 0.017750346251706798 0 0.00079886604411659511 0.017831282826179105 0 0.000471722849432996 0.017363366672985232 0 0.00099348858136044291 0.017618387309381662 0 0.00077570522821435216 0.01785591510294128 0 0.00037619212892720113 0.01431844835086553 0 0.00097530626092046286 0.015806116239297448 0 -0.00046582571269038507 0.017414030967818298 0 -0.00064504853229728281 0.017895211828671116 0 -0.00073445388669124445 0.018174108133404768 0 -0.00045943468007094568 0.0177086301180415 0 -0.00064504853229728281 0.017895211828671116 0 -0.00070584849449901316 0.018094401990170011 0 -0.00045943468007094568 0.0177086301180415 0 -0.00046582571269038507 0.017414030967818298 0 -0.00064504853229728281 0.017895211828671116 0 -0.00020259095605453022 0.01863495037446453 0 -0.00026469949362919326 0.018793247065703143 0 -1.2041710145968583e-06 0.016667068844115219 0 -0.00015132477565122371 0.016441833054288306 0 -8.9497707693735801e-06 0.017907428443609461 0 -0.00046582571269038507 0.017414030967818298 0 -0.00015132477565122371 0.016441833054288306 0 -0.00073445388669124445 0.018174108133404768 0 -1.2041710145968583e-06 0.016667068844115219 0 -0.00015132477565122371 0.016441833054288306 0 2.1237361449007343e-06 0.014839449042029886 0 -0.00015132477565122371 0.016441833054288306 0 -5.4166558091698515e-05 0.017094716003512617 0 0.00026804280004869723 0.016314701641115918 0 -0.00046582571269038507 0.017414030967818298 0 -0.00015132477565122371 0.016441833054288306 0 -5.4166558091698515e-05 0.017094716003512617 0 -0.00045943468007094568 0.0177086301180415 0 -0.00046582571269038507 0.017414030967818298 0 -5.4166558091698515e-05 0.017094716003512617 0 -0.00045943468007094568 0.0177086301180415 0 -5.4166558091698515e-05 0.017094716003512617 0 -8.9285027790941745e-05 0.017713427400365443 0 -5.4166558091698515e-05 0.017094716003512617 0 0.00060075098501823033 0.017262502314959925 0 -8.9285027790941745e-05 0.017713427400365443 0 0.00060075098501823033 0.017262502314959925 0 0.00026804280004869723 0.016314701641115918 0 0.0016578624443013147 0.015964449616516233 0 -5.4166558091698515e-05 0.017094716003512617 0 0.00060075098501823033 0.017262502314959925 0 0.00026804280004869723 0.016314701641115918 0 -0.00015132477565122371 0.016441833054288306 0 2.1237361449007343e-06 0.014839449042029886 0 0.00026804280004869723 0.016314701641115918 0 2.1237361449007343e-06 0.014839449042029886 0 0.00026804280004869723 0.016314701641115918 0 0.0016578624443013147 0.015964449616516233 0 1.2506522369110353e-07 0.014836442875213665 0 0.00020918061250200566 0.014967809031550105 0 4.9573485931448205e-07 0.014835604959154876 0 -4.9667705924757624e-07 0.013494638441057001 0 8.3036322086504035e-07 0.013261248051925526 0 -7.4368661899803742e-05 0.01295471840984954 0 -4.9667705924757624e-07 0.013494638441057001 0 8.3036322086504035e-07 0.013261248051925526 0 0.0026873361617644567 0.016555171712780363 0 0.0016578624443013147 0.015964449616516233 0 0.0016508428370240475 0.017228607778251744 0 0.00060075098501823033 0.017262502314959925 0 0.0016578624443013147 0.015964449616516233 0 0.0016508428370240475 0.017228607778251744 0 0.00060075098501823033 0.017262502314959925 0 0.0016508428370240475 0.017228607778251744 0 0.00098287902656184136 0.018068226749113046 0 0.0021870048158814603 0.018196491887868285 0 0.0016508428370240475 0.017228607778251744 0 0.00098287902656184136 0.018068226749113046 0 0.0021870048158814603 0.018196491887868285 0 0.00083428955518353954 0.019272712027576508 0 0.0017923428276052588 0.019660528950570393 0 0.0021870048158814603 0.018196491887868285 0 0.00098287902656184136 0.018068226749113046 0 0.00083428955518353954 0.019272712027576508 0 0.00046163352745440961 0.018272031974247292 0 0.00047996138198124155 0.018248067206690401 0 0.00034050808996056038 0.018444564078732104 0 -5.6422176617302234e-05 0.018768287360534201 0 0.00083428955518353954 0.019272712027576508 0 0.00034050808996056038 0.018444564078732104 0 0.00098287902656184136 0.018068226749113046 0 0.00083428955518353954 0.019272712027576508 0 0.00034050808996056038 0.018444564078732104 0 0.00031913247727885703 0.017945991226038037 0 -0.00013074788997142277 0.018182493273347415 0 0.00034050808996056038 0.018444564078732104 0 0.00098287902656184136 0.018068226749113046 0 0.00031913247727885703 0.017945991226038037 0 0.00060075098501823033 0.017262502314959925 0 0.00098287902656184136 0.018068226749113046 0 0.00031913247727885703 0.017945991226038037 0 0.00060075098501823033 0.017262502314959925 0 0.00031913247727885703 0.017945991226038037 0 -8.9285027790941745e-05 0.017713427400365443 0 -0.00045943468007094568 0.0177086301180415 0 -8.9285027790941745e-05 0.017713427400365443 0 -0.00054087136013049666 0.018082407340815655 0 -8.9285027790941745e-05 0.017713427400365443 0 -0.00013074788997142277 0.018182493273347415 0 -0.00054087136013049666 0.018082407340815655 0 0.00031913247727885703 0.017945991226038037 0 -8.9285027790941745e-05 0.017713427400365443 0 -0.00013074788997142277 0.018182493273347415 0 0.00034050808996056038 0.018444564078732104 0 -0.00013074788997142277 0.018182493273347415 0 -5.6422176617302234e-05 0.018768287360534201 0 -5.6422176617302234e-05 0.018768287360534201 0 -0.00042599866747049735 0.018782345484472961 0 -0.0002202230214709241 0.018903495272470108 0 -0.00029922951262071582 0.018565233092873487 0 -0.00038522741940286121 0.018659648619362357 0 -0.00013074788997142277 0.018182493273347415 0 -5.6422176617302234e-05 0.018768287360534201 0 -0.00042599866747049735 0.018782345484472961 0 -0.0005481277213203017 0.018262807709367727 0 -0.00060458846551483618 0.018164014605528408 0 -0.00062435083113486218 0.018168354079598849 0 -0.0005481277213203017 0.018262807709367727 0 -0.00060458846551483618 0.018164014605528408 0 -0.00054087136013049666 0.018082407340815655 0 -0.00013074788997142277 0.018182493273347415 0 -0.0005481277213203017 0.018262807709367727 0 -0.00054087136013049666 0.018082407340815655 0 -0.00060458846551483618 0.018164014605528408 0 -0.00054087136013049666 0.018082407340815655 0 -0.00066933852736292677 0.01811710765995592 0 -0.00054087136013049666 0.018082407340815655 0 -0.00070584849449901316 0.018094401990170011 0 -0.00066933852736292677 0.01811710765995592 0 -0.00045943468007094568 0.0177086301180415 0 -0.00054087136013049666 0.018082407340815655 0 -0.00070584849449901316 0.018094401990170011 0 -0.0003316456301067517 0.019036191221193273 0 -0.00033168068680012431 0.019234005683327251 0 -0.00050111283351298125 0.0191920525474438 0 -0.0003316456301067517 0.019036191221193273 0 -0.00016473394116736089 0.019173657345973923 0 -0.00033168068680012431 0.019234005683327251 0 -0.00042599866747049735 0.018782345484472961 0 -0.0003316456301067517 0.019036191221193273 0 -0.00053978861750947848 0.018981249037186579 0 -0.00042599866747049735 0.018782345484472961 0 -0.0003316456301067517 0.019036191221193273 0 -0.0002202230214709241 0.018903495272470108 0 -0.0003316456301067517 0.019036191221193273 0 -0.0002202230214709241 0.018903495272470108 0 -8.8236365523254161e-05 0.01898177680367822 0 -5.6422176617302234e-05 0.018768287360534201 0 -0.0002202230214709241 0.018903495272470108 0 -8.8236365523254161e-05 0.01898177680367822 0 -0.0003316456301067517 0.019036191221193273 0 -8.8236365523254161e-05 0.01898177680367822 0 -0.00016473394116736089 0.019173657345973923 0 -8.8236365523254161e-05 0.01898177680367822 0 1.6728496599954602e-05 0.019141798882209491 0 -0.00016473394116736089 0.019173657345973923 0 -8.8236365523254161e-05 0.01898177680367822 0 1.6728496599954602e-05 0.019141798882209491 0 8.8341419752726758e-05 0.01900358036785969 0 -5.6422176617302234e-05 0.018768287360534201 0 -8.8236365523254161e-05 0.01898177680367822 0 6.1116056156521113e-05 0.018861263186160711 0 -8.8236365523254161e-05 0.01898177680367822 0 6.1116056156521113e-05 0.018861263186160711 0 8.8341419752726758e-05 0.01900358036785969 0 6.1116056156521113e-05 0.018861263186160711 0 0.00021541649987596331 0.018932252146223197 0 8.8341419752726758e-05 0.01900358036785969 0 0.00047996138198124155 0.018248067206690401 0 0.00042139237540530811 0.018124357690545538 0 0.00042139237540530811 0.018124357690545538 0 0.0003353257993741896 0.018473522051061009 0 0.00021541649987596331 0.018932252146223197 0 8.8341419752726758e-05 0.01900358036785969 0 0.00016345182420363211 0.01911767167844762 0 1.6728496599954602e-05 0.019141798882209491 0 8.8341419752726758e-05 0.01900358036785969 0 0.00016345182420363211 0.01911767167844762 0 1.6728496599954602e-05 0.019141798882209491 0 0.00016345182420363211 0.01911767167844762 0 0.00011560070881416177 0.019275856507979829 0 0.0003353257993741896 0.018473522051061009 0 0.00030583655243132278 0.018594164918048686 0 0.00016175552030283863 0.018952771936098168 0 0.00011560070881416177 0.019275856507979829 0 0.0003857121380211876 0.019151366864358636 0 -4.3379762498364259e-05 0.019291297261037069 0 -0.0002033935343381723 0.019388795347577301 0 1.3210164895091228e-05 0.019592783284400801 0 0.00011560070881416177 0.019275856507979829 0 -4.3379762498364259e-05 0.019291297261037069 0 1.3210164895091228e-05 0.019592783284400801 0 1.6728496599954602e-05 0.019141798882209491 0 -4.3379762498364259e-05 0.019291297261037069 0 -0.00016473394116736089 0.019173657345973923 0 1.6728496599954602e-05 0.019141798882209491 0 0.00011560070881416177 0.019275856507979829 0 -4.3379762498364259e-05 0.019291297261037069 0 -0.00016473394116736089 0.019173657345973923 0 -0.0002033935343381723 0.019388795347577301 0 -0.00033168068680012431 0.019234005683327251 0 -4.3379762498364259e-05 0.019291297261037069 0 -0.00016473394116736089 0.019173657345973923 0 -0.0002033935343381723 0.019388795347577301 0 -0.00033110065937683175 0.01948647557928062 0 -0.00042375289898325227 0.019376213190141919 0 -0.00044999177341380545 0.019628350324460937 0 -0.0002033935343381723 0.019388795347577301 0 -0.00033110065937683175 0.01948647557928062 0 -0.00042375289898325227 0.019376213190141919 0 -0.0002033935343381723 0.019388795347577301 0 -0.00042375289898325227 0.019376213190141919 0 -0.00033168068680012431 0.019234005683327251 0 -0.00042375289898325227 0.019376213190141919 0 -0.00033168068680012431 0.019234005683327251 0 -0.00050111283351298125 0.0191920525474438 0 0.0009151370871041119 0.018865557872892038 0 0.00079115584086428172 0.018469297799653145 0 0.00033874123684821269 0.01863910651394508 0 0.00064300468933326373 0.018361497228743379 0 0.00054858960444663461 0.018289055643293629 0 0.0009151370871041119 0.018865557872892038 0 0.0005754362329465308 0.018793135084931096 0 0.0006677134731316967 0.019049746651692488 0 0.0009151370871041119 0.018865557872892038 0 0.0011188400399269834 0.018660851157625349 0 0.0010688039858878023 0.019019918449474482 0 0.0009151370871041119 0.018865557872892038 0 0.0011188400399269834 0.018660851157625349 0 0.00079115584086428172 0.018469297799653145 0 0.0011188400399269834 0.018660851157625349 0 0.0010826717504138572 0.018319034295731212 0 0.00079115584086428172 0.018469297799653145 0 0.0013163857685912841 0.018466494007272165 0 0.0011188400399269834 0.018660851157625349 0 0.0010826717504138572 0.018319034295731212 0 0.00078608465256237614 0.018199376153919252 0 0.0010826717504138572 0.018319034295731212 0 0.00079115584086428172 0.018469297799653145 0 0.00046468890756165218 0.018175090925868283 0 0.00078608465256237614 0.018199376153919252 0 0.00079115584086428172 0.018469297799653145 0 0.00046468890756165218 0.018175090925868283 0 0.00079115584086428172 0.018469297799653145 0 0.00033874123684821269 0.01863910651394508 0 0.00012298516664494656 0.018151260030157778 0 0.00046468890756165218 0.018175090925868283 0 0.00033874123684821269 0.01863910651394508 0 0.00042139237540530811 0.018124357690545538 0 0.00054858960444663461 0.018289055643293629 0 0.00012298516664494656 0.018151260030157778 0 -0.00021989578684367638 0.018417049229150426 0 0.00033874123684821269 0.01863910651394508 0 0.00016175552030283863 0.018952771936098168 0 0.0005754362329465308 0.018793135084931096 0 0.0003857121380211876 0.019151366864358636 0 0.00022452242313980575 0.018664532024138553 0 0.00016175552030283863 0.018952771936098168 0 0.0005754362329465308 0.018793135084931096 0 0.0006677134731316967 0.019049746651692488 0 0.0003857121380211876 0.019151366864358636 0 0.00061490524145782564 0.019288976598175654 0 0.0005754362329465308 0.018793135084931096 0 0.0006677134731316967 0.019049746651692488 0 0.0003857121380211876 0.019151366864358636 0 0.0003857121380211876 0.019151366864358636 0 0.00061490524145782564 0.019288976598175654 0 0.00036213907935409858 0.019578825752751827 0 0.00011560070881416177 0.019275856507979829 0 0.0003857121380211876 0.019151366864358636 0 0.00036213907935409858 0.019578825752751827 0 0.00086918800613450275 0.01915485303724224 0 0.0011023099901403552 0.019299823247255762 0 0.00077663261932190558 0.019564166034383122 0 0.00061490524145782564 0.019288976598175654 0 0.00086918800613450275 0.01915485303724224 0 0.00077663261932190558 0.019564166034383122 0 0.0006677134731316967 0.019049746651692488 0 0.00061490524145782564 0.019288976598175654 0 0.00086918800613450275 0.01915485303724224 0 0.0009151370871041119 0.018865557872892038 0 0.0006677134731316967 0.019049746651692488 0 0.00086918800613450275 0.01915485303724224 0 0.00086918800613450275 0.01915485303724224 0 0.0010688039858878023 0.019019918449474482 0 0.0011023099901403552 0.019299823247255762 0 0.0013620803829970157 0.01905561542729679 0 0.0011188400399269834 0.018660851157625349 0 0.0010688039858878023 0.019019918449474482 0 0.0013620803829970157 0.01905561542729679 0 0.0010688039858878023 0.019019918449474482 0 0.0011023099901403552 0.019299823247255762 0 0.0009151370871041119 0.018865557872892038 0 0.00086918800613450275 0.01915485303724224 0 0.0010688039858878023 0.019019918449474482 0 0.0011023099901403552 0.019299823247255762 0 0.00077663261932190558 0.019564166034383122 0 0.0012117483098849388 0.019538325659053397 0 0.00055174245401236192 0.018201420945155585 0 0.00072844502177858803 0.017505122466908007 0 0.00075923881912523614 0.019624605222299932 0 0.00053699049182664017 0.019540208592656327 0 0.00078871904170729756 0.019534812035418601 0 0.00052474857953884943 0.019792797334330897 0 0.00046982673396326989 0.019845925145371365 0 0.00075923881912523614 0.019624605222299932 0 0.00060825819940014372 0.019676024140147609 0 0.00059416036140021253 0.019848168875180622 0 0.00075923881912523614 0.019624605222299932 0 0.00063587895900616732 0.019717317948828833 0 0.00077208752650124589 0.019690914973369479 0 0.00075923881912523614 0.019624605222299932 0 0.00060825819940014372 0.019676024140147609 0 0.00053699049182664017 0.019540208592656327 0 0.00060825819940014372 0.019676024140147609 0 0.00053699049182664017 0.019540208592656327 0 0.00038398705056854173 0.019772662698006132 0 0.00061490524145782564 0.019288976598175654 0 0.00077663261932190558 0.019564166034383122 0 0.00036213907935409858 0.019578825752751827 0 0.00055174245401236192 0.018201420945155585 0 0.00031757039247521068 0.018623508328316472 0 0.00025610744313717338 0.0195636882810192 0 0.00038398705056854173 0.019772662698006132 0 9.9075213751746212e-05 0.019754232387524898 0 0.00053699049182664017 0.019540208592656327 0 0.00025610744313717338 0.0195636882810192 0 0.00038398705056854173 0.019772662698006132 0 0.00038398705056854173 0.019772662698006132 0 0.00041797606332549477 0.020052250337216124 0 0.00059416036140021253 0.019848168875180622 0 0.00038398705056854173 0.019772662698006132 0 9.9075213751746212e-05 0.019754232387524898 0 0.00017131155778200551 0.019966672334344033 0 0.00034263946604865154 0.019962056295929804 0 0.00018358537900732425 0.019930027073696909 0 0.00038398705056854173 0.019772662698006132 0 0.00041797606332549477 0.020052250337216124 0 0.00017131155778200551 0.019966672334344033 0 0.0002563710663538414 0.020108423372645377 0 0.00038302523593217955 0.020091977340920192 0 0.00016224647163556161 0.020007974930325145 0 0.0002563710663538414 0.020108423372645377 0 0.00016224647163556161 0.020007974930325145 0 0.00019760310603181167 0.020128512392996938 0 0.00034263946604865154 0.019962056295929804 0 0.00034351490138412609 0.01996222799890068 0 0.00073535789172903779 0.019906321891253853 0 0.00063587895900616732 0.019717317948828833 0 0.00060708528647632036 0.019944302803735454 0 0.00047208330244642726 0.019940778935418551 0 0.00063587895900616732 0.019717317948828833 0 0.00060708528647632036 0.019944302803735454 0 0.00042931555478978214 0.019925103693353204 0 0.00047208330244642726 0.019940778935418551 0 0.00063587895900616732 0.019717317948828833 0 0.00034263946604865154 0.019962056295929804 0 0.00046982673396326989 0.019845925145371365 0 0.00073535789172903779 0.019906321891253853 0 0.00077596637277945694 0.019764255119841076 0 0.00063587895900616732 0.019717317948828833 0 0.00073535789172903779 0.019906321891253853 0 0.00077596637277945694 0.019764255119841076 0 0.00083218095325132875 0.019800307113608653 0 0.00077596637277945694 0.019764255119841076 0 0.00063587895900616732 0.019717317948828833 0 0.00077208752650124589 0.019690914973369479 0 0.00060825819940014372 0.019676024140147609 0 0.00038398705056854173 0.019772662698006132 0 0.00059416036140021253 0.019848168875180622 0 -0.00028731302697548947 0.019619290082011961 0 -0.00031849886812188873 0.01982088884578298 0 -0.00044999177341380545 0.019628350324460937 0 -0.00031849886812188873 0.01982088884578298 0 -0.00044999177341380545 0.019628350324460937 0 -0.00052596984614743081 0.019858186711051076 0 -0.00033110065937683175 0.01948647557928062 0 -0.00028731302697548947 0.019619290082011961 0 -0.00044999177341380545 0.019628350324460937 0 -0.0002033935343381723 0.019388795347577301 0 -0.00033110065937683175 0.01948647557928062 0 -0.00028731302697548947 0.019619290082011961 0 -0.0002033935343381723 0.019388795347577301 0 -0.00028731302697548947 0.019619290082011961 0 1.3210164895091228e-05 0.019592783284400801 0 7.0794034303886309e-06 0.018924388713020553 0 0.00010642786874253364 0.018851351340991074 0 -0.00028731302697548947 0.019619290082011961 0 -0.00014895232127117638 0.019726821305423602 0 -0.00031849886812188873 0.01982088884578298 0 -0.00028731302697548947 0.019619290082011961 0 -0.00014895232127117638 0.019726821305423602 0 -1.8126991894907276e-05 0.019590540778838525 0 -0.00014895232127117638 0.019726821305423602 0 -1.8126991894907276e-05 0.019590540778838525 0 9.9075213751746212e-05 0.019754232387524898 0 0.00031757039247521068 0.018623508328316472 0 0.00010642786874253364 0.018851351340991074 0 0.00011560070881416177 0.019275856507979829 0 0.00036213907935409858 0.019578825752751827 0 1.3210164895091228e-05 0.019592783284400801 0 0.00025610744313717338 0.0195636882810192 0 -1.8126991894907276e-05 0.019590540778838525 0 9.9075213751746212e-05 0.019754232387524898 0 0.00018358537900732425 0.019930027073696909 0 2.9527563565833723e-05 0.019888197520647535 0 9.9075213751746212e-05 0.019754232387524898 0 0.00017131155778200551 0.019966672334344033 0 -7.0607414632220116e-05 0.01988874914172379 0 0.00016224647163556161 0.020007974930325145 0 -7.2898437460471174e-05 0.019916394566372352 0 3.2604997655603734e-05 0.020131862998398645 0 0.00016224647163556161 0.020007974930325145 0 3.2604997655603734e-05 0.020131862998398645 0 0.00019760310603181167 0.020128512392996938 0 -7.2898437460471174e-05 0.019916394566372352 0 -0.00020537789771437047 0.020057798473293694 0 3.2604997655603734e-05 0.020131862998398645 0 -0.00014895232127117638 0.019726821305423602 0 9.9075213751746212e-05 0.019754232387524898 0 -7.0607414632220116e-05 0.01988874914172379 0 -0.00014895232127117638 0.019726821305423602 0 -7.0607414632220116e-05 0.01988874914172379 0 -0.00031849886812188873 0.01982088884578298 0 2.9527563565833723e-05 0.019888197520647535 0 -4.5918466761936492e-05 0.019865462441432228 0 -7.2898437460471174e-05 0.019916394566372352 0 -0.00020537789771437047 0.020057798473293694 0 -0.00031849886812188873 0.01982088884578298 0 -0.00020537789771437047 0.020057798473293694 0 -0.00042861135762924774 0.020023524176602678 0 -0.00031849886812188873 0.01982088884578298 0 -0.00020537789771437047 0.020057798473293694 0 -0.00042861135762924774 0.020023524176602678 0 -0.00031571666645836789 0.020181119381029209 0 -0.00042861135762924774 0.020023524176602678 0 -0.00031849886812188873 0.01982088884578298 0 -0.00052596984614743081 0.019858186711051076 0 -0.00034968311440393098 0.020344556354072719 0 -0.00031571666645836789 0.020181119381029209 0 -0.00053276680619712311 0.020188595654678398 0 -0.00042861135762924774 0.020023524176602678 0 -0.00031571666645836789 0.020181119381029209 0 -0.00053276680619712311 0.020188595654678398 0 -0.00034968311440393098 0.020344556354072719 0 -0.00031571666645836789 0.020181119381029209 0 -7.6656898696770911e-05 0.020287011401158617 0 -0.00020537789771437047 0.020057798473293694 0 -0.00031571666645836789 0.020181119381029209 0 -7.6656898696770911e-05 0.020287011401158617 0 -0.00030119030189535394 0.020320736982094554 0 -0.0001633358980320088 0.020298406833812732 0 -0.00038187476852695777 0.02033131933853714 0 -8.3922754049023431e-05 0.02027524734586551 0 -0.00016699653756232355 0.020529772579094968 0 -8.3922754049023431e-05 0.02027524734586551 0 6.3628391124206951e-05 0.020331463315344189 0 3.9789385798989077e-05 0.020481698339651605 0 -0.00020537789771437047 0.020057798473293694 0 -7.6656898696770911e-05 0.020287011401158617 0 3.2604997655603734e-05 0.020131862998398645 0 -0.0001633358980320088 0.020298406833812732 0 -8.9021927432821079e-05 0.020286298265665435 0 -7.6656898696770911e-05 0.020287011401158617 0 3.2604997655603734e-05 0.020131862998398645 0 0.00017537018411035066 0.020229825527278814 0 3.2604997655603734e-05 0.020131862998398645 0 0.00019760310603181167 0.020128512392996938 0 0.00017537018411035066 0.020229825527278814 0 6.3628391124206951e-05 0.020331463315344189 0 0.00017537018411035066 0.020229825527278814 0 0.00018235456688642842 0.020304187417596417 0 -8.3922754049023431e-05 0.02027524734586551 0 6.3628391124206951e-05 0.020331463315344189 0 0.00017537018411035066 0.020229825527278814 0 6.3628391124206951e-05 0.020331463315344189 0 0.00015200892701327899 0.020417852240668017 0 0.00018235456688642842 0.020304187417596417 0 0.00015200892701327899 0.020417852240668017 0 3.9789385798989077e-05 0.020481698339651605 0 0.00022542048159312247 0.020575688205328596 0 6.3628391124206951e-05 0.020331463315344189 0 0.00015200892701327899 0.020417852240668017 0 3.9789385798989077e-05 0.020481698339651605 0 3.9789385798989077e-05 0.020481698339651605 0 8.5283393670575969e-06 0.020720208125558883 0 0.00022542048159312247 0.020575688205328596 0 8.5283393670575969e-06 0.020720208125558883 0 0.00022542048159312247 0.020575688205328596 0 0.00024389818995006914 0.020906247202524132 0 3.9789385798989077e-05 0.020481698339651605 0 8.5283393670575969e-06 0.020720208125558883 0 -0.00016699653756232355 0.020529772579094968 0 -8.3922754049023431e-05 0.02027524734586551 0 3.9789385798989077e-05 0.020481698339651605 0 -0.00016699653756232355 0.020529772579094968 0 -0.00038187476852695777 0.02033131933853714 0 -0.00016699653756232355 0.020529772579094968 0 -0.00035518697669508398 0.020594498165794936 0 -0.00016699653756232355 0.020529772579094968 0 -0.00025410003988805406 0.020776167736556439 0 -0.00035518697669508398 0.020594498165794936 0 8.5283393670575969e-06 0.020720208125558883 0 -0.00016699653756232355 0.020529772579094968 0 -0.00025410003988805406 0.020776167736556439 0 -0.00025410003988805406 0.020776167736556439 0 -0.00044457891418491109 0.020751399368989006 0 -0.00035518697669508398 0.020594498165794936 0 -0.00044457891418491109 0.020751399368989006 0 -0.00035518697669508398 0.020594498165794936 0 -0.00053080007976402113 0.020597430306256225 0 -0.00038187476852695777 0.02033131933853714 0 -0.00035518697669508398 0.020594498165794936 0 -0.00053080007976402113 0.020597430306256225 0 0.00047957230016636095 0.020196926790436609 0 0.00039675567752102761 0.020327370656025415 0 0.00061237566800754096 0.020344577852614548 0 0.00059218406639490221 0.020083765468240995 0 0.00047957230016636095 0.020196926790436609 0 0.00061237566800754096 0.020344577852614548 0 0.000783046131969568 0.020131594691260756 0 0.00059218406639490221 0.020083765468240995 0 0.00061237566800754096 0.020344577852614548 0 0.000783046131969568 0.020131594691260756 0 0.00061237566800754096 0.020344577852614548 0 0.00092607894321786741 0.020294462668143776 0 0.00073535789172903779 0.019906321891253853 0 0.000783046131969568 0.020131594691260756 0 0.00059218406639490221 0.020083765468240995 0 0.00073535789172903779 0.019906321891253853 0 0.00060708528647632036 0.019944302803735454 0 0.00059218406639490221 0.020083765468240995 0 0.00047208330244642726 0.019940778935418551 0 0.00060708528647632036 0.019944302803735454 0 0.00059218406639490221 0.020083765468240995 0 0.00042160540762813098 0.019924124139679655 0 0.00047208330244642726 0.019940778935418551 0 0.00040698338269554867 0.020060470436201159 0 0.00059218406639490221 0.020083765468240995 0 0.00040698338269554867 0.020060470436201159 0 0.00047957230016636095 0.020196926790436609 0 0.00047208330244642726 0.019940778935418551 0 0.00059218406639490221 0.020083765468240995 0 0.00040698338269554867 0.020060470436201159 0 0.00034263946604865154 0.019962056295929804 0 0.00031205698395618265 0.020009752201959108 0 0.0002563710663538414 0.020108423372645377 0 0.00038302523593217955 0.020091977340920192 0 0.00028206837486186844 0.020203431216649057 0 0.00042160540762813098 0.019924124139679655 0 0.00040698338269554867 0.020060470436201159 0 0.00028834399035907712 0.020105021419775257 0 0.00040698338269554867 0.020060470436201159 0 0.00028834399035907712 0.020105021419775257 0 0.00037402151542331047 0.020181776800597271 0 0.00040698338269554867 0.020060470436201159 0 0.00047957230016636095 0.020196926790436609 0 0.00037402151542331047 0.020181776800597271 0 0.0002563710663538414 0.020108423372645377 0 0.00019760310603181167 0.020128512392996938 0 0.00028206837486186844 0.020203431216649057 0 0.00028206837486186844 0.020203431216649057 0 0.00017537018411035066 0.020229825527278814 0 0.00018235456688642842 0.020304187417596417 0 0.00019760310603181167 0.020128512392996938 0 0.00028206837486186844 0.020203431216649057 0 0.00017537018411035066 0.020229825527278814 0 0.00031205698395618265 0.020009752201959108 0 0.00029662260273814598 0.02003190642765703 0 0.00028834399035907712 0.020105021419775257 0 0.00018235456688642842 0.020304187417596417 0 0.00029985739246873302 0.020268257037303172 0 0.00018235456688642842 0.020304187417596417 0 0.00029985739246873302 0.020268257037303172 0 0.00026589293251770975 0.020407164707780541 0 0.00029985739246873302 0.020268257037303172 0 0.00039675567752102761 0.020327370656025415 0 0.00026589293251770975 0.020407164707780541 0 0.00015200892701327899 0.020417852240668017 0 0.00018235456688642842 0.020304187417596417 0 0.00026589293251770975 0.020407164707780541 0 0.00047957230016636095 0.020196926790436609 0 0.00037402151542331047 0.020181776800597271 0 0.00039675567752102761 0.020327370656025415 0 0.00028834399035907712 0.020105021419775257 0 0.00029985739246873302 0.020268257037303172 0 0.00037402151542331047 0.020181776800597271 0 0.00029985739246873302 0.020268257037303172 0 0.00037402151542331047 0.020181776800597271 0 0.00039675567752102761 0.020327370656025415 0 0.00039675567752102761 0.020327370656025415 0 0.00042492878518233482 0.020507430713803978 0 0.00026589293251770975 0.020407164707780541 0 0.00039675567752102761 0.020327370656025415 0 0.00042492878518233482 0.020507430713803978 0 0.00061237566800754096 0.020344577852614548 0 0.00042492878518233482 0.020507430713803978 0 0.00026589293251770975 0.020407164707780541 0 0.00022542048159312247 0.020575688205328596 0 0.00015200892701327899 0.020417852240668017 0 0.00026589293251770975 0.020407164707780541 0 0.00022542048159312247 0.020575688205328596 0 0.00042492878518233482 0.020507430713803978 0 0.00022542048159312247 0.020575688205328596 0 0.00045096378380403705 0.020741261029621705 0 0.00042492878518233482 0.020507430713803978 0 0.0005955228037935504 0.020604429192349137 0 0.00045096378380403705 0.020741261029621705 0 0.00042492878518233482 0.020507430713803978 0 0.0005955228037935504 0.020604429192349137 0 0.00061237566800754096 0.020344577852614548 0 0.0005955228037935504 0.020604429192349137 0 0.00061237566800754096 0.020344577852614548 0 0.00083070386121916187 0.020579947955899975 0 0.00061237566800754096 0.020344577852614548 0 0.00083070386121916187 0.020579947955899975 0 0.00092607894321786741 0.020294462668143776 0 0.0005955228037935504 0.020604429192349137 0 0.00083070386121916187 0.020579947955899975 0 0.00066666801158427405 0.020847260494443937 0 0.00083070386121916187 0.020579947955899975 0 0.0010123779822272642 0.020662613739150137 0 0.001115407588094056 0.02046895510177929 0 0.0010123779822272642 0.020662613739150137 0 0.001115407588094056 0.02046895510177929 0 0.0011733059865532832 0.020746676155625719 0 0.001115407588094056 0.02046895510177929 0 0.0011492573059196068 0.020227462146342169 0 0.0013415071742395722 0.020341702639808334 0 0.001115407588094056 0.02046895510177929 0 0.00092607894321786741 0.020294462668143776 0 0.0011492573059196068 0.020227462146342169 0 0.00083070386121916187 0.020579947955899975 0 0.001115407588094056 0.02046895510177929 0 0.00092607894321786741 0.020294462668143776 0 0.000783046131969568 0.020131594691260756 0 0.00092607894321786741 0.020294462668143776 0 0.0010547003479700545 0.020022298010042433 0 0.00092607894321786741 0.020294462668143776 0 0.0011492573059196068 0.020227462146342169 0 0.0010547003479700545 0.020022298010042433 0 0.0011492573059196068 0.020227462146342169 0 0.0010547003479700545 0.020022298010042433 0 0.0013457686268735813 0.020104847865443858 0 0.0010093552369145429 0.01992711431886534 0 0.0011452484579230705 0.019960505628893711 0 0.00073535789172903779 0.019906321891253853 0 0.000783046131969568 0.020131594691260756 0 0.0010547003479700545 0.020022298010042433 0 0.00093964724587539247 0.019909956195664748 0 0.0010093552369145429 0.01992711431886534 0 0.0010080387578747859 0.019802216038695485 0 0.00099748098836313572 0.019777851413928217 0 0.0010461063773479428 0.019736968233242197 0 0.0010080387578747859 0.019802216038695485 0 0.00099748098836313572 0.019777851413928217 0 0.00097631844240282737 0.019817285633472796 0 0.00087478747691918906 0.019843408243596612 0 0.00097631844240282737 0.019817285633472796 0 0.00096663830883783662 0.019777212173162879 0 0.00099748098836313572 0.019777851413928217 0 0.00097631844240282737 0.019817285633472796 0 0.00096663830883783662 0.019777212173162879 0 0.0011492573059196068 0.020227462146342169 0 0.0013457686268735813 0.020104847865443858 0 0.0013415071742395722 0.020341702639808334 0 0.0013457686268735813 0.020104847865443858 0 0.0015428672721302559 0.020161366809141788 0 0.001572629993020324 0.020141653306646825 0 0.0011452484579230705 0.019960505628893711 0 0.0012794342767768246 0.019993651741428149 0 0.0010080387578747859 0.019802216038695485 0 0.00097631844240282737 0.019817285633472796 0 0.0010138465847732662 0.019831516318812879 0 0.0013457686268735813 0.020104847865443858 0 0.0013415071742395722 0.020341702639808334 0 0.0015428672721302559 0.020161366809141788 0 0.0013415071742395722 0.020341702639808334 0 0.0015273925321838335 0.020500508437613817 0 0.0015428672721302559 0.020161366809141788 0 9.8566546892536121e-06 0.019431660063483014 0 0.00010675917022548273 0.01958047411295857 0 0.001115407588094056 0.02046895510177929 0 0.0013572125046654665 0.020631160865583503 0 0.0011733059865532832 0.020746676155625719 0 0.001115407588094056 0.02046895510177929 0 0.0013415071742395722 0.020341702639808334 0 0.0013572125046654665 0.020631160865583503 0 9.8566546892536121e-06 0.019431660063483014 0 -0.00027000318994975406 0.018824284848058571 0 0.0013572125046654665 0.020631160865583503 0 0.0015273925321838335 0.020500508437613817 0 0.0014748877246781892 0.02081473023819971 0 0.0013415071742395722 0.020341702639808334 0 0.0013572125046654665 0.020631160865583503 0 0.0015273925321838335 0.020500508437613817 0 0.0015664496090060575 0.020183055740745606 0 0.0015492287707003208 0.02013723752989582 0 0.0015429795236253268 0.020165879897650875 0 0.0015389318503012913 0.020147938189652957 0 0.0015492287707003208 0.02013723752989582 0 0.0015429795236253268 0.020165879897650875 0 0.0015664496090060575 0.020183055740745606 0 0.0015854747055514778 0.020131411721675964 0 0.0015492287707003208 0.02013723752989582 0 0.0015854747055514778 0.020131411721675964 0 0.0015492287707003208 0.02013723752989582 0 0.0015889506080212145 0.020017442319796942 0 0.0015492287707003208 0.02013723752989582 0 0.0015889506080212145 0.020017442319796942 0 0.001572629993020324 0.020141653306646825 0 0.0015389318503012913 0.020147938189652957 0 0.0015492287707003208 0.02013723752989582 0 0.0015428672721302559 0.020161366809141788 0 -0.0026941350314821332 0.0095325700382090043 0 -0.0026812817769927455 0.0096192178711438491 0 -0.0025708162959284056 0.0095334037260281189 0 -0.0026812817769927455 0.0096192178711438491 0 -0.0025708162959284056 0.0095334037260281189 0 -0.0025588489241719333 0.009633574956135784 0 -0.0024814363015029425 0.0095111522832196163 0 -0.0025708162959284056 0.0095334037260281189 0 -0.0025588489241719333 0.009633574956135784 0 0.0015664496090060575 0.020183055740745606 0 0.0015854747055514778 0.020131411721675964 0 0.0017822237001200386 0.020161948549216702 0 -0.00075355423296616006 0.014701352079831972 0 -0.00098938587788818767 0.013625918454505056 0 0.0017822237001200386 0.020161948549216702 0 0.0018601952989558078 0.01981101071909537 0 0.0015889506080212145 0.020017442319796942 0 0.0015854747055514778 0.020131411721675964 0 0.0017822237001200386 0.020161948549216702 0 0.0015889506080212145 0.020017442319796942 0 -0.0026812817769927455 0.0096192178711438491 0 -0.0026867663183660685 0.0097405060033207633 0 -0.0025588489241719333 0.009633574956135784 0 0.0023980906210184778 0.019726385946286146 0 0.0017822237001200386 0.020161948549216702 0 0.0018601952989558078 0.01981101071909537 0 0.0023980906210184778 0.019726385946286146 0 0.0018601952989558078 0.01981101071909537 0 0.0019417624987744593 0.019490371851336886 0 -0.0011740435709882567 0.012131181640887782 0 -0.00098938587788818767 0.013625918454505056 0 0.0018601952989558078 0.01981101071909537 0 0.0016431285481996495 0.019602480443268767 0 0.0019417624987744593 0.019490371851336886 0 0.0018601952989558078 0.01981101071909537 0 0.0015889506080212145 0.020017442319796942 0 0.0016431285481996495 0.019602480443268767 0 0.0015889506080212145 0.020017442319796942 0 0.0016431285481996495 0.019602480443268767 0 0.001436048870636121 0.019703785334289521 0 0.0016431285481996495 0.019602480443268767 0 0.0017149462680412957 0.019197615748690156 0 0.001316739422234967 0.019362401102189345 0 0.0017149462680412957 0.019197615748690156 0 0.001316739422234967 0.019362401102189345 0 0.0014855415114119618 0.018957277546322877 0 0.0016431285481996495 0.019602480443268767 0 0.0017149462680412957 0.019197615748690156 0 0.0019417624987744593 0.019490371851336886 0 0.0017149462680412957 0.019197615748690156 0 0.0022187378029504784 0.019122680256060929 0 0.0019417624987744593 0.019490371851336886 0 0.0023980906210184778 0.019726385946286146 0 0.0022187378029504784 0.019122680256060929 0 0.0019417624987744593 0.019490371851336886 0 0.0015492287707003208 0.02013723752989582 0 0.0015428672721302559 0.020161366809141788 0 0.001572629993020324 0.020141653306646825 0 0.0010138465847732662 0.019831516318812879 0 0.0011898030327155069 0.019812280108970601 0 0.0011036215764052045 0.019777817978664718 0 0.0010138465847732662 0.019831516318812879 0 0.0011036215764052045 0.019777817978664718 0 0.0010461675068801368 0.019790602499595088 0 0.0010080387578747859 0.019802216038695485 0 0.0010138465847732662 0.019831516318812879 0 0.0010461675068801368 0.019790602499595088 0 0.0015889506080212145 0.020017442319796942 0 0.0010138465847732662 0.019831516318812879 0 0.0011898030327155069 0.019812280108970601 0 0.001354636782605212 0.020012274015027087 0 0.0012794342767768246 0.019993651741428149 0 0.0015889506080212145 0.020017442319796942 0 0.001436048870636121 0.019703785334289521 0 0.0011898030327155069 0.019812280108970601 0 0.001436048870636121 0.019703785334289521 0 0.0011898030327155069 0.019812280108970601 0 0.001316739422234967 0.019362401102189345 0 0.0011898030327155069 0.019812280108970601 0 0.0011361697480557211 0.019753387980008152 0 0.0011036215764052045 0.019777817978664718 0 0.0001734824925902699 0.01699352301451448 0 0.00023162210401159912 0.016702822312787323 0 0.0016431285481996495 0.019602480443268767 0 0.001436048870636121 0.019703785334289521 0 0.001316739422234967 0.019362401102189345 0 0.0011361697480557211 0.019753387980008152 0 0.0010748426868490259 0.019762914038750273 0 0.0011059603166386036 0.01972289459571052 0 0.0010080387578747859 0.019802216038695485 0 0.0010748426868490259 0.019762914038750273 0 0.0010461063773479428 0.019736968233242197 0 0.0011361697480557211 0.019753387980008152 0 0.0010748426868490259 0.019762914038750273 0 0.0011036215764052045 0.019777817978664718 0 0.0010748426868490259 0.019762914038750273 0 0.0011036215764052045 0.019777817978664718 0 0.0010461675068801368 0.019790602499595088 0 0.0010080387578747859 0.019802216038695485 0 0.0010748426868490259 0.019762914038750273 0 0.0010461675068801368 0.019790602499595088 0 0.0010811099986604029 0.01970279815071501 0 0.0011059603166386036 0.01972289459571052 0 0.0011074147707658968 0.019673111002765847 0 0.0010461063773479428 0.019736968233242197 0 0.0010811099986604029 0.01970279815071501 0 0.0011059603166386036 0.01972289459571052 0 0.0010748426868490259 0.019762914038750273 0 0.0010461063773479428 0.019736968233242197 0 0.0011059603166386036 0.01972289459571052 0 0.0010461063773479428 0.019736968233242197 0 0.0010537028069112966 0.019699101970178136 0 0.0010811099986604029 0.01970279815071501 0 0.0011059603166386036 0.01972289459571052 0 0.0011471489850084561 0.019712245157294941 0 0.0011074147707658968 0.019673111002765847 0 0.0011361697480557211 0.019753387980008152 0 0.0011059603166386036 0.01972289459571052 0 0.0011471489850084561 0.019712245157294941 0 0.00023162210401159912 0.016702822312787323 0 0.00041886908897440271 0.015798581574844768 0 0.00041886908897440271 0.015798581574844768 0 0.00037292078433783768 0.01531025820962406 0 -0.00078563967327006956 0.012915083306958784 0 0.0007477370196413717 0.012483335236083441 0 -0.00028153814851579077 0.011885569258008434 0 9.405379285791775e-05 0.013863272801154455 0 -0.00078563967327006956 0.012915083306958784 0 0.0007477370196413717 0.012483335236083441 0 -0.00078563967327006956 0.012915083306958784 0 -0.00093932052317283014 0.012030041546557603 0 -0.00028153814851579077 0.011885569258008434 0 -0.00078563967327006956 0.012915083306958784 0 -0.0016638098085781457 0.011968626792223568 0 -0.00093932052317283014 0.012030041546557603 0 0.00037292078433783768 0.01531025820962406 0 0.00023399991962087306 0.01461354106173513 0 0.0011074147707658968 0.019673111002765847 0 0.0010723238577965569 0.019672409201341411 0 0.0010650273640643254 0.01962270013607078 0 0.0010539422326834753 0.019650343715156181 0 0.0010723238577965569 0.019672409201341411 0 0.0010434202188108945 0.019678339761960827 0 0.0010539422326834753 0.019650343715156181 0 0.0010723238577965569 0.019672409201341411 0 0.0010650273640643254 0.01962270013607078 0 0.0010537028069112966 0.019699101970178136 0 0.0010723238577965569 0.019672409201341411 0 0.0010434202188108945 0.019678339761960827 0 0.0010537028069112966 0.019699101970178136 0 0.0010811099986604029 0.01970279815071501 0 0.0010723238577965569 0.019672409201341411 0 0.0010811099986604029 0.01970279815071501 0 0.0011074147707658968 0.019673111002765847 0 0.0010723238577965569 0.019672409201341411 0 0.0017149462680412957 0.019197615748690156 0 0.0022187378029504784 0.019122680256060929 0 0.001954741570807497 0.018671161190118302 0 0.002530544537998581 0.018589687295767657 0 0.0022187378029504784 0.019122680256060929 0 0.001954741570807497 0.018671161190118302 0 0.0017149462680412957 0.019197615748690156 0 0.0013963012582631873 0.018860402838257507 0 0.001954741570807497 0.018671161190118302 0 0.00058736296111643711 0.016025226719691549 0 0.00041886908897440271 0.015798581574844768 0 0.00041886908897440271 0.015798581574844768 0 0.00056544970852292294 0.012716217454079446 0 0.0013963012582631873 0.018860402838257507 0 0.001954741570807497 0.018671161190118302 0 0.0016925212104415891 0.018206612714826032 0 0.001954741570807497 0.018671161190118302 0 0.0016925212104415891 0.018206612714826032 0 0.0021963729431598044 0.01820461969518359 0 0.002530544537998581 0.018589687295767657 0 0.001954741570807497 0.018671161190118302 0 0.0021963729431598044 0.01820461969518359 0 0.0016925212104415891 0.018206612714826032 0 0.0021963729431598044 0.01820461969518359 0 0.0019904527553386334 0.017566014224290254 0 0.0028061455574266828 0.017990881810017213 0 0.0021963729431598044 0.01820461969518359 0 0.0019904527553386334 0.017566014224290254 0 0.00056544970852292294 0.012716217454079446 0 0.00099540550497495008 0.008533726862206931 0 0.0007477370196413717 0.012483335236083441 0 0.00040288187396965718 0.011350857273118822 0 -0.00028153814851579077 0.011885569258008434 0 0.0007477370196413717 0.012483335236083441 0 0.00040288187396965718 0.011350857273118822 0 0.0014101214652462711 0.011096649346262765 0 0.00040288187396965718 0.011350857273118822 0 0.00022046432345890438 0.011031782158545705 0 -0.00016332546270139277 0.01118594049231556 0 0.0019039276135642705 0.0097351459084995089 0 0.00021436087469874247 0.010633527334048782 0 0.00040994935725745176 0.010361969807670351 0 0.0019039276135642705 0.0097351459084995089 0 0.00020343504719387486 0.010634286259305776 0 0.00088766661912779109 0.01082881558548276 0 0.0012561631223031752 0.012682904328302963 0 0.00087645408754420532 0.013127493442450861 0 0.00043900752093214382 0.010955167156539219 0 0.00020343504719387486 0.010634286259305776 0 0.00088766661912779109 0.01082881558548276 0 0.00040288187396965718 0.011350857273118822 0 0.00022046432345890438 0.011031782158545705 0 0.00043900752093214382 0.010955167156539219 0 0.00040288187396965718 0.011350857273118822 0 0.00043900752093214382 0.010955167156539219 0 0.00088766661912779109 0.01082881558548276 0 0.00022046432345890438 0.011031782158545705 0 0.00043900752093214382 0.010955167156539219 0 0.00020343504719387486 0.010634286259305776 0 0.00040288187396965718 0.011350857273118822 0 0.00088766661912779109 0.01082881558548276 0 0.0014101214652462711 0.011096649346262765 0 0.0010229241190150655 0.0085689830190939752 0 0.00099540550497495008 0.008533726862206931 0 0.0019039276135642705 0.0097351459084995089 0 0.00088766661912779109 0.01082881558548276 0 0.0014262435773554349 0.011102490885269642 0 0.0014372566132014326 0.0065574552612548045 0 0.00099540550497495008 0.008533726862206931 0 -0.00033490148194911454 0.0030957669985964319 0 -0.00044847731540718515 0.0025103932846521158 0 -0.0010471923639552619 0.0037818272288904658 0 -0.00033490148194911454 0.0030957669985964319 0 -0.00041048008409389907 0.0036615800399287151 0 -0.0010471923639552619 0.0037818272288904658 0 -0.0014470409199240405 0.011509540571872437 0 -0.00093932052317283014 0.012030041546557603 0 -0.00066987054416017236 0.011426749153007787 0 -0.00019571330102609351 0.013975957656976616 0 -4.2630092177849572e-05 0.013896578574080208 0 -5.2406616766712063e-05 0.01415477544068598 0 0.00029689201575055336 0.014214649663628903 0 0.00024774082550965763 0.01459483218131101 0 -0.00047927516902288952 0.014854117452610179 0 -5.3795358861453583e-05 0.013955784025065473 0 0.00037044696834279584 0.014411927615239184 0 0.00029689201575055336 0.014214649663628903 0 0.00023399991962087306 0.01461354106173513 0 0.001073982457001726 0.019611183667340042 0 0.0010579196709848183 0.019593593920772163 0 0.0010408459016174791 0.019630381338785134 0 0.00023399991962087306 0.01461354106173513 0 0.00024774082550965763 0.01459483218131101 0 0.00019824464610585435 0.014743610893093622 0 0.00023399991962087306 0.01461354106173513 0 0.0010539422326834753 0.019650343715156181 0 0.001073982457001726 0.019611183667340042 0 0.0010408459016174791 0.019630381338785134 0 -0.0014470409199240405 0.011509540571872437 0 -0.0016638098085781457 0.011968626792223568 0 -0.00093932052317283014 0.012030041546557603 0 -0.00093932052317283014 0.012030041546557603 0 -0.00028153814851579077 0.011885569258008434 0 -0.00066987054416017236 0.011426749153007787 0 0.00020343504719387486 0.010634286259305776 0 -0.0014470409199240405 0.011509540571872437 0 -0.00066987054416017236 0.011426749153007787 0 0.00040288187396965718 0.011350857273118822 0 -0.00028153814851579077 0.011885569258008434 0 -0.00016332546270139277 0.01118594049231556 0 -0.00028153814851579077 0.011885569258008434 0 -0.00066987054416017236 0.011426749153007787 0 -0.00016332546270139277 0.01118594049231556 0 0.00021436087469874247 0.010633527334048782 0 -0.0014488611579731444 0.011514771480140644 0 -0.00056879149301790907 0.010681589138784271 0 0.00031275137003287901 0.013052988374113405 0 0.00036761708880229683 0.013180231293720188 0 0.00087645408754420532 0.013127493442450861 0 0.00029689201575055336 0.014214649663628903 0 0.00040994935725745176 0.010361969807670351 0 -0.00056879149301790907 0.010681589138784271 0 -0.0009391817089615805 0.010431055836297732 0 6.0073262729670179e-05 0.0099904498731983159 0 0.00040994935725745176 0.010361969807670351 0 -0.00097479365255847682 0.010419617665697427 0 0.00022046432345890438 0.011031782158545705 0 0.00020343504719387486 0.010634286259305776 0 -0.00016332546270139277 0.01118594049231556 0 0.00020343504719387486 0.010634286259305776 0 -0.00066987054416017236 0.011426749153007787 0 -0.00016332546270139277 0.01118594049231556 0 0.00021436087469874247 0.010633527334048782 0 0.00040994935725745176 0.010361969807670351 0 -0.00056879149301790907 0.010681589138784271 0 -0.00056879149301790907 0.010681589138784271 0 -0.0009391817089615805 0.010431055836297732 0 -0.0010180502777597186 0.010598538218949086 0 0.00027290080804061453 0.01345620802159786 0 0.00030274002120563861 0.01347621873116199 0 0.00036761708880229683 0.013180231293720188 0 0.00023737646486966056 0.013857669551395139 0 0.00030274002120563861 0.01347621873116199 0 0.00023737646486966056 0.013857669551395139 0 -0.00056984320966506461 0.013676633603778904 0 -0.00044339530616477308 0.013409729294203655 0 0.00069588908067348026 0.013627773801944564 0 0.00036761708880229683 0.013180231293720188 0 0.00030274002120563861 0.01347621873116199 0 0.00029689201575055336 0.014214649663628903 0 0.00030274002120563861 0.01347621873116199 0 -0.00019571330102609351 0.013975957656976616 0 -0.00034628862561980026 0.014293647160397284 0 -5.2406616766712063e-05 0.01415477544068598 0 -0.0014488611579731444 0.011514771480140644 0 -0.00056879149301790907 0.010681589138784271 0 -0.0010186125971896256 0.010597823747952267 0 -0.00034628862561980026 0.014293647160397284 0 -5.2406616766712063e-05 0.01415477544068598 0 -9.5965311390412716e-05 0.014341839384194758 0 0.00024774082550965763 0.01459483218131101 0 0.00034263232774156262 0.014977202015755239 0 -5.2406616766712063e-05 0.01415477544068598 0 -9.5965311390412716e-05 0.014341839384194758 0 0.00035520249509057546 0.014325014539771926 0 1.2953615741959877e-05 0.014422756652508879 0 0.00059744316851883812 0.014400622733109537 0 0.00064165072340551768 0.014448196658634364 0 0.00037585162003437862 0.015077154217550411 0 0.00023473626638559835 0.014420687256522229 0 0.00048036923175008751 0.015073117398041742 0 1.2953615741959877e-05 0.014422756652508879 0 0.00064165072340551768 0.014448196658634364 0 0.00078068431726345305 0.014570170661107659 0 -4.2630092177849572e-05 0.013896578574080208 0 -5.2406616766712063e-05 0.01415477544068598 0 0.00035520249509057546 0.014325014539771926 0 0.00023737646486966056 0.013857669551395139 0 0.00013873952313965979 0.014943476317507644 0 0.00023737646486966056 0.013857669551395139 0 0.00034263232774156262 0.014977202015755239 0 0.00034263232774156262 0.014977202015755239 0 0.00034255933279062588 0.014976667637937273 0 0.0010562886213181957 0.01964810008690987 0 0.00097632805103080702 0.019624412198485267 0 0.00095423690251563993 0.019330830935941273 0 -4.6111412666584091e-06 0.015358422542743314 0 0.00034168948515029835 0.015261331214237494 0 -8.1444730057434118e-05 0.014585123089168931 0 0.00037585162003437862 0.015077154217550411 0 0.00023473626638559835 0.014420687256522229 0 0.0010163303465845414 0.01965644436030058 0 0.00097632805103080702 0.019624412198485267 0 0.00097885569185070481 0.019662118146090275 0 0.0010163303465845414 0.01965644436030058 0 0.0010562886213181957 0.01964810008690987 0 0.00097632805103080702 0.019624412198485267 0 -6.5930233920723285e-06 0.015365200458001748 0 -4.6111412666584091e-06 0.015358422542743314 0 0.0010579196709848183 0.019593593920772163 0 0.0010002619132710347 0.019625702476375611 0 0.0010408459016174791 0.019630381338785134 0 0.00024774082550965763 0.01459483218131101 0 -4.6111412666584091e-06 0.015358422542743314 0 0.0010562568256581456 0.017066198475871226 0 0.00073343319749676842 0.016398785917886103 0 0.00097632805103080702 0.019624412198485267 0 0.00092472062633946084 0.019549651481891521 0 0.00092343138758610097 0.019618620728133109 0 0.00095089026931510453 0.019648239191332156 0 0.00097632805103080702 0.019624412198485267 0 0.00092343138758610097 0.019618620728133109 0 0.00095089026931510453 0.019648239191332156 0 0.00092343138758610097 0.019618620728133109 0 0.00092428880620277001 0.019655135576089965 0 0.00095089026931510453 0.019648239191332156 0 0.00097632805103080702 0.019624412198485267 0 0.00097885569185070481 0.019662118146090275 0 0.00069594147601598601 0.015535845267167992 0 0.0004011498972858744 0.015479687882809087 0 0.00058321968688583993 0.015383699359203879 0 0.00097632805103080702 0.019624412198485267 0 0.00095423690251563993 0.019330830935941273 0 0.00076801023800421634 0.019335322684859099 0 0.00059734126468520381 0.014400651891759517 0 0.00064165072340551768 0.014448196658634364 0 0.0007154182446229959 0.01439599564076147 0 0.00034263232774156262 0.014977202015755239 0 0.00034168948515029835 0.015261331214237494 0 0.00034168948515029835 0.015261331214237494 0 0.00013873952313965979 0.014943476317507644 0 0.00064165072340551768 0.014448196658634364 0 0.0007154182446229959 0.01439599564076147 0 0.00078068431726345305 0.014570170661107659 0 0.00036794661256996661 0.015391971226698558 0 0.0004011498972858744 0.015479687882809087 0 0.00058321968688583993 0.015383699359203879 0 0.00034168948515029835 0.015261331214237494 0 0.00073343319749676842 0.016398785917886103 0 0.00073343319749676842 0.016398785917886103 0 0.00072844502177858803 0.017505122466908007 0 0.00099910937118950684 0.0163559238521702 0 0.00073343319749676842 0.016398785917886103 0 0.00092472062633946084 0.019549651481891521 0 0.00086030385502336817 0.019585193209163129 0 0.00092343138758610097 0.019618620728133109 0 0.00092472062633946084 0.019549651481891521 0 0.00086030385502336817 0.019585193209163129 0 0.00078871904170729756 0.019534812035418601 0 0.0015159915420757161 0.01937591243421766 0 0.0016178448390293675 0.019512951957383843 0 0.0012117483098849388 0.019538325659053397 0 0.00086030385502336817 0.019585193209163129 0 0.00078871904170729756 0.019534812035418601 0 0.00080970294034281602 0.019596514340413602 0 0.00075923881912523614 0.019624605222299932 0 0.00078871904170729756 0.019534812035418601 0 0.00080970294034281602 0.019596514340413602 0 0.00075923881912523614 0.019624605222299932 0 0.00080970294034281602 0.019596514340413602 0 0.00082420462710933477 0.019638292487237644 0 0.00086030385502336817 0.019585193209163129 0 0.00080970294034281602 0.019596514340413602 0 0.00082420462710933477 0.019638292487237644 0 0.00082420462710933477 0.019638292487237644 0 0.00088070242411514852 0.019656989823997183 0 0.00084528696720138484 0.019713871246236955 0 0.00075923881912523614 0.019624605222299932 0 0.00082420462710933477 0.019638292487237644 0 0.00077208752650124589 0.019690914973369479 0 0.00086030385502336817 0.019585193209163129 0 0.00092343138758610097 0.019618620728133109 0 0.00088070242411514852 0.019656989823997183 0 0.00086030385502336817 0.019585193209163129 0 0.00082420462710933477 0.019638292487237644 0 0.00088070242411514852 0.019656989823997183 0 0.00092343138758610097 0.019618620728133109 0 0.00088070242411514852 0.019656989823997183 0 0.00092428880620277001 0.019655135576089965 0 0.00088070242411514852 0.019656989823997183 0 0.00092428880620277001 0.019655135576089965 0 0.00091149929002535244 0.019701904357725696 0 0.00088070242411514852 0.019656989823997183 0 0.00091149929002535244 0.019701904357725696 0 0.00084528696720138484 0.019713871246236955 0 0.00091149929002535244 0.019701904357725696 0 0.00084528696720138484 0.019713871246236955 0 0.00088219222991959526 0.019764249383721524 0 0.00082420462710933477 0.019638292487237644 0 0.00077208752650124589 0.019690914973369479 0 0.00084528696720138484 0.019713871246236955 0 0.00077596637277945694 0.019764255119841076 0 0.00084528696720138484 0.019713871246236955 0 0.00083218095325132875 0.019800307113608653 0 0.00077596637277945694 0.019764255119841076 0 0.00077208752650124589 0.019690914973369479 0 0.00084528696720138484 0.019713871246236955 0 0.00073535789172903779 0.019906321891253853 0 0.00087478747691918906 0.019843408243596612 0 0.00083218095325132875 0.019800307113608653 0 0.00087478747691918906 0.019843408243596612 0 0.00083218095325132875 0.019800307113608653 0 0.00088219222991959526 0.019764249383721524 0 0.00084528696720138484 0.019713871246236955 0 0.00083218095325132875 0.019800307113608653 0 0.00088219222991959526 0.019764249383721524 0 0.00087478747691918906 0.019843408243596612 0 0.00088219222991959526 0.019764249383721524 0 0.00094070562665719718 0.019743848835353454 0 0.00087478747691918906 0.019843408243596612 0 0.00094070562665719718 0.019743848835353454 0 0.00096663830883783662 0.019777212173162879 0 0.00091149929002535244 0.019701904357725696 0 0.00088219222991959526 0.019764249383721524 0 0.00094070562665719718 0.019743848835353454 0 0.00094070562665719718 0.019743848835353454 0 0.00098013143136047335 0.019720417757095991 0 0.00096663830883783662 0.019777212173162879 0 0.00098013143136047335 0.019720417757095991 0 0.00096663830883783662 0.019777212173162879 0 0.0010030653598458801 0.01974090806919359 0 0.00099748098836313572 0.019777851413928217 0 0.00096663830883783662 0.019777212173162879 0 0.0010030653598458801 0.01974090806919359 0 0.00099748098836313572 0.019777851413928217 0 0.0010461063773479428 0.019736968233242197 0 0.0010030653598458801 0.01974090806919359 0 0.0010461063773479428 0.019736968233242197 0 0.0010030653598458801 0.01974090806919359 0 0.00102009379281986 0.019704018927875579 0 0.0010461063773479428 0.019736968233242197 0 0.0010537028069112966 0.019699101970178136 0 0.00102009379281986 0.019704018927875579 0 0.00098013143136047335 0.019720417757095991 0 0.0010030653598458801 0.01974090806919359 0 0.00102009379281986 0.019704018927875579 0 0.00102009379281986 0.019704018927875579 0 0.0010201046801278622 0.01966944381296222 0 0.00099642723488019671 0.019682058267311585 0 0.00098013143136047335 0.019720417757095991 0 0.00102009379281986 0.019704018927875579 0 0.00099642723488019671 0.019682058267311585 0 0.0010434202188108945 0.019678339761960827 0 0.00102009379281986 0.019704018927875579 0 0.0010201046801278622 0.01966944381296222 0 0.0010537028069112966 0.019699101970178136 0 0.0010434202188108945 0.019678339761960827 0 0.00102009379281986 0.019704018927875579 0 0.0010539422326834753 0.019650343715156181 0 0.0010434202188108945 0.019678339761960827 0 0.0010201046801278622 0.01966944381296222 0 0.0010539422326834753 0.019650343715156181 0 0.0010408459016174791 0.019630381338785134 0 0.0010201046801278622 0.01966944381296222 0 0.0010002619132710347 0.019625702476375611 0 0.0010408459016174791 0.019630381338785134 0 0.0010201046801278622 0.01966944381296222 0 0.0010163303465845414 0.01965644436030058 0 0.0010201046801278622 0.01966944381296222 0 0.00099642723488019671 0.019682058267311585 0 0.0010163303465845414 0.01965644436030058 0 0.0010198590456718759 0.019653926676042949 0 0.0010201046801278622 0.01966944381296222 0 -4.6111412666584091e-06 0.015358422542743314 0 4.2669210081509325e-05 0.015497692231512544 0 0.0010163303465845414 0.01965644436030058 0 0.00099642723488019671 0.019682058267311585 0 0.00097885569185070481 0.019662118146090275 0 0.00099642723488019671 0.019682058267311585 0 0.00097885569185070481 0.019662118146090275 0 0.00095675967184534873 0.019684900319888517 0 0.00095089026931510453 0.019648239191332156 0 0.00097885569185070481 0.019662118146090275 0 0.00095675967184534873 0.019684900319888517 0 0.00095089026931510453 0.019648239191332156 0 0.00092428880620277001 0.019655135576089965 0 0.00095675967184534873 0.019684900319888517 0 0.00092428880620277001 0.019655135576089965 0 0.00091149929002535244 0.019701904357725696 0 0.00095675967184534873 0.019684900319888517 0 0.00091149929002535244 0.019701904357725696 0 0.00094070562665719718 0.019743848835353454 0 0.00095675967184534873 0.019684900319888517 0 0.00094070562665719718 0.019743848835353454 0 0.00098013143136047335 0.019720417757095991 0 0.00095675967184534873 0.019684900319888517 0 0.00098013143136047335 0.019720417757095991 0 0.00099642723488019671 0.019682058267311585 0 0.00095675967184534873 0.019684900319888517 0 2.9672668756062344e-05 0.034975578658662618 0 1.2310403252096407e-07 0.035000118197597692 0 9.6714939775856368e-09 0.034999914103169584 0 2.9672668756062344e-05 0.034975578658662618 0 2.7730425341372424e-05 0.034915822306878633 0 1.909739270435027e-05 0.034966761169890628 0 -0.00030401543474424682 0.033756170226489197 0 -0.00030028432239380935 0.03402305414817243 0 2.9672668756062344e-05 0.034975578658662618 0 7.5297161838039573e-05 0.03496710371407942 0 2.7730425341372424e-05 0.034915822306878633 0 0.00019591377055108838 0.034699725633295334 0 -2.4325330756962097e-05 0.034406887807476375 0 2.7730425341372424e-05 0.034915822306878633 0 0.00019591377055108838 0.034699725633295334 0 -2.4325330756962097e-05 0.034406887807476375 0 0.00038140625581544889 0.034231682123824665 0 2.9672668756062344e-05 0.034975578658662618 0 7.5297161838039573e-05 0.03496710371407942 0 5.2167642488753921e-05 0.034927269798896196 0 7.5297161838039573e-05 0.03496710371407942 0 0.00017723994203830832 0.034871593819811336 0 5.2167642488753921e-05 0.034927269798896196 0 1.5725709101916999e-05 0.033823564585978037 0 0.00035591274614713209 0.033771084270711321 0 0.00038140625581544889 0.034231682123824665 0 -0.00030401543474424682 0.033756170226489197 0 -0.00030995757167522932 0.032877131909657568 0 -2.4325330756962097e-05 0.034406887807476375 0 1.5725709101916999e-05 0.033823564585978037 0 0.00038140625581544889 0.034231682123824665 0 0.00017723994203830832 0.034871593819811336 0 0.00012174589293253238 0.034764158931080827 0 0.0002625763403503604 0.034619444375270023 0 -0.00030995757167522932 0.032877131909657568 0 -0.00028832634449052881 0.030962351079741029 0 1.5725709101916999e-05 0.033823564585978037 0 0.00023710499366719773 0.033528472883497709 0 9.3775002591000943e-05 0.033244171199439322 0 1.5725709101916999e-05 0.033823564585978037 0 0.00023710499366719773 0.033528472883497709 0 0.00035591274614713209 0.033771084270711321 0 0.00017723994203830832 0.034871593819811336 0 0.00012174589293253238 0.034764158931080827 0 5.2167642488753921e-05 0.034927269798896196 0 5.2167642488753921e-05 0.034927269798896196 0 1.2310403252096407e-07 0.035000118197597692 0 2.3876797981264749e-05 0.034743886559399653 0 0.00012174589293253238 0.034764158931080827 0 5.2167642488753921e-05 0.034927269798896196 0 2.3876797981264749e-05 0.034743886559399653 0 2.9672668756062344e-05 0.034975578658662618 0 5.2167642488753921e-05 0.034927269798896196 0 1.2310403252096407e-07 0.035000118197597692 0 1.2310403252096407e-07 0.035000118197597692 0 2.3876797981264749e-05 0.034743886559399653 0 -0.00019607690646779942 0.034265033380495524 0 1.2310403252096407e-07 0.035000118197597692 0 -1.4300212338445879e-06 0.034996405805980159 0 -0.00019607690646779942 0.034265033380495524 0 2.3876797981264749e-05 0.034743886559399653 0 -0.00019607690646779942 0.034265033380495524 0 0.00012266504781745149 0.034600282066139493 0 -1.4300212338445879e-06 0.034996405805980159 0 -0.00019607690646779942 0.034265033380495524 0 2.5732099309654998e-06 0.030860915014094333 0 -0.00019607690646779942 0.034265033380495524 0 0.00060707538777614615 0.033548603002033772 0 0.00029837774640497191 0.034187426374444052 0 -0.00019607690646779942 0.034265033380495524 0 2.5732099309654998e-06 0.030860915014094333 0 0.00060707538777614615 0.033548603002033772 0 1.0509611881305888e-06 0.030851187807510342 0 0.00034728312079721413 0.029505836087720422 0 -0.00013657757781471554 0.029654041560479464 0 -3.3350607682871118e-07 0.030854650886542875 0 -0.00012054633706627225 0.031099599505261526 0 0.00060707538777614615 0.033548603002033772 0 0.00029837774640497191 0.034187426374444052 0 0.00058834454349239581 0.034692747629638185 0 -0.00012054633706627225 0.031099599505261526 0 -0.00028832634449052881 0.030962351079741029 0 0.00034728312079721413 0.029505836087720422 0 0.00036293203344750442 0.029013918703613934 0 0.0001364718190898256 0.029299986426621613 0 0.00036293203344750442 0.029013918703613934 0 0.00012705938267045669 0.029009652068772238 0 0.0001364718190898256 0.029299986426621613 0 -0.00019607690646779942 0.034265033380495524 0 0.00029837774640497191 0.034187426374444052 0 0.00012266504781745149 0.034600282066139493 0 0.00029837774640497191 0.034187426374444052 0 0.00012266504781745149 0.034600282066139493 0 0.00058834454349239581 0.034692747629638185 0 -0.00023241907717767125 0.031057386162614213 0 -0.00028832634449052881 0.030962351079741029 0 0.00012174589293253238 0.034764158931080827 0 0.00012266504781745149 0.034600282066139493 0 0.0002625763403503604 0.034619444375270023 0 0.00012174589293253238 0.034764158931080827 0 2.3876797981264749e-05 0.034743886559399653 0 0.00012266504781745149 0.034600282066139493 0 9.3775002591000943e-05 0.033244171199439322 0 0.00029617500506385074 0.033330004002895604 0 0.00036350148753089908 0.033243952478972778 0 -0.00028832634449052881 0.030962351079741029 0 -0.00017174064230649581 0.030128529227206564 0 0.00023710499366719773 0.033528472883497709 0 9.3775002591000943e-05 0.033244171199439322 0 0.00029617500506385074 0.033330004002895604 0 0.00051676257932091636 0.03330950349355543 0 0.000382915576830761 0.033258277448001465 0 0.00060231509044106595 0.033286718207386094 0 -0.00017174064230649581 0.030128529227206564 0 0.00033811610932534485 0.029659076356896866 0 0.00041278147156685575 0.033474538600825374 0 0.00051676257932091636 0.03330950349355543 0 0.000382915576830761 0.033258277448001465 0 0.00023710499366719773 0.033528472883497709 0 0.00029617500506385074 0.033330004002895604 0 0.00041278147156685575 0.033474538600825374 0 0.00029617500506385074 0.033330004002895604 0 0.00041278147156685575 0.033474538600825374 0 0.000382915576830761 0.033258277448001465 0 -0.00018182589121549421 0.030151705779441765 0 -0.00017174064230649581 0.030128529227206564 0 0.00051676257932091636 0.03330950349355543 0 0.00060231509044106595 0.033286718207386094 0 0.00057762647568217283 0.033333293602866521 0 0.0011724389540368164 0.024869830018730072 0 0.0015174021505457767 0.025563914821621538 0 0.00062679649470063223 0.025466479243241722 0 -0.00017174064230649581 0.030128529227206564 0 0.00018691448402892357 0.02886174839280576 0 0.0020548014118084287 0.024873907683839982 0 0.0011724389540368164 0.024869830018730072 0 0.0015174021505457767 0.025563914821621538 0 0.00012705938267045669 0.029009652068772238 0 -0.00014006395251995972 0.029417214265736291 0 0.0001364718190898256 0.029299986426621613 0 0.00034728312079721413 0.029505836087720422 0 0.0001364718190898256 0.029299986426621613 0 -0.00013657757781471554 0.029654041560479464 0 -0.00014006395251995972 0.029417214265736291 0 0.0001364718190898256 0.029299986426621613 0 -0.00013657757781471554 0.029654041560479464 0 0.0015174021505457767 0.025563914821621538 0 0.0010105091121814704 0.026313152958324246 0 0.00062679649470063223 0.025466479243241722 0 0.00018691448402892357 0.02886174839280576 0 0.00013527035562059794 0.028201251337679801 0 -0.00014006395251995972 0.029417214265736291 0 -0.00013657757781471554 0.029654041560479464 0 -1.6806832527512662e-05 0.029327766331867886 0 -1.6806832527512662e-05 0.029327766331867886 0 -1.0585385450466582e-06 0.02925347560395699 0 1.0623659067996008e-06 0.027653892531144305 0 -0.00013657757781471554 0.029654041560479464 0 -1.6806832527512662e-05 0.029327766331867886 0 -1.0585385450466582e-06 0.02925347560395699 0 1.0509611881305888e-06 0.030851187807510342 0 -0.00013657757781471554 0.029654041560479464 0 -1.0585385450466582e-06 0.02925347560395699 0 -0.00017625306496718782 0.026108639992844757 0 1.6975788423082907e-06 0.027648852365786031 0 -4.0771727829185646e-05 0.025930514387136304 0 -0.00017625306496718782 0.026108639992844757 0 1.6975788423082907e-06 0.027648852365786031 0 -1.46176457430559e-06 0.025821878161541363 0 0.0010105091121814704 0.026313152958324246 0 1.6975788423082907e-06 0.027648852365786031 0 -4.0771727829185646e-05 0.025930514387136304 0 0.00013527035562059794 0.028201251337679801 0 8.9051077812418267e-07 0.027653882535003334 0 0.0010105091121814704 0.026313152958324246 0 -4.0771727829185646e-05 0.025930514387136304 0 0.00062679649470063223 0.025466479243241722 0 -0.00017625306496718782 0.026108639992844757 0 -4.0771727829185646e-05 0.025930514387136304 0 -0.00036363935486357317 0.02558892628406393 0 -4.0771727829185646e-05 0.025930514387136304 0 -3.4867162476301195e-05 0.025347268939972935 0 0.00062679649470063223 0.025466479243241722 0 -4.0771727829185646e-05 0.025930514387136304 0 -3.4867162476301195e-05 0.025347268939972935 0 -0.00040135452766496129 0.025492124555429953 0 0.0011724389540368164 0.024869830018730072 0 0.00062679649470063223 0.025466479243241722 0 0.00031322425440542009 0.024918005163118075 0 -3.4867162476301195e-05 0.025347268939972935 0 0.00062679649470063223 0.025466479243241722 0 0.00031322425440542009 0.024918005163118075 0 0.00060231509044106595 0.033286718207386094 0 0.00061903168962019702 0.033291722447672402 0 0.00060798991548237651 0.03329953322966258 0 0.00033811610932534485 0.029659076356896866 0 0.00058594589241712895 0.029256353229142797 0 0.00061903168962019702 0.033291722447672402 0 0.00060724086934972339 0.033290757240900144 0 0.00060798991548237651 0.03329953322966258 0 0.00061903168962019702 0.033291722447672402 0 0.00060724086934972339 0.033290757240900144 0 0.00055044640791432657 0.033268478576120135 0 0.00058594589241712895 0.029256353229142797 0 0.0008712180539827177 0.028870935329698668 0 0.00061903168962019702 0.033291722447672402 0 0.00055044640791432657 0.033268478576120135 0 0.00052001541280861506 0.033272070042429949 0 0.00060724086934972339 0.033290757240900144 0 0.00055044640791432657 0.033268478576120135 0 0.00062328314945895354 0.033309506056667888 0 -3.4867162476301195e-05 0.025347268939972935 0 0.00031322425440542009 0.024918005163118075 0 -0.00036561578377791124 0.024999587594438023 0 0.00055044640791432657 0.033268478576120135 0 0.00053939988096437185 0.032867511501999569 0 0.000818987147868897 0.032860175670860178 0 0.00059152969265798623 0.033285793859184593 0 0.00058599521740388164 0.033299158223193653 0 0.00053939988096437185 0.032867511501999569 0 0.00070252228070446262 0.032662886969508025 0 0.00064437061181047632 0.03244699485530287 0 0.00060258559154385794 0.030562129636460485 0 0.00053573990441440624 0.031015284827335159 0 0.00053939988096437185 0.032867511501999569 0 0.00070252228070446262 0.032662886969508025 0 0.000818987147868897 0.032860175670860178 0 0.0006418325066915719 0.032265703041007718 0 0.00064437061181047632 0.03244699485530287 0 0.00064211611400637474 0.032447801153760857 0 0.00070252228070446262 0.032662886969508025 0 0.00081955838149293855 0.032574240964967242 0 0.00073776958503273633 0.032530993506822599 0 0.00070252228070446262 0.032662886969508025 0 0.00064437061181047632 0.03244699485530287 0 0.00073776958503273633 0.032530993506822599 0 0.00081955838149293855 0.032574240964967242 0 0.000818987147868897 0.032860175670860178 0 0.0010372273119805694 0.03248802316252402 0 0.00058599521740388164 0.033299158223193653 0 0.00047472058291541205 0.033467789167473581 0 0.00070252228070446262 0.032662886969508025 0 0.00081955838149293855 0.032574240964967242 0 0.000818987147868897 0.032860175670860178 0 0.00062328314945895354 0.033309506056667888 0 0.00060798991548237651 0.03329953322966258 0 0.00057762647568217283 0.033333293602866521 0 0.00060724086934972339 0.033290757240900144 0 0.00062328314945895354 0.033309506056667888 0 0.00060798991548237651 0.03329953322966258 0 0.00060231509044106595 0.033286718207386094 0 0.00060798991548237651 0.03329953322966258 0 0.00057762647568217283 0.033333293602866521 0 0.0005055276920423469 0.033478324118312683 0 0.0005069406223778398 0.033497718223175245 0 0.00041278147156685575 0.033474538600825374 0 0.00051676257932091636 0.03330950349355543 0 0.00073396480672902368 0.033796488567958673 0 0.00041278147156685575 0.033474538600825374 0 0.00073396480672902368 0.033796488567958673 0 0.00035591274614713209 0.033771084270711321 0 0.00023710499366719773 0.033528472883497709 0 0.00041278147156685575 0.033474538600825374 0 0.00035591274614713209 0.033771084270711321 0 0.00073396480672902368 0.033796488567958673 0 0.00035591274614713209 0.033771084270711321 0 0.00038140625581544889 0.034231682123824665 0 0.00062328314945895354 0.033309506056667888 0 0.00057762647568217283 0.033333293602866521 0 0.00059243729091216428 0.033368671967222735 0 0.00073396480672902368 0.033796488567958673 0 0.00089091099987273254 0.034268424968990269 0 0.00038140625581544889 0.034231682123824665 0 0.0005069406223778398 0.033497718223175245 0 0.00047472058291541205 0.033467789167473581 0 0.00047472058291541205 0.033467789167473581 0 0.00023937850948105635 0.034137103361823171 0 0.00089091099987273254 0.034268424968990269 0 0.00038140625581544889 0.034231682123824665 0 0.00049660192604959697 0.034755951749987517 0 0.00019591377055108838 0.034699725633295334 0 0.00038140625581544889 0.034231682123824665 0 0.00049660192604959697 0.034755951749987517 0 0.00024631815952436489 0.034645933091090084 0 0.00024546498719824164 0.034649896338314098 0 0.00024481121437082393 0.034649375084854744 0 0.00088748016038070563 0.032178276930691432 0 0.00080305242338745959 0.03232368585192761 0 0.00066851102327906314 0.032175972580959999 0 0.0010372273119805694 0.03248802316252402 0 0.00088748016038070563 0.032178276930691432 0 0.00080305242338745959 0.03232368585192761 0 0.00047472058291541205 0.033467789167473581 0 0.00036005315769196213 0.03301215479086142 0 0.00066851102327906314 0.032175972580959999 0 0.00069809201554219848 0.032369566587095881 0 0.00064211611400637474 0.032447801153760857 0 0.00080305242338745959 0.03232368585192761 0 0.00066851102327906314 0.032175972580959999 0 0.00069809201554219848 0.032369566587095881 0 0.00030884140982064256 0.030606685869903897 0 0.0005094096298211727 0.02953317480051855 0 -0.0016472243881057267 0.027009803922514754 0 -0.0010573862976849015 0.025319230586133321 0 -0.00079995627892140279 0.026058959480895049 0 0.00069809201554219848 0.032369566587095881 0 0.00064437061181047632 0.03244699485530287 0 0.0007785778306615077 0.032447184249300029 0 0.00080305242338745959 0.03232368585192761 0 0.00069809201554219848 0.032369566587095881 0 0.0007785778306615077 0.032447184249300029 0 0.00069809201554219848 0.032369566587095881 0 0.00064437061181047632 0.03244699485530287 0 0.00064211611400637474 0.032447801153760857 0 0.00064437061181047632 0.03244699485530287 0 0.00073776958503273633 0.032530993506822599 0 0.0007785778306615077 0.032447184249300029 0 0.00081955838149293855 0.032574240964967242 0 0.00073776958503273633 0.032530993506822599 0 0.0007785778306615077 0.032447184249300029 0 0.0010372273119805694 0.03248802316252402 0 0.00080305242338745959 0.03232368585192761 0 0.0007785778306615077 0.032447184249300029 0 0.00081955838149293855 0.032574240964967242 0 0.0010372273119805694 0.03248802316252402 0 0.0007785778306615077 0.032447184249300029 0 0.00027566189051775807 0.025879147294937357 0 0.00084562982162163084 0.025294251489244742 0 0.001322484582543043 0.024953872328359137 0 0.00016294283971805739 0.025970275874277363 0 0.00092310606597490038 0.02588020341068567 0 0.0012198864199340011 0.025097157992667093 0 -0.00065650246311983057 0.023187043257403093 0 -0.0002543748511131264 0.022303430249783762 0 0.00027566189051775807 0.025879147294937357 0 0.00012563645018763751 0.025396827076632038 0 -0.00034742674173829428 0.02583608214894402 0 0.00027566189051775807 0.025879147294937357 0 0.00084562982162163084 0.025294251489244742 0 0.00012563645018763751 0.025396827076632038 0 0.00016294283971805739 0.025970275874277363 0 0.00092310606597490038 0.02588020341068567 0 0.00062461946709389446 0.026447807625700214 0 0.00084562982162163084 0.025294251489244742 0 0.00034195567217543794 0.02502092724024781 0 0.00065676902204121475 0.024778841748825515 0 0.00084562982162163084 0.025294251489244742 0 0.0010252483903623586 0.024832576245558322 0 0.00065676902204121475 0.024778841748825515 0 0.00084562982162163084 0.025294251489244742 0 0.00034195567217543794 0.02502092724024781 0 0.00012563645018763751 0.025396827076632038 0 0.00034195567217543794 0.02502092724024781 0 0.00012563645018763751 0.025396827076632038 0 -5.9229119719620791e-05 0.02500404457577338 0 -5.9229119719620791e-05 0.02500404457577338 0 -0.0004516268751657051 0.025013696368660306 0 -0.00034004367568151123 0.025364454469427741 0 -0.0004516268751657051 0.025013696368660306 0 -0.00034004367568151123 0.025364454469427741 0 -0.00062717489392863769 0.025537680297874354 0 0.00012563645018763751 0.025396827076632038 0 -5.9229119719620791e-05 0.02500404457577338 0 -0.00034004367568151123 0.025364454469427741 0 -0.0004516268751657051 0.025013696368660306 0 -0.0010573862976849015 0.025319230586133321 0 -0.00062717489392863769 0.025537680297874354 0 -0.0010573862976849015 0.025319230586133321 0 -0.00062717489392863769 0.025537680297874354 0 -0.00079995627892140279 0.026058959480895049 0 -0.00062717489392863769 0.025537680297874354 0 -0.00034742674173829428 0.02583608214894402 0 -0.00079995627892140279 0.026058959480895049 0 0.00012563645018763751 0.025396827076632038 0 -0.00034004367568151123 0.025364454469427741 0 -0.00034742674173829428 0.02583608214894402 0 -0.00034004367568151123 0.025364454469427741 0 -0.00062717489392863769 0.025537680297874354 0 -0.00034742674173829428 0.02583608214894402 0 0.00027566189051775807 0.025879147294937357 0 -0.00034742674173829428 0.02583608214894402 0 -0.00087853402990978335 0.026827297184468038 0 -0.00087853402990978335 0.026827297184468038 0 0.00015940409407726752 0.026917554371743993 0 -0.0004928107462761368 0.027449143882561023 0 0.00016294283971805739 0.025970275874277363 0 -0.00087853402990978335 0.026827297184468038 0 0.00015940409407726752 0.026917554371743993 0 -0.00065650246311983057 0.023187043257403093 0 -0.00085936561233438248 0.023531713332157738 0 -0.00034742674173829428 0.02583608214894402 0 -0.00079995627892140279 0.026058959480895049 0 -0.00087853402990978335 0.026827297184468038 0 -0.0016472243881057267 0.027009803922514754 0 -0.00079995627892140279 0.026058959480895049 0 -0.00087853402990978335 0.026827297184468038 0 0.00015940409407726752 0.026917554371743993 0 0.00062461946709389446 0.026447807625700214 0 0.0012380635669820078 0.026888212278594285 0 0.00016294283971805739 0.025970275874277363 0 0.00015940409407726752 0.026917554371743993 0 0.00062461946709389446 0.026447807625700214 0 -0.0010500515185700358 0.019820706023556893 0 -0.0010450448948913394 0.019824815801050066 0 -0.0010431756853874245 0.019815265024214275 0 0.00092310606597490038 0.02588020341068567 0 0.00062461946709389446 0.026447807625700214 0 0.0012380635669820078 0.026888212278594285 0 -0.00050154660552705207 0.021205690044660035 0 -0.0005854955089647936 0.021000663224180833 0 -0.0010450448948913394 0.019824815801050066 0 -0.0010431756853874245 0.019815265024214275 0 -0.0010161661785524595 0.019838162743588069 0 -0.00098588688326002442 0.019838285440809084 0 -0.00099298286334172851 0.01983633642905026 0 -0.0010161661785524595 0.019838162743588069 0 -0.00098588688326002442 0.019838285440809084 0 -0.0010161661785524595 0.019838162743588069 0 -0.00099300807664617755 0.01984993089676574 0 -0.00099298286334172851 0.01983633642905026 0 -0.00097758903460899954 0.019812664678193662 0 -0.0010098226458747734 0.019802157721483759 0 -0.00098588688326002442 0.019838285440809084 0 -0.00096224047453303011 0.0198248355991139 0 -0.00099298286334172851 0.01983633642905026 0 -0.00096224047453303011 0.0198248355991139 0 -0.00099298286334172851 0.01983633642905026 0 -0.00097758903460899954 0.019812664678193662 0 -0.00096224047453303011 0.0198248355991139 0 -0.00097758903460899954 0.019812664678193662 0 -0.00095504644608502512 0.019802785183779877 0 -0.00016891351341613632 0.02346265719167814 0 -0.00019400526738091848 0.022115321432819749 0 -0.00050154660552705207 0.021205690044660035 0 -0.00020263968598670059 0.021933880554015399 0 -0.0010431756853874245 0.019815265024214275 0 -0.0010396924462280535 0.019817109039642143 0 -0.0010397431059446533 0.019817508515544088 0 -0.0010500515185700358 0.019820706023556893 0 -0.0010431756853874245 0.019815265024214275 0 -0.0010396924462280535 0.019817109039642143 0 0.00092310606597490038 0.02588020341068567 0 0.0012380635669820078 0.026888212278594285 0 0.0013727471977981985 0.024971556969990583 0 0.00092310606597490038 0.02588020341068567 0 0.0012198864199340011 0.025097157992667093 0 0.0013727471977981985 0.024971556969990583 0 -0.00025452945911394118 0.02233847616476466 0 -0.0002543748511131264 0.022303430249783762 0 0.00084562982162163084 0.025294251489244742 0 0.0013072059085222493 0.024973059334518054 0 0.0010252483903623586 0.024832576245558322 0 0.0010252483903623586 0.024832576245558322 0 0.0011714186904204142 0.024623249895716681 0 0.0012883304986038575 0.024772727289234554 0 0.0013072059085222493 0.024973059334518054 0 0.0010252483903623586 0.024832576245558322 0 0.0012883304986038575 0.024772727289234554 0 0.0010252483903623586 0.024832576245558322 0 0.0011714186904204142 0.024623249895716681 0 0.00088541980932312948 0.02446682250997546 0 0.0011714186904204142 0.024623249895716681 0 0.0014791871942811177 0.024522373044151228 0 0.001153561662482782 0.02442408884708715 0 0.0011714186904204142 0.024623249895716681 0 0.001153561662482782 0.02442408884708715 0 0.00088541980932312948 0.02446682250997546 0 0.0011714186904204142 0.024623249895716681 0 0.0014791871942811177 0.024522373044151228 0 0.0012883304986038575 0.024772727289234554 0 -0.00015810080998801678 0.022028532619752832 0 -0.00019400526738091848 0.022115321432819749 0 0.0014791871942811177 0.024522373044151228 0 0.0012883304986038575 0.024772727289234554 0 0.0014575082046207114 0.024849739984061089 0 0.00021845760342562706 0.022016346760536539 0 0.00025176492312540074 0.021539704165054581 0 7.7230353061755522e-05 0.021682554627269517 0 -0.00019400526738091848 0.022115321432819749 0 -0.00020263968598670059 0.021933880554015399 0 0.0013072059085222493 0.024973059334518054 0 0.0012883304986038575 0.024772727289234554 0 0.0014575082046207114 0.024849739984061089 0 -0.0002543748511131264 0.022303430249783762 0 -0.00019400526738091848 0.022115321432819749 0 -0.00015810080998801678 0.022028532619752832 0 -0.00020263968598670059 0.021933880554015399 0 -0.00020263968598670059 0.021933880554015399 0 -0.00016881307415741919 0.021444328610107269 0 0.00032446286782771125 0.019607467138294962 0 0.00022799070484821838 0.019899064315176698 0 -1.9001075551543747e-05 0.019887698472007383 0 0.00036139648840494192 0.019695811763397526 0 0.00032446286782771125 0.019607467138294962 0 0.00022799070484821838 0.019899064315176698 0 0.0014791871942811177 0.024522373044151228 0 0.0010365979506544362 0.02406904609609201 0 0.001153561662482782 0.02442408884708715 0 0.0010365979506544362 0.02406904609609201 0 0.001153561662482782 0.02442408884708715 0 0.00088541980932312948 0.02446682250997546 0 -0.0010098226458747734 0.019802157721483759 0 -0.000968273603740341 0.019773717711988392 0 -0.00096388467711858248 0.019767068022763068 0 -0.0010098226458747734 0.019802157721483759 0 -0.00097337446186263337 0.019794698651559164 0 -0.000968273603740341 0.019773717711988392 0 -0.00020263968598670059 0.021933880554015399 0 -0.00028351770813622029 0.02121361855981483 0 -0.0003363262679293905 0.02159287879884322 0 -0.00019275096281003913 0.021473451019980966 0 -0.00012783686798634836 0.021460388802620814 0 -0.00097337446186263337 0.019794698651559164 0 -0.00095504644608502512 0.019802785183779877 0 -0.00094890450697145037 0.019780143660054299 0 -0.00097758903460899954 0.019812664678193662 0 -0.00097337446186263337 0.019794698651559164 0 -0.00095504644608502512 0.019802785183779877 0 -0.00097758903460899954 0.019812664678193662 0 -0.0010098226458747734 0.019802157721483759 0 -0.00097337446186263337 0.019794698651559164 0 -0.00097337446186263337 0.019794698651559164 0 -0.000968273603740341 0.019773717711988392 0 -0.00094890450697145037 0.019780143660054299 0 -0.00028272918463719888 0.021209761207454561 0 -0.00028351770813622029 0.02121361855981483 0 -0.000968273603740341 0.019773717711988392 0 -0.00096307859142839131 0.019764229749785249 0 -0.00094890450697145037 0.019780143660054299 0 -1.9001075551543747e-05 0.019887698472007383 0 -4.859175329915787e-05 0.020338654722504661 0 -0.00037156426775954382 0.020186631726719039 0 -1.9001075551543747e-05 0.019887698472007383 0 0.00012324036836753834 0.020119998727753705 0 -4.859175329915787e-05 0.020338654722504661 0 -0.00019275096281003913 0.021473451019980966 0 -0.00012783686798634836 0.021460388802620814 0 -4.9154206065857368e-05 0.021354202499133092 0 -0.00016881307415741919 0.021444328610107269 0 -0.00023794794513926911 0.021092503422794923 0 0.00022799070484821838 0.019899064315176698 0 -1.9001075551543747e-05 0.019887698472007383 0 0.00012324036836753834 0.020119998727753705 0 0.00012324036836753834 0.020119998727753705 0 0.00033202168571058233 0.02030877591538275 0 -4.859175329915787e-05 0.020338654722504661 0 -4.859175329915787e-05 0.020338654722504661 0 -0.00025539476771856254 0.020410988468429182 0 -0.00037156426775954382 0.020186631726719039 0 -0.00015810080998801678 0.022028532619752832 0 -4.8255707030244415e-05 0.021763156256954807 0 0.00022799070484821838 0.019899064315176698 0 0.00012324036836753834 0.020119998727753705 0 0.00033202168571058233 0.02030877591538275 0 0.0014791871942811177 0.024522373044151228 0 0.0010365979506544362 0.02406904609609201 0 0.00083764670982789432 0.023194237849450738 0 0.00036139648840494192 0.019695811763397526 0 0.00022799070484821838 0.019899064315176698 0 0.00033202168571058233 0.02030877591538275 0 -0.00015810080998801678 0.022028532619752832 0 5.5732033861319274e-05 0.022367490973353981 0 0.00027482541895196608 0.022084755076404707 0 0.00026909337302615899 0.022210611271877581 0 0.00032268776593431559 0.022193059821727156 0 0.00083764670982789432 0.023194237849450738 0 0.00044277057682405742 0.023434512102252975 0 0.00065131606962219634 0.023702701542868177 0 0.00083764670982789432 0.023194237849450738 0 0.00020052234324161814 0.023173564087665431 0 0.00022315279796100148 0.02288117579002448 0 0.00020052234324161814 0.023173564087665431 0 0.00044277057682405742 0.023434512102252975 0 0.00010332823476550142 0.023596026030788114 0 0.00083764670982789432 0.023194237849450738 0 0.00020052234324161814 0.023173564087665431 0 0.00044277057682405742 0.023434512102252975 0 0.00044277057682405742 0.023434512102252975 0 0.00031641690607145612 0.023759848394509668 0 0.00065131606962219634 0.023702701542868177 0 0.00044277057682405742 0.023434512102252975 0 0.00010332823476550142 0.023596026030788114 0 0.00031641690607145612 0.023759848394509668 0 0.00010332823476550142 0.023596026030788114 0 0.00031641690607145612 0.023759848394509668 0 -2.6335648135360981e-05 0.023931730244566688 0 0.0010365979506544362 0.02406904609609201 0 0.00083764670982789432 0.023194237849450738 0 0.00065131606962219634 0.023702701542868177 0 0.00031641690607145612 0.023759848394509668 0 0.00065131606962219634 0.023702701542868177 0 0.00063735219769795956 0.024071754028405792 0 0.0010365979506544362 0.02406904609609201 0 0.00065131606962219634 0.023702701542868177 0 0.00063735219769795956 0.024071754028405792 0 0.0010365979506544362 0.02406904609609201 0 0.00063735219769795956 0.024071754028405792 0 0.00088541980932312948 0.02446682250997546 0 0.00063735219769795956 0.024071754028405792 0 0.00088541980932312948 0.02446682250997546 0 0.0005692006964268441 0.024442338686416508 0 0.00031641690607145612 0.023759848394509668 0 0.00063735219769795956 0.024071754028405792 0 0.00018788811316026882 0.024213840425248993 0 0.00031641690607145612 0.023759848394509668 0 0.00018788811316026882 0.024213840425248993 0 -2.6335648135360981e-05 0.023931730244566688 0 0.00063735219769795956 0.024071754028405792 0 0.00018788811316026882 0.024213840425248993 0 0.0005692006964268441 0.024442338686416508 0 0.00018788811316026882 0.024213840425248993 0 0.00027194069324918644 0.024624196689608756 0 0.0005692006964268441 0.024442338686416508 0 0.00027194069324918644 0.024624196689608756 0 0.00065676902204121475 0.024778841748825515 0 0.0005692006964268441 0.024442338686416508 0 0.00018788811316026882 0.024213840425248993 0 0.00027194069324918644 0.024624196689608756 0 -0.00013926267019986053 0.024614392093434238 0 -5.9229119719620791e-05 0.02500404457577338 0 0.00027194069324918644 0.024624196689608756 0 -0.00013926267019986053 0.024614392093434238 0 0.00034195567217543794 0.02502092724024781 0 -5.9229119719620791e-05 0.02500404457577338 0 0.00027194069324918644 0.024624196689608756 0 0.00034195567217543794 0.02502092724024781 0 0.00027194069324918644 0.024624196689608756 0 0.00065676902204121475 0.024778841748825515 0 0.0010252483903623586 0.024832576245558322 0 0.00065676902204121475 0.024778841748825515 0 0.00088541980932312948 0.02446682250997546 0 0.00065676902204121475 0.024778841748825515 0 0.00088541980932312948 0.02446682250997546 0 0.0005692006964268441 0.024442338686416508 0 0.0006418325066915719 0.032265703041007718 0 0.00064211611400637474 0.032447801153760857 0 0.00073111296281853499 0.032264552449419566 0 0.0005094096298211727 0.02953317480051855 0 0.00075489991791352249 0.028778720487392478 0 -0.0010573862976849015 0.025319230586133321 0 -0.0003100882748810896 0.024460850797037054 0 -0.00040666922217054576 0.023734909995610405 0 -0.0004516268751657051 0.025013696368660306 0 -0.0010573862976849015 0.025319230586133321 0 -0.0003100882748810896 0.024460850797037054 0 -0.0004516268751657051 0.025013696368660306 0 -0.00013926267019986053 0.024614392093434238 0 -0.0003100882748810896 0.024460850797037054 0 -5.9229119719620791e-05 0.02500404457577338 0 -0.0004516268751657051 0.025013696368660306 0 -0.00013926267019986053 0.024614392093434238 0 0.00018788811316026882 0.024213840425248993 0 -0.0003100882748810896 0.024460850797037054 0 -2.6335648135360981e-05 0.023931730244566688 0 -0.0003100882748810896 0.024460850797037054 0 -0.00040666922217054576 0.023734909995610405 0 -2.6335648135360981e-05 0.023931730244566688 0 0.00018788811316026882 0.024213840425248993 0 -0.00013926267019986053 0.024614392093434238 0 -0.0003100882748810896 0.024460850797037054 0 0.00060258559154385794 0.030562129636460485 0 0.0008712180539827177 0.028870935329698668 0 0.0006418325066915719 0.032265703041007718 0 0.00073111296281853499 0.032264552449419566 0 0.00068802485397441665 0.032007448178206929 0 0.00075489991791352249 0.028778720487392478 0 0.0010199399632013861 0.028381185918746384 0 0.00020052234324161814 0.023173564087665431 0 -0.00040666922217054576 0.023734909995610405 0 0.00022315279796100148 0.02288117579002448 0 0.00020052234324161814 0.023173564087665431 0 0.00010332823476550142 0.023596026030788114 0 -0.00040666922217054576 0.023734909995610405 0 0.00010332823476550142 0.023596026030788114 0 -0.00040666922217054576 0.023734909995610405 0 -2.6335648135360981e-05 0.023931730244566688 0 0.00073111296281853499 0.032264552449419566 0 0.00068802485397441665 0.032007448178206929 0 0.00082134235939528651 0.032004874386614729 0 0.00055044640791432657 0.033268478576120135 0 0.00053939988096437185 0.032867511501999569 0 0.00052001541280861506 0.033272070042429949 0 -0.00040666922217054576 0.023734909995610405 0 0.00022315279796100148 0.02288117579002448 0 0.00019445819073471337 0.022486319268826601 0 0.0008712180539827177 0.028870935329698668 0 0.0010199399632013861 0.028381185918746384 0 -0.00074417324982440519 0.027362870235938655 0 -9.6274864017643124e-05 0.02736140563207445 0 -0.00042122976284468544 0.02697234558966544 0 0.00032268776593431559 0.022193059821727156 0 0.00034779632584225003 0.02235030678391722 0 0.00030284525277856185 0.022271754648154878 0 5.5732033861319274e-05 0.022367490973353981 0 9.673200788536457e-05 0.022416200060526515 0 0.00083764670982789432 0.023194237849450738 0 0.00030118118194303337 0.022502964047391067 0 0.00034779632584225003 0.02235030678391722 0 0.00083764670982789432 0.023194237849450738 0 0.00022315279796100148 0.02288117579002448 0 0.00030118118194303337 0.022502964047391067 0 0.00022315279796100148 0.02288117579002448 0 0.00030118118194303337 0.022502964047391067 0 0.00019445819073471337 0.022486319268826601 0 0.0010192905689691183 0.028378054056461422 0 0.0010199399632013861 0.028381185918746384 0 0.00030118118194303337 0.022502964047391067 0 0.00026873392965393744 0.022406774960763359 0 0.00034779632584225003 0.02235030678391722 0 0.00026873392965393744 0.022406774960763359 0 0.00034779632584225003 0.02235030678391722 0 0.00048592108870680693 0.022355316689441122 0 0.0010199399632013861 0.028381185918746384 0 0.0011772689905388324 0.026760750121797176 0 -9.6274864017643124e-05 0.02736140563207445 0 -0.00042122976284468544 0.02697234558966544 0 0.00029586913061710126 0.026163191593758732 0 0.00034697829808239667 0.022314730252266709 0 0.00034779632584225003 0.02235030678391722 0 0.00048592108870680693 0.022355316689441122 0 0.00034697829808239667 0.022314730252266709 0 0.00034779632584225003 0.02235030678391722 0 0.00030284525277856185 0.022271754648154878 0 -0.00055732196270370956 0.026483113197945333 0 -0.00042122976284468544 0.02697234558966544 0 0.00029586913061710126 0.026163191593758732 0 -3.4867162476301195e-05 0.025347268939972935 0 -0.00036561578377791124 0.024999587594438023 0 -0.00040135452766496129 0.025492124555429953 0 0.0008712180539827177 0.028870935329698668 0 0.00085781559552310083 0.028025688432004522 0 -0.00074417324982440519 0.027362870235938655 0 -0.00055732196270370956 0.026483113197945333 0 -0.00042122976284468544 0.02697234558966544 0 -4.0771727829185646e-05 0.025930514387136304 0 -0.00040135452766496129 0.025492124555429953 0 -0.00036363935486357317 0.02558892628406393 0 -0.00055732196270370956 0.026483113197945333 0 -0.00036363935486357317 0.02558892628406393 0 0.00029586913061710126 0.026163191593758732 0 0.00085781559552310083 0.028025688432004522 0 0.00085458106718088746 0.027747850928309337 0 0.0011772689905388324 0.026760750121797176 0 0.0012028944437103405 0.026298492376774937 0 0.00029586913061710126 0.026163191593758732 0 1.270285948668043e-05 0.025120077528840972 0 0.00017448244382377293 0.023900830102501845 0 -0.00036363935486357317 0.02558892628406393 0 0.00029586913061710126 0.026163191593758732 0 1.270285948668043e-05 0.025120077528840972 0 -0.00036363935486357317 0.02558892628406393 0 -2.5478646285099028e-05 0.024849958735942947 0 1.270285948668043e-05 0.025120077528840972 0 -2.5478646285099028e-05 0.024849958735942947 0 -1.46176457430559e-06 0.025821878161541363 0 1.4396119833937546e-06 0.023989830599311649 0 -2.5478646285099028e-05 0.024849958735942947 0 1.270285948668043e-05 0.025120077528840972 0 0.00017448244382377293 0.023900830102501845 0 -2.5478646285099028e-05 0.024849958735942947 0 0.00017448244382377293 0.023900830102501845 0 1.4396119833937546e-06 0.023989830599311649 0 -0.00017625306496718782 0.026108639992844757 0 -0.00036363935486357317 0.02558892628406393 0 -1.46176457430559e-06 0.025821878161541363 0 -0.00036363935486357317 0.02558892628406393 0 -2.5478646285099028e-05 0.024849958735942947 0 -1.46176457430559e-06 0.025821878161541363 0 -0.00011539580115417359 0.021934605070084264 0 -8.8723867160840645e-07 0.022159378941833605 0 1.6552644790298282e-05 0.022599764487743045 0 -0.00011539580115417359 0.021934605070084264 0 -8.8723867160840645e-07 0.022159378941833605 0 -0.00026831464335830578 0.021414773948073694 0 -8.8723867160840645e-07 0.022159378941833605 0 1.4396119833937546e-06 0.023989830599311649 0 1.6552644790298282e-05 0.022599764487743045 0 0.00017448244382377293 0.023900830102501845 0 1.4396119833937546e-06 0.023989830599311649 0 1.6552644790298282e-05 0.022599764487743045 0 -3.867498324218056e-06 0.021915318673356478 0 -6.3605194921690994e-06 0.021810929853182195 0 0.00048592108870680693 0.022355316689441122 0 0.00017448244382377293 0.023900830102501845 0 1.6552644790298282e-05 0.022599764487743045 0 0.00048592108870680693 0.022355316689441122 0 1.6552644790298282e-05 0.022599764487743045 0 0.00021651096591033341 0.022295277942952618 0 1.6552644790298282e-05 0.022599764487743045 0 -0.00021874639322672757 0.021437037965535265 0 0.00035082827884218282 0.020928587284899356 0 -0.00011539580115417359 0.021934605070084264 0 1.6552644790298282e-05 0.022599764487743045 0 -0.00021874639322672757 0.021437037965535265 0 -0.00011539580115417359 0.021934605070084264 0 -0.00021874639322672757 0.021437037965535265 0 -0.00026831464335830578 0.021414773948073694 0 -0.00021874639322672757 0.021437037965535265 0 -0.00031808312826987767 0.020969633205150918 0 0.00035082827884218282 0.020928587284899356 0 -0.00031808312826987767 0.020969633205150918 0 0.00035082827884218282 0.020928587284899356 0 -0.00020790127679287643 0.020667400710420253 0 0.00034697829808239667 0.022314730252266709 0 0.00048592108870680693 0.022355316689441122 0 0.00021651096591033341 0.022295277942952618 0 0.00034697829808239667 0.022314730252266709 0 0.00021651096591033341 0.022295277942952618 0 0.00030284525277856185 0.022271754648154878 0 -4.8255707030244415e-05 0.021763156256954807 0 -6.3605194921690994e-06 0.021810929853182195 0 0.00026909337302615899 0.022210611271877581 0 0.00021651096591033341 0.022295277942952618 0 0.00030284525277856185 0.022271754648154878 0 0.00033202168571058233 0.02030877591538275 0 0.00035082827884218282 0.020928587284899356 0 -4.859175329915787e-05 0.020338654722504661 0 0.00026909337302615899 0.022210611271877581 0 0.00032268776593431559 0.022193059821727156 0 0.00030284525277856185 0.022271754648154878 0 0.00035082827884218282 0.020928587284899356 0 -0.00020790127679287643 0.020667400710420253 0 -4.859175329915787e-05 0.020338654722504661 0 -0.00020790127679287643 0.020667400710420253 0 -4.859175329915787e-05 0.020338654722504661 0 -0.00025539476771856254 0.020410988468429182 0 -0.00025331810281806145 0.021003098247788867 0 -0.00023794794513926911 0.021092503422794923 0 -0.00026944607370192169 0.020775820312196418 0 -0.00023794794513926911 0.021092503422794923 0 -0.00039652229520359021 0.020509911261853704 0 -0.00058553510163664787 0.020661645850984647 0 -0.00037156426775954382 0.020186631726719039 0 -0.00025539476771856254 0.020410988468429182 0 -0.00039652229520359021 0.020509911261853704 0 -0.00037156426775954382 0.020186631726719039 0 -0.00094345104931740909 0.019703641445291176 0 -0.00099125875964511056 0.019655569531643245 0 -0.0011583852995195765 0.019888256791766794 0 -0.00020790127679287643 0.020667400710420253 0 -0.00025539476771856254 0.020410988468429182 0 -0.00039652229520359021 0.020509911261853704 0 -0.00039652229520359021 0.020509911261853704 0 -0.0004942589926912362 0.02065365142223095 0 -0.00045587912000604256 0.020748060298294804 0 -0.00039652229520359021 0.020509911261853704 0 -0.0004942589926912362 0.02065365142223095 0 -0.00058553510163664787 0.020661645850984647 0 -0.00052393752379517144 0.020692704357757153 0 -0.0004942589926912362 0.02065365142223095 0 -0.00058553510163664787 0.020661645850984647 0 -0.00052393752379517144 0.020692704357757153 0 -0.0004942589926912362 0.02065365142223095 0 -0.00045587912000604256 0.020748060298294804 0 -0.00020790127679287643 0.020667400710420253 0 -0.00039652229520359021 0.020509911261853704 0 -0.00045587912000604256 0.020748060298294804 0 -0.00032325866481358736 0.020828490971130518 0 -0.00032577424732916423 0.020929496528497852 0 -0.00094345104931740909 0.019703641445291176 0 -0.00073535102028433983 0.019651743955469706 0 -0.00099799914047347645 0.01985133464170347 0 -0.00073535102028433983 0.019651743955469706 0 -0.00081176023725798563 0.01972639514745049 0 -0.00088423278698599784 0.019712932688988914 0 -0.00099125875964511056 0.019655569531643245 0 -0.00090258128903757627 0.019634623499922486 0 -0.0008568839280771528 0.019571640418998178 0 -0.00094345104931740909 0.019703641445291176 0 -0.00099125875964511056 0.019655569531643245 0 -0.00090258128903757627 0.019634623499922486 0 -0.00094345104931740909 0.019703641445291176 0 -0.00090258128903757627 0.019634623499922486 0 -0.00073535102028433983 0.019651743955469706 0 -0.00090258128903757627 0.019634623499922486 0 -0.0008568839280771528 0.019571640418998178 0 -0.00073535102028433983 0.019651743955469706 0 -0.00099125875964511056 0.019655569531643245 0 -0.0008568839280771528 0.019571640418998178 0 -0.00082527559882214876 0.019402166777715418 0 -0.00058553510163664787 0.020661645850984647 0 -0.000545262184516441 0.020705621499990678 0 -0.00047468495277470008 0.020645739458751422 0 -0.00026944607370192169 0.020775820312196418 0 -0.00031301953329410239 0.020622558174660337 0 -0.00052393752379517144 0.020692704357757153 0 -0.00058553510163664787 0.020661645850984647 0 -0.000545262184516441 0.020705621499990678 0 -0.000545262184516441 0.020705621499990678 0 -0.00055105784235098159 0.020698615630723692 0 -0.00047468495277470008 0.020645739458751422 0 -0.00031808312826987767 0.020969633205150918 0 -0.00020790127679287643 0.020667400710420253 0 -0.00045587912000604256 0.020748060298294804 0 -0.00052393752379517144 0.020692704357757153 0 -0.000545262184516441 0.020705621499990678 0 -0.00045587912000604256 0.020748060298294804 0 -0.000545262184516441 0.020705621499990678 0 -0.00045587912000604256 0.020748060298294804 0 -0.00046553856669149217 0.020877609638940042 0 -0.000545262184516441 0.020705621499990678 0 -0.00055105784235098159 0.020698615630723692 0 -0.00046553856669149217 0.020877609638940042 0 -0.00021874639322672757 0.021437037965535265 0 -0.00031808312826987767 0.020969633205150918 0 -0.00046553856669149217 0.020877609638940042 0 -0.00031808312826987767 0.020969633205150918 0 -0.00045587912000604256 0.020748060298294804 0 -0.00046553856669149217 0.020877609638940042 0 -0.00043511044372598987 0.020962573311549288 0 -0.00054751542425049416 0.020478552539410683 0 -0.00026831464335830578 0.021414773948073694 0 -0.00021874639322672757 0.021437037965535265 0 -0.00046553856669149217 0.020877609638940042 0 -0.00043511044372598987 0.020962573311549288 0 -0.00021874639322672757 0.021437037965535265 0 -0.00043511044372598987 0.020962573311549288 0 -0.00026831464335830578 0.021414773948073694 0 -0.00055105784235098159 0.020698615630723692 0 -0.00046553856669149217 0.020877609638940042 0 -0.00043511044372598987 0.020962573311549288 0 -0.00055105784235098159 0.020698615630723692 0 -0.00047468495277470008 0.020645739458751422 0 -0.00054751542425049416 0.020478552539410683 0 -0.00054751542425049416 0.020478552539410683 0 -0.00053758673156574445 0.019875050663579134 0 -0.00026831464335830578 0.021414773948073694 0 -0.00055105784235098159 0.020698615630723692 0 -0.00043511044372598987 0.020962573311549288 0 -0.00054751542425049416 0.020478552539410683 0 -0.00047468495277470008 0.020645739458751422 0 -0.00053294473913865657 0.020005767815513935 0 -0.00054751542425049416 0.020478552539410683 0 -0.00053294473913865657 0.020005767815513935 0 -0.00054751542425049416 0.020478552539410683 0 -0.00053758673156574445 0.019875050663579134 0 -2.074070789789801e-07 0.020328691917479557 0 5.5715294850287187e-06 0.019817494473311211 0 -0.00026831464335830578 0.021414773948073694 0 -0.00031691569946378932 0.019084881063402212 0 -0.00032923693631036768 0.019239482083591355 0 -8.8723867160840645e-07 0.022159378941833605 0 -2.074070789789801e-07 0.020328691917479557 0 -0.00026831464335830578 0.021414773948073694 0 -1.2041710145968583e-06 0.016667068844115219 0 3.4102531886683699e-07 0.018498116227964136 0 -8.9497707693735801e-06 0.017907428443609461 0 -0.00053758673156574445 0.019875050663579134 0 -0.00073445388669124445 0.018174108133404768 0 -0.00058051107548692555 0.018952029776383317 0 5.5715294850287187e-06 0.019817494473311211 0 3.4102531886683699e-07 0.018498116227964136 0 -8.9497707693735801e-06 0.017907428443609461 0 -0.00031691569946378932 0.019084881063402212 0 -0.00026469949362919326 0.018793247065703143 0 -2.074070789789801e-07 0.020328691917479557 0 5.5715294850287187e-06 0.019817494473311211 0 3.4102531886683699e-07 0.018498116227964136 0 -0.00031301953329410239 0.020622558174660337 0 -0.00032715530111904602 0.020561291340596987 0 -0.00047468495277470008 0.020645739458751422 0 -0.00053294473913865657 0.020005767815513935 0 -0.00054924338724499674 0.019195305719936558 0 -0.00068971898803532172 0.018958496853288324 0 -0.0006977408147068072 0.018960628230977425 0 -0.00053758673156574445 0.019875050663579134 0 -0.00058051107548692555 0.018952029776383317 0 -0.00054924338724499674 0.019195305719936558 0 -0.00058051107548692555 0.018952029776383317 0 -0.00054924338724499674 0.019195305719936558 0 -0.00064964537542620284 0.019278870423758365 0 -0.00082527559882214876 0.019402166777715418 0 -0.00054924338724499674 0.019195305719936558 0 -0.00064964537542620284 0.019278870423758365 0 -0.00058051107548692555 0.018952029776383317 0 -0.00071791725679681286 0.018246849951099951 0 -0.00056966302381372723 0.018044831287474295 0 -0.00058051107548692555 0.018952029776383317 0 -0.00064964537542620284 0.019278870423758365 0 -0.00061327875826353581 0.01955714032052042 0 -0.00053294473913865657 0.020005767815513935 0 -0.00053758673156574445 0.019875050663579134 0 -0.00054924338724499674 0.019195305719936558 0 -0.00073445388669124445 0.018174108133404768 0 -0.00058051107548692555 0.018952029776383317 0 -0.00073298704563103546 0.018283943687457241 0 -0.00058051107548692555 0.018952029776383317 0 -0.00071791725679681286 0.018246849951099951 0 -0.00073298704563103546 0.018283943687457241 0 -0.00064504853229728281 0.017895211828671116 0 -0.00073445388669124445 0.018174108133404768 0 -0.00073298704563103546 0.018283943687457241 0 -0.00064504853229728281 0.017895211828671116 0 -0.00073298704563103546 0.018283943687457241 0 -0.00070584849449901316 0.018094401990170011 0 -0.00071791725679681286 0.018246849951099951 0 -0.00073298704563103546 0.018283943687457241 0 -0.00070584849449901316 0.018094401990170011 0 -0.00071791725679681286 0.018246849951099951 0 -0.00070584849449901316 0.018094401990170011 0 -0.00066933852736292677 0.01811710765995592 0 -0.00071791725679681286 0.018246849951099951 0 -0.00066933852736292677 0.01811710765995592 0 -0.00056966302381372723 0.018044831287474295 0 -0.00066933852736292677 0.01811710765995592 0 -0.00056966302381372723 0.018044831287474295 0 -0.00062435083113486218 0.018168354079598849 0 -0.0008568839280771528 0.019571640418998178 0 -0.00082527559882214876 0.019402166777715418 0 -0.00061327875826353581 0.01955714032052042 0 -0.0008568839280771528 0.019571640418998178 0 -0.00061327875826353581 0.01955714032052042 0 -0.00073535102028433983 0.019651743955469706 0 -0.00082527559882214876 0.019402166777715418 0 -0.00064964537542620284 0.019278870423758365 0 -0.00061327875826353581 0.01955714032052042 0 -0.0006977408147068072 0.018960628230977425 0 -0.0007242922011596913 0.019021197637692531 0 -0.00056966302381372723 0.018044831287474295 0 -0.00062435083113486218 0.018168354079598849 0 -0.00069050535875812889 0.018219542619932798 0 -0.00061327875826353581 0.01955714032052042 0 -0.00073535102028433983 0.019651743955469706 0 -0.00074841022741123733 0.019730146440499197 0 -0.00073535102028433983 0.019651743955469706 0 -0.00074841022741123733 0.019730146440499197 0 -0.00081176023725798563 0.01972639514745049 0 -0.00060458846551483618 0.018164014605528408 0 -0.00066933852736292677 0.01811710765995592 0 -0.00062435083113486218 0.018168354079598849 0 -0.0005481277213203017 0.018262807709367727 0 -0.00062435083113486218 0.018168354079598849 0 -0.00062297319548848735 0.018270874126758398 0 -0.00038522741940286121 0.018659648619362357 0 -0.00054741040552854078 0.018855160945959269 0 -0.00062435083113486218 0.018168354079598849 0 -0.00062297319548848735 0.018270874126758398 0 -0.00069050535875812889 0.018219542619932798 0 -0.00053978861750947848 0.018981249037186579 0 -0.00069526351309667333 0.019161537595815459 0 -0.00050111283351298125 0.0191920525474438 0 -0.0003316456301067517 0.019036191221193273 0 -0.00053978861750947848 0.018981249037186579 0 -0.00050111283351298125 0.0191920525474438 0 -0.00075864965991361 0.01913062396109369 0 -0.0007242922011596913 0.019021197637692531 0 -0.00054741040552854078 0.018855160945959269 0 -0.00075864965991361 0.01913062396109369 0 -0.00062297319548848735 0.018270874126758398 0 -0.00070870192388038935 0.018351163865944261 0 -0.00069050535875812889 0.018219542619932798 0 -0.00080336346496254142 0.01981041818194363 0 -0.00074841022741123733 0.019730146440499197 0 -0.00082233528912265018 0.019763776493577072 0 -0.00074841022741123733 0.019730146440499197 0 -0.00081176023725798563 0.01972639514745049 0 -0.00082233528912265018 0.019763776493577072 0 -0.00081176023725798563 0.01972639514745049 0 -0.00088423278698599784 0.019712932688988914 0 -0.00086610901401189852 0.019753212870018869 0 -0.00081176023725798563 0.01972639514745049 0 -0.00086610901401189852 0.019753212870018869 0 -0.00082233528912265018 0.019763776493577072 0 -0.00028351770813622029 0.02121361855981483 0 -0.00032577424732916423 0.020929496528497852 0 -0.00096307859142839131 0.019764229749785249 0 -0.00088423278698599784 0.019712932688988914 0 -0.0009105424630899264 0.019760507109390736 0 -0.00094345104931740909 0.019703641445291176 0 -0.00099799914047347645 0.01985133464170347 0 -0.0011671036077039658 0.019896503231840029 0 -0.0012692029786292142 0.020037752624288821 0 -0.00099799914047347645 0.01985133464170347 0 -0.0011671036077039658 0.019896503231840029 0 -0.00088423278698599784 0.019712932688988914 0 -0.00086610901401189852 0.019753212870018869 0 -0.0009105424630899264 0.019760507109390736 0 -0.00028351770813622029 0.02121361855981483 0 -0.00023794794513926911 0.021092503422794923 0 -0.0009105424630899264 0.019760507109390736 0 -0.00094890450697145037 0.019780143660054299 0 -0.00092185221451899797 0.019805061200917653 0 -0.00096307859142839131 0.019764229749785249 0 -0.0009105424630899264 0.019760507109390736 0 -0.00094890450697145037 0.019780143660054299 0 -0.0009105424630899264 0.019760507109390736 0 -0.00092185221451899797 0.019805061200917653 0 -0.00086784111032335511 0.01979565688766214 0 -0.00095504644608502512 0.019802785183779877 0 -0.00094890450697145037 0.019780143660054299 0 -0.00092185221451899797 0.019805061200917653 0 -0.00080336346496254142 0.01981041818194363 0 -0.00082233528912265018 0.019763776493577072 0 -0.00086784111032335511 0.01979565688766214 0 -0.00086610901401189852 0.019753212870018869 0 -0.00082233528912265018 0.019763776493577072 0 -0.00086784111032335511 0.01979565688766214 0 -0.00086610901401189852 0.019753212870018869 0 -0.0009105424630899264 0.019760507109390736 0 -0.00086784111032335511 0.01979565688766214 0 -0.00068308177328291024 0.019208166528587471 0 -0.00084408301321764185 0.019380163695701863 0 -0.00069875431165725046 0.019347865731547238 0 -0.00075864965991361 0.01913062396109369 0 -0.00088606252111472013 0.019350070458166325 0 -0.00092185221451899797 0.019805061200917653 0 -0.00086784111032335511 0.01979565688766214 0 -0.00090377638004478233 0.01985066762564585 0 -0.00080336346496254142 0.01981041818194363 0 -0.00086784111032335511 0.01979565688766214 0 -0.00090377638004478233 0.01985066762564585 0 -0.00098588688326002442 0.019838285440809084 0 -0.00096224047453303011 0.0198248355991139 0 -0.00090377638004478233 0.01985066762564585 0 -0.00096224047453303011 0.0198248355991139 0 -0.00092185221451899797 0.019805061200917653 0 -0.00090377638004478233 0.01985066762564585 0 -0.00096224047453303011 0.0198248355991139 0 -0.00095504644608502512 0.019802785183779877 0 -0.00092185221451899797 0.019805061200917653 0 -0.00084408301321764185 0.019380163695701863 0 -0.00087499497820462963 0.019526800783622105 0 -0.00099630097766062117 0.019587258790309328 0 -0.00098588688326002442 0.019838285440809084 0 -0.00090377638004478233 0.01985066762564585 0 -0.00099300807664617755 0.01984993089676574 0 -0.00088606252111472013 0.019350070458166325 0 -0.00096340406064708008 0.019475555472187399 0 -0.00084408301321764185 0.019380163695701863 0 -0.00087499497820462963 0.019526800783622105 0 -0.00072684512890701955 0.019502164647158166 0 -0.00084408301321764185 0.019380163695701863 0 -0.00072684512890701955 0.019502164647158166 0 -0.00069875431165725046 0.019347865731547238 0 -0.00072684512890701955 0.019502164647158166 0 -0.00058780424982554527 0.019509014391344559 0 -0.00069875431165725046 0.019347865731547238 0 -0.00058780424982554527 0.019509014391344559 0 -0.00056458367099969506 0.019333025187797684 0 -0.00069875431165725046 0.019347865731547238 0 -0.00042375289898325227 0.019376213190141919 0 -0.00058780424982554527 0.019509014391344559 0 -0.00056458367099969506 0.019333025187797684 0 -0.00042375289898325227 0.019376213190141919 0 -0.00058780424982554527 0.019509014391344559 0 -0.00044999177341380545 0.019628350324460937 0 -0.00069526351309667333 0.019161537595815459 0 -0.00050111283351298125 0.0191920525474438 0 -0.00056458367099969506 0.019333025187797684 0 -0.00042375289898325227 0.019376213190141919 0 -0.00050111283351298125 0.0191920525474438 0 -0.00056458367099969506 0.019333025187797684 0 -0.00069526351309667333 0.019161537595815459 0 -0.00056458367099969506 0.019333025187797684 0 -0.00069875431165725046 0.019347865731547238 0 -0.00075864965991361 0.01913062396109369 0 -0.00075806186153022106 0.019147498904431917 0 -0.00066684228753740302 0.01971850820129591 0 -0.00044999177341380545 0.019628350324460937 0 -0.00052596984614743081 0.019858186711051076 0 -0.00058780424982554527 0.019509014391344559 0 -0.00066684228753740302 0.01971850820129591 0 -0.00044999177341380545 0.019628350324460937 0 -0.00072684512890701955 0.019502164647158166 0 -0.00058780424982554527 0.019509014391344559 0 -0.00066684228753740302 0.01971850820129591 0 -0.00087499497820462963 0.019526800783622105 0 -0.00072684512890701955 0.019502164647158166 0 -0.00081709196812535477 0.01962297205136547 0 -0.00072684512890701955 0.019502164647158166 0 -0.00066684228753740302 0.01971850820129591 0 -0.00081709196812535477 0.01962297205136547 0 -0.00087499497820462963 0.019526800783622105 0 -0.00091526710920613393 0.019626971727362538 0 -0.00099630097766062117 0.019587258790309328 0 -0.00091526710920613393 0.019626971727362538 0 -0.00098905339823245086 0.019704039850715789 0 -0.00099630097766062117 0.019587258790309328 0 -0.00087499497820462963 0.019526800783622105 0 -0.00081709196812535477 0.01962297205136547 0 -0.00091526710920613393 0.019626971727362538 0 -0.00081709196812535477 0.01962297205136547 0 -0.00091526710920613393 0.019626971727362538 0 -0.0009106126099098019 0.019719406823730117 0 -0.00081709196812535477 0.01962297205136547 0 -0.0009106126099098019 0.019719406823730117 0 -0.00082322161327640835 0.019765630579250338 0 -0.00091526710920613393 0.019626971727362538 0 -0.0009106126099098019 0.019719406823730117 0 -0.00098905339823245086 0.019704039850715789 0 -0.0009106126099098019 0.019719406823730117 0 -0.00082322161327640835 0.019765630579250338 0 -0.00092164745164370599 0.019856786078472004 0 -0.0009106126099098019 0.019719406823730117 0 -0.00092164745164370599 0.019856786078472004 0 -0.0010031266892345117 0.019779352053305169 0 -0.0009106126099098019 0.019719406823730117 0 -0.0010031266892345117 0.019779352053305169 0 -0.00098905339823245086 0.019704039850715789 0 -0.00066684228753740302 0.01971850820129591 0 -0.00081709196812535477 0.01962297205136547 0 -0.00082322161327640835 0.019765630579250338 0 -0.00066684228753740302 0.01971850820129591 0 -0.00082322161327640835 0.019765630579250338 0 -0.00078769767034826438 0.019899256679079637 0 -0.00082322161327640835 0.019765630579250338 0 -0.00078769767034826438 0.019899256679079637 0 -0.00092164745164370599 0.019856786078472004 0 -0.00078769767034826438 0.019899256679079637 0 -0.00073698306102043597 0.020030165976006889 0 -0.00065936053510954413 0.019917860902235039 0 -0.00063764009682217503 0.021327513424114292 0 -0.00061570207488637041 0.021864782374260608 0 -0.00092164745164370599 0.019856786078472004 0 -0.00088936873711764229 0.020100870204362655 0 -0.0010252283059781456 0.019939487340044467 0 -0.00078769767034826438 0.019899256679079637 0 -0.00092164745164370599 0.019856786078472004 0 -0.00093041669122959384 0.020060494994671153 0 -0.00078769767034826438 0.019899256679079637 0 -0.00093041669122959384 0.020060494994671153 0 -0.00073698306102043597 0.020030165976006889 0 -0.00093041669122959384 0.020060494994671153 0 -0.00073698306102043597 0.020030165976006889 0 -0.00076776207982519459 0.020156961129287908 0 -0.00073698306102043597 0.020030165976006889 0 -0.00061201149117613978 0.020043699544781846 0 -0.00065936053510954413 0.019917860902235039 0 -0.00073698306102043597 0.020030165976006889 0 -0.00061201149117613978 0.020043699544781846 0 -0.00076776207982519459 0.020156961129287908 0 -0.00066684228753740302 0.01971850820129591 0 -0.00078769767034826438 0.019899256679079637 0 -0.00065936053510954413 0.019917860902235039 0 -0.00066684228753740302 0.01971850820129591 0 -0.00065936053510954413 0.019917860902235039 0 -0.00052596984614743081 0.019858186711051076 0 -0.00061201149117613978 0.020043699544781846 0 -0.00065936053510954413 0.019917860902235039 0 -0.00052596984614743081 0.019858186711051076 0 -0.00042861135762924774 0.020023524176602678 0 -0.00061201149117613978 0.020043699544781846 0 -0.00052596984614743081 0.019858186711051076 0 -0.00042861135762924774 0.020023524176602678 0 -0.00061201149117613978 0.020043699544781846 0 -0.00053276680619712311 0.020188595654678398 0 -0.00061201149117613978 0.020043699544781846 0 -0.00053276680619712311 0.020188595654678398 0 -0.00071986811796028241 0.020272250723171695 0 -0.00061201149117613978 0.020043699544781846 0 -0.00071986811796028241 0.020272250723171695 0 -0.0009154529778564838 0.02022266435454935 0 -2.3160435981292326e-05 0.022463007301905487 0 -0.00014434320695534117 0.022776085762184456 0 -0.00071986811796028241 0.020272250723171695 0 -0.00082883171017583723 0.020385626375102196 0 -0.0009154529778564838 0.02022266435454935 0 -0.00071986811796028241 0.020272250723171695 0 -0.00082883171017583723 0.020385626375102196 0 -0.0007144821676368906 0.02054580383523889 0 -0.00053276680619712311 0.020188595654678398 0 -0.00071986811796028241 0.020272250723171695 0 -0.0007144821676368906 0.02054580383523889 0 -0.00053276680619712311 0.020188595654678398 0 -0.00074550940071468018 0.020449883675159406 0 -0.00068279486174271909 0.020390101725289444 0 -0.00074550940071468018 0.020449883675159406 0 -0.00068279486174271909 0.020390101725289444 0 -0.00061010753017172285 0.020482267774894692 0 -0.00082883171017583723 0.020385626375102196 0 -0.0007144821676368906 0.02054580383523889 0 -0.00085995525616307548 0.020512599962709346 0 -0.0007350053009486853 0.020496918319281521 0 -0.00078714185648431976 0.020584135980359179 0 -0.00034968311440393098 0.020344556354072719 0 -0.00053276680619712311 0.020188595654678398 0 -0.00068279486174271909 0.020390101725289444 0 -0.00038187476852695777 0.02033131933853714 0 -0.00068279486174271909 0.020390101725289444 0 -0.00061010753017172285 0.020482267774894692 0 -0.00030119030189535394 0.020320736982094554 0 -0.00038148788602149854 0.020333475794722174 0 -0.00038187476852695777 0.02033131933853714 0 -0.00053080007976402113 0.020597430306256225 0 -0.00061010753017172285 0.020482267774894692 0 -0.00053080007976402113 0.020597430306256225 0 -0.00061010753017172285 0.020482267774894692 0 -0.00072788948140044664 0.020656881959805425 0 -0.00078714185648431976 0.020584135980359179 0 -0.00088045856217272925 0.020740467257112885 0 -0.00074550940071468018 0.020449883675159406 0 -0.00072788948140044664 0.020656881959805425 0 -0.00095191282056506063 0.020770775616441153 0 -0.00074550940071468018 0.020449883675159406 0 -0.00061010753017172285 0.020482267774894692 0 -0.00072788948140044664 0.020656881959805425 0 -0.0007144821676368906 0.02054580383523889 0 -0.0009235639197813576 0.020639353447067063 0 -0.00085995525616307548 0.020512599962709346 0 -0.00072788948140044664 0.020656881959805425 0 -0.00062845298699315392 0.020811968522358011 0 -0.00095191282056506063 0.020770775616441153 0 -0.00053080007976402113 0.020597430306256225 0 -0.00072788948140044664 0.020656881959805425 0 -0.00062845298699315392 0.020811968522358011 0 -0.00044457891418491109 0.020751399368989006 0 -0.00053080007976402113 0.020597430306256225 0 -0.00062845298699315392 0.020811968522358011 0 -0.0011444976367127842 0.020894722388055231 0 -0.0010462790686618499 0.020750772093873774 0 -0.0011985587243436547 0.020747560131044476 0 -0.0011444976367127842 0.020894722388055231 0 -0.0011985587243436547 0.020747560131044476 0 -0.001262103783175289 0.0208459635904833 0 -0.0011985587243436547 0.020747560131044476 0 -0.001262103783175289 0.0208459635904833 0 -0.0012730541869720115 0.020771128283943462 0 -0.0011444976367127842 0.020894722388055231 0 -0.001262103783175289 0.0208459635904833 0 -0.0013002714390699039 0.020972947499760322 0 -0.0011444976367127842 0.020894722388055231 0 -0.00093251954087048916 0.020877955423743315 0 -0.0010462790686618499 0.020750772093873774 0 -0.0010462790686618499 0.020750772093873774 0 -0.0010230913848394065 0.020628713531533852 0 -0.0011009050230000091 0.020664184771672593 0 -0.0007144821676368906 0.02054580383523889 0 -0.00093251954087048916 0.020877955423743315 0 -0.0009235639197813576 0.020639353447067063 0 -0.0010462790686618499 0.020750772093873774 0 -0.0009235639197813576 0.020639353447067063 0 -0.0010230913848394065 0.020628713531533852 0 -0.00093251954087048916 0.020877955423743315 0 -0.0010462790686618499 0.020750772093873774 0 -0.0009235639197813576 0.020639353447067063 0 -0.0009235639197813576 0.020639353447067063 0 -0.00085995525616307548 0.020512599962709346 0 -0.00097207189540456302 0.020526614685566713 0 -0.0009235639197813576 0.020639353447067063 0 -0.0010230913848394065 0.020628713531533852 0 -0.00097207189540456302 0.020526614685566713 0 -0.0010230913848394065 0.020628713531533852 0 -0.0010722846527192627 0.020559743322329304 0 -0.00097207189540456302 0.020526614685566713 0 -0.0010722846527192627 0.020559743322329304 0 -0.0011421800812596182 0.020606754755795483 0 -0.0011363489968181388 0.020534955319086959 0 -0.0011421800812596182 0.020606754755795483 0 -0.0012034672687713478 0.020640314569438423 0 -0.0011363489968181388 0.020534955319086959 0 -0.0011421800812596182 0.020606754755795483 0 -0.0011009050230000091 0.020664184771672593 0 -0.0011848816359196004 0.020663190955837588 0 -0.0010722846527192627 0.020559743322329304 0 -0.0011421800812596182 0.020606754755795483 0 -0.0011009050230000091 0.020664184771672593 0 -0.0010230913848394065 0.020628713531533852 0 -0.0010722846527192627 0.020559743322329304 0 -0.0011009050230000091 0.020664184771672593 0 -0.0010462790686618499 0.020750772093873774 0 -0.0011009050230000091 0.020664184771672593 0 -0.0011985587243436547 0.020747560131044476 0 -0.0011985587243436547 0.020747560131044476 0 -0.0012014951016436029 0.020667433837482901 0 -0.0012856623184467572 0.020706778749763902 0 -0.0011985587243436547 0.020747560131044476 0 -0.0011848816359196004 0.020663190955837588 0 -0.0012025665271600627 0.020641194922176462 0 -0.00094393076479442955 0.024042217200289005 0 -0.00094249937699896456 0.024146728059824155 0 -0.0011009050230000091 0.020664184771672593 0 -0.0011985587243436547 0.020747560131044476 0 -0.0011848816359196004 0.020663190955837588 0 -0.00094249937699896456 0.024146728059824155 0 -0.00087847936920234647 0.025051343329861545 0 -0.0011421800812596182 0.020606754755795483 0 -0.0011848816359196004 0.020663190955837588 0 -0.0012034672687713478 0.020640314569438423 0 -0.00094551494356387184 0.024141057640962263 0 -0.00094249937699896456 0.024146728059824155 0 -0.00094249937699896456 0.024146728059824155 0 -0.00054881368016814467 0.023781633848270964 0 -0.0013128250409682627 0.024515698344252435 0 -0.0013201530140089122 0.025749237280089148 0 -0.00069916498873722843 0.025319791530313499 0 -0.0010566693269052369 0.020438657498855553 0 -0.0012058073433040193 0.020427811379321481 0 -0.0009154529778564838 0.02022266435454935 0 -0.0012034672687713478 0.020640314569438423 0 -0.0011363489968181388 0.020534955319086959 0 -0.0012058073433040193 0.020427811379321481 0 -0.00054881368016814467 0.023781633848270964 0 -0.00087847936920234647 0.025051343329861545 0 -0.0011363489968181388 0.020534955319086959 0 -0.0010566693269052369 0.020438657498855553 0 -0.0012058073433040193 0.020427811379321481 0 -0.0010722846527192627 0.020559743322329304 0 -0.0011363489968181388 0.020534955319086959 0 -0.0010566693269052369 0.020438657498855553 0 -0.00085995525616307548 0.020512599962709346 0 -0.00097207189540456302 0.020526614685566713 0 -0.00092663317092434223 0.020417264101338803 0 -0.0010722846527192627 0.020559743322329304 0 -0.0010566693269052369 0.020438657498855553 0 -0.00097207189540456302 0.020526614685566713 0 -0.0010566693269052369 0.020438657498855553 0 -0.00097207189540456302 0.020526614685566713 0 -0.00092663317092434223 0.020417264101338803 0 -0.0010566693269052369 0.020438657498855553 0 -0.00092663317092434223 0.020417264101338803 0 -0.0009154529778564838 0.02022266435454935 0 -0.00082883171017583723 0.020385626375102196 0 -0.00092663317092434223 0.020417264101338803 0 -0.0009154529778564838 0.02022266435454935 0 -0.00082883171017583723 0.020385626375102196 0 -0.00085995525616307548 0.020512599962709346 0 -0.00092663317092434223 0.020417264101338803 0 -0.00088936873711764229 0.020100870204362655 0 -0.00088105253806830671 0.020372193781466326 0 -0.00098299806277920036 0.020215454189129088 0 -0.00061570207488637041 0.021864782374260608 0 -0.00054881368016814467 0.023781633848270964 0 -0.00054881368016814467 0.023781633848270964 0 -0.00014434320695534117 0.022776085762184456 0 -0.00093041669122959384 0.020060494994671153 0 -0.00093284787636828794 0.020278320440643319 0 -0.00076776207982519459 0.020156961129287908 0 -0.0004809807629922012 0.026244218006797604 0 -0.00071058378732808856 0.025609647869122069 0 -0.00098299806277920036 0.020215454189129088 0 -0.0011053794524677829 0.020215453959998155 0 -0.0010475663322270347 0.020091280271870272 0 -0.00098299806277920036 0.020215454189129088 0 -0.0011053794524677829 0.020215453959998155 0 -0.00096964901049574755 0.020338908630716687 0 0.00077418167959459 0.032088677643638604 0 0.00033192486927753872 0.032209850034278627 0 0.00037480484838936165 0.031548579779155525 0 0.00077418167959459 0.032088677643638604 0 0.0005880551337326057 0.032563652473083848 0 0.00033192486927753872 0.032209850034278627 0 0.00077418167959459 0.032088677643638604 0 0.0005880551337326057 0.032563652473083848 0 0.0008474680671704595 0.032631108860021442 0 0.0005880551337326057 0.032563652473083848 0 0.00034093125240733336 0.032844875648360895 0 0.00033192486927753872 0.032209850034278627 0 0.0008474680671704595 0.032631108860021442 0 0.00062919813750864561 0.032857406094210881 0 0.00097467807289474415 0.032937412445797107 0 0.0005880551337326057 0.032563652473083848 0 0.0008474680671704595 0.032631108860021442 0 0.00062919813750864561 0.032857406094210881 0 0.0005880551337326057 0.032563652473083848 0 0.00062919813750864561 0.032857406094210881 0 0.00034093125240733336 0.032844875648360895 0 0.00077418167959459 0.032088677643638604 0 0.0008474680671704595 0.032631108860021442 0 0.001154668643943868 0.032600655259639573 0 -0.0011053794524677829 0.020215453959998155 0 -0.00099375032011869333 0.020384400828248876 0 -0.00096964901049574755 0.020338908630716687 0 -0.00099631956966503873 0.020386775224648528 0 -0.00096964901049574755 0.020338908630716687 0 -0.0009621138800296298 0.020431889950656354 0 -0.00088105253806830671 0.020372193781466326 0 -0.00098299806277920036 0.020215454189129088 0 -0.00096964901049574755 0.020338908630716687 0 -0.00088105253806830671 0.020372193781466326 0 -0.00096964901049574755 0.020338908630716687 0 -0.0009621138800296298 0.020431889950656354 0 -0.00071058378732808856 0.025609647869122069 0 -0.00069210701353944796 0.025558296785752277 0 0.0008474680671704595 0.032631108860021442 0 0.001154668643943868 0.032600655259639573 0 0.00097467807289474415 0.032937412445797107 0 -0.00071058378732808856 0.025609647869122069 0 -0.00081476349902817634 0.025772282265094731 0 -0.00087847936920234647 0.025051343329861545 0 -0.00081476349902817634 0.025772282265094731 0 -0.00025294018947288015 0.024343385712839172 0 0.00015390001538258889 0.024877123395096099 0 -0.00096456276063441816 0.025650752582687848 0 -0.00071058378732808856 0.025609647869122069 0 -0.00087847936920234647 0.025051343329861545 0 -0.0012014951016436029 0.020667433837482901 0 -0.0012820677559480171 0.020567174864295507 0 -0.0012920910691768877 0.020648919371413194 0 -0.0012820677559480171 0.020567174864295507 0 -0.0012920910691768877 0.020648919371413194 0 -0.0013733008274646392 0.020629734066170035 0 -0.0012014951016436029 0.020667433837482901 0 -0.0012920910691768877 0.020648919371413194 0 -0.0012856623184467572 0.020706778749763902 0 -0.0013599238610750538 0.020717575648779078 0 -0.0013733008274646392 0.020629734066170035 0 -0.0015090787457388995 0.020813153365574419 0 -0.0011985587243436547 0.020747560131044476 0 -0.0012856623184467572 0.020706778749763902 0 -0.0012730541869720115 0.020771128283943462 0 -0.0012920910691768877 0.020648919371413194 0 -0.0012856623184467572 0.020706778749763902 0 -0.0013599238610750538 0.020717575648779078 0 -0.0012856623184467572 0.020706778749763902 0 -0.0012730541869720115 0.020771128283943462 0 -0.0013446443296880948 0.020786620982436426 0 -0.0012856623184467572 0.020706778749763902 0 -0.0013599238610750538 0.020717575648779078 0 -0.0013446443296880948 0.020786620982436426 0 -0.0012920910691768877 0.020648919371413194 0 -0.0013599238610750538 0.020717575648779078 0 -0.0013733008274646392 0.020629734066170035 0 -0.00081476349902817634 0.025772282265094731 0 -0.00086298710090873282 0.026406076441024325 0 -0.00081476349902817634 0.025772282265094731 0 -0.0010507695984599589 0.026296424048323608 0 0.00062919813750864561 0.032857406094210881 0 0.00097467807289474415 0.032937412445797107 0 0.00038619585521044102 0.033275704074891353 0 0.00056167091916665718 0.033140945660201995 0 0.00038619585521044102 0.033275704074891353 0 0.0003821010519798715 0.033392145733343655 0 0.00062919813750864561 0.032857406094210881 0 0.00038619585521044102 0.033275704074891353 0 0.00034093125240733336 0.032844875648360895 0 0.0003821010519798715 0.033392145733343655 0 0.00017518305493137307 0.033418848001088949 0 0.00014329077052491933 0.033402732731647553 0 0.0003821010519798715 0.033392145733343655 0 0.00017518305493137307 0.033418848001088949 0 0.00025114059094972292 0.033376584422023257 0 0.00038619585521044102 0.033275704074891353 0 0.0003821010519798715 0.033392145733343655 0 0.00025114059094972292 0.033376584422023257 0 -0.0015090787457388995 0.020813153365574419 0 -0.001391231478927768 0.020899900401676316 0 -0.0015603360355053095 0.021034083392477733 0 -0.001391231478927768 0.020899900401676316 0 -0.001262103783175289 0.0208459635904833 0 -0.0013002714390699039 0.020972947499760322 0 -0.001391231478927768 0.020899900401676316 0 -0.001262103783175289 0.0208459635904833 0 -0.0013446443296880948 0.020786620982436426 0 -0.001262103783175289 0.0208459635904833 0 -0.0012730541869720115 0.020771128283943462 0 -0.0013446443296880948 0.020786620982436426 0 -0.0013599238610750538 0.020717575648779078 0 -0.0015090787457388995 0.020813153365574419 0 -0.0013446443296880948 0.020786620982436426 0 -0.0015090787457388995 0.020813153365574419 0 -0.001391231478927768 0.020899900401676316 0 -0.0013446443296880948 0.020786620982436426 0 0.00018646545131815618 0.033511438135503488 0 0.0001170278823057076 0.033418652732670584 0 6.3626931675480019e-06 0.033430186093131066 0 0.00018646545131815618 0.033511438135503488 0 0.00022270363324895906 0.033417586289806865 0 0.0001170278823057076 0.033418652732670584 0 0.00022270363324895906 0.033417586289806865 0 0.0001170278823057076 0.033418652732670584 0 0.00014848793339509753 0.0333817201459502 0 0.0001170278823057076 0.033418652732670584 0 0.00017518305493137307 0.033418848001088949 0 0.00014848793339509753 0.0333817201459502 0 0.00017518305493137307 0.033418848001088949 0 0.00025114059094972292 0.033376584422023257 0 6.3626931675480019e-06 0.033430186093131066 0 0.0001170278823057076 0.033418652732670584 0 0.00017518305493137307 0.033418848001088949 0 6.3626931675480019e-06 0.033430186093131066 0 6.3626931675480019e-06 0.033430186093131066 0 0.00015806211923809896 0.033068033744132246 0 -0.00055563559966798916 0.032556260776161541 0 0.00025114059094972292 0.033376584422023257 0 6.3626931675480019e-06 0.033430186093131066 0 0.00015806211923809896 0.033068033744132246 0 0.00038619585521044102 0.033275704074891353 0 0.00025114059094972292 0.033376584422023257 0 0.00015806211923809896 0.033068033744132246 0 0.00038619585521044102 0.033275704074891353 0 0.00015806211923809896 0.033068033744132246 0 0.00034093125240733336 0.032844875648360895 0 -2.0895392415850434e-05 0.032936122792910263 0 -4.3304754843115935e-05 0.03283674973548107 0 6.3626931675480019e-06 0.033430186093131066 0 4.9801102195228564e-05 0.033967020833571275 0 0.00023131533117760951 0.033731806095413472 0 0.00018646545131815618 0.033511438135503488 0 6.3626931675480019e-06 0.033430186093131066 0 0.00023131533117760951 0.033731806095413472 0 4.9801102195228564e-05 0.033967020833571275 0 0.00021356613794400094 0.03393027599758773 0 0.00023131533117760951 0.033731806095413472 0 -0.00055563559966798916 0.032556260776161541 0 6.9491901259867154e-05 0.032485633522208131 0 -0.00026947542890631767 0.03176291104081324 0 4.9801102195228564e-05 0.033967020833571275 0 0.00020444494115518373 0.03417294304488986 0 0.00021356613794400094 0.03393027599758773 0 -0.00030063077526033051 0.029352582335007045 0 -0.00030107861345855526 0.02873764923498693 0 0.00034093125240733336 0.032844875648360895 0 6.9491901259867154e-05 0.032485633522208131 0 0.00059124435529611023 0.031833686584591875 0 0.00015806211923809896 0.033068033744132246 0 0.00034093125240733336 0.032844875648360895 0 6.9491901259867154e-05 0.032485633522208131 0 0.00015806211923809896 0.033068033744132246 0 -0.00055563559966798916 0.032556260776161541 0 6.9491901259867154e-05 0.032485633522208131 0 0.00059124435529611023 0.031833686584591875 0 0.00010925430305975101 0.031237445910384427 0 -0.00026947542890631767 0.03176291104081324 0 6.9491901259867154e-05 0.032485633522208131 0 0.00059124435529611023 0.031833686584591875 0 -0.00026947542890631767 0.03176291104081324 0 -0.00030107861345855526 0.02873764923498693 0 -0.00030767562233085632 0.026856240735042562 0 0.00059124435529611023 0.031833686584591875 0 0.00010925430305975101 0.031237445910384427 0 0.00075082359138880562 0.030672516649474898 0 0.00010925430305975101 0.031237445910384427 0 -0.00026947542890631767 0.03176291104081324 0 -0.00047589690751007659 0.031148540785912861 0 -0.00055563559966798916 0.032556260776161541 0 -0.00026947542890631767 0.03176291104081324 0 -0.0010956154291941035 0.031367267248458716 0 -4.3304754843115935e-05 0.03283674973548107 0 -7.5258906998517975e-05 0.032590230525944418 0 4.9801102195228564e-05 0.033967020833571275 0 0.00019672835180458505 0.034326914969349143 0 0.00020444494115518373 0.03417294304488986 0 -0.00026947542890631767 0.03176291104081324 0 -0.0010956154291941035 0.031367267248458716 0 -0.00047589690751007659 0.031148540785912861 0 -0.0010956154291941035 0.031367267248458716 0 -0.00047589690751007659 0.031148540785912861 0 -0.00083093991654522095 0.030644926986955021 0 -0.00047589690751007659 0.031148540785912861 0 -0.00021868101638282359 0.03059968252981219 0 -0.00083093991654522095 0.030644926986955021 0 -0.00021868101638282359 0.03059968252981219 0 -0.00083093991654522095 0.030644926986955021 0 -0.00075596680794338077 0.030043490271005321 0 -0.00083093991654522095 0.030644926986955021 0 -0.00075596680794338077 0.030043490271005321 0 -0.00163536727234697 0.030045542785130643 0 -0.00021868101638282359 0.03059968252981219 0 -0.00075596680794338077 0.030043490271005321 0 -4.5598714692319045e-05 0.029508930809385121 0 -0.00075596680794338077 0.030043490271005321 0 -0.00098685889290750636 0.029285411406764359 0 -0.00163536727234697 0.030045542785130643 0 -0.00075596680794338077 0.030043490271005321 0 -0.00098685889290750636 0.029285411406764359 0 -4.5598714692319045e-05 0.029508930809385121 0 3.9195301626581784e-05 0.027681120903089048 0 -0.00030767562233085632 0.026856240735042562 0 4.3141410645097244e-05 0.029428127684585987 0 0.00094661964402215797 0.030610390050693777 0 0.0010892957138287568 0.028774754006530692 0 -0.00021868101638282359 0.03059968252981219 0 -4.5598714692319045e-05 0.029508930809385121 0 0.00075082359138880562 0.030672516649474898 0 0.00010925430305975101 0.031237445910384427 0 -0.00021868101638282359 0.03059968252981219 0 0.00075082359138880562 0.030672516649474898 0 0.00010925430305975101 0.031237445910384427 0 -0.00047589690751007659 0.031148540785912861 0 -0.00021868101638282359 0.03059968252981219 0 -0.0004809807629922012 0.026244218006797604 0 -0.00030767562233085632 0.026856240735042562 0 -0.0011053794524677829 0.020215453959998155 0 -0.0011963728406140187 0.020058384202380965 0 -0.0010475663322270347 0.020091280271870272 0 -0.0011963728406140187 0.020058384202380965 0 -0.0010475663322270347 0.020091280271870272 0 -0.0010252283059781456 0.019939487340044467 0 -0.00088936873711764229 0.020100870204362655 0 -0.00098299806277920036 0.020215454189129088 0 -0.0010475663322270347 0.020091280271870272 0 -0.00088936873711764229 0.020100870204362655 0 -0.0010475663322270347 0.020091280271870272 0 -0.0010252283059781456 0.019939487340044467 0 -0.0011963728406140187 0.020058384202380965 0 -0.0010863776873975362 0.019874138075427154 0 -0.0011295777271318232 0.01982846843053936 0 -0.0011963728406140187 0.020058384202380965 0 -0.0010252283059781456 0.019939487340044467 0 -0.0010863776873975362 0.019874138075427154 0 -0.00030767562233085632 0.026856240735042562 0 -0.00020417143198245142 0.024892528477464183 0 -0.0011295777271318232 0.01982846843053936 0 -0.0010948537263515479 0.0198115950265925 0 -0.0010640426897741493 0.019821417736908278 0 -0.0010863776873975362 0.019874138075427154 0 -0.0011295777271318232 0.01982846843053936 0 -0.0010948537263515479 0.0198115950265925 0 -0.0010252283059781456 0.019939487340044467 0 -0.0010863776873975362 0.019874138075427154 0 -0.0010031266892345117 0.019779352053305169 0 -0.00092164745164370599 0.019856786078472004 0 -0.0010252283059781456 0.019939487340044467 0 -0.0010031266892345117 0.019779352053305169 0 -0.0010948537263515479 0.0198115950265925 0 -0.0010031266892345117 0.019779352053305169 0 -0.00098905339823245086 0.019704039850715789 0 -0.0010863776873975362 0.019874138075427154 0 -0.0010948537263515479 0.0198115950265925 0 -0.0010031266892345117 0.019779352053305169 0 -0.0010948537263515479 0.0198115950265925 0 -0.00098905339823245086 0.019704039850715789 0 -0.00099630097766062117 0.019587258790309328 0 -0.00099396601827824111 0.019520766789368853 0 -0.00096340406064708008 0.019475555472187399 0 -0.0010948537263515479 0.0198115950265925 0 -0.0010161661785524595 0.019838162743588069 0 -0.00099300807664617755 0.01984993089676574 0 -0.0010450448948913394 0.019824815801050066 0 -0.0010161661785524595 0.019838162743588069 0 -0.0010640426897741493 0.019821417736908278 0 -0.0010500515185700358 0.019820706023556893 0 -0.0011295777271318232 0.01982846843053936 0 -0.0010640426897741493 0.019821417736908278 0 -0.0010948537263515479 0.0198115950265925 0 -0.0010161661785524595 0.019838162743588069 0 -0.0010640426897741493 0.019821417736908278 0 -0.00016891351341613632 0.02346265719167814 0 -0.00020417143198245142 0.024892528477464183 0 -0.0010500515185700358 0.019820706023556893 0 -0.0010450448948913394 0.019824815801050066 0 -0.0010640426897741493 0.019821417736908278 0 0.0012380635669820078 0.026888212278594285 0 0.0010892957138287568 0.028774754006530692 0 0.00027626469888286707 0.027792820881352168 0 0.00015940409407726752 0.026917554371743993 0 0.0012380635669820078 0.026888212278594285 0 0.00027626469888286707 0.027792820881352168 0 0.00015940409407726752 0.026917554371743993 0 0.00027626469888286707 0.027792820881352168 0 -0.0004928107462761368 0.027449143882561023 0 0.00027626469888286707 0.027792820881352168 0 -0.0004928107462761368 0.027449143882561023 0 -0.00089774823545967983 0.028249547399778894 0 -0.00087853402990978335 0.026827297184468038 0 -0.0004928107462761368 0.027449143882561023 0 -0.0012206390844737612 0.02763657650174978 0 -0.0004928107462761368 0.027449143882561023 0 -0.00089774823545967983 0.028249547399778894 0 -0.0012206390844737612 0.02763657650174978 0 0.00027626469888286707 0.027792820881352168 0 -0.00089774823545967983 0.028249547399778894 0 0.00012996032799403643 0.028562932703369858 0 -0.00098685889290750636 0.029285411406764359 0 -4.5598714692319045e-05 0.029508930809385121 0 -0.00089774823545967983 0.028249547399778894 0 4.3141410645097244e-05 0.029428127684585987 0 -0.00089774823545967983 0.028249547399778894 0 0.00012996032799403643 0.028562932703369858 0 3.9195301626581784e-05 0.027681120903089048 0 2.8711751152291212e-05 0.0277838904546222 0 4.3141410645097244e-05 0.029428127684585987 0 0.0010892957138287568 0.028774754006530692 0 0.00012996032799403643 0.028562932703369858 0 0.0010892957138287568 0.028774754006530692 0 0.00027626469888286707 0.027792820881352168 0 0.00012996032799403643 0.028562932703369858 0 0.00023816898680807604 0.034654740895281297 0 0.0002423275910803416 0.0346525823019527 0 0.00023581854628110236 0.034657806494855718 0 -0.00098685889290750636 0.029285411406764359 0 -0.00089774823545967983 0.028249547399778894 0 -0.0021761757133904385 0.028634774157604518 0 0.00030884140982064256 0.030606685869903897 0 0.00011091358719623597 0.032225221218678698 0 -0.0016472243881057267 0.027009803922514754 0 -0.0021761757133904385 0.028634774157604518 0 -0.0012206390844737612 0.02763657650174978 0 -0.00089774823545967983 0.028249547399778894 0 -0.0021761757133904385 0.028634774157604518 0 -0.0012206390844737612 0.02763657650174978 0 -0.0016472243881057267 0.027009803922514754 0 -0.00087853402990978335 0.026827297184468038 0 -0.0012206390844737612 0.02763657650174978 0 0.00036005315769196213 0.03301215479086142 0 0.00011091358719623597 0.032225221218678698 0 0.00088748016038070563 0.032178276930691432 0 0.00066851102327906314 0.032175972580959999 0 0.00076486062158808853 0.031868151861606617 0 0.00024481121437082393 0.034649375084854744 0 0.00023816898680807604 0.034654740895281297 0 0.0002423275910803416 0.0346525823019527 0 0.00024546498719824164 0.034649896338314098 0 0.00024481121437082393 0.034649375084854744 0 0.0002423275910803416 0.0346525823019527 0 0.00024546498719824164 0.034649896338314098 0 0.0002423275910803416 0.0346525823019527 0 0.00024688629468337176 0.034647343478630299 0 0.00024546498719824164 0.034649896338314098 0 0.00024688629468337176 0.034647343478630299 0 0.00024568914741105997 0.034637087252808611 0 0.00023937850948105635 0.034137103361823171 0 0.00012048642937319384 0.0344830595130277 0 0.00025126095636078473 0.034654924569580102 0 0.00026531983098948531 0.034663228499294124 0 0.00024568914741105997 0.034637087252808611 0 0.00024688629468337176 0.034647343478630299 0 0.00025126095636078473 0.034654924569580102 0 0.00024568914741105997 0.034637087252808611 0 0.0002423275910803416 0.0346525823019527 0 0.00025126095636078473 0.034654924569580102 0 0.00023581854628110236 0.034657806494855718 0 0.0002423275910803416 0.0346525823019527 0 0.00024688629468337176 0.034647343478630299 0 0.00025126095636078473 0.034654924569580102 0 0.00023581854628110236 0.034657806494855718 0 0.00025455040421869116 0.034652442852941577 0 0.00020264850029022137 0.034652112092396221 0 0.00025126095636078473 0.034654924569580102 0 0.00023581854628110236 0.034657806494855718 0 0.00025455040421869116 0.034652442852941577 0 0.00025126095636078473 0.034654924569580102 0 0.00025455040421869116 0.034652442852941577 0 0.00026531983098948531 0.034663228499294124 0 0.00025455040421869116 0.034652442852941577 0 0.00026531983098948531 0.034663228499294124 0 0.00030989084504168019 0.034655379378610636 0 0.00025455040421869116 0.034652442852941577 0 0.0002427496559600709 0.034601004601050235 0 0.00020264850029022137 0.034652112092396221 0 0.00025455040421869116 0.034652442852941577 0 0.0002427496559600709 0.034601004601050235 0 0.00030989084504168019 0.034655379378610636 0 0.00018769929554430725 0.034284568854605492 0 0.00021681774849802217 0.034324246353430558 0 0.00020828194420237489 0.034361130766008767 0 0.00018769929554430725 0.034284568854605492 0 0.00021592293685174371 0.034312434338211288 0 0.00021681774849802217 0.034324246353430558 0 0.00020906478499992817 0.03422867108660399 0 0.00018769929554430725 0.034284568854605492 0 0.00022562643032996696 0.034280269197665157 0 0.00023816898680807604 0.034654740895281297 0 0.00023581854628110236 0.034657806494855718 0 0.00020264850029022137 0.034652112092396221 0 0.00011091358719623597 0.032225221218678698 0 -7.5435882269288916e-05 0.033395204753536981 0 0.00011091358719623597 0.032225221218678698 0 -5.6871535497587426e-05 0.032313580573398622 0 -0.00098685889290750636 0.029285411406764359 0 -0.0021761757133904385 0.028634774157604518 0 -0.00163536727234697 0.030045542785130643 0 -0.0010956154291941035 0.031367267248458716 0 -0.00083093991654522095 0.030644926986955021 0 -0.00163536727234697 0.030045542785130643 0 -7.5258906998517975e-05 0.032590230525944418 0 -5.6871535497587426e-05 0.032313580573398622 0 0.00018769929554430725 0.034284568854605492 0 0.00022562643032996696 0.034280269197665157 0 0.00021592293685174371 0.034312434338211288 0 0.00019672835180458505 0.034326914969349143 0 0.00022562643032996696 0.034280269197665157 0 0.00021592293685174371 0.034312434338211288 0 0.00019672835180458505 0.034326914969349143 0 0.00021592293685174371 0.034312434338211288 0 0.0002233188045513762 0.034301833220803296 0 0.00019672835180458505 0.034326914969349143 0 0.0002233188045513762 0.034301833220803296 0 0.00020444494115518373 0.03417294304488986 0 0.0002233188045513762 0.034301833220803296 0 0.00020444494115518373 0.03417294304488986 0 0.00019190699128915698 0.034423267409412137 0 0.00021592293685174371 0.034312434338211288 0 0.0002233188045513762 0.034301833220803296 0 0.00021681774849802217 0.034324246353430558 0 0.00018769929554430725 0.034284568854605492 0 0.00020828194420237489 0.034361130766008767 0 0.00019647148577105992 0.034449657203424203 0 -7.5435882269288916e-05 0.033395204753536981 0 -0.0001101558732102611 0.033687037339427107 0 0.0002233188045513762 0.034301833220803296 0 0.00020828194420237489 0.034361130766008767 0 0.00019190699128915698 0.034423267409412137 0 0.0002233188045513762 0.034301833220803296 0 0.00021681774849802217 0.034324246353430558 0 0.00020828194420237489 0.034361130766008767 0 0.00020828194420237489 0.034361130766008767 0 0.00019190699128915698 0.034423267409412137 0 0.00019647148577105992 0.034449657203424203 0 0.00060941368172687564 0.033933643733807924 0 0.00043256968484926882 0.033921668266964952 0 0.00053376730967503614 0.03377216078911708 0 0.0003599856202018944 0.033852792153926232 0 0.00043256968484926882 0.033921668266964952 0 0.00053376730967503614 0.03377216078911708 0 0.00060941368172687564 0.033933643733807924 0 0.00053376730967503614 0.03377216078911708 0 0.00069767212488651756 0.03377770311466885 0 0.00031407508667194651 0.034301262448992974 0 0.00038736724221411937 0.034296324073814624 0 0.00020444494115518373 0.03417294304488986 0 0.00060941368172687564 0.033933643733807924 0 0.00043256968484926882 0.033921668266964952 0 0.00020444494115518373 0.03417294304488986 0 0.0003599856202018944 0.033852792153926232 0 0.00021356613794400094 0.03393027599758773 0 0.00020444494115518373 0.03417294304488986 0 0.0003599856202018944 0.033852792153926232 0 0.00043256968484926882 0.033921668266964952 0 0.0003599856202018944 0.033852792153926232 0 0.00021356613794400094 0.03393027599758773 0 0.00023131533117760951 0.033731806095413472 0 0.0003599856202018944 0.033852792153926232 0 0.00023131533117760951 0.033731806095413472 0 0.0003540530030142263 0.033598535575713802 0 0.0003599856202018944 0.033852792153926232 0 0.0003540530030142263 0.033598535575713802 0 0.00053376730967503614 0.03377216078911708 0 0.00018646545131815618 0.033511438135503488 0 0.00023131533117760951 0.033731806095413472 0 0.0003540530030142263 0.033598535575713802 0 0.00053376730967503614 0.03377216078911708 0 0.00050938653230202691 0.033567444402014909 0 0.00065184704555635122 0.033634979611389573 0 0.0003540530030142263 0.033598535575713802 0 0.00053376730967503614 0.03377216078911708 0 0.00050938653230202691 0.033567444402014909 0 0.00050938653230202691 0.033567444402014909 0 0.00040102501456192968 0.033436347706751156 0 0.000609504256250919 0.033423746849611795 0 0.00050938653230202691 0.033567444402014909 0 0.00065184704555635122 0.033634979611389573 0 0.000609504256250919 0.033423746849611795 0 0.00022270363324895906 0.033417586289806865 0 0.0003540530030142263 0.033598535575713802 0 0.00040102501456192968 0.033436347706751156 0 0.0003540530030142263 0.033598535575713802 0 0.00050938653230202691 0.033567444402014909 0 0.00040102501456192968 0.033436347706751156 0 0.00018646545131815618 0.033511438135503488 0 0.00022270363324895906 0.033417586289806865 0 0.0003540530030142263 0.033598535575713802 0 0.00078502483437822238 0.033520813679712096 0 0.00098409438931088954 0.033589814314550916 0 0.00090456271509729055 0.03334241491162792 0 0.00078502483437822238 0.033520813679712096 0 0.00079789541878408485 0.033683450878163594 0 0.00098409438931088954 0.033589814314550916 0 0.00078502483437822238 0.033520813679712096 0 0.00065184704555635122 0.033634979611389573 0 0.000609504256250919 0.033423746849611795 0 0.00078502483437822238 0.033520813679712096 0 0.00065184704555635122 0.033634979611389573 0 0.00079789541878408485 0.033683450878163594 0 0.00069767212488651756 0.03377770311466885 0 0.00079789541878408485 0.033683450878163594 0 0.00088866453347996512 0.033818406345362088 0 0.00065184704555635122 0.033634979611389573 0 0.00069767212488651756 0.03377770311466885 0 0.00079789541878408485 0.033683450878163594 0 0.00053376730967503614 0.03377216078911708 0 0.00065184704555635122 0.033634979611389573 0 0.00069767212488651756 0.03377770311466885 0 0.00079789541878408485 0.033683450878163594 0 0.00088866453347996512 0.033818406345362088 0 0.00098409438931088954 0.033589814314550916 0 0.00030906578433923361 0.034420637008996488 0 0.00028193639320636422 0.034523274487907339 0 0.00041270097091005331 0.034460508513318895 0 0.00038736724221411937 0.034296324073814624 0 0.00050272919568419177 0.034306332917075674 0 0.00060941368172687564 0.033933643733807924 0 0.00069767212488651756 0.03377770311466885 0 0.00088866453347996512 0.033818406345362088 0 0.00030906578433923361 0.034420637008996488 0 0.00019647148577105992 0.034449657203424203 0 0.00028193639320636422 0.034523274487907339 0 0.00019190699128915698 0.034423267409412137 0 0.00030906578433923361 0.034420637008996488 0 0.00019647148577105992 0.034449657203424203 0 0.0002427496559600709 0.034601004601050235 0 0.00020264850029022137 0.034652112092396221 0 0.00019647148577105992 0.034449657203424203 0 0.0002427496559600709 0.034601004601050235 0 0.00019647148577105992 0.034449657203424203 0 0.00028193639320636422 0.034523274487907339 0 0.0002427496559600709 0.034601004601050235 0 0.00028193639320636422 0.034523274487907339 0 0.00030989084504168019 0.034655379378610636 0 0.00028193639320636422 0.034523274487907339 0 0.00030989084504168019 0.034655379378610636 0 0.00041270097091005331 0.034460508513318895 0 0.00030989084504168019 0.034655379378610636 0 0.00020203816781808051 0.034892049514938163 0 0.00022398677576896788 0.034742818829828895 0 0.00024583565685156502 0.034794616674095225 0 0.000239109407804047 0.034803231195595231 0 0.00030989084504168019 0.034655379378610636 0 0.00048492524990689274 0.034556804884163135 0 0.00041270097091005331 0.034460508513318895 0 0.00020203816781808051 0.034892049514938163 0 5.0977754933949423e-05 0.035004575096998516 0 2.411693975652011e-05 0.034954531970597606 0 0.00020203816781808051 0.034892049514938163 0 2.411693975652011e-05 0.034954531970597606 0 0.00022398677576896788 0.034742818829828895 0 0.00052134958936316249 0.03442770676456091 0 0.00058424456498606481 0.034403017936210985 0 0.000639702913071708 0.034471200246017124 0 0.000239109407804047 0.034803231195595231 0 0.00019566109653579311 0.034835346116894705 0 0.00048492524990689274 0.034556804884163135 0 0.00052134958936316249 0.03442770676456091 0 0.000639702913071708 0.034471200246017124 0 0.00052134958936316249 0.03442770676456091 0 0.00058424456498606481 0.034403017936210985 0 0.00052823068001496012 0.034366024993284096 0 0.00030906578433923361 0.034420637008996488 0 0.00041270097091005331 0.034460508513318895 0 0.0005268741946075564 0.03436050124432527 0 0.00048492524990689274 0.034556804884163135 0 0.00052134958936316249 0.03442770676456091 0 0.00041270097091005331 0.034460508513318895 0 0.00052134958936316249 0.03442770676456091 0 0.00041270097091005331 0.034460508513318895 0 0.0005268741946075564 0.03436050124432527 0 0.00050272919568419177 0.034306332917075674 0 0.00050342493526422515 0.034380095516422446 0 0.00088866453347996512 0.033818406345362088 0 0.0011813713392221799 0.033737056542566632 0 0.00098409438931088954 0.033589814314550916 0 0.0005035321061242885 0.034381022697283936 0 0.00050342493526422515 0.034380095516422446 0 0.00058424456498606481 0.034403017936210985 0 0.00052823068001496012 0.034366024993284096 0 0.00064323242369540383 0.034377850116474609 0 0.00050342493526422515 0.034380095516422446 0 0.00046642573899477083 0.034277539765385667 0 7.0575389572046224e-06 0.034989944443386087 0 4.7342474468998826e-06 0.034996800159024059 0 2.8905850577515073e-06 0.034993548425280054 0 4.7342474468998826e-06 0.034996800159024059 0 1.4592324611951831e-06 0.034997781251984855 0 2.8905850577515073e-06 0.034993548425280054 0 0.0012043113691064438 0.033481749269272783 0 0.00098409438931088954 0.033589814314550916 0 0.0010840305480870388 0.033347592382631748 0 0.0011813713392221799 0.033737056542566632 0 0.0012043113691064438 0.033481749269272783 0 0.00098409438931088954 0.033589814314550916 0 3.6489120300269283e-07 0.034999497096377272 0 3.7492460095488277e-10 0.034999998033238139 0 2.525520061219927e-07 0.03499970416148699 0 3.6489120300269283e-07 0.034999497096377272 0 5.7996842928496633e-07 0.034998983017907041 0 3.8148399805297508e-07 0.0349993597867738 0 3.6489120300269283e-07 0.034999497096377272 0 3.7492460095488277e-10 0.034999998033238139 0 5.7996842928496633e-07 0.034998983017907041 0 0.00013028735308247781 0.034823443478519463 0 0.00013029372849411998 0.034810904671245951 0 1.4592324611951831e-06 0.034997781251984855 0 -1.284241536565396e-06 0.034993294474492308 0 2.8905850577515073e-06 0.034993548425280054 0 5.7996842928496633e-07 0.034998983017907041 0 1.4592324611951831e-06 0.034997781251984855 0 3.8148399805297508e-07 0.0349993597867738 0 7.0575389572046224e-06 0.034989944443386087 0 2.8905850577515073e-06 0.034993548425280054 0 -1.7932068516908564e-06 0.034992561257877336 0 0.00050342493526422515 0.034380095516422446 0 0.0001302624304920428 0.034805689611852798 0 0.00052823068001496012 0.034366024993284096 0 0.00064323242369540383 0.034377850116474609 0 0.00073403279451372957 0.034313252376363443 0 -1.284241536565396e-06 0.034993294474492308 0 2.8905850577515073e-06 0.034993548425280054 0 -1.7932068516908564e-06 0.034992561257877336 0 0.00058424456498606481 0.034403017936210985 0 0.00064323242369540383 0.034377850116474609 0 0.00064896947932563973 0.034412137196322662 0 0.00064323242369540383 0.034377850116474609 0 0.00071086149565273633 0.034389608864229766 0 0.00064896947932563973 0.034412137196322662 0 0.00064323242369540383 0.034377850116474609 0 0.00071086149565273633 0.034389608864229766 0 0.00073403279451372957 0.034313252376363443 0 0.0001302624304920428 0.034805689611852798 0 6.1628716232157906e-05 0.03491614253069069 0 3.2735371615912754e-07 0.034999503717024018 0 2.525520061219927e-07 0.03499970416148699 0 2.087921550975739e-07 0.034999832637075727 0 0.00071086149565273633 0.034389608864229766 0 0.00073403279451372957 0.034313252376363443 0 0.00078842793316436497 0.034395066839647069 0 3.7492460095488277e-10 0.034999998033238139 0 2.525520061219927e-07 0.03499970416148699 0 6.5419758043673808e-10 0.034999999423023322 0 3.8148399805297508e-07 0.0349993597867738 0 3.2735371615912754e-07 0.034999503717024018 0 2.525520061219927e-07 0.03499970416148699 0 3.6489120300269283e-07 0.034999497096377272 0 3.8148399805297508e-07 0.0349993597867738 0 2.525520061219927e-07 0.03499970416148699 0 0.00013029372849411998 0.034810904671245951 0 0.0001302624304920428 0.034805689611852798 0 2.525520061219927e-07 0.03499970416148699 0 2.087921550975739e-07 0.034999832637075727 0 6.5419758043673808e-10 0.034999999423023322 0 6.1628716232157906e-05 0.03491614253069069 0 2.4906581775457328e-07 0.03499922107502125 0 1.0380693181862616e-08 0.034999931949395345 0 -8.6034076637225603e-11 0.034999999699472741 0 9.5857778155131858e-11 0.03500000004756245 0 1.2151644859670165e-05 0.035019059705545787 0 2.0163526662378999e-08 0.034999897430769256 0 5.0977754933949423e-05 0.035004575096998516 0 6.1628716232157906e-05 0.03491614253069069 0 5.5258433423951089e-07 0.03499946780183661 0 2.0163526662378999e-08 0.034999897430769256 0 5.0977754933949423e-05 0.035004575096998516 0 2.411693975652011e-05 0.034954531970597606 0 6.1628716232157906e-05 0.03491614253069069 0 0.00019566109653579311 0.034835346116894705 0 0.00071086149565273633 0.034389608864229766 0 0.00078842793316436497 0.034395066839647069 0 0.000639702913071708 0.034471200246017124 0 0.00058424456498606481 0.034403017936210985 0 0.00064896947932563973 0.034412137196322662 0 0.000639702913071708 0.034471200246017124 0 0.00071086149565273633 0.034389608864229766 0 0.00064896947932563973 0.034412137196322662 0 0.000639702913071708 0.034471200246017124 0 2.0163526662378999e-08 0.034999897430769256 0 2.411693975652011e-05 0.034954531970597606 0 9.6714939775856368e-09 0.034999914103169584 0 2.411693975652011e-05 0.034954531970597606 0 2.260248394243795e-05 0.034996233580580779 0 9.6714939775856368e-09 0.034999914103169584 0 3.3612534467554344e-05 0.034710079034661508 0 5.8790173059243291e-05 0.03465050588271807 0 2.411693975652011e-05 0.034954531970597606 0 0.00022398677576896788 0.034742818829828895 0 0.00017116209488386204 0.034664025121992424 0 0.00026531983098948531 0.034663228499294124 0 0.00030989084504168019 0.034655379378610636 0 0.00022398677576896788 0.034742818829828895 0 0.00026531983098948531 0.034663228499294124 0 0.00022398677576896788 0.034742818829828895 0 0.00017116209488386204 0.034664025121992424 0 5.8790173059243291e-05 0.03465050588271807 0 0.00012048642937319384 0.0344830595130277 0 0.00026531983098948531 0.034663228499294124 0 0.00017116209488386204 0.034664025121992424 0 0.00024568914741105997 0.034637087252808611 0 2.260248394243795e-05 0.034996233580580779 0 2.476363899156334e-05 0.034993164437063365 0 0.00014074683286031223 0.035038008317315565 0 0.00019591377055108838 0.034699725633295334 0 0.00014074683286031223 0.035038008317315565 0 2.7730425341372424e-05 0.034915822306878633 0 0.00019591377055108838 0.034699725633295334 0 0.00049660192604959697 0.034755951749987517 0 0.00014074683286031223 0.035038008317315565 0 2.476363899156334e-05 0.034993164437063365 0 0.00014074683286031223 0.035038008317315565 0 2.7730425341372424e-05 0.034915822306878633 0 2.476363899156334e-05 0.034993164437063365 0 2.7730425341372424e-05 0.034915822306878633 0 1.909739270435027e-05 0.034966761169890628 0 2.260248394243795e-05 0.034996233580580779 0 2.476363899156334e-05 0.034993164437063365 0 9.6714939775856368e-09 0.034999914103169584 0 2.9672668756062344e-05 0.034975578658662618 0 1.909739270435027e-05 0.034966761169890628 0 9.6714939775856368e-09 0.034999914103169584 0 2.476363899156334e-05 0.034993164437063365 0 1.909739270435027e-05 0.034966761169890628 0 9.6714939775856368e-09 0.034999914103169584 0 -8.4370655497249725e-06 0.034991449913939016 0 -5.3341866122160551e-06 0.034996534282221589 0 -6.3491468362999284e-06 0.034999261963867156 0 0.00010524260640532382 0.034609873872868707 0 0.00011331939659010821 0.034554287040223244 0 -4.6600494819639011e-06 0.034994553778055278 0 -2.8666112926319074e-06 0.034996851277988052 0 -2.6495557998465182e-06 0.034992802406308678 0 -2.8666112926319074e-06 0.034996851277988052 0 -7.8859679060381544e-08 0.03499656674630891 0 -2.6495557998465182e-06 0.034992802406308678 0 -4.6600494819639011e-06 0.034994553778055278 0 -8.4370655497249725e-06 0.034991449913939016 0 -5.3341866122160551e-06 0.034996534282221589 0 -4.6600494819639011e-06 0.034994553778055278 0 -8.4370655497249725e-06 0.034991449913939016 0 -2.6495557998465182e-06 0.034992802406308678 0 -5.3341866122160551e-06 0.034996534282221589 0 -4.1368337938147415e-06 0.034998880452005741 0 -6.3491468362999284e-06 0.034999261963867156 0 -5.3341866122160551e-06 0.034996534282221589 0 -2.8666112926319074e-06 0.034996851277988052 0 -4.1368337938147415e-06 0.034998880452005741 0 -4.6600494819639011e-06 0.034994553778055278 0 -5.3341866122160551e-06 0.034996534282221589 0 -2.8666112926319074e-06 0.034996851277988052 0 -2.8666112926319074e-06 0.034996851277988052 0 -2.4511125264196206e-06 0.034998822109439859 0 -4.1368337938147415e-06 0.034998880452005741 0 -2.8666112926319074e-06 0.034996851277988052 0 -2.4511125264196206e-06 0.034998822109439859 0 -1.2498638151059702e-06 0.034997935943022897 0 -2.4511125264196206e-06 0.034998822109439859 0 -1.2498638151059702e-06 0.034997935943022897 0 -1.3724986587657166e-07 0.034999326938877744 0 -2.8666112926319074e-06 0.034996851277988052 0 -1.2498638151059702e-06 0.034997935943022897 0 -7.8859679060381544e-08 0.03499656674630891 0 -1.2498638151059702e-06 0.034997935943022897 0 -1.3724986587657166e-07 0.034999326938877744 0 -7.8859679060381544e-08 0.03499656674630891 0 2.1701552747000607e-10 0.034999999853447941 0 -7.8859679060381544e-08 0.03499656674630891 0 2.3015416016537867e-09 0.034999974940194592 0 2.1701552747000607e-10 0.034999999853447941 0 -1.3724986587657166e-07 0.034999326938877744 0 -7.8859679060381544e-08 0.03499656674630891 0 -7.8859679060381544e-08 0.03499656674630891 0 2.3015416016537867e-09 0.034999974940194592 0 -5.5895180772578659e-07 0.034991984392717376 0 -7.8859679060381544e-08 0.03499656674630891 0 -5.5895180772578659e-07 0.034991984392717376 0 -2.6495557998465182e-06 0.034992802406308678 0 -5.5895180772578659e-07 0.034991984392717376 0 -3.7072954919316828e-06 0.034985348059096671 0 -3.0892780373892785e-07 0.034982763263571699 0 -3.7072954919316828e-06 0.034985348059096671 0 -7.4191473914966115e-06 0.034992403618671321 0 -9.3610311946818735e-06 0.034965832722200871 0 -5.5895180772578659e-07 0.034991984392717376 0 -2.6495557998465182e-06 0.034992802406308678 0 -3.7072954919316828e-06 0.034985348059096671 0 -8.4370655497249725e-06 0.034991449913939016 0 -2.6495557998465182e-06 0.034992802406308678 0 -3.7072954919316828e-06 0.034985348059096671 0 -8.4370655497249725e-06 0.034991449913939016 0 -3.7072954919316828e-06 0.034985348059096671 0 -7.4191473914966115e-06 0.034992403618671321 0 -2.3839282113577131e-06 0.034945061652294877 0 -1.808955547219949e-05 0.034913001352850241 0 -9.3610311946818735e-06 0.034965832722200871 0 0.00015882505908738369 0.03467828680446234 0 0.00014453128872744374 0.034730353193658955 0 -2.3839282113577131e-06 0.034945061652294877 0 -4.8534757389303497e-06 0.034922222847755334 0 2.1283159089186158e-06 0.034923043447390452 0 -4.8534757389303497e-06 0.034922222847755334 0 2.1283159089186158e-06 0.034923043447390452 0 -2.5788295719865571e-06 0.034909324752356384 0 -4.8534757389303497e-06 0.034922222847755334 0 -1.808955547219949e-05 0.034913001352850241 0 -2.5788295719865571e-06 0.034909324752356384 0 -2.3839282113577131e-06 0.034945061652294877 0 -4.8534757389303497e-06 0.034922222847755334 0 -1.808955547219949e-05 0.034913001352850241 0 -2.3839282113577131e-06 0.034945061652294877 0 2.1283159089186158e-06 0.034923043447390452 0 9.0187085788667198e-06 0.034930720308797319 0 2.1283159089186158e-06 0.034923043447390452 0 1.1275753669676777e-05 0.0349094551403068 0 4.4441522763626646e-06 0.034910272756572679 0 2.1283159089186158e-06 0.034923043447390452 0 4.4441522763626646e-06 0.034910272756572679 0 -2.5788295719865571e-06 0.034909324752356384 0 1.1275753669676777e-05 0.0349094551403068 0 1.8778343764318253e-05 0.03490934580635445 0 9.0187085788667198e-06 0.034930720308797319 0 2.1283159089186158e-06 0.034923043447390452 0 1.1275753669676777e-05 0.0349094551403068 0 9.0187085788667198e-06 0.034930720308797319 0 1.1275753669676777e-05 0.0349094551403068 0 5.6875957073525141e-06 0.034899975997695114 0 1.3320147482924735e-05 0.034896476635565638 0 5.6875957073525141e-06 0.034899975997695114 0 -2.5788295719865571e-06 0.034909324752356384 0 -2.8065779298952332e-06 0.034895936935387444 0 1.1275753669676777e-05 0.0349094551403068 0 4.4441522763626646e-06 0.034910272756572679 0 5.6875957073525141e-06 0.034899975997695114 0 4.4441522763626646e-06 0.034910272756572679 0 5.6875957073525141e-06 0.034899975997695114 0 -2.5788295719865571e-06 0.034909324752356384 0 5.6875957073525141e-06 0.034899975997695114 0 -2.8065779298952332e-06 0.034895936935387444 0 6.4589651668336934e-06 0.034888597159840301 0 1.3320147482924735e-05 0.034896476635565638 0 6.4589651668336934e-06 0.034888597159840301 0 1.7050616815613479e-05 0.034885850463851564 0 5.6875957073525141e-06 0.034899975997695114 0 1.3320147482924735e-05 0.034896476635565638 0 6.4589651668336934e-06 0.034888597159840301 0 -7.4191473914966115e-06 0.034992403618671321 0 3.3545404747676222e-06 0.034960376934978644 0 -1.0419250369548137e-05 0.034966829776408533 0 -8.4370655497249725e-06 0.034991449913939016 0 -7.4191473914966115e-06 0.034992403618671321 0 -1.0419250369548137e-05 0.034966829776408533 0 0.00015882505908738369 0.03467828680446234 0 0.00020578266706292058 0.034501132599444609 0 -1.808955547219949e-05 0.034913001352850241 0 -2.8065779298952332e-06 0.034895936935387444 0 -1.0499971706196977e-05 0.034884530870901327 0 -1.808955547219949e-05 0.034913001352850241 0 -2.5788295719865571e-06 0.034909324752356384 0 -2.8065779298952332e-06 0.034895936935387444 0 -1.0499971706196977e-05 0.034884530870901327 0 5.061057554255901e-06 0.034876772122021227 0 -5.084831754409436e-06 0.034864750610322008 0 0.00020578266706292058 0.034501132599444609 0 0.00029804379164161994 0.034128207055737901 0 3.3545404747676222e-06 0.034960376934978644 0 -8.4357467613587871e-06 0.034931346528311931 0 -1.0419250369548137e-05 0.034966829776408533 0 -2.8065779298952332e-06 0.034895936935387444 0 -1.0499971706196977e-05 0.034884530870901327 0 -3.1951973644450101e-07 0.034886218273575298 0 -1.0499971706196977e-05 0.034884530870901327 0 -3.1951973644450101e-07 0.034886218273575298 0 5.061057554255901e-06 0.034876772122021227 0 6.4589651668336934e-06 0.034888597159840301 0 5.061057554255901e-06 0.034876772122021227 0 1.7050616815613479e-05 0.034885850463851564 0 -2.8065779298952332e-06 0.034895936935387444 0 -3.1951973644450101e-07 0.034886218273575298 0 6.4589651668336934e-06 0.034888597159840301 0 -3.1951973644450101e-07 0.034886218273575298 0 6.4589651668336934e-06 0.034888597159840301 0 5.061057554255901e-06 0.034876772122021227 0 0.00033660441150065344 0.03405565275052809 0 0.00032318967346250927 0.033464879653714807 0 0.0011699272522854721 0.032703379596818731 0 0.00099162120677040119 0.032839252666774794 0 0.00089410644549292595 0.032694520205619651 0 5.061057554255901e-06 0.034876772122021227 0 -3.1023500611449406e-06 0.034863422042630939 0 1.9923595516488904e-05 0.034866420199825381 0 3.3545404747676222e-06 0.034960376934978644 0 -8.4357467613587871e-06 0.034931346528311931 0 1.1368453094023686e-05 0.034915809877255011 0 0.00013920001201021056 0.034372712054393087 0 0.00029804379164161994 0.034128207055737901 0 0.00013920001201021056 0.034372712054393087 0 0.00017164191492004727 0.034311196620457875 0 5.061057554255901e-06 0.034876772122021227 0 -5.084831754409436e-06 0.034864750610322008 0 -3.1023500611449406e-06 0.034863422042630939 0 0.00029804379164161994 0.034128207055737901 0 0.00033660441150065344 0.03405565275052809 0 0.0005989021518345019 0.033551551640756461 0 0.0005029653859468555 0.03418038187502391 0 -0.00020551755955648926 0.034169135517035432 0 0.00029804379164161994 0.034128207055737901 0 0.00031103027963932012 0.034091528050658432 0 0.00031103027963932012 0.034091528050658432 0 0.00033660441150065344 0.03405565275052809 0 0.00027690029371809304 0.0338812932777625 0 -0.00022042904728540922 0.03426310875203447 0 0.00023135265696710571 0.034355941810385829 0 0.00031103027963932012 0.034091528050658432 0 0.00017164191492004727 0.034311196620457875 0 -0.00022042904728540922 0.03426310875203447 0 -0.00023343490162166955 0.034348476885369524 0 0.00023135265696710571 0.034355941810385829 0 8.8078127967281485e-07 0.034998888799903795 0 6.7367538878024745e-07 0.034999529249955037 0 8.5548388791701407e-07 0.034999335283628072 0 0.00017164191492004727 0.034311196620457875 0 7.596688857520331e-05 0.034665823909398465 0 6.3570141172944904e-07 0.034998386770139861 0 1.9767440665404704e-07 0.034999121522585559 0 2.9398298842828524e-07 0.034999039817372499 0 6.0009682426122062e-07 0.034998685754334354 0 6.3570141172944904e-07 0.034998386770139861 0 2.9398298842828524e-07 0.034999039817372499 0 0.00013920001201021056 0.034372712054393087 0 0.00011331939659010821 0.034554287040223244 0 0.00013920001201021056 0.034372712054393087 0 5.5660019862657044e-05 0.034480129870437033 0 -6.016584774713766e-06 0.035001717326984587 0 -3.4404114542838653e-06 0.035000553002974284 0 -6.3491468362999284e-06 0.034999261963867156 0 6.0009682426122062e-07 0.034998685754334354 0 2.9398298842828524e-07 0.034999039817372499 0 1.8142548723205406e-07 0.03499924758656648 0 2.9398298842828524e-07 0.034999039817372499 0 1.8142548723205406e-07 0.03499924758656648 0 2.8500735089947494e-08 0.034999686493317 0 -2.4511125264196206e-06 0.034998822109439859 0 -3.4404114542838653e-06 0.035000553002974284 0 -4.1368337938147415e-06 0.034998880452005741 0 -3.4404114542838653e-06 0.035000553002974284 0 -4.1368337938147415e-06 0.034998880452005741 0 -6.3491468362999284e-06 0.034999261963867156 0 2.1701552747000607e-10 0.034999999853447941 0 2.8500735089947494e-08 0.034999686493317 0 -2.5416264145744212e-11 0.034999997957045018 0 2.1701552747000607e-10 0.034999999853447941 0 -1.3724986587657166e-07 0.034999326938877744 0 2.8500735089947494e-08 0.034999686493317 0 -1.3724986587657166e-07 0.034999326938877744 0 1.8142548723205406e-07 0.03499924758656648 0 2.8500735089947494e-08 0.034999686493317 0 3.0455671533521701e-05 0.034513626051259919 0 5.5660019862657044e-05 0.034480129870437033 0 -2.4511125264196206e-06 0.034998822109439859 0 -1.3724986587657166e-07 0.034999326938877744 0 -3.4404114542838653e-06 0.035000553002974284 0 7.596688857520331e-05 0.034665823909398465 0 2.130584270787903e-07 0.034998197135468131 0 1.9767440665404704e-07 0.034999121522585559 0 2.8500735089947494e-08 0.034999686493317 0 -2.5416264145744212e-11 0.034999997957045018 0 1.9767440665404704e-07 0.034999121522585559 0 2.9398298842828524e-07 0.034999039817372499 0 2.8500735089947494e-08 0.034999686493317 0 6.7367538878024745e-07 0.034999529249955037 0 5.2178738309113593e-10 0.03499999965003877 0 5.3438711924337151e-07 0.034999659343223403 0 5.2178738309113593e-10 0.03499999965003877 0 5.3438711924337151e-07 0.034999659343223403 0 5.1616269744156628e-10 0.034999999416712245 0 8.8078127967281485e-07 0.034998888799903795 0 8.5548388791701407e-07 0.034999335283628072 0 1.1598605006115484e-06 0.034999103918917626 0 6.7367538878024745e-07 0.034999529249955037 0 5.3438711924337151e-07 0.034999659343223403 0 8.5548388791701407e-07 0.034999335283628072 0 5.3438711924337151e-07 0.034999659343223403 0 8.5548388791701407e-07 0.034999335283628072 0 9.374096336203229e-07 0.034999457449321737 0 8.5548388791701407e-07 0.034999335283628072 0 9.374096336203229e-07 0.034999457449321737 0 1.1598605006115484e-06 0.034999103918917626 0 5.3438711924337151e-07 0.034999659343223403 0 9.374096336203229e-07 0.034999457449321737 0 5.6536845866620725e-07 0.034999702638903771 0 9.374096336203229e-07 0.034999457449321737 0 1.3332701992633133e-06 0.034999412638493599 0 1.1598605006115484e-06 0.034999103918917626 0 9.374096336203229e-07 0.034999457449321737 0 1.3332701992633133e-06 0.034999412638493599 0 5.6536845866620725e-07 0.034999702638903771 0 5.1616269744156628e-10 0.034999999416712245 0 5.6536845866620725e-07 0.034999702638903771 0 3.8815910920599088e-10 0.034999999340599004 0 5.3438711924337151e-07 0.034999659343223403 0 5.1616269744156628e-10 0.034999999416712245 0 5.6536845866620725e-07 0.034999702638903771 0 5.6536845866620725e-07 0.034999702638903771 0 3.8815910920599088e-10 0.034999999340599004 0 6.8763052888326677e-07 0.034999265197840024 0 1.3332701992633133e-06 0.034999412638493599 0 6.8763052888326677e-07 0.034999265197840024 0 2.4524807001455517e-06 0.034999077159297884 0 1.3332701992633133e-06 0.034999412638493599 0 5.6536845866620725e-07 0.034999702638903771 0 6.8763052888326677e-07 0.034999265197840024 0 5.7996842928496633e-07 0.034998983017907041 0 1.4592324611951831e-06 0.034997781251984855 0 6.8763052888326677e-07 0.034999265197840024 0 1.4592324611951831e-06 0.034997781251984855 0 6.8763052888326677e-07 0.034999265197840024 0 2.4524807001455517e-06 0.034999077159297884 0 3.7492460095488277e-10 0.034999998033238139 0 3.8815910920599088e-10 0.034999999340599004 0 6.8763052888326677e-07 0.034999265197840024 0 3.7492460095488277e-10 0.034999998033238139 0 5.7996842928496633e-07 0.034998983017907041 0 6.8763052888326677e-07 0.034999265197840024 0 0.00098409438931088954 0.033589814314550916 0 0.0010840305480870388 0.033347592382631748 0 0.00090456271509729055 0.03334241491162792 0 0.0010840305480870388 0.033347592382631748 0 0.0010057774690535736 0.033161882095974475 0 0.00090456271509729055 0.03334241491162792 0 0.00046642573899477083 0.034277539765385667 0 0.00040787382993492358 0.034203728323999677 0 0.0012043113691064438 0.033481749269272783 0 0.0010840305480870388 0.033347592382631748 0 0.0012229570420310629 0.033224469088876656 0 4.7342474468998826e-06 0.034996800159024059 0 1.4592324611951831e-06 0.034997781251984855 0 2.4524807001455517e-06 0.034999077159297884 0 0.0010840305480870388 0.033347592382631748 0 0.0012229570420310629 0.033224469088876656 0 0.0010057774690535736 0.033161882095974475 0 0.0012229570420310629 0.033224469088876656 0 0.0010057774690535736 0.033161882095974475 0 0.0011258584972870483 0.03305907749293089 0 0.0010057774690535736 0.033161882095974475 0 0.0010155618174655123 0.032997449554978554 0 0.0011258584972870483 0.03305907749293089 0 0.0010155618174655123 0.032997449554978554 0 0.0011258584972870483 0.03305907749293089 0 0.0011428911455445701 0.032952840364673906 0 0.0012229570420310629 0.033224469088876656 0 0.0011258584972870483 0.03305907749293089 0 0.0012355371076752004 0.032977229067878616 0 1.3332701992633133e-06 0.034999412638493599 0 2.4524807001455517e-06 0.034999077159297884 0 1.1598605006115484e-06 0.034999103918917626 0 0.00040787382993492358 0.034203728323999677 0 0.00031596009791640947 0.034191615332286124 0 0.0011258584972870483 0.03305907749293089 0 0.0011428911455445701 0.032952840364673906 0 0.0012355371076752004 0.032977229067878616 0 0.0011746663293412689 0.032731822034975135 0 0.0011565673022094164 0.032731434156011506 0 0.0011428911455445701 0.032952840364673906 0 0.00031103027963932012 0.034091528050658432 0 0.00038531218218135113 0.033840013987990414 0 0.0012515417868988606 0.03275803773408284 0 0.0011428911455445701 0.032952840364673906 0 0.0012355371076752004 0.032977229067878616 0 0.0011730168846590824 0.032757079064427125 0 0.0012515417868988606 0.03275803773408284 0 0.0011428911455445701 0.032952840364673906 0 0.00017164191492004727 0.034311196620457875 0 0.00031596009791640947 0.034191615332286124 0 0.00033660441150065344 0.03405565275052809 0 0.00066277521708934422 0.033708273309233636 0 0.0011565673022094164 0.032731434156011506 0 0.0011428911455445701 0.032952840364673906 0 0.00098534104905619751 0.032860370252751979 0 0.0010155618174655123 0.032997449554978554 0 0.0011428911455445701 0.032952840364673906 0 0.00098534104905619751 0.032860370252751979 0 0.00066277521708934422 0.033708273309233636 0 0.00073972188582767048 0.033617916713055446 0 0.00099162120677040119 0.032839252666774794 0 0.00078255816724722956 0.032821860910082316 0 0.00089410644549292595 0.032694520205619651 0 0.00099162120677040119 0.032839252666774794 0 0.00078255816724722956 0.032821860910082316 0 0.00080899634576731569 0.032983447819648924 0 0.00078255816724722956 0.032821860910082316 0 0.00080899634576731569 0.032983447819648924 0 0.00060278420205863055 0.032911160301981213 0 0.00078255816724722956 0.032821860910082316 0 0.00060278420205863055 0.032911160301981213 0 0.00061133595900254812 0.032680838253632272 0 0.00080899634576731569 0.032983447819648924 0 0.00060823586150427736 0.033158514082529796 0 0.00060278420205863055 0.032911160301981213 0 0.0010155618174655123 0.032997449554978554 0 0.00098534104905619751 0.032860370252751979 0 0.00080899634576731569 0.032983447819648924 0 0.0010057774690535736 0.033161882095974475 0 0.0010155618174655123 0.032997449554978554 0 0.00080899634576731569 0.032983447819648924 0 0.0010057774690535736 0.033161882095974475 0 0.00080899634576731569 0.032983447819648924 0 0.00081865909774847675 0.033179231617462758 0 0.0010057774690535736 0.033161882095974475 0 0.00081865909774847675 0.033179231617462758 0 0.00090456271509729055 0.03334241491162792 0 0.00080899634576731569 0.032983447819648924 0 0.00081865909774847675 0.033179231617462758 0 0.00060823586150427736 0.033158514082529796 0 0.00081865909774847675 0.033179231617462758 0 0.00060823586150427736 0.033158514082529796 0 0.00073646986436236013 0.033311019280343968 0 0.00078502483437822238 0.033520813679712096 0 0.00073646986436236013 0.033311019280343968 0 0.000609504256250919 0.033423746849611795 0 0.00060823586150427736 0.033158514082529796 0 0.00073646986436236013 0.033311019280343968 0 0.000609504256250919 0.033423746849611795 0 0.00078502483437822238 0.033520813679712096 0 0.00073646986436236013 0.033311019280343968 0 0.00090456271509729055 0.03334241491162792 0 0.00081865909774847675 0.033179231617462758 0 0.00073646986436236013 0.033311019280343968 0 0.00090456271509729055 0.03334241491162792 0 0.00027846281736433734 0.033336536601507614 0 0.00046163889601419833 0.033308210562839946 0 0.00037304406734843326 0.033186207745649218 0 0.00040102501456192968 0.033436347706751156 0 0.00027846281736433734 0.033336536601507614 0 0.00046163889601419833 0.033308210562839946 0 0.00022270363324895906 0.033417586289806865 0 0.00040102501456192968 0.033436347706751156 0 0.00027846281736433734 0.033336536601507614 0 0.00040102501456192968 0.033436347706751156 0 0.000609504256250919 0.033423746849611795 0 0.00046163889601419833 0.033308210562839946 0 0.00060823586150427736 0.033158514082529796 0 0.000609504256250919 0.033423746849611795 0 0.00046163889601419833 0.033308210562839946 0 0.00060823586150427736 0.033158514082529796 0 0.00037304406734843326 0.033186207745649218 0 0.00040788636894815826 0.033002081294903847 0 0.00060823586150427736 0.033158514082529796 0 0.00046163889601419833 0.033308210562839946 0 0.00037304406734843326 0.033186207745649218 0 0.00037304406734843326 0.033186207745649218 0 0.00026844630677208976 0.0330962961705061 0 0.00018759065678514763 0.03327953629035358 0 0.00027846281736433734 0.033336536601507614 0 0.00037304406734843326 0.033186207745649218 0 0.00018759065678514763 0.03327953629035358 0 0.00037304406734843326 0.033186207745649218 0 0.00026844630677208976 0.0330962961705061 0 0.00040788636894815826 0.033002081294903847 0 0.00026844630677208976 0.0330962961705061 0 0.00040788636894815826 0.033002081294903847 0 0.00019143066586544322 0.032978720693184478 0 0.00040788636894815826 0.033002081294903847 0 0.00022727707585501252 0.032824229756638214 0 0.00019143066586544322 0.032978720693184478 0 0.00060823586150427736 0.033158514082529796 0 0.00040788636894815826 0.033002081294903847 0 0.00060278420205863055 0.032911160301981213 0 0.00060278420205863055 0.032911160301981213 0 0.00043562870410014247 0.032815243063054285 0 0.00061133595900254812 0.032680838253632272 0 0.00040788636894815826 0.033002081294903847 0 0.00060278420205863055 0.032911160301981213 0 0.00043562870410014247 0.032815243063054285 0 0.00040788636894815826 0.033002081294903847 0 0.00043562870410014247 0.032815243063054285 0 0.00022727707585501252 0.032824229756638214 0 0.00043562870410014247 0.032815243063054285 0 0.00031960088102119639 0.032659466875874205 0 0.00022727707585501252 0.032824229756638214 0 3.146313296952651e-05 0.034877239128132675 0 3.4210701274337394e-05 0.034877127492819203 0 2.6637469195460749e-05 0.034874871046331149 0 3.4210701274337394e-05 0.034877127492819203 0 2.9116188552923418e-05 0.034874443799027315 0 3.4880035130285242e-05 0.034878146964885802 0 3.4210701274337394e-05 0.034877127492819203 0 2.9116188552923418e-05 0.034874443799027315 0 2.6637469195460749e-05 0.034874871046331149 0 3.4210701274337394e-05 0.034877127492819203 0 3.2732065378039318e-05 0.034877906403222872 0 3.5160256542886573e-05 0.034880723443326017 0 3.4210701274337394e-05 0.034877127492819203 0 3.3916572017544753e-05 0.03487241141089422 0 3.2732065378039318e-05 0.034877906403222872 0 3.4210701274337394e-05 0.034877127492819203 0 3.4880035130285242e-05 0.034878146964885802 0 3.5160256542886573e-05 0.034880723443326017 0 3.146313296952651e-05 0.034877239128132675 0 3.4210701274337394e-05 0.034877127492819203 0 3.3916572017544753e-05 0.03487241141089422 0 3.6109665231632918e-05 0.032023679685097207 0 0.0002172344296892917 0.032821933271065078 0 0.00043562870410014247 0.032815243063054285 0 0.00031960088102119639 0.032659466875874205 0 0.00061133595900254812 0.032680838253632272 0 0.0002172344296892917 0.032821933271065078 0 0.00032318967346250927 0.033464879653714807 0 3.3916572017544753e-05 0.03487241141089422 0 2.4787362777667297e-05 0.034876564284646652 0 3.2732065378039318e-05 0.034877906403222872 0 0.00078255816724722956 0.032821860910082316 0 0.00061133595900254812 0.032680838253632272 0 0.00089410644549292595 0.032694520205619651 0 3.3916572017544753e-05 0.03487241141089422 0 1.9923595516488904e-05 0.034866420199825381 0 2.4787362777667297e-05 0.034876564284646652 0 5.061057554255901e-06 0.034876772122021227 0 1.9923595516488904e-05 0.034866420199825381 0 2.4787362777667297e-05 0.034876564284646652 0 5.061057554255901e-06 0.034876772122021227 0 2.4787362777667297e-05 0.034876564284646652 0 1.7050616815613479e-05 0.034885850463851564 0 2.4787362777667297e-05 0.034876564284646652 0 1.7050616815613479e-05 0.034885850463851564 0 2.9124196283189796e-05 0.034884499225195043 0 2.4787362777667297e-05 0.034876564284646652 0 3.2732065378039318e-05 0.034877906403222872 0 2.9124196283189796e-05 0.034884499225195043 0 3.2732065378039318e-05 0.034877906403222872 0 2.9124196283189796e-05 0.034884499225195043 0 3.5160256542886573e-05 0.034880723443326017 0 2.9124196283189796e-05 0.034884499225195043 0 3.367233870790249e-05 0.03488588631453577 0 3.5160256542886573e-05 0.034880723443326017 0 2.9124196283189796e-05 0.034884499225195043 0 2.9263716668718701e-05 0.034891056572744786 0 2.1537160237334551e-05 0.034896453776056498 0 2.9124196283189796e-05 0.034884499225195043 0 2.9263716668718701e-05 0.034891056572744786 0 3.367233870790249e-05 0.03488588631453577 0 2.9263716668718701e-05 0.034891056572744786 0 3.367233870790249e-05 0.03488588631453577 0 3.3959959904759511e-05 0.034891154352197959 0 1.7050616815613479e-05 0.034885850463851564 0 2.9124196283189796e-05 0.034884499225195043 0 2.1537160237334551e-05 0.034896453776056498 0 1.3320147482924735e-05 0.034896476635565638 0 1.7050616815613479e-05 0.034885850463851564 0 2.1537160237334551e-05 0.034896453776056498 0 2.9263716668718701e-05 0.034891056572744786 0 2.1537160237334551e-05 0.034896453776056498 0 2.6405922300275651e-05 0.034901385345121182 0 1.1275753669676777e-05 0.0349094551403068 0 1.3320147482924735e-05 0.034896476635565638 0 2.1537160237334551e-05 0.034896453776056498 0 1.8778343764318253e-05 0.03490934580635445 0 2.0826476176396548e-05 0.034917885737865674 0 9.0187085788667198e-06 0.034930720308797319 0 1.1275753669676777e-05 0.0349094551403068 0 2.1537160237334551e-05 0.034896453776056498 0 1.8778343764318253e-05 0.03490934580635445 0 2.1537160237334551e-05 0.034896453776056498 0 1.8778343764318253e-05 0.03490934580635445 0 2.6405922300275651e-05 0.034901385345121182 0 1.8778343764318253e-05 0.03490934580635445 0 2.6405922300275651e-05 0.034901385345121182 0 2.0826476176396548e-05 0.034917885737865674 0 3.3959959904759511e-05 0.034891154352197959 0 2.6405922300275651e-05 0.034901385345121182 0 3.2908209648059618e-05 0.034903505060727348 0 2.9263716668718701e-05 0.034891056572744786 0 3.3959959904759511e-05 0.034891154352197959 0 2.6405922300275651e-05 0.034901385345121182 0 2.6405922300275651e-05 0.034901385345121182 0 3.2908209648059618e-05 0.034903505060727348 0 2.0826476176396548e-05 0.034917885737865674 0 3.3959959904759511e-05 0.034891154352197959 0 3.2908209648059618e-05 0.034903505060727348 0 3.841329345317736e-05 0.034886858296505584 0 4.4247120821425583e-05 0.034875429937879829 0 3.2896868440066907e-05 0.034874612239798791 0 3.8763114585205116e-05 0.034881724733970269 0 3.2908209648059618e-05 0.034903505060727348 0 3.841329345317736e-05 0.034886858296505584 0 4.4247120821425583e-05 0.034875429937879829 0 3.841329345317736e-05 0.034886858296505584 0 4.4247120821425583e-05 0.034875429937879829 0 3.8763114585205116e-05 0.034881724733970269 0 3.3959959904759511e-05 0.034891154352197959 0 3.841329345317736e-05 0.034886858296505584 0 3.8763114585205116e-05 0.034881724733970269 0 4.4247120821425583e-05 0.034875429937879829 0 3.2896868440066907e-05 0.034874612239798791 0 2.3421563510595586e-05 0.03486162893382793 0 4.4247120821425583e-05 0.034875429937879829 0 2.3421563510595586e-05 0.03486162893382793 0 4.2805841687671974e-05 0.034855267001760545 0 3.2896868440066907e-05 0.034874612239798791 0 3.4880035130285242e-05 0.034878146964885802 0 3.8763114585205116e-05 0.034881724733970269 0 3.2896868440066907e-05 0.034874612239798791 0 2.9116188552923418e-05 0.034874443799027315 0 3.4880035130285242e-05 0.034878146964885802 0 3.4880035130285242e-05 0.034878146964885802 0 3.5160256542886573e-05 0.034880723443326017 0 3.8763114585205116e-05 0.034881724733970269 0 3.367233870790249e-05 0.03488588631453577 0 3.5160256542886573e-05 0.034880723443326017 0 3.8763114585205116e-05 0.034881724733970269 0 3.367233870790249e-05 0.03488588631453577 0 3.3959959904759511e-05 0.034891154352197959 0 3.8763114585205116e-05 0.034881724733970269 0 1.2204184033437409e-05 0.034864465885785838 0 1.7800401084741997e-05 0.034869738912590986 0 2.1167074723579005e-05 0.034867416057942344 0 1.2204184033437409e-05 0.034864465885785838 0 1.7800401084741997e-05 0.034869738912590986 0 1.0494883818707454e-05 0.034867488295967697 0 3.2896868440066907e-05 0.034874612239798791 0 2.9116188552923418e-05 0.034874443799027315 0 2.1167074723579005e-05 0.034867416057942344 0 2.9116188552923418e-05 0.034874443799027315 0 1.7800401084741997e-05 0.034869738912590986 0 2.1167074723579005e-05 0.034867416057942344 0 2.1167074723579005e-05 0.034867416057942344 0 2.3421563510595586e-05 0.03486162893382793 0 1.4173073188784329e-05 0.034859269551167749 0 -0.00013943841842791734 0.034042881673987689 0 -0.00018898682343039373 0.033891133851571179 0 3.2896868440066907e-05 0.034874612239798791 0 2.1167074723579005e-05 0.034867416057942344 0 2.3421563510595586e-05 0.03486162893382793 0 1.2204184033437409e-05 0.034864465885785838 0 2.1167074723579005e-05 0.034867416057942344 0 1.4173073188784329e-05 0.034859269551167749 0 -0.00018898682343039373 0.033891133851571179 0 -0.00027055336721222735 0.033617699305703179 0 1.2204184033437409e-05 0.034864465885785838 0 1.4173073188784329e-05 0.034859269551167749 0 3.0893036828770012e-06 0.034858134281686243 0 -3.8635252628793216e-05 0.034804666290423718 0 -0.0001349308835839781 0.034770816483002301 0 -6.3513707666549356e-05 0.034752610254170556 0 -0.00011833501447118275 0.034568109594736544 0 -0.00022620226439004886 0.034477888033780824 0 -9.3265472296304885e-05 0.034404706249240587 0 -0.00011833501447118275 0.034568109594736544 0 -9.3265472296304885e-05 0.034404706249240587 0 -2.144573176624622e-05 0.034619768298931902 0 -0.00011833501447118275 0.034568109594736544 0 -0.00022620226439004886 0.034477888033780824 0 -0.00015238008681387922 0.034694823169512154 0 -0.00027055336721222735 0.033617699305703179 0 -0.00026330720724077251 0.0336884159718355 0 -0.00045407992062044449 0.034457132743152041 0 -9.3265472296304885e-05 0.034404706249240587 0 -0.0003074293386423569 0.034187562807084924 0 -0.00027055336721222735 0.033617699305703179 0 -0.00026758609234499758 0.03363425131265093 0 -0.0003074293386423569 0.034187562807084924 0 -0.0003555481982294556 0.033871495288795711 0 0.00015961437629095671 0.034231161179780728 0 -0.00045407992062044449 0.034457132743152041 0 -0.0003074293386423569 0.034187562807084924 0 -0.00049110847759263425 0.03376345996912189 0 -0.00027055336721222735 0.033617699305703179 0 -0.00043724492601789094 0.032182066342811101 0 -0.0003074293386423569 0.034187562807084924 0 -0.0003555481982294556 0.033871495288795711 0 -0.00049110847759263425 0.03376345996912189 0 -0.0003555481982294556 0.033871495288795711 0 -0.00031529010788121099 0.033729380170066658 0 -0.00027240680892805968 0.033728234187185138 0 1.2204184033437409e-05 0.034864465885785838 0 3.0893036828770012e-06 0.034858134281686243 0 7.5290860420365906e-06 0.034864228901617 0 3.0893036828770012e-06 0.034858134281686243 0 7.5290860420365906e-06 0.034864228901617 0 4.209129767478401e-06 0.034866777343601413 0 7.5290860420365906e-06 0.034864228901617 0 1.0494883818707454e-05 0.034867488295967697 0 4.209129767478401e-06 0.034866777343601413 0 1.2204184033437409e-05 0.034864465885785838 0 7.5290860420365906e-06 0.034864228901617 0 1.0494883818707454e-05 0.034867488295967697 0 -0.00043724492601789094 0.032182066342811101 0 -0.00073782256514446937 0.029402229288047241 0 1.0494883818707454e-05 0.034867488295967697 0 4.209129767478401e-06 0.034866777343601413 0 1.1324301987360125e-05 0.034871098413662822 0 4.209129767478401e-06 0.034866777343601413 0 1.1324301987360125e-05 0.034871098413662822 0 4.7981579195388684e-06 0.034872475542348014 0 -0.00049110847759263425 0.03376345996912189 0 -0.00039567983291023131 0.033613195910315766 0 -0.00048536093993343426 0.033490782136585386 0 -0.00031529010788121099 0.033729380170066658 0 -0.00033169339522223405 0.033672143827337228 0 -0.00027951306142670661 0.033671861813883097 0 -0.0003555481982294556 0.033871495288795711 0 -0.00031529010788121099 0.033729380170066658 0 -0.00037462554218480336 0.03372783088682739 0 -0.00031529010788121099 0.033729380170066658 0 -0.00037462554218480336 0.03372783088682739 0 -0.00033169339522223405 0.033672143827337228 0 -0.00049110847759263425 0.03376345996912189 0 -0.00037462554218480336 0.03372783088682739 0 -0.00039567983291023131 0.033613195910315766 0 -0.0003555481982294556 0.033871495288795711 0 -0.00049110847759263425 0.03376345996912189 0 -0.00037462554218480336 0.03372783088682739 0 -0.00033169339522223405 0.033672143827337228 0 -0.00028060398186085107 0.033605913541234197 0 -0.00027951306142670661 0.033671861813883097 0 -0.00039567983291023131 0.033613195910315766 0 -0.00033169339522223405 0.033672143827337228 0 -0.00028060398186085107 0.033605913541234197 0 -0.00037462554218480336 0.03372783088682739 0 -0.00039567983291023131 0.033613195910315766 0 -0.00033169339522223405 0.033672143827337228 0 -0.00073893011636142099 0.028419927611641978 0 -0.00061010711736920846 0.028621403968904002 0 -0.00039567983291023131 0.033613195910315766 0 -0.00035954460512825962 0.03350298309387998 0 -0.00028060398186085107 0.033605913541234197 0 -0.00039567983291023131 0.033613195910315766 0 -0.00035954460512825962 0.03350298309387998 0 -0.00048536093993343426 0.033490782136585386 0 -0.00073893011636142099 0.028419927611641978 0 -0.00091708140980495498 0.027059375958438676 0 -0.00073893011636142099 0.028419927611641978 0 -0.00073782256514446937 0.029402229288047241 0 -0.00098545774633281339 0.027567801978421565 0 0.00086063921841182537 0.02759609835564851 0 0.0010259000873979612 0.029590350850248054 0 -0.00073782256514446937 0.029402229288047241 0 -0.00024962740793687817 0.030941902125521371 0 -0.00033022564882412547 0.032616000623989332 0 4.8626473344501131e-06 0.032633851160333772 0 -0.00025416471723982583 0.032770889292504254 0 1.1324301987360125e-05 0.034871098413662822 0 4.7981579195388684e-06 0.034872475542348014 0 1.8796010755139188e-05 0.034876733893282282 0 -0.00073782256514446937 0.029402229288047241 0 -0.00091708140980495498 0.027059375958438676 0 1.7800401084741997e-05 0.034869738912590986 0 1.1324301987360125e-05 0.034871098413662822 0 1.8796010755139188e-05 0.034876733893282282 0 1.7800401084741997e-05 0.034869738912590986 0 1.0494883818707454e-05 0.034867488295967697 0 1.1324301987360125e-05 0.034871098413662822 0 2.9116188552923418e-05 0.034874443799027315 0 1.7800401084741997e-05 0.034869738912590986 0 2.6637469195460749e-05 0.034874871046331149 0 1.7800401084741997e-05 0.034869738912590986 0 1.8796010755139188e-05 0.034876733893282282 0 2.6637469195460749e-05 0.034874871046331149 0 3.6109665231632918e-05 0.032023679685097207 0 -0.00024962740793687817 0.030941902125521371 0 0.00031960088102119639 0.032659466875874205 0 4.8626473344501131e-06 0.032633851160333772 0 0.00022727707585501252 0.032824229756638214 0 3.146313296952651e-05 0.034877239128132675 0 1.8796010755139188e-05 0.034876733893282282 0 2.6637469195460749e-05 0.034874871046331149 0 4.8626473344501131e-06 0.032633851160333772 0 0.00022727707585501252 0.032824229756638214 0 3.8222865167749014e-05 0.032872851934852995 0 0.00022727707585501252 0.032824229756638214 0 3.8222865167749014e-05 0.032872851934852995 0 0.00019143066586544322 0.032978720693184478 0 4.8626473344501131e-06 0.032633851160333772 0 -8.8804002032095316e-05 0.032808088748787829 0 -0.00025416471723982583 0.032770889292504254 0 4.8626473344501131e-06 0.032633851160333772 0 -8.8804002032095316e-05 0.032808088748787829 0 3.8222865167749014e-05 0.032872851934852995 0 -8.8804002032095316e-05 0.032808088748787829 0 3.8222865167749014e-05 0.032872851934852995 0 -0.00014482349441087854 0.032954613959274355 0 -0.00014482349441087854 0.032954613959274355 0 6.833839091037469e-05 0.033023067788150826 0 1.7446875847331471e-05 0.033112138117979237 0 3.8222865167749014e-05 0.032872851934852995 0 -0.00014482349441087854 0.032954613959274355 0 6.833839091037469e-05 0.033023067788150826 0 -0.00084837851355127334 0.027129354566527784 0 -0.00079823559126410008 0.026974075967019905 0 -0.001735860768383941 0.022302006894798897 0 -0.0021244246472255472 0.021894149208945619 0 -0.0017649816434482193 0.02181644505695321 0 -0.0008319690514318063 0.027068101940052602 0 -0.00079823559126410008 0.026974075967019905 0 3.8222865167749014e-05 0.032872851934852995 0 0.00019143066586544322 0.032978720693184478 0 6.833839091037469e-05 0.033023067788150826 0 6.833839091037469e-05 0.033023067788150826 0 0.00015542835017338282 0.033130731138421535 0 1.350066895934913e-05 0.033118306938122191 0 0.00019143066586544322 0.032978720693184478 0 6.833839091037469e-05 0.033023067788150826 0 0.00015542835017338282 0.033130731138421535 0 0.00026844630677208976 0.0330962961705061 0 0.00019143066586544322 0.032978720693184478 0 0.00015542835017338282 0.033130731138421535 0 0.00026844630677208976 0.0330962961705061 0 0.00018759065678514763 0.03327953629035358 0 0.00015542835017338282 0.033130731138421535 0 0.00018759065678514763 0.03327953629035358 0 0.0001362720954068702 0.033257186804841625 0 0.00015010837544476019 0.033331368242419744 0 0.00018759065678514763 0.03327953629035358 0 0.00015542835017338282 0.033130731138421535 0 1.350066895934913e-05 0.033118306938122191 0 -0.00046093369819917964 0.027477648525645201 0 -0.00079823559126410008 0.026974075967019905 0 -0.0021244246472255472 0.021894149208945619 0 -0.0017649816434482193 0.02181644505695321 0 -0.0017709026540039408 0.021272685284064775 0 -0.00079823559126410008 0.026974075967019905 0 -0.00086383796091385565 0.02679392289558976 0 0.0001362720954068702 0.033257186804841625 0 0.00015010837544476019 0.033331368242419744 0 0.00014329077052491933 0.033402732731647553 0 0.00015010837544476019 0.033331368242419744 0 0.00014329077052491933 0.033402732731647553 0 0.00014848793339509753 0.0333817201459502 0 0.00017518305493137307 0.033418848001088949 0 0.00014329077052491933 0.033402732731647553 0 0.00014848793339509753 0.0333817201459502 0 0.00022270363324895906 0.033417586289806865 0 0.00027846281736433734 0.033336536601507614 0 0.00014848793339509753 0.0333817201459502 0 0.00027846281736433734 0.033336536601507614 0 0.00018759065678514763 0.03327953629035358 0 0.00014848793339509753 0.0333817201459502 0 0.00018759065678514763 0.03327953629035358 0 0.00015010837544476019 0.033331368242419744 0 0.00014848793339509753 0.0333817201459502 0 -0.0014192277736005464 0.021135442375572785 0 -0.0013002714390699039 0.020972947499760322 0 -0.0011254632541317052 0.021141594666638574 0 -0.0014192277736005464 0.021135442375572785 0 -0.0013002714390699039 0.020972947499760322 0 -0.0014231875956788916 0.021022090227290378 0 -0.001391231478927768 0.020899900401676316 0 -0.0013002714390699039 0.020972947499760322 0 -0.0014231875956788916 0.021022090227290378 0 -0.0013211104729009308 0.023226008640265264 0 -0.0012348881211188773 0.024069836673669798 0 -0.001391231478927768 0.020899900401676316 0 -0.0014231875956788916 0.021022090227290378 0 -0.0015603360355053095 0.021034083392477733 0 -0.00086298710090873282 0.026406076441024325 0 -0.00086383796091385565 0.02679392289558976 0 -0.0014192277736005464 0.021135442375572785 0 -0.0014231875956788916 0.021022090227290378 0 -0.0015603360355053095 0.021034083392477733 0 -0.0015090787457388995 0.020813153365574419 0 -0.0017709026540039408 0.021272685284064775 0 -0.0015603360355053095 0.021034083392477733 0 -0.0014192277736005464 0.021135442375572785 0 -0.0015603360355053095 0.021034083392477733 0 -0.0014969824112565386 0.021281355723969851 0 -0.0017709026540039408 0.021272685284064775 0 -0.0015603360355053095 0.021034083392477733 0 -0.0014270264652083222 0.021817237576076037 0 -0.0017649816434482193 0.02181644505695321 0 -0.0017709026540039408 0.021272685284064775 0 -0.0014270264652083222 0.021817237576076037 0 -0.0014192277736005464 0.021135442375572785 0 -0.0013222511709802944 0.021296478248935182 0 -0.0011254632541317052 0.021141594666638574 0 -0.0014192277736005464 0.021135442375572785 0 -0.0014969824112565386 0.021281355723969851 0 -0.0013222511709802944 0.021296478248935182 0 -0.0013222511709802944 0.021296478248935182 0 -0.0013693884717724193 0.021462121516420071 0 -0.0012012087810330367 0.02151056950343988 0 -0.0014969824112565386 0.021281355723969851 0 -0.0013222511709802944 0.021296478248935182 0 -0.0013693884717724193 0.021462121516420071 0 -0.0014969824112565386 0.021281355723969851 0 -0.0013693884717724193 0.021462121516420071 0 -0.0014682012268577367 0.021587646106034281 0 -0.0012348881211188773 0.024069836673669798 0 -0.00091708140980495498 0.027059375958438676 0 -0.001735860768383941 0.022302006894798897 0 -0.0014270264652083222 0.021817237576076037 0 -0.0013155649168896956 0.022732979081945645 0 -0.001735860768383941 0.022302006894798897 0 -0.0017649816434482193 0.02181644505695321 0 -0.0014270264652083222 0.021817237576076037 0 -0.00014482349441087854 0.032954613959274355 0 -0.00031463465643636024 0.032786437730418228 0 -0.00025416471723982583 0.032770889292504254 0 -0.0008319690514318063 0.027068101940052602 0 -0.00091708140980495498 0.027059375958438676 0 -8.8804002032095316e-05 0.032808088748787829 0 -0.00014482349441087854 0.032954613959274355 0 -0.00025416471723982583 0.032770889292504254 0 -0.00033022564882412547 0.032616000623989332 0 -0.00031653080846263151 0.032786948302843483 0 -0.00025416471723982583 0.032770889292504254 0 -0.00091708140980495498 0.027059375958438676 0 -0.00092262958730566916 0.027077329206768478 0 -0.0014375240259775449 0.021835761114177381 0 -0.0016093456873907028 0.0216644580758821 0 -0.0012908553483193918 0.021563829852956035 0 -0.0013693884717724193 0.021462121516420071 0 -0.0014682012268577367 0.021587646106034281 0 -0.0012012087810330367 0.02151056950343988 0 -0.00091708140980495498 0.027059375958438676 0 -0.00059829005355950906 0.025519091520755013 0 -0.0012012087810330367 0.02151056950343988 0 -0.00091795130532948519 0.02142341137315729 0 -0.0011254632541317052 0.021141594666638574 0 -0.0013222511709802944 0.021296478248935182 0 -0.0012012087810330367 0.02151056950343988 0 -0.0011254632541317052 0.021141594666638574 0 -0.0012908553483193918 0.021563829852956035 0 -0.00096360620592437064 0.02145435042400029 0 -0.0010771243528295514 0.021835711692638274 0 -0.00096360620592437064 0.02145435042400029 0 -0.00081606076697759837 0.021640510934662346 0 -0.0010771243528295514 0.021835711692638274 0 -0.00059829005355950906 0.025519091520755013 0 -0.00041016083210429965 0.024677535466596828 0 -0.00091795130532948519 0.02142341137315729 0 -0.0011254632541317052 0.021141594666638574 0 -0.00081359655803871017 0.02121040954675284 0 -0.0011254632541317052 0.021141594666638574 0 -0.00091846185987886936 0.021035909182392679 0 -0.00081359655803871017 0.02121040954675284 0 -0.00095191282056506063 0.020770775616441153 0 -0.0011254632541317052 0.021141594666638574 0 -0.00091846185987886936 0.021035909182392679 0 -0.00088045856217272925 0.020740467257112885 0 -0.00093244785185311592 0.020828484077674098 0 -0.0011444976367127842 0.020894722388055231 0 -0.00093251954087048916 0.020877955423743315 0 -0.0011254632541317052 0.021141594666638574 0 -0.0011444976367127842 0.020894722388055231 0 -0.0013002714390699039 0.020972947499760322 0 -0.0011254632541317052 0.021141594666638574 0 -0.00062845298699315392 0.020811968522358011 0 -0.00072335548675605491 0.021005740008116027 0 -0.00046257321804787395 0.02097307542010626 0 -0.00072335548675605491 0.021005740008116027 0 -0.00060046757260742137 0.0211395417665543 0 -0.00046257321804787395 0.02097307542010626 0 -0.00044457891418491109 0.020751399368989006 0 -0.00062845298699315392 0.020811968522358011 0 -0.00046257321804787395 0.02097307542010626 0 -0.00095191282056506063 0.020770775616441153 0 -0.00091846185987886936 0.021035909182392679 0 -0.00072335548675605491 0.021005740008116027 0 -0.00062845298699315392 0.020811968522358011 0 -0.00095191282056506063 0.020770775616441153 0 -0.00072335548675605491 0.021005740008116027 0 -0.00072335548675605491 0.021005740008116027 0 -0.00081359655803871017 0.02121040954675284 0 -0.00060046757260742137 0.0211395417665543 0 -0.00091846185987886936 0.021035909182392679 0 -0.00072335548675605491 0.021005740008116027 0 -0.00081359655803871017 0.02121040954675284 0 -0.00060046757260742137 0.0211395417665543 0 -0.00044503009808763514 0.021189668207104346 0 -0.00046257321804787395 0.02097307542010626 0 -0.00081359655803871017 0.02121040954675284 0 -0.00060046757260742137 0.0211395417665543 0 -0.00061967523218650763 0.021333333488495882 0 -0.00060046757260742137 0.0211395417665543 0 -0.00061967523218650763 0.021333333488495882 0 -0.00044503009808763514 0.021189668207104346 0 -0.00061967523218650763 0.021333333488495882 0 -0.0005975433049834342 0.021551786649125229 0 -0.00038487688672321615 0.021434475820547031 0 -0.00061967523218650763 0.021333333488495882 0 -0.00071696408669448715 0.021522597843195112 0 -0.0005975433049834342 0.021551786649125229 0 -0.00041016083210429965 0.024677535466596828 0 -0.00032825900673205812 0.024404387699285709 0 -0.00091795130532948519 0.02142341137315729 0 -0.00081359655803871017 0.02121040954675284 0 -0.00061967523218650763 0.021333333488495882 0 -0.00096360620592437064 0.02145435042400029 0 -0.00061967523218650763 0.021333333488495882 0 -0.00071696408669448715 0.021522597843195112 0 -0.00096360620592437064 0.02145435042400029 0 -0.00071696408669448715 0.021522597843195112 0 -0.00081606076697759837 0.021640510934662346 0 -0.00071696408669448715 0.021522597843195112 0 -0.00081606076697759837 0.021640510934662346 0 -0.00069254375892182913 0.02166805371432743 0 -0.00081606076697759837 0.021640510934662346 0 -0.00069254375892182913 0.02166805371432743 0 -0.00069943358023340869 0.021837905758147293 0 -0.0005975433049834342 0.021551786649125229 0 -0.00063825760878660873 0.021799478085259897 0 -0.00038487688672321615 0.021434475820547031 0 -0.00033637106684968656 0.02455150474704295 0 -8.2833359351705333e-07 0.023498304912591767 0 -0.0005975433049834342 0.021551786649125229 0 -0.00069254375892182913 0.02166805371432743 0 -0.00063825760878660873 0.021799478085259897 0 -0.00033637106684968656 0.02455150474704295 0 0.00013968336122347261 0.022839982771650641 0 -0.00071696408669448715 0.021522597843195112 0 -0.0005975433049834342 0.021551786649125229 0 -0.00069254375892182913 0.02166805371432743 0 -0.0005791123311436726 0.025201509143048171 0 -0.00043646493940794923 0.025575636895686937 0 -0.00024329821198618653 0.033615345918510793 0 -0.00025243258759510015 0.033597963558115611 0 -0.00030691841372553613 0.0335979637654929 0 -0.00077369083101385501 0.021531930843806796 0 -0.00082541547810578372 0.021567046277406906 0 -0.000508834110610985 0.021562472145545325 0 -0.00069254375892182913 0.02166805371432743 0 -0.00063825760878660873 0.021799478085259897 0 -0.00069943358023340869 0.021837905758147293 0 -0.00033637106684968656 0.02455150474704295 0 -0.0005791123311436726 0.025201509143048171 0 -0.00024329821198618653 0.033615345918510793 0 -0.00025243258759510015 0.033597963558115611 0 -0.00023176217583082036 0.033609312185599399 0 -0.00025243258759510015 0.033597963558115611 0 -0.00023604449753407802 0.033598855193098506 0 -0.00026909866215926438 0.033561183237075784 0 -0.00025243258759510015 0.033597963558115611 0 -0.00026909866215926438 0.033561183237075784 0 -0.00030691841372553613 0.0335979637654929 0 -0.00023604449753407802 0.033598855193098506 0 -0.00022274005499442226 0.033619561772218406 0 -0.00022955562920913542 0.033597245204800966 0 -0.00025243258759510015 0.033597963558115611 0 -0.00023604449753407802 0.033598855193098506 0 -0.00023631772913227715 0.033604088306606578 0 -0.00023604449753407802 0.033598855193098506 0 -0.00023631772913227715 0.033604088306606578 0 -0.0002286977515058646 0.033608902668931094 0 -0.00023604449753407802 0.033598855193098506 0 -0.0002286977515058646 0.033608902668931094 0 -0.00022274005499442226 0.033619561772218406 0 -0.0002286977515058646 0.033608902668931094 0 -0.00022453455969291073 0.033612993223565868 0 -0.00022274005499442226 0.033619561772218406 0 -0.0005791123311436726 0.025201509143048171 0 -0.00065805870006372313 0.026887460679071818 0 -0.00023259952913285098 0.033609865826597841 0 -0.00023176217583082036 0.033609312185599399 0 -0.00022672249931203633 0.03359906839704941 0 -0.0002286977515058646 0.033608902668931094 0 -0.00023176217583082036 0.033609312185599399 0 -0.00022453455969291073 0.033612993223565868 0 -0.00081606076697759837 0.021640510934662346 0 -0.00069943358023340869 0.021837905758147293 0 -0.0010771243528295514 0.021835711692638274 0 -0.00025243258759510015 0.033597963558115611 0 -0.00023631772913227715 0.033604088306606578 0 -0.00023176217583082036 0.033609312185599399 0 -0.00023631772913227715 0.033604088306606578 0 -0.0002286977515058646 0.033608902668931094 0 -0.00023176217583082036 0.033609312185599399 0 -0.0005791123311436726 0.025201509143048171 0 -0.00061219347916590305 0.025250464079442869 0 -0.00023176217583082036 0.033609312185599399 0 -0.00022672249931203633 0.03359906839704941 0 -0.00022453455969291073 0.033612993223565868 0 -0.00022672249931203633 0.03359906839704941 0 -0.00023510904438786144 0.033641038249549587 0 -0.00022453455969291073 0.033612993223565868 0 -0.00073893011636142099 0.028419927611641978 0 -0.00065805870006372313 0.026887460679071818 0 -0.00030340826522661375 0.033577647287432691 0 -0.00022672249931203633 0.03359906839704941 0 -0.00028060398186085107 0.033605913541234197 0 -0.00022672249931203633 0.03359906839704941 0 -0.00028060398186085107 0.033605913541234197 0 -0.00023510904438786144 0.033641038249549587 0 -0.0014375240259775449 0.021835761114177381 0 -0.0012908553483193918 0.021563829852956035 0 -0.0010771243528295514 0.021835711692638274 0 -0.00023510904438786144 0.033641038249549587 0 -0.00022114092575369166 0.033640713501600597 0 -0.00027240680892805968 0.033728234187185138 0 -0.00028060398186085107 0.033605913541234197 0 -0.00023510904438786144 0.033641038249549587 0 -0.00027951306142670661 0.033671861813883097 0 -0.00023510904438786144 0.033641038249549587 0 -0.00027951306142670661 0.033671861813883097 0 -0.00027240680892805968 0.033728234187185138 0 -0.00031529010788121099 0.033729380170066658 0 -0.00027951306142670661 0.033671861813883097 0 -0.00027240680892805968 0.033728234187185138 0 -0.00023510904438786144 0.033641038249549587 0 -0.00022453455969291073 0.033612993223565868 0 -0.00022274005499442226 0.033619561772218406 0 -0.00023510904438786144 0.033641038249549587 0 -0.00022274005499442226 0.033619561772218406 0 -0.00022114092575369166 0.033640713501600597 0 1.8343779777485536e-05 0.032752666250439384 0 6.1251623456409342e-05 0.032476916974639655 0 -0.00022274005499442226 0.033619561772218406 0 -0.00022114092575369166 0.033640713501600597 0 -0.00022955562920913542 0.033597245204800966 0 -0.00022114092575369166 0.033640713501600597 0 -0.00022628874925705595 0.033669770406626907 0 -0.00022771190250695317 0.033568943155525513 0 -0.00022114092575369166 0.033640713501600597 0 -0.00022628874925705595 0.033669770406626907 0 -0.00027240680892805968 0.033728234187185138 0 -4.0935629664859654e-05 0.032827394636765442 0 1.8343779777485536e-05 0.032752666250439384 0 -9.3265472296304885e-05 0.034404706249240587 0 -0.0003074293386423569 0.034187562807084924 0 0.00015961437629095671 0.034231161179780728 0 -0.0003555481982294556 0.033871495288795711 0 -0.00022628874925705595 0.033669770406626907 0 -0.00027240680892805968 0.033728234187185138 0 -9.3265472296304885e-05 0.034404706249240587 0 0.00016114510199053848 0.034528658697677191 0 -2.144573176624622e-05 0.034619768298931902 0 -9.3265472296304885e-05 0.034404706249240587 0 0.00015961437629095671 0.034231161179780728 0 0.00016114510199053848 0.034528658697677191 0 0.00015961437629095671 0.034231161179780728 0 0.00016114510199053848 0.034528658697677191 0 0.00038191167131651932 0.034383211479009974 0 0.00016114510199053848 0.034528658697677191 0 0.00038191167131651932 0.034383211479009974 0 0.00031989113141955286 0.034602873177768022 0 6.1251623456409342e-05 0.032476916974639655 0 -7.3601000572751836e-05 0.03190947561154648 0 0.00038191167131651932 0.034383211479009974 0 0.00051578771820626863 0.03461455372323316 0 0.00058307528170720418 0.03447085992782746 0 -0.00022771190250695317 0.033568943155525513 0 -0.00026909866215926438 0.033561183237075784 0 -0.00028081171136018962 0.033500917076700949 0 -0.00023604449753407802 0.033598855193098506 0 -0.00026909866215926438 0.033561183237075784 0 -0.00022955562920913542 0.033597245204800966 0 -0.00022771190250695317 0.033568943155525513 0 -0.00026909866215926438 0.033561183237075784 0 -0.00022955562920913542 0.033597245204800966 0 -0.00022114092575369166 0.033640713501600597 0 -0.00022771190250695317 0.033568943155525513 0 -0.00022955562920913542 0.033597245204800966 0 0.00041501605556207099 0.034718939604452707 0 0.00028931480377136418 0.034788268557546916 0 0.00031989113141955286 0.034602873177768022 0 0.00041501605556207099 0.034718939604452707 0 0.00028931480377136418 0.034788268557546916 0 0.00040897798519377404 0.034851098818537769 0 0.00041501605556207099 0.034718939604452707 0 0.00051881103111495565 0.034768368431289769 0 0.00051578771820626863 0.03461455372323316 0 0.00041501605556207099 0.034718939604452707 0 0.00051881103111495565 0.034768368431289769 0 0.00040897798519377404 0.034851098818537769 0 0.00051881103111495565 0.034768368431289769 0 0.00051578771820626863 0.03461455372323316 0 0.00062188825539512369 0.034718878499107618 0 0.00038191167131651932 0.034383211479009974 0 0.00051578771820626863 0.03461455372323316 0 0.00031989113141955286 0.034602873177768022 0 0.00041501605556207099 0.034718939604452707 0 0.00051578771820626863 0.03461455372323316 0 0.00031989113141955286 0.034602873177768022 0 0.00016114510199053848 0.034528658697677191 0 6.3836180553754731e-05 0.034690826827640006 0 0.00017695833821138019 0.034711964847571053 0 0.00016114510199053848 0.034528658697677191 0 0.00031989113141955286 0.034602873177768022 0 0.00017695833821138019 0.034711964847571053 0 0.00016114510199053848 0.034528658697677191 0 -2.144573176624622e-05 0.034619768298931902 0 6.3836180553754731e-05 0.034690826827640006 0 -2.144573176624622e-05 0.034619768298931902 0 6.3836180553754731e-05 0.034690826827640006 0 -4.342279940819397e-05 0.034763652388165117 0 6.3836180553754731e-05 0.034690826827640006 0 -4.342279940819397e-05 0.034763652388165117 0 6.1759495582806756e-05 0.034806671646179392 0 6.3836180553754731e-05 0.034690826827640006 0 6.1759495582806756e-05 0.034806671646179392 0 0.00017695833821138019 0.034711964847571053 0 6.1759495582806756e-05 0.034806671646179392 0 0.00015764149663387731 0.03485610011472625 0 5.6188371575237123e-05 0.034915398091971424 0 -4.342279940819397e-05 0.034763652388165117 0 6.1759495582806756e-05 0.034806671646179392 0 -2.9499370508625357e-05 0.034896447231664296 0 0.00028931480377136418 0.034788268557546916 0 0.00031989113141955286 0.034602873177768022 0 0.00017695833821138019 0.034711964847571053 0 6.1759495582806756e-05 0.034806671646179392 0 0.00017695833821138019 0.034711964847571053 0 0.00015764149663387731 0.03485610011472625 0 0.00028931480377136418 0.034788268557546916 0 0.00017695833821138019 0.034711964847571053 0 0.00015764149663387731 0.03485610011472625 0 0.00028931480377136418 0.034788268557546916 0 0.00015764149663387731 0.03485610011472625 0 0.00026014290842000376 0.034930959302073662 0 0.00015764149663387731 0.03485610011472625 0 0.00026014290842000376 0.034930959302073662 0 0.00010484828001573977 0.034991163508703689 0 0.00015764149663387731 0.03485610011472625 0 0.00010484828001573977 0.034991163508703689 0 5.6188371575237123e-05 0.034915398091971424 0 0.00026014290842000376 0.034930959302073662 0 0.00010484828001573977 0.034991163508703689 0 0.00013688916399177774 0.035115450883639723 0 -2.9499370508625357e-05 0.034896447231664296 0 -3.6538426270974039e-06 0.035025918429413702 0 -7.672495067745331e-05 0.035077457604995102 0 -2.9499370508625357e-05 0.034896447231664296 0 5.6188371575237123e-05 0.034915398091971424 0 -3.6538426270974039e-06 0.035025918429413702 0 6.1759495582806756e-05 0.034806671646179392 0 -2.9499370508625357e-05 0.034896447231664296 0 5.6188371575237123e-05 0.034915398091971424 0 0.00010484828001573977 0.034991163508703689 0 5.6188371575237123e-05 0.034915398091971424 0 -3.6538426270974039e-06 0.035025918429413702 0 -6.3767733463508124e-05 0.034884967792542083 0 -5.2328626782192152e-05 0.034895324007373045 0 -3.6538426270974039e-06 0.035025918429413702 0 -7.0139024934778794e-06 0.0351458830720668 0 -7.672495067745331e-05 0.035077457604995102 0 -7.0139024934778794e-06 0.0351458830720668 0 -2.2888832579315452e-06 0.035103318413118444 0 -7.672495067745331e-05 0.035077457604995102 0 0.00010484828001573977 0.034991163508703689 0 -3.6538426270974039e-06 0.035025918429413702 0 -7.0139024934778794e-06 0.0351458830720668 0 -0.00013820211894925678 0.035255787627699452 0 -0.00046185417000529975 0.035295122950705485 0 -0.00025212688611738219 0.035062110890627017 0 0.00010484828001573977 0.034991163508703689 0 -7.0139024934778794e-06 0.0351458830720668 0 0.00013688916399177774 0.035115450883639723 0 -0.00098372279619564611 0.03097955650442925 0 -0.00098793834547701749 0.030937269182035931 0 -7.0139024934778794e-06 0.0351458830720668 0 -0.00013820211894925678 0.035255787627699452 0 -0.00011751236278978611 0.035125576745459366 0 0.00026014290842000376 0.034930959302073662 0 0.00013688916399177774 0.035115450883639723 0 0.00041838755824348989 0.035008687332061313 0 -0.00098793834547701749 0.030937269182035931 0 -0.001177340849886462 0.030857610727517758 0 -0.00098793834547701749 0.030937269182035931 0 -0.0010892664628025391 0.030783736922392013 0 -0.001102461760336636 0.030220749955268012 0 -0.0013506777229023916 0.030180208361303022 0 -0.0013913668037116096 0.030291385608793749 0 0.00026014290842000376 0.034930959302073662 0 0.00041838755824348989 0.035008687332061313 0 0.00040897798519377404 0.034851098818537769 0 0.00028931480377136418 0.034788268557546916 0 0.00026014290842000376 0.034930959302073662 0 0.00040897798519377404 0.034851098818537769 0 0.00041838755824348989 0.035008687332061313 0 0.00053479549342273064 0.034897815408239378 0 0.00066160450146234831 0.034910920661000176 0 -0.0010892664628025391 0.030783736922392013 0 -0.0013534653428345373 0.030321976803934367 0 0.00051881103111495565 0.034768368431289769 0 0.00053479549342273064 0.034897815408239378 0 0.00060625916775567529 0.034808199477542733 0 0.00051881103111495565 0.034768368431289769 0 0.00040897798519377404 0.034851098818537769 0 0.00053479549342273064 0.034897815408239378 0 0.00041838755824348989 0.035008687332061313 0 0.00040897798519377404 0.034851098818537769 0 0.00053479549342273064 0.034897815408239378 0 -0.0013913668037116096 0.030291385608793749 0 -0.0015984158538337812 0.030140269465882778 0 -0.0016792495892028966 0.030361292549828514 0 -0.0013506777229023916 0.030180208361303022 0 -0.0013913668037116096 0.030291385608793749 0 -0.0015984158538337812 0.030140269465882778 0 -0.001177340849886462 0.030857610727517758 0 -0.0015961461365315292 0.030518769386949324 0 -0.00046185417000529975 0.035295122950705485 0 -0.00052582175584747358 0.035009202589992523 0 -0.00080566834354589599 0.035309752515455463 0 -0.00052582175584747358 0.035009202589992523 0 -0.00080566834354589599 0.035309752515455463 0 -0.00088372071502273975 0.035062586285539946 0 -0.00046185417000529975 0.035295122950705485 0 -0.00052582175584747358 0.035009202589992523 0 -0.00025212688611738219 0.035062110890627017 0 -0.00052582175584747358 0.035009202589992523 0 -0.0001703015783067447 0.034794467979889755 0 -0.00025212688611738219 0.035062110890627017 0 -0.00052582175584747358 0.035009202589992523 0 -0.00045260109816461436 0.034680693459592571 0 -0.0001703015783067447 0.034794467979889755 0 -0.00052582175584747358 0.035009202589992523 0 -0.00073051590683469387 0.034811755792871428 0 -0.00045260109816461436 0.034680693459592571 0 -0.00052582175584747358 0.035009202589992523 0 -0.00073051590683469387 0.034811755792871428 0 -0.00088372071502273975 0.035062586285539946 0 -0.00073051590683469387 0.034811755792871428 0 -0.00045260109816461436 0.034680693459592571 0 -0.00069477147276988298 0.034521291165037174 0 -0.00045260109816461436 0.034680693459592571 0 -0.00019483646601377221 0.034583682520164624 0 -0.0004459243102115214 0.034398756171237249 0 -0.00045260109816461436 0.034680693459592571 0 -0.00069477147276988298 0.034521291165037174 0 -0.0004459243102115214 0.034398756171237249 0 -0.00069477147276988298 0.034521291165037174 0 -0.00068085117328366487 0.034304641352455492 0 -0.0004459243102115214 0.034398756171237249 0 -1.1676000357801504e-05 0.03451392501390748 0 -0.00019483646601377221 0.034583682520164624 0 -0.00019054651930180866 0.034308347959754092 0 -0.00019483646601377221 0.034583682520164624 0 -0.00019054651930180866 0.034308347959754092 0 -0.0004459243102115214 0.034398756171237249 0 -0.00045260109816461436 0.034680693459592571 0 -0.00019483646601377221 0.034583682520164624 0 -0.0001703015783067447 0.034794467979889755 0 -1.1676000357801504e-05 0.03451392501390748 0 -0.00019483646601377221 0.034583682520164624 0 -1.0476091536386573e-06 0.034768196492059325 0 -0.00019483646601377221 0.034583682520164624 0 -0.0001703015783067447 0.034794467979889755 0 -1.0476091536386573e-06 0.034768196492059325 0 -7.7709305462685349e-05 0.034866055234123894 0 -6.3767733463508124e-05 0.034884967792542083 0 -0.0001703015783067447 0.034794467979889755 0 -3.6004080766540106e-05 0.034856498411547393 0 -1.0476091536386573e-06 0.034768196492059325 0 -0.0001703015783067447 0.034794467979889755 0 -0.00025212688611738219 0.035062110890627017 0 -2.2888832579315452e-06 0.035103318413118444 0 -0.00025212688611738219 0.035062110890627017 0 -0.00011751236278978611 0.035125576745459366 0 -2.2888832579315452e-06 0.035103318413118444 0 -0.00013820211894925678 0.035255787627699452 0 -0.00025212688611738219 0.035062110890627017 0 -0.00011751236278978611 0.035125576745459366 0 -7.0139024934778794e-06 0.0351458830720668 0 -0.00011751236278978611 0.035125576745459366 0 -2.2888832579315452e-06 0.035103318413118444 0 2.8842662507181648e-05 0.034851680622826793 0 8.6150637106356339e-05 0.034821501604719966 0 1.4270343325275416e-05 0.034848475864707247 0 -3.6004080766540106e-05 0.034856498411547393 0 2.8842662507181648e-05 0.034851680622826793 0 -1.0476091536386573e-06 0.034768196492059325 0 -2.739004362066586e-05 0.034792147378200182 0 2.7395425424441031e-05 0.034834116605853623 0 1.4270343325275416e-05 0.034848475864707247 0 1.4493342800221867e-05 0.034647620999868796 0 1.5295849015612241e-05 0.034689142135093547 0 1.4493342800221867e-05 0.034647620999868796 0 1.0069068063379083e-05 0.034531781868469148 0 8.6150637106356339e-05 0.034821501604719966 0 -1.0476091536386573e-06 0.034768196492059325 0 0.00016088642614916528 0.034618061829011219 0 2.8842662507181648e-05 0.034851680622826793 0 8.6150637106356339e-05 0.034821501604719966 0 -1.0476091536386573e-06 0.034768196492059325 0 -1.1676000357801504e-05 0.03451392501390748 0 -1.0476091536386573e-06 0.034768196492059325 0 0.00016088642614916528 0.034618061829011219 0 -6.8445391230899605e-05 0.034629153537261509 0 4.8330361220336147e-05 0.034495224719922134 0 6.5878615955467995e-05 0.03471314525158533 0 -2.739004362066586e-05 0.034792147378200182 0 -6.8445391230899605e-05 0.034629153537261509 0 6.5878615955467995e-05 0.03471314525158533 0 -6.8445391230899605e-05 0.034629153537261509 0 4.8330361220336147e-05 0.034495224719922134 0 -1.0626212867604321e-05 0.034376962621689974 0 1.0069068063379083e-05 0.034531781868469148 0 -1.8429267216969804e-06 0.034375745986600252 0 -6.8445391230899605e-05 0.034629153537261509 0 -1.0626212867604321e-05 0.034376962621689974 0 -5.2959408691748757e-05 0.034354195755215464 0 0.00016088642614916528 0.034618061829011219 0 9.2219027037858828e-05 0.034453446898172868 0 0.00019326492859812478 0.034324106941005572 0 -1.1676000357801504e-05 0.03451392501390748 0 0.00016088642614916528 0.034618061829011219 0 9.2219027037858828e-05 0.034453446898172868 0 -1.1676000357801504e-05 0.03451392501390748 0 9.2219027037858828e-05 0.034453446898172868 0 2.3390196344791142e-05 0.034350808732719444 0 0.00013555120534881006 0.03473114249550608 0 0.00012951623801034151 0.034750316302943125 0 0.00013534220030887351 0.034501426418200323 0 0.00016916490628074933 0.034744032146495872 0 0.00034526068632582615 0.034521926089769103 0 0.00013534220030887351 0.034501426418200323 0 0.00028223853925154964 0.034418548057945579 0 0.00022131412307357676 0.034356446007089661 0 0.00013534220030887351 0.034501426418200323 0 4.8330361220336147e-05 0.034495224719922134 0 0.00011622092275578452 0.034383798232267122 0 0.00013534220030887351 0.034501426418200323 0 4.8330361220336147e-05 0.034495224719922134 0 6.5878615955467995e-05 0.03471314525158533 0 6.5878615955467995e-05 0.03471314525158533 0 0.00016916490628074933 0.034744032146495872 0 0.00011169521514079185 0.034789920974918516 0 0.00013534220030887351 0.034501426418200323 0 6.5878615955467995e-05 0.03471314525158533 0 0.00016916490628074933 0.034744032146495872 0 6.5878615955467995e-05 0.03471314525158533 0 0.00011169521514079185 0.034789920974918516 0 5.9193346666375491e-05 0.034807498006950315 0 -2.739004362066586e-05 0.034792147378200182 0 6.5878615955467995e-05 0.03471314525158533 0 5.9193346666375491e-05 0.034807498006950315 0 -2.739004362066586e-05 0.034792147378200182 0 5.9193346666375491e-05 0.034807498006950315 0 2.7395425424441031e-05 0.034834116605853623 0 0.00011169521514079185 0.034789920974918516 0 5.9193346666375491e-05 0.034807498006950315 0 8.2918184706646714e-05 0.034815845859547667 0 5.9193346666375491e-05 0.034807498006950315 0 4.7940865960731804e-05 0.034825947949497754 0 8.2918184706646714e-05 0.034815845859547667 0 4.7940865960731804e-05 0.034825947949497754 0 3.7140144774210185e-05 0.034823874971589251 0 6.3124468820357184e-05 0.034825986066676966 0 4.7940865960731804e-05 0.034825947949497754 0 6.3124468820357184e-05 0.034825986066676966 0 8.2918184706646714e-05 0.034815845859547667 0 4.7940865960731804e-05 0.034825947949497754 0 3.7140144774210185e-05 0.034823874971589251 0 1.6135941157620927e-05 0.034823513962640551 0 3.7140144774210185e-05 0.034823874971589251 0 1.6135941157620927e-05 0.034823513962640551 0 3.5364007610235753e-06 0.03480962855210986 0 1.6135941157620927e-05 0.034823513962640551 0 2.7395425424441031e-05 0.034834116605853623 0 7.188603331769933e-06 0.034827992458452833 0 1.6135941157620927e-05 0.034823513962640551 0 7.188603331769933e-06 0.034827992458452833 0 -1.8080163735953073e-05 0.03479953716851493 0 4.7940865960731804e-05 0.034825947949497754 0 1.6135941157620927e-05 0.034823513962640551 0 2.7395425424441031e-05 0.034834116605853623 0 5.9193346666375491e-05 0.034807498006950315 0 4.7940865960731804e-05 0.034825947949497754 0 2.7395425424441031e-05 0.034834116605853623 0 2.7395425424441031e-05 0.034834116605853623 0 1.4270343325275416e-05 0.034848475864707247 0 7.188603331769933e-06 0.034827992458452833 0 2.8842662507181648e-05 0.034851680622826793 0 1.4270343325275416e-05 0.034848475864707247 0 2.6975510389884478e-05 0.034855689571100912 0 -3.6004080766540106e-05 0.034856498411547393 0 2.8842662507181648e-05 0.034851680622826793 0 2.6975510389884478e-05 0.034855689571100912 0 1.4270343325275416e-05 0.034848475864707247 0 2.6975510389884478e-05 0.034855689571100912 0 1.9963944936784776e-05 0.034813834414358723 0 -2.9499370508625357e-05 0.034896447231664296 0 -7.672495067745331e-05 0.035077457604995102 0 -0.0001635482084857799 0.03482323611719243 0 -5.2328626782192152e-05 0.034895324007373045 0 -5.1662847069805569e-05 0.034885707540804424 0 1.4270343325275416e-05 0.034848475864707247 0 7.188603331769933e-06 0.034827992458452833 0 1.9963944936784776e-05 0.034813834414358723 0 7.188603331769933e-06 0.034827992458452833 0 1.9963944936784776e-05 0.034813834414358723 0 -1.8080163735953073e-05 0.03479953716851493 0 -5.1662847069805569e-05 0.034885707540804424 0 -5.2214233740729915e-05 0.034879058850810482 0 -0.0001635482084857799 0.03482323611719243 0 -0.00012639555446648397 0.034744851278706447 0 -6.3513707666549356e-05 0.034752610254170556 0 1.9963944936784776e-05 0.034813834414358723 0 -6.3513707666549356e-05 0.034752610254170556 0 -1.8080163735953073e-05 0.03479953716851493 0 -4.342279940819397e-05 0.034763652388165117 0 -2.9499370508625357e-05 0.034896447231664296 0 -0.0001635482084857799 0.03482323611719243 0 -4.342279940819397e-05 0.034763652388165117 0 -0.0001635482084857799 0.03482323611719243 0 -0.00012639555446648397 0.034744851278706447 0 -4.342279940819397e-05 0.034763652388165117 0 -9.1167387509769515e-05 0.034702292125883154 0 -0.00012639555446648397 0.034744851278706447 0 -2.144573176624622e-05 0.034619768298931902 0 -4.342279940819397e-05 0.034763652388165117 0 -9.1167387509769515e-05 0.034702292125883154 0 -9.1167387509769515e-05 0.034702292125883154 0 -0.00012639555446648397 0.034744851278706447 0 -0.00015238008681387922 0.034694823169512154 0 -0.00011833501447118275 0.034568109594736544 0 -9.1167387509769515e-05 0.034702292125883154 0 -0.00015238008681387922 0.034694823169512154 0 -0.00011833501447118275 0.034568109594736544 0 -2.144573176624622e-05 0.034619768298931902 0 -9.1167387509769515e-05 0.034702292125883154 0 -0.00012639555446648397 0.034744851278706447 0 -0.00015238008681387922 0.034694823169512154 0 -6.3513707666549356e-05 0.034752610254170556 0 -0.0001349308835839781 0.034770816483002301 0 -0.00015238008681387922 0.034694823169512154 0 -6.3513707666549356e-05 0.034752610254170556 0 1.345335816744121e-05 0.034830153291951715 0 -3.8635252628793216e-05 0.034804666290423718 0 -1.7946955740551314e-05 0.034792479231336514 0 -6.3513707666549356e-05 0.034752610254170556 0 -1.7946955740551314e-05 0.034792479231336514 0 -1.8080163735953073e-05 0.03479953716851493 0 -3.8635252628793216e-05 0.034804666290423718 0 -6.3513707666549356e-05 0.034752610254170556 0 -1.7946955740551314e-05 0.034792479231336514 0 1.345335816744121e-05 0.034830153291951715 0 -1.7946955740551314e-05 0.034792479231336514 0 1.012785670559029e-05 0.034814643077231679 0 1.345335816744121e-05 0.034830153291951715 0 1.012785670559029e-05 0.034814643077231679 0 2.8438502593600311e-05 0.034830662632162959 0 1.012785670559029e-05 0.034814643077231679 0 3.5364007610235753e-06 0.03480962855210986 0 3.1253708742065213e-05 0.034822609682152478 0 -1.7946955740551314e-05 0.034792479231336514 0 1.012785670559029e-05 0.034814643077231679 0 3.5364007610235753e-06 0.03480962855210986 0 3.7140144774210185e-05 0.034823874971589251 0 3.5364007610235753e-06 0.03480962855210986 0 3.1253708742065213e-05 0.034822609682152478 0 1.6135941157620927e-05 0.034823513962640551 0 3.5364007610235753e-06 0.03480962855210986 0 -1.8080163735953073e-05 0.03479953716851493 0 -1.7946955740551314e-05 0.034792479231336514 0 3.5364007610235753e-06 0.03480962855210986 0 -1.8080163735953073e-05 0.03479953716851493 0 4.9757437452978963e-05 0.034832187498867032 0 6.2134791300611866e-05 0.034835765339697518 0 5.9565998409839439e-05 0.0348371564360095 0 4.9757437452978963e-05 0.034832187498867032 0 3.1253708742065213e-05 0.034822609682152478 0 2.8438502593600311e-05 0.034830662632162959 0 4.9757437452978963e-05 0.034832187498867032 0 3.1253708742065213e-05 0.034822609682152478 0 5.8738779979146509e-05 0.034830539650106046 0 1.012785670559029e-05 0.034814643077231679 0 3.1253708742065213e-05 0.034822609682152478 0 2.8438502593600311e-05 0.034830662632162959 0 1.345335816744121e-05 0.034830153291951715 0 2.8438502593600311e-05 0.034830662632162959 0 4.2805841687671974e-05 0.034855267001760545 0 4.9757437452978963e-05 0.034832187498867032 0 2.8438502593600311e-05 0.034830662632162959 0 4.2805841687671974e-05 0.034855267001760545 0 -0.00013943841842791734 0.034042881673987689 0 -0.00012180614215097219 0.034091434384635626 0 4.9757437452978963e-05 0.034832187498867032 0 4.2805841687671974e-05 0.034855267001760545 0 6.2134791300611866e-05 0.034835765339697518 0 3.3627933379537304e-05 0.034893465872046774 0 3.3975401098182024e-05 0.034893430617283186 0 4.4247120821425583e-05 0.034875429937879829 0 4.2805841687671974e-05 0.034855267001760545 0 6.2134791300611866e-05 0.034835765339697518 0 3.2908209648059618e-05 0.034903505060727348 0 3.1609142597339625e-05 0.03493413847624173 0 2.0826476176396548e-05 0.034917885737865674 0 3.2908209648059618e-05 0.034903505060727348 0 4.4247120821425583e-05 0.034875429937879829 0 3.1609142597339625e-05 0.03493413847624173 0 3.1609142597339625e-05 0.03493413847624173 0 1.1795921424049927e-05 0.03493997046576524 0 2.0826476176396548e-05 0.034917885737865674 0 1.1795921424049927e-05 0.03493997046576524 0 2.0826476176396548e-05 0.034917885737865674 0 9.0187085788667198e-06 0.034930720308797319 0 3.3975401098182024e-05 0.034893430617283186 0 3.2691234035349418e-05 0.034894874292938804 0 3.1609142597339625e-05 0.03493413847624173 0 1.1795921424049927e-05 0.03493997046576524 0 4.2469555581039446e-06 0.034950243474128263 0 6.2134791300611866e-05 0.034835765339697518 0 5.9565998409839439e-05 0.0348371564360095 0 4.4047411278764321e-05 0.034845711460667429 0 5.9565998409839439e-05 0.0348371564360095 0 4.4047411278764321e-05 0.034845711460667429 0 6.2959672123819469e-05 0.034850156941898559 0 4.4047411278764321e-05 0.034845711460667429 0 4.5741265145485288e-05 0.034881267657909901 0 6.2959672123819469e-05 0.034850156941898559 0 4.5741265145485288e-05 0.034881267657909901 0 6.2959672123819469e-05 0.034850156941898559 0 6.7735850361367572e-05 0.034856656865869716 0 6.2959672123819469e-05 0.034850156941898559 0 7.5943366529268919e-05 0.034832869502736563 0 5.8738779979146509e-05 0.034830539650106046 0 5.9565998409839439e-05 0.0348371564360095 0 6.2959672123819469e-05 0.034850156941898559 0 5.8738779979146509e-05 0.034830539650106046 0 4.9757437452978963e-05 0.034832187498867032 0 5.9565998409839439e-05 0.0348371564360095 0 5.8738779979146509e-05 0.034830539650106046 0 3.7140144774210185e-05 0.034823874971589251 0 3.1253708742065213e-05 0.034822609682152478 0 5.8738779979146509e-05 0.034830539650106046 0 3.7140144774210185e-05 0.034823874971589251 0 5.8738779979146509e-05 0.034830539650106046 0 6.3124468820357184e-05 0.034825986066676966 0 7.5943366529268919e-05 0.034832869502736563 0 5.8738779979146509e-05 0.034830539650106046 0 6.3124468820357184e-05 0.034825986066676966 0 7.5943366529268919e-05 0.034832869502736563 0 6.3124468820357184e-05 0.034825986066676966 0 8.2918184706646714e-05 0.034815845859547667 0 0.00011169521514079185 0.034789920974918516 0 8.2918184706646714e-05 0.034815845859547667 0 0.00010235410390364646 0.034812739970037816 0 7.5943366529268919e-05 0.034832869502736563 0 8.2918184706646714e-05 0.034815845859547667 0 0.00010235410390364646 0.034812739970037816 0 7.5943366529268919e-05 0.034832869502736563 0 0.00010235410390364646 0.034812739970037816 0 6.7735850361367572e-05 0.034856656865869716 0 0.00010235410390364646 0.034812739970037816 0 8.827705404886282e-05 0.034841640472275309 0 6.7735850361367572e-05 0.034856656865869716 0 0.00016916490628074933 0.034744032146495872 0 0.00011169521514079185 0.034789920974918516 0 0.00010235410390364646 0.034812739970037816 0 0.00016916490628074933 0.034744032146495872 0 0.00010235410390364646 0.034812739970037816 0 8.827705404886282e-05 0.034841640472275309 0 0.00016916490628074933 0.034744032146495872 0 8.827705404886282e-05 0.034841640472275309 0 0.00012556263309543704 0.034879365113795739 0 8.827705404886282e-05 0.034841640472275309 0 0.00012556263309543704 0.034879365113795739 0 6.6563823539680643e-05 0.034905118805180678 0 0.00012951623801034151 0.034750316302943125 0 7.5535681322002181e-05 0.034813281903593576 0 0.00013723052098109598 0.034743850700496293 0 0.00012951623801034151 0.034750316302943125 0 3.7009480455038443e-05 0.034936564474157293 0 6.6563823539680643e-05 0.034905118805180678 0 4.6438358548755347e-05 0.034898155970503796 0 4.1606192500474024e-05 0.034854728553287702 0 7.5535681322002181e-05 0.034813281903593576 0 8.827705404886282e-05 0.034841640472275309 0 6.6563823539680643e-05 0.034905118805180678 0 4.6438358548755347e-05 0.034898155970503796 0 4.6438358548755347e-05 0.034898155970503796 0 6.7735850361367572e-05 0.034856656865869716 0 3.8493354328726887e-05 0.034898060413807407 0 8.827705404886282e-05 0.034841640472275309 0 4.6438358548755347e-05 0.034898155970503796 0 6.7735850361367572e-05 0.034856656865869716 0 6.2959672123819469e-05 0.034850156941898559 0 7.5943366529268919e-05 0.034832869502736563 0 6.7735850361367572e-05 0.034856656865869716 0 4.5741265145485288e-05 0.034881267657909901 0 6.7735850361367572e-05 0.034856656865869716 0 3.8493354328726887e-05 0.034898060413807407 0 4.5741265145485288e-05 0.034881267657909901 0 3.8493354328726887e-05 0.034898060413807407 0 1.1682235601290228e-05 0.034925774072246896 0 2.2371989454793231e-05 0.03492827844053354 0 7.5772772147874103e-06 0.034961139650644381 0 1.1682235601290228e-05 0.034925774072246896 0 3.8493354328726887e-05 0.034898060413807407 0 2.2371989454793231e-05 0.03492827844053354 0 1.1682235601290228e-05 0.034925774072246896 0 2.2371989454793231e-05 0.03492827844053354 0 8.967869597741152e-06 0.034963209674463827 0 7.5772772147874103e-06 0.034961139650644381 0 4.6438358548755347e-05 0.034898155970503796 0 3.8493354328726887e-05 0.034898060413807407 0 2.2371989454793231e-05 0.03492827844053354 0 3.7009480455038443e-05 0.034936564474157293 0 4.6438358548755347e-05 0.034898155970503796 0 2.1247370816504085e-05 0.034943110819533323 0 4.6438358548755347e-05 0.034898155970503796 0 2.2371989454793231e-05 0.03492827844053354 0 2.1247370816504085e-05 0.034943110819533323 0 2.2371989454793231e-05 0.03492827844053354 0 2.1247370816504085e-05 0.034943110819533323 0 8.967869597741152e-06 0.034963209674463827 0 2.1247370816504085e-05 0.034943110819533323 0 9.8349394184237554e-06 0.034969238474715218 0 8.967869597741152e-06 0.034963209674463827 0 2.1247370816504085e-05 0.034943110819533323 0 1.5612997008242542e-05 0.034965669060762559 0 9.8349394184237554e-06 0.034969238474715218 0 3.7009480455038443e-05 0.034936564474157293 0 2.1247370816504085e-05 0.034943110819533323 0 1.5612997008242542e-05 0.034965669060762559 0 4.1606192500474024e-05 0.034854728553287702 0 2.181731227303042e-05 0.03487885592497731 0 7.2706171377654924e-11 0.034999975786324862 0 1.7516228520427677e-06 0.034993170806484127 0 2.6942684846869871e-06 0.034984874899250111 0 1.7516228520427677e-06 0.034993170806484127 0 9.8349394184237554e-06 0.034969238474715218 0 2.6942684846869871e-06 0.034984874899250111 0 1.5612997008242542e-05 0.034965669060762559 0 1.7516228520427677e-06 0.034993170806484127 0 9.8349394184237554e-06 0.034969238474715218 0 2.181731227303042e-05 0.03487885592497731 0 1.4639855637054901e-05 0.034887032338168006 0 1.6790888455814442e-05 0.034989099278250078 0 1.7516228520427677e-06 0.034993170806484127 0 8.8492817520725374e-06 0.034994251379015712 0 9.8349394184237554e-06 0.034969238474715218 0 8.967869597741152e-06 0.034963209674463827 0 2.6942684846869871e-06 0.034984874899250111 0 8.967869597741152e-06 0.034963209674463827 0 2.6942684846869871e-06 0.034984874899250111 0 1.3204743062659403e-09 0.034999958118673236 0 7.2706171377654924e-11 0.034999975786324862 0 2.6942684846869871e-06 0.034984874899250111 0 1.3204743062659403e-09 0.034999958118673236 0 8.967869597741152e-06 0.034963209674463827 0 1.3204743062659403e-09 0.034999958118673236 0 7.5772772147874103e-06 0.034961139650644381 0 1.3204743062659403e-09 0.034999958118673236 0 7.5772772147874103e-06 0.034961139650644381 0 5.4216645113632029e-09 0.034999954715897515 0 7.5772772147874103e-06 0.034961139650644381 0 5.4216645113632029e-09 0.034999954715897515 0 5.6442344342696371e-06 0.034969688317688687 0 5.4216645113632029e-09 0.034999954715897515 0 5.6442344342696371e-06 0.034969688317688687 0 3.1105274496777598e-09 0.0349999646680886 0 5.6442344342696371e-06 0.034969688317688687 0 3.1105274496777598e-09 0.0349999646680886 0 4.2601312312212928e-06 0.034968402918353125 0 7.5772772147874103e-06 0.034961139650644381 0 5.6442344342696371e-06 0.034969688317688687 0 1.1682235601290228e-05 0.034925774072246896 0 1.1682235601290228e-05 0.034925774072246896 0 1.8547743507980178e-06 0.034959297497332023 0 4.2601312312212928e-06 0.034968402918353125 0 4.2469555581039446e-06 0.034950243474128263 0 1.1682235601290228e-05 0.034925774072246896 0 1.8547743507980178e-06 0.034959297497332023 0 4.4047411278764321e-05 0.034845711460667429 0 4.5741265145485288e-05 0.034881267657909901 0 1.1682235601290228e-05 0.034925774072246896 0 3.2691234035349418e-05 0.034894874292938804 0 3.1006453511008011e-05 0.034896987068371028 0 5.6442344342696371e-06 0.034969688317688687 0 1.1682235601290228e-05 0.034925774072246896 0 4.2601312312212928e-06 0.034968402918353125 0 1.8547743507980178e-06 0.034959297497332023 0 -9.3610311946818735e-06 0.034965832722200871 0 4.2601312312212928e-06 0.034968402918353125 0 1.1795921424049927e-05 0.03493997046576524 0 4.2469555581039446e-06 0.034950243474128263 0 1.8547743507980178e-06 0.034959297497332023 0 -2.3839282113577131e-06 0.034945061652294877 0 1.8547743507980178e-06 0.034959297497332023 0 9.0187085788667198e-06 0.034930720308797319 0 1.1795921424049927e-05 0.03493997046576524 0 1.8547743507980178e-06 0.034959297497332023 0 9.0187085788667198e-06 0.034930720308797319 0 -2.3839282113577131e-06 0.034945061652294877 0 1.8547743507980178e-06 0.034959297497332023 0 -9.3610311946818735e-06 0.034965832722200871 0 -3.7072954919316828e-06 0.034985348059096671 0 -9.3610311946818735e-06 0.034965832722200871 0 -3.0892780373892785e-07 0.034982763263571699 0 -9.3610311946818735e-06 0.034965832722200871 0 -3.0892780373892785e-07 0.034982763263571699 0 4.2601312312212928e-06 0.034968402918353125 0 2.3015416016537867e-09 0.034999974940194592 0 -3.0892780373892785e-07 0.034982763263571699 0 3.1105274496777598e-09 0.0349999646680886 0 2.3015416016537867e-09 0.034999974940194592 0 -5.5895180772578659e-07 0.034991984392717376 0 -3.0892780373892785e-07 0.034982763263571699 0 -3.0892780373892785e-07 0.034982763263571699 0 3.1105274496777598e-09 0.0349999646680886 0 4.2601312312212928e-06 0.034968402918353125 0 -0.0032085581663147218 0.022437274749602026 0 -0.0033279607345155469 0.02243382791513655 0 -0.0032091844211628007 0.02253163888070615 0 -0.0033279607345155469 0.02243382791513655 0 -0.0032091844211628007 0.02253163888070615 0 -0.0033959746584826291 0.022533761409304041 0 -0.0032091844211628007 0.02253163888070615 0 -0.0033959746584826291 0.022533761409304041 0 -0.0032691105092069813 0.022713026056822423 0 -0.0032091844211628007 0.02253163888070615 0 -0.0031103163529115734 0.022473579223146471 0 -0.0030810652356407786 0.022611814760067076 0 -0.0031103163529115734 0.022473579223146471 0 -0.0030810652356407786 0.022611814760067076 0 -0.0029963620159183268 0.022495145130925747 0 -0.0031103163529115734 0.022473579223146471 0 -0.0030250253194070782 0.022385506468211604 0 -0.0029963620159183268 0.022495145130925747 0 -0.0031449746218975227 0.022409862407653872 0 -0.0031103163529115734 0.022473579223146471 0 -0.0030250253194070782 0.022385506468211604 0 -0.0032085581663147218 0.022437274749602026 0 -0.0031449746218975227 0.022409862407653872 0 -0.0031103163529115734 0.022473579223146471 0 -0.0032085581663147218 0.022437274749602026 0 -0.0032091844211628007 0.02253163888070615 0 -0.0031103163529115734 0.022473579223146471 0 -0.0030250253194070782 0.022385506468211604 0 -0.0032358306279511298 0.022343140514711052 0 -0.0028950154070124796 0.022348229742304146 0 -0.0033318426495602179 0.013592414174928007 0 -0.0045352459421499096 0.013945988381258987 0 -0.0021310595274022042 0.014047164830608387 0 -0.0027579069653695791 0.018987363958056808 0 -0.0027811815637750728 0.016424760291057924 0 -0.0031449746218975227 0.022409862407653872 0 -0.0030250253194070782 0.022385506468211604 0 -0.0032358306279511298 0.022343140514711052 0 -0.0033318426495602179 0.013592414174928007 0 -0.0026350870671663844 0.013306655928184424 0 -0.0031193597880576659 0.013002716068800074 0 -0.0033318426495602179 0.013592414174928007 0 -0.0037627891376222945 0.012878445677068615 0 -0.0031193597880576659 0.013002716068800074 0 -0.0033318426495602179 0.013592414174928007 0 -0.0039860014269190646 0.0136266127473208 0 -0.0045352459421499096 0.013945988381258987 0 -0.0033318426495602179 0.013592414174928007 0 -0.0039860014269190646 0.0136266127473208 0 -0.0037627891376222945 0.012878445677068615 0 -0.0039860014269190646 0.0136266127473208 0 -0.0041933636604879806 0.013208984986374499 0 -0.0037627891376222945 0.012878445677068615 0 -0.0039860014269190646 0.0136266127473208 0 -0.0041933636604879806 0.013208984986374499 0 -0.0043266444264691666 0.013606740193442287 0 -0.0045812952276926009 0.013598249161419213 0 -0.0045352459421499096 0.013945988381258987 0 -0.006163593674862097 0.013905844538360532 0 -0.0041933636604879806 0.013208984986374499 0 -0.0045812952276926009 0.013598249161419213 0 -0.0043266444264691666 0.013606740193442287 0 -0.0039860014269190646 0.0136266127473208 0 -0.0043266444264691666 0.013606740193442287 0 -0.0045352459421499096 0.013945988381258987 0 -0.0045812952276926009 0.013598249161419213 0 -0.0043266444264691666 0.013606740193442287 0 -0.0045352459421499096 0.013945988381258987 0 -0.0032085581663147218 0.022437274749602026 0 -0.0033279607345155469 0.02243382791513655 0 -0.0032358306279511298 0.022343140514711052 0 -0.0032085581663147218 0.022437274749602026 0 -0.0031449746218975227 0.022409862407653872 0 -0.0032358306279511298 0.022343140514711052 0 -0.0027579069653695791 0.018987363958056808 0 -0.0016836981330849378 0.021747317647327746 0 -0.0033279607345155469 0.02243382791513655 0 -0.0032358306279511298 0.022343140514711052 0 -0.0036025991641519869 0.022312752212587876 0 -0.0016836981330849378 0.021747317647327746 0 -0.0011064300933916465 0.019189620060402098 0 -0.0045812952276926009 0.013598249161419213 0 -0.006163593674862097 0.013905844538360532 0 -0.0051817211006723925 0.012921760761204099 0 0.0009985255867556663 0.021538949761263856 0 0.0008482629991466734 0.021377213467130087 0 0.00070396963317458561 0.021539670115040915 0 -0.0016836981330849378 0.021747317647327746 0 -0.00071278889587468542 0.023545810085573202 0 -0.0016836981330849378 0.021747317647327746 0 -0.0025852282930520702 0.02456151168789206 0 -0.0036025991641519869 0.022312752212587876 0 -0.0035799658909161838 0.022676900745752401 0 -0.0038432117226100166 0.022514871928596362 0 -0.0036025991641519869 0.022312752212587876 0 -0.0033959746584826291 0.022533761409304041 0 -0.0035799658909161838 0.022676900745752401 0 -0.0033279607345155469 0.02243382791513655 0 -0.0036025991641519869 0.022312752212587876 0 -0.0033959746584826291 0.022533761409304041 0 -0.0033959746584826291 0.022533761409304041 0 -0.0035799658909161838 0.022676900745752401 0 -0.0032691105092069813 0.022713026056822423 0 -0.0035799658909161838 0.022676900745752401 0 -0.0034126115745066214 0.022888754800446835 0 -0.0032691105092069813 0.022713026056822423 0 -0.0035799658909161838 0.022676900745752401 0 -0.0035917964401183545 0.022973431458959602 0 -0.0038157063314775662 0.022799305958223579 0 -0.0035799658909161838 0.022676900745752401 0 -0.0038432117226100166 0.022514871928596362 0 -0.0038157063314775662 0.022799305958223579 0 -0.0035917964401183545 0.022973431458959602 0 -0.0038157063314775662 0.022799305958223579 0 -0.0039490839211504042 0.023130118739930761 0 -0.0035917964401183545 0.022973431458959602 0 -0.0034126115745066214 0.022888754800446835 0 -0.0033918470745552161 0.023047481350826671 0 -0.0035799658909161838 0.022676900745752401 0 -0.0035917964401183545 0.022973431458959602 0 -0.0034126115745066214 0.022888754800446835 0 -0.0034126115745066214 0.022888754800446835 0 -0.0032027258537437788 0.022970490618323781 0 -0.0033918470745552161 0.023047481350826671 0 -0.0034126115745066214 0.022888754800446835 0 -0.0032027258537437788 0.022970490618323781 0 -0.0032691105092069813 0.022713026056822423 0 -0.0032091844211628007 0.02253163888070615 0 -0.0032691105092069813 0.022713026056822423 0 -0.0030810652356407786 0.022611814760067076 0 -0.0032691105092069813 0.022713026056822423 0 -0.0030810652356407786 0.022611814760067076 0 -0.0030376119761976656 0.022791608091117063 0 -0.0032027258537437788 0.022970490618323781 0 -0.0032691105092069813 0.022713026056822423 0 -0.0030376119761976656 0.022791608091117063 0 -0.0032027258537437788 0.022970490618323781 0 -0.0030376119761976656 0.022791608091117063 0 -0.0029983425326252497 0.022962574767258999 0 -0.0030376119761976656 0.022791608091117063 0 -0.002799237473375322 0.022830229411293219 0 -0.0029983425326252497 0.022962574767258999 0 -0.0027179347961184697 0.021858288717105087 0 -0.0021220343150956432 0.021920483217440372 0 -0.0023580619854977843 0.022412537359506123 0 -0.0027179347961184697 0.021858288717105087 0 -0.0021220343150956432 0.021920483217440372 0 -0.0025632034304759114 0.021166829779978091 0 -0.002799237473375322 0.022830229411293219 0 -0.0029182650406762447 0.02262774716838226 0 -0.0027285383647090052 0.022550979502508648 0 -0.0026394161264333346 0.020407277241103621 0 -0.0022263636154527247 0.018101308858508788 0 -0.0030376119761976656 0.022791608091117063 0 -0.002799237473375322 0.022830229411293219 0 -0.0029182650406762447 0.02262774716838226 0 -0.0030810652356407786 0.022611814760067076 0 -0.0030376119761976656 0.022791608091117063 0 -0.0029182650406762447 0.02262774716838226 0 -0.0020910636978475343 0.014220139814385035 0 -0.0020535947838573902 0.014293688311303857 0 -0.0015642126049525478 0.022131350298533213 0 -0.0021220343150956432 0.021920483217440372 0 -0.0019262435144065733 0.021298140154232148 0 -0.0015642126049525478 0.022131350298533213 0 -0.0021220343150956432 0.021920483217440372 0 -0.001957108114442808 0.022400032893876157 0 -0.0021220343150956432 0.021920483217440372 0 -0.0019262435144065733 0.021298140154232148 0 -0.0026704558638017692 0.021007000105271977 0 -0.0018662501104560582 0.019084286737173557 0 -0.0022263636154527247 0.018101308858508788 0 -0.0025586750289166055 0.0054948670514309312 0 -0.0020756131349866746 0.0063638741417532032 0 -0.0025652124209329559 0.0062244040110356258 0 -0.0020756131349866746 0.0063638741417532032 0 -0.0025652124209329559 0.0062244040110356258 0 -0.002428176854852165 0.0067248757071109028 0 -0.0027902305562159031 0.0065686487060339143 0 -0.0025652124209329559 0.0062244040110356258 0 -0.002428176854852165 0.0067248757071109028 0 -0.0020756131349866746 0.0063638741417532032 0 -0.002428176854852165 0.0067248757071109028 0 -0.0021009337086230046 0.0069291866946079809 0 -0.0027646430872567142 0.0069100985560325784 0 -0.002428176854852165 0.0067248757071109028 0 -0.0024100389665528445 0.0072160505377661301 0 -0.002428176854852165 0.0067248757071109028 0 -0.0021009337086230046 0.0069291866946079809 0 -0.0024100389665528445 0.0072160505377661301 0 -0.0020535947838573902 0.014293688311303857 0 -0.001901302051425049 0.014695913307858187 0 -0.0019262435144065733 0.021298140154232148 0 -0.0023675707010055373 0.020404191468476815 0 -0.0026704558638017692 0.021007000105271977 0 -0.0020756131349866746 0.0063638741417532032 0 -0.0021009337086230046 0.0069291866946079809 0 -0.0016246096591079609 0.0072421900009159209 0 -0.0012481721401867831 0.0073066765670755391 0 -0.0018195911002073871 0.0076714141288496086 0 -0.0021531813895595262 0.0072752034701899443 0 -0.001901302051425049 0.014695913307858187 0 -0.0021712122926587454 0.013554246797271895 0 -0.0021009337086230046 0.0069291866946079809 0 -0.0016246096591079609 0.0072421900009159209 0 -0.0024100389665528445 0.0072160505377661301 0 -0.0012481721401867831 0.0073066765670755391 0 -0.00083708543641177098 0.0081100733114090173 0 -0.0014597348749150574 0.0078835228414073141 0 -0.0012481721401867831 0.0073066765670755391 0 -0.0018195911002073871 0.0076714141288496086 0 -0.0014597348749150574 0.0078835228414073141 0 -0.0018195911002073871 0.0076714141288496086 0 -0.0021967188863674784 0.0077535213839538854 0 -0.0021531813895595262 0.0072752034701899443 0 -0.0026291634332711446 0.007511482220364814 0 -0.0021967188863674784 0.0077535213839538854 0 -0.0021531813895595262 0.0072752034701899443 0 -0.0029182650406762447 0.02262774716838226 0 -0.0028747280690695973 0.02247815526097598 0 -0.0027285383647090052 0.022550979502508648 0 -0.0028747280690695973 0.02247815526097598 0 -0.0029963620159183268 0.022495145130925747 0 -0.0029025030226372357 0.02235160093671313 0 -0.0030250253194070782 0.022385506468211604 0 -0.0029963620159183268 0.022495145130925747 0 -0.0028950154070124796 0.022348229742304146 0 -0.0029980569260438981 0.016885945654725371 0 -0.0027811815637750728 0.016424760291057924 0 -0.0029182650406762447 0.02262774716838226 0 -0.0028747280690695973 0.02247815526097598 0 -0.0029963620159183268 0.022495145130925747 0 -0.0030810652356407786 0.022611814760067076 0 -0.0029182650406762447 0.02262774716838226 0 -0.0029963620159183268 0.022495145130925747 0 -0.0022263636154527247 0.018101308858508788 0 -0.0021169403335069498 0.015363610242871806 0 -0.0028747280690695973 0.02247815526097598 0 -0.0027285383647090052 0.022550979502508648 0 -0.0028428004206353186 0.022352295414676485 0 -0.0023675707010055373 0.020404191468476815 0 -0.0026704558638017692 0.021007000105271977 0 -0.0025356066196163709 0.020401123193581068 0 -0.0022263636154527247 0.018101308858508788 0 -0.0025147006137668819 0.016195058013559381 0 -0.0032780794358131726 0.014607584025335628 0 -0.0038404114446596656 0.017108052887136092 0 -0.0017744909446131261 0.01714054968011703 0 -0.001901302051425049 0.014695913307858187 0 -0.0021126937002093485 0.013186515299380017 0 -0.0014906871134016592 0.014834879792850203 0 -0.00018866566124115856 0.014725919803529112 0 -0.00053154616554900206 0.014147684590498696 0 -0.0031567698914375516 0.014106155056603453 0 -0.002491358246552243 0.014116628101846577 0 -0.0017132867660162568 0.01690322377748503 0 -0.002491358246552243 0.014116628101846577 0 -0.0014906871134016592 0.014834879792850203 0 -0.0017132867660162568 0.01690322377748503 0 -0.002491358246552243 0.014116628101846577 0 -0.0014906871134016592 0.014834879792850203 0 -0.00053154616554900206 0.014147684590498696 0 -0.0021169403335069498 0.015363610242871806 0 -0.0025147006137668819 0.016195058013559381 0 -0.001901302051425049 0.014695913307858187 0 -0.0021169403335069498 0.015363610242871806 0 -0.0014906871134016592 0.014834879792850203 0 -0.00018866566124115856 0.014725919803529112 0 -0.0017132867660162568 0.01690322377748503 0 -0.0018934064710414635 0.013715707731856411 0 -0.0021310595274022042 0.014047164830608387 0 -0.0026350870671663844 0.013306655928184424 0 -0.0026759037900492347 0.015704860161905202 0 -0.0025147006137668819 0.016195058013559381 0 -0.0025147006137668819 0.016195058013559381 0 -0.0027811815637750728 0.016424760291057924 0 -0.0028747280690695973 0.02247815526097598 0 -0.0028428004206353186 0.022352295414676485 0 -0.0029025030226372357 0.02235160093671313 0 -0.0025976889443304202 0.019464264393619101 0 -0.0048658557344682923 0.01563818584645264 0 2.4785195169022379e-05 0.015715645391012983 0 -0.0026759037900492347 0.015704860161905202 0 -0.0027811815637750728 0.016424760291057924 0 -0.0033318426495602179 0.013592414174928007 0 -0.0021310595274022042 0.014047164830608387 0 -0.0026350870671663844 0.013306655928184424 0 -0.0026350870671663844 0.013306655928184424 0 -0.0027434507531282999 0.012222343021123525 0 -0.0031193597880576659 0.013002716068800074 0 -0.0024596832713071177 0.012751251744294619 0 -0.0030612914804486824 0.011729385981741064 0 -0.0024683180178606294 0.011743656052575564 0 -0.0018934064710414635 0.013715707731856411 0 -0.0026350870671663844 0.013306655928184424 0 -0.0027434507531282999 0.012222343021123525 0 -0.0026759037900492347 0.015704860161905202 0 -0.0031857049572670626 0.014403334136278987 0 -0.0030612914804486824 0.011729385981741064 0 -0.0024683180178606294 0.011743656052575564 0 -0.0027456049299838443 0.011230641092436617 0 -0.0024596832713071177 0.012751251744294619 0 -0.0024683180178606294 0.011743656052575564 0 -0.0018382830167301687 0.011863863927440835 0 -0.0026759037900492347 0.015704860161905202 0 -0.0021126937002093485 0.013186515299380017 0 -0.0021126937002093485 0.013186515299380017 0 -0.0018668707060985022 0.011776379743490554 0 -0.0024683180178606294 0.011743656052575564 0 -0.0018382830167301687 0.011863863927440835 0 -0.002187238207032957 0.011182013604061139 0 -0.0021126937002093485 0.013186515299380017 0 -0.0021539472369549997 0.01306793319221505 0 -0.002187238207032957 0.011182013604061139 0 -0.0018046795483248497 0.01059996713872511 0 -0.0012426795168446027 0.011032703352176472 0 -0.0018313591106299857 0.01187473782283386 0 -0.002187238207032957 0.011182013604061139 0 -0.0012426795168446027 0.011032703352176472 0 -0.0018046795483248497 0.01059996713872511 0 -0.0012426795168446027 0.011032703352176472 0 -0.0015842835731110594 0.0099106160131165865 0 -0.002187238207032957 0.011182013604061139 0 -0.0018046795483248497 0.01059996713872511 0 -0.0022030547224025105 0.010268342982789927 0 -0.002187238207032957 0.011182013604061139 0 -0.0027984364542166253 0.010561747113277078 0 -0.0022030547224025105 0.010268342982789927 0 -0.0027984364542166253 0.010561747113277078 0 -0.0030751058090532509 0.011071086452397383 0 -0.0027456049299838443 0.011230641092436617 0 -0.0027984364542166253 0.010561747113277078 0 -0.0030751058090532509 0.011071086452397383 0 -0.0036869011556510192 0.010743512566627937 0 -0.0030612914804486824 0.011729385981741064 0 -0.0030751058090532509 0.011071086452397383 0 -0.0027456049299838443 0.011230641092436617 0 -0.0024683180178606294 0.011743656052575564 0 -0.002187238207032957 0.011182013604061139 0 -0.0027456049299838443 0.011230641092436617 0 -0.002187238207032957 0.011182013604061139 0 -0.0027984364542166253 0.010561747113277078 0 -0.0027456049299838443 0.011230641092436617 0 -0.0027718528080944872 0.008237791629154256 0 -0.0020477147795308153 0.0081393371345242528 0 -0.0024445395013618339 0.0085687997662031879 0 -0.0026289439778969799 0.0078986796307397838 0 -0.0021967188863674784 0.0077535213839538854 0 -0.0020477147795308153 0.0081393371345242528 0 -0.0018195911002073871 0.0076714141288496086 0 -0.0021967188863674784 0.0077535213839538854 0 -0.0020477147795308153 0.0081393371345242528 0 -0.0020477147795308153 0.0081393371345242528 0 -0.0015365014065196201 0.0083285396244320888 0 -0.0019834651377416044 0.0087188990592561837 0 -0.00083708543641177098 0.0081100733114090173 0 -0.0015365014065196201 0.0083285396244320888 0 -0.0012447689876792709 0.0086849120777989976 0 -0.00083708543641177098 0.0081100733114090173 0 -0.0015365014065196201 0.0083285396244320888 0 -0.0014597348749150574 0.0078835228414073141 0 -0.0020477147795308153 0.0081393371345242528 0 -0.0015365014065196201 0.0083285396244320888 0 -0.0014597348749150574 0.0078835228414073141 0 -0.0018195911002073871 0.0076714141288496086 0 -0.0020477147795308153 0.0081393371345242528 0 -0.0014597348749150574 0.0078835228414073141 0 -0.0012447689876792709 0.0086849120777989976 0 -0.0019834651377416044 0.0087188990592561837 0 -0.0016507245024382805 0.0092572508800313289 0 -0.0015365014065196201 0.0083285396244320888 0 -0.0012447689876792709 0.0086849120777989976 0 -0.0019834651377416044 0.0087188990592561837 0 -0.0018668707060985022 0.011776379743490554 0 -0.0019256061313082248 0.01087754075474426 0 -0.002624926504394018 0.0089607240315903256 0 -0.0019834651377416044 0.0087188990592561837 0 -0.0024445395013618339 0.0085687997662031879 0 -0.002624926504394018 0.0089607240315903256 0 -0.0019834651377416044 0.0087188990592561837 0 -0.0016507245024382805 0.0092572508800313289 0 -0.0020477147795308153 0.0081393371345242528 0 -0.0019834651377416044 0.0087188990592561837 0 -0.0024445395013618339 0.0085687997662031879 0 -0.0026157299313340279 0.0093407952487493603 0 -0.0023761523115583545 0.0092842849868047216 0 -0.0025257222149095001 0.0094528305265836714 0 -0.0025300318265287559 0.010391591079617898 0 -0.0019256061313082248 0.01087754075474426 0 -0.0027203607218800933 0.0090638575904742353 0 -0.0026157299313340279 0.0093407952487493603 0 -0.0023761523115583545 0.0092842849868047216 0 -0.0025141384640645558 0.0095105273750153707 0 -0.0025092267514495469 0.0095086445935899065 0 -0.0025257222149095001 0.0094528305265836714 0 -0.0012426795168446027 0.011032703352176472 0 -0.00064851984608919465 0.01018266215948267 0 -0.0015842835731110594 0.0099106160131165865 0 -0.0025141384640645558 0.0095105273750153707 0 -0.0025092267514495469 0.0095086445935899065 0 -0.0025243454152941371 0.0095744481956343344 0 -0.0019256061313082248 0.01087754075474426 0 -0.0019097340717369935 0.010809238097570844 0 -0.0019256061313082248 0.01087754075474426 0 -0.0020633779814792003 0.010742158602223627 0 -0.0024814363015029425 0.0095111522832196163 0 -0.0025708162959284056 0.0095334037260281189 0 -0.0025092267514495469 0.0095086445935899065 0 -0.0025708162959284056 0.0095334037260281189 0 -0.0025092267514495469 0.0095086445935899065 0 -0.0025257222149095001 0.0094528305265836714 0 -0.0026941350314821332 0.0095325700382090043 0 -0.0025708162959284056 0.0095334037260281189 0 -0.0026600953773141659 0.0094693694391047873 0 -0.0025708162959284056 0.0095334037260281189 0 -0.0025257222149095001 0.0094528305265836714 0 -0.0026600953773141659 0.0094693694391047873 0 -0.0026157299313340279 0.0093407952487493603 0 -0.0025257222149095001 0.0094528305265836714 0 -0.0026600953773141659 0.0094693694391047873 0 -0.0027984364542166253 0.010561747113277078 0 -0.0027493590416663304 0.0096460501954849509 0 -0.0036869011556510192 0.010743512566627937 0 -0.0026080509175475772 0.0096544871213547854 0 -0.0025961107733040753 0.010016516408334751 0 -0.0022030547224025105 0.010268342982789927 0 -0.0026080509175475772 0.0096544871213547854 0 -0.0027493590416663304 0.0096460501954849509 0 -0.0025961107733040753 0.010016516408334751 0 -0.0027984364542166253 0.010561747113277078 0 -0.0027493590416663304 0.0096460501954849509 0 -0.0025961107733040753 0.010016516408334751 0 -0.0027984364542166253 0.010561747113277078 0 -0.0025961107733040753 0.010016516408334751 0 -0.0022030547224025105 0.010268342982789927 0 -0.0018046795483248497 0.01059996713872511 0 -0.0022030547224025105 0.010268342982789927 0 -0.0015842835731110594 0.0099106160131165865 0 -0.0026080509175475772 0.0096544871213547854 0 -0.0022030547224025105 0.010268342982789927 0 -0.0015842835731110594 0.0099106160131165865 0 -0.0021337131101986078 0.010691565245789127 0 -0.0020633779814792003 0.010742158602223627 0 -0.0024814363015029425 0.0095111522832196163 0 -0.0025092267514495469 0.0095086445935899065 0 -0.0025243454152941371 0.0095744481956343344 0 -0.0024814363015029425 0.0095111522832196163 0 -0.0026080509175475772 0.0096544871213547854 0 -0.0025243454152941371 0.0095744481956343344 0 -0.0024814363015029425 0.0095111522832196163 0 -0.0026080509175475772 0.0096544871213547854 0 -0.0027493590416663304 0.0096460501954849509 0 -0.00075355423296616006 0.014701352079831972 0 -0.00061756660417586478 0.015789381090615076 0 0.0015664496090060575 0.020183055740745606 0 0.0015377497943619587 0.02016777660715572 0 0.0015429795236253268 0.020165879897650875 0 0.0015377497943619587 0.02016777660715572 0 0.0015429795236253268 0.020165879897650875 0 0.0015352771083367441 0.020168039169275207 0 0.0015389318503012913 0.020147938189652957 0 0.0015429795236253268 0.020165879897650875 0 0.0015352771083367441 0.020168039169275207 0 0.0013572125046654665 0.020631160865583503 0 0.0014748877246781892 0.02081473023819971 0 0.0013037019742158226 0.020891416860370948 0 0.0013572125046654665 0.020631160865583503 0 0.0013037019742158226 0.020891416860370948 0 0.0011733059865532832 0.020746676155625719 0 0.0013037019742158226 0.020891416860370948 0 0.0014112754463822602 0.021114732887279972 0 0.0011578669261205542 0.021017234190083531 0 0.0013037019742158226 0.020891416860370948 0 0.0011578669261205542 0.021017234190083531 0 0.0011733059865532832 0.020746676155625719 0 -0.00061756660417586478 0.015789381090615076 0 -0.00069619859044906809 0.017263480849428928 0 0.0014748877246781892 0.02081473023819971 0 0.0013037019742158226 0.020891416860370948 0 0.0014112754463822602 0.021114732887279972 0 0.0015377497943619587 0.02016777660715572 0 0.0015352771083367441 0.020168039169275207 0 0.0015300635642793638 0.020155097984472813 0 -0.0027493590416663304 0.0096460501954849509 0 -0.0040738241942815659 0.01093019210873912 0 -0.0036869011556510192 0.010743512566627937 0 -0.00027000318994975406 0.018824284848058571 0 -0.00069619859044906809 0.017263480849428928 0 -0.0030612914804486824 0.011729385981741064 0 -0.0030751058090532509 0.011071086452397383 0 -0.0036869011556510192 0.010743512566627937 0 -0.0027434507531282999 0.012222343021123525 0 -0.0036297530888850754 0.011759984065578663 0 -0.0036869011556510192 0.010743512566627937 0 -0.0031857049572670626 0.014403334136278987 0 -0.0033909101182628622 0.013916275463688378 0 -0.00069619859044906809 0.017263480849428928 0 -0.00086254615701954001 0.016238313653464339 0 -0.0036297530888850754 0.011759984065578663 0 -0.0040738241942815659 0.01093019210873912 0 -0.0043765236155213607 0.012256729934646935 0 -0.0036297530888850754 0.011759984065578663 0 -0.0040738241942815659 0.01093019210873912 0 -0.0036869011556510192 0.010743512566627937 0 0.0014112754463822602 0.021114732887279972 0 0.0012031385850262714 0.02132778695721466 0 0.0011578669261205542 0.021017234190083531 0 -0.00069619859044906809 0.017263480849428928 0 -0.0011064300933916465 0.019189620060402098 0 -0.004235830957420225 0.012000192978392299 0 -0.0044151326700389952 0.012795197661531062 0 -0.0051817211006723925 0.012921760761204099 0 -0.0045812952276926009 0.013598249161419213 0 -0.0044151326700389952 0.012795197661531062 0 -0.0051817211006723925 0.012921760761204099 0 -0.0041933636604879806 0.013208984986374499 0 -0.0045812952276926009 0.013598249161419213 0 -0.0043765236155213607 0.012256729934646935 0 -0.00093133929263016424 0.015973012286559722 0 -0.00086254615701954001 0.016238313653464339 0 -0.0041933636604879806 0.013208984986374499 0 -0.0043765236155213607 0.012256729934646935 0 -0.0037627891376222945 0.012878445677068615 0 -0.0027434507531282999 0.012222343021123525 0 -0.0037627891376222945 0.012878445677068615 0 -0.0031193597880576659 0.013002716068800074 0 -0.0027434507531282999 0.012222343021123525 0 -0.0036297530888850754 0.011759984065578663 0 -0.0037627891376222945 0.012878445677068615 0 -0.0036297530888850754 0.011759984065578663 0 -0.0043765236155213607 0.012256729934646935 0 -0.0037627891376222945 0.012878445677068615 0 0.0009985255867556663 0.021538949761263856 0 0.0008482629991466734 0.021377213467130087 0 0.0012031385850262714 0.02132778695721466 0 0.0008482629991466734 0.021377213467130087 0 0.0012031385850262714 0.02132778695721466 0 0.00092003278184233761 0.021158068740316806 0 0.0012031385850262714 0.02132778695721466 0 0.00092003278184233761 0.021158068740316806 0 0.0011578669261205542 0.021017234190083531 0 0.00092003278184233761 0.021158068740316806 0 0.00094034889897876093 0.020861954922718955 0 0.00078920235129016495 0.021000547923778454 0 0.00092003278184233761 0.021158068740316806 0 0.0011578669261205542 0.021017234190083531 0 0.00094034889897876093 0.020861954922718955 0 0.0011578669261205542 0.021017234190083531 0 0.0011733059865532832 0.020746676155625719 0 0.00094034889897876093 0.020861954922718955 0 0.0010123779822272642 0.020662613739150137 0 0.0011733059865532832 0.020746676155625719 0 0.00094034889897876093 0.020861954922718955 0 0.00083070386121916187 0.020579947955899975 0 0.0010123779822272642 0.020662613739150137 0 0.00094034889897876093 0.020861954922718955 0 0.00083070386121916187 0.020579947955899975 0 0.00094034889897876093 0.020861954922718955 0 0.00066666801158427405 0.020847260494443937 0 0.00066666801158427405 0.020847260494443937 0 0.00078920235129016495 0.021000547923778454 0 0.00063109173648113646 0.021135507234075042 0 0.00094034889897876093 0.020861954922718955 0 0.00066666801158427405 0.020847260494443937 0 0.00078920235129016495 0.021000547923778454 0 0.00066666801158427405 0.020847260494443937 0 0.00043549571150649309 0.020971411699151742 0 0.00063109173648113646 0.021135507234075042 0 0.00066666801158427405 0.020847260494443937 0 0.00045096378380403705 0.020741261029621705 0 0.00043549571150649309 0.020971411699151742 0 0.0005955228037935504 0.020604429192349137 0 0.00066666801158427405 0.020847260494443937 0 0.00045096378380403705 0.020741261029621705 0 0.00054624085712267874 0.021668281041456551 0 0.00049229248975047213 0.02178013536414047 0 0.00045096378380403705 0.020741261029621705 0 0.00019707508372401425 0.020893782310238033 0 0.00043549571150649309 0.020971411699151742 0 0.00022542048159312247 0.020575688205328596 0 0.00045096378380403705 0.020741261029621705 0 0.00024389818995006914 0.020906247202524132 0 0.00019707508372401425 0.020893782310238033 0 0.00027908656895556317 0.021229924743325572 0 -5.4550151835555296e-05 0.021055933396456328 0 0.00019707508372401425 0.020893782310238033 0 0.00043549571150649309 0.020971411699151742 0 0.00027908656895556317 0.021229924743325572 0 0.00043549571150649309 0.020971411699151742 0 0.00027908656895556317 0.021229924743325572 0 0.00063109173648113646 0.021135507234075042 0 0.00027908656895556317 0.021229924743325572 0 0.00057599544306462193 0.021369280294994152 0 0.00040936060091107703 0.021544475503037355 0 0.0008482629991466734 0.021377213467130087 0 0.00057599544306462193 0.021369280294994152 0 0.00063109173648113646 0.021135507234075042 0 0.00092003278184233761 0.021158068740316806 0 0.00078920235129016495 0.021000547923778454 0 0.00063109173648113646 0.021135507234075042 0 0.0008482629991466734 0.021377213467130087 0 0.00092003278184233761 0.021158068740316806 0 0.00063109173648113646 0.021135507234075042 0 0.00027908656895556317 0.021229924743325572 0 0.00057599544306462193 0.021369280294994152 0 0.00063109173648113646 0.021135507234075042 0 -0.00044503009808763514 0.021189668207104346 0 -0.00016435237009896923 0.021077241659796096 0 -0.00038487688672321615 0.021434475820547031 0 -0.00044503009808763514 0.021189668207104346 0 -0.00046257321804787395 0.02097307542010626 0 -0.00016435237009896923 0.021077241659796096 0 -0.00025410003988805406 0.020776167736556439 0 -0.00044457891418491109 0.020751399368989006 0 -0.00046257321804787395 0.02097307542010626 0 8.5283393670575969e-06 0.020720208125558883 0 -0.00025410003988805406 0.020776167736556439 0 -0.00016435237009896923 0.021077241659796096 0 -0.00025410003988805406 0.020776167736556439 0 -0.00046257321804787395 0.02097307542010626 0 -0.00016435237009896923 0.021077241659796096 0 8.5283393670575969e-06 0.020720208125558883 0 0.00024389818995006914 0.020906247202524132 0 4.1231175891600322e-05 0.021058301473468318 0 8.5283393670575969e-06 0.020720208125558883 0 -0.00019083966512748813 0.020957207606935646 0 4.1231175891600322e-05 0.021058301473468318 0 -0.00019083966512748813 0.020957207606935646 0 4.1231175891600322e-05 0.021058301473468318 0 -0.00018250556645572745 0.021226016826404775 0 0.00038233191015836553 0.021796907105065877 0 0.00031920121295874344 0.022052768418545785 0 0.00049229248975047213 0.02178013536414047 0 0.00037917022088484889 0.022095494098157715 0 0.00027908656895556317 0.021229924743325572 0 -5.4550151835555296e-05 0.021055933396456328 0 -8.4960629274114641e-05 0.021337801124289079 0 0.00027908656895556317 0.021229924743325572 0 -8.4960629274114641e-05 0.021337801124289079 0 0.00010948272962503791 0.021550730419942311 0 -8.4960629274114641e-05 0.021337801124289079 0 -0.00030863295270359183 0.021221334534944621 0 -0.00034697865460480857 0.021412920947414125 0 -8.4960629274114641e-05 0.021337801124289079 0 -0.00034697865460480857 0.021412920947414125 0 -0.00019683223024369081 0.021557070394420657 0 -5.4550151835555296e-05 0.021055933396456328 0 -8.4960629274114641e-05 0.021337801124289079 0 -0.00030863295270359183 0.021221334534944621 0 0.00037917022088484889 0.022095494098157715 0 0.00022908389296366486 0.022636454106147227 0 0.00031920121295874344 0.022052768418545785 0 0.00013968336122347261 0.022839982771650641 0 -0.00019083966512748813 0.020957207606935646 0 -0.00018250556645572745 0.021226016826404775 0 -0.00041605667125200866 0.021232994481395245 0 0.00022908389296366486 0.022636454106147227 0 -8.2833359351705333e-07 0.023498304912591767 0 -0.00030863295270359183 0.021221334534944621 0 -0.00034697865460480857 0.021412920947414125 0 -0.00056586565618114396 0.021391675657858635 0 -0.00034697865460480857 0.021412920947414125 0 -0.00056586565618114396 0.021391675657858635 0 -0.000508834110610985 0.021562472145545325 0 -0.00018250556645572745 0.021226016826404775 0 -0.00043398925753045781 0.021405174045135048 0 -0.00041605667125200866 0.021232994481395245 0 -0.00064935178603946653 0.021548968291608149 0 -0.00043398925753045781 0.021405174045135048 0 -0.00041605667125200866 0.021232994481395245 0 -0.00061967523218650763 0.021333333488495882 0 -0.00044503009808763514 0.021189668207104346 0 -0.00038487688672321615 0.021434475820547031 0 -0.00026909866215926438 0.033561183237075784 0 -0.00030691841372553613 0.0335979637654929 0 -0.00033694831710420395 0.033525475378343189 0 -0.00077369083101385501 0.021531930843806796 0 -0.00056586565618114396 0.021391675657858635 0 -0.000508834110610985 0.021562472145545325 0 -0.00030691841372553613 0.0335979637654929 0 -0.00037017426904672373 0.033536837982070015 0 -0.00037593295230400192 0.033570954915101765 0 -0.00034697865460480857 0.021412920947414125 0 -0.000508834110610985 0.021562472145545325 0 -0.00019683223024369081 0.021557070394420657 0 -0.00043646493940794923 0.025575636895686937 0 -0.00033524019534557521 0.025615941130407934 0 -0.00030691841372553613 0.0335979637654929 0 -0.00037017426904672373 0.033536837982070015 0 -0.00033694831710420395 0.033525475378343189 0 -0.00037017426904672373 0.033536837982070015 0 -0.00037593295230400192 0.033570954915101765 0 -0.00043837035044350873 0.033540686065198319 0 -8.4960629274114641e-05 0.021337801124289079 0 -0.00019683223024369081 0.021557070394420657 0 0.00010948272962503791 0.021550730419942311 0 -0.00033524019534557521 0.025615941130407934 0 -0.00029210511986260256 0.025331525452541526 0 -0.00037017426904672373 0.033536837982070015 0 -0.00043837035044350873 0.033540686065198319 0 -0.00044094616769412964 0.033501134442874482 0 -0.00039727748338981225 0.033496592862596812 0 -0.00044094616769412964 0.033501134442874482 0 -0.0004529630634838863 0.033460441115894503 0 -0.00037017426904672373 0.033536837982070015 0 -0.00039727748338981225 0.033496592862596812 0 -0.00044094616769412964 0.033501134442874482 0 -0.0004529630634838863 0.033460441115894503 0 -0.00045820078288872523 0.033429587058963463 0 -0.00041252983769194193 0.033422775486620537 0 -0.00039727748338981225 0.033496592862596812 0 -0.0004529630634838863 0.033460441115894503 0 -0.00041252983769194193 0.033422775486620537 0 -0.00039727748338981225 0.033496592862596812 0 -0.00036472185472011546 0.033473891805292581 0 -0.00041252983769194193 0.033422775486620537 0 -0.00036472185472011546 0.033473891805292581 0 -0.00034759426774205016 0.033452318475261339 0 -0.00041252983769194193 0.033422775486620537 0 -0.00037017426904672373 0.033536837982070015 0 -0.00039727748338981225 0.033496592862596812 0 -0.00033694831710420395 0.033525475378343189 0 -0.00039727748338981225 0.033496592862596812 0 -0.00033694831710420395 0.033525475378343189 0 -0.00036472185472011546 0.033473891805292581 0 -0.00033694831710420395 0.033525475378343189 0 -0.00036472185472011546 0.033473891805292581 0 -0.00034078724858303973 0.033490303652445742 0 -0.00033694831710420395 0.033525475378343189 0 -0.00034078724858303973 0.033490303652445742 0 -0.00031740732868494685 0.033500585501700306 0 -0.00036472185472011546 0.033473891805292581 0 -0.00034759426774205016 0.033452318475261339 0 -0.00034078724858303973 0.033490303652445742 0 -0.00034759426774205016 0.033452318475261339 0 -0.00034078724858303973 0.033490303652445742 0 -0.00031740732868494685 0.033500585501700306 0 -0.00034759426774205016 0.033452318475261339 0 -0.00031740732868494685 0.033500585501700306 0 -0.00028081171136018962 0.033500917076700949 0 -0.00062987367702079216 0.030897701679556831 0 -7.3601000572751836e-05 0.03190947561154648 0 -0.00026909866215926438 0.033561183237075784 0 -0.00033694831710420395 0.033525475378343189 0 -0.00031740732868494685 0.033500585501700306 0 -0.00026909866215926438 0.033561183237075784 0 -0.00031740732868494685 0.033500585501700306 0 -0.00028081171136018962 0.033500917076700949 0 -0.00050890278630062171 0.033477285314188567 0 -0.00052963506172937842 0.033461297142897493 0 -0.00051638506368310074 0.033454017645159581 0 -0.00050890278630062171 0.033477285314188567 0 -0.00052963506172937842 0.033461297142897493 0 -0.00052268246457041589 0.033477082975047902 0 -0.00053869246317541459 0.03345238792842109 0 -0.00052963506172937842 0.033461297142897493 0 -0.00052268246457041589 0.033477082975047902 0 0.0008482629991466734 0.021377213467130087 0 0.00057599544306462193 0.021369280294994152 0 0.00070396963317458561 0.021539670115040915 0 -0.00050890278630062171 0.033477285314188567 0 -0.00052268246457041589 0.033477082975047902 0 -0.00048967790326033696 0.033509508931690968 0 -0.00071278889587468542 0.023545810085573202 0 -0.00036741682239311251 0.024677339031842906 0 0.00057599544306462193 0.021369280294994152 0 0.00070396963317458561 0.021539670115040915 0 0.00040936060091107703 0.021544475503037355 0 0.00027908656895556317 0.021229924743325572 0 0.00010948272962503791 0.021550730419942311 0 0.00040936060091107703 0.021544475503037355 0 -0.00029210511986260256 0.025331525452541526 0 -0.00036741682239311251 0.024677339031842906 0 -0.00043837035044350873 0.033540686065198319 0 -0.00048967790326033696 0.033509508931690968 0 -0.00044094616769412964 0.033501134442874482 0 -0.00048967790326033696 0.033509508931690968 0 -0.00044094616769412964 0.033501134442874482 0 -0.00048489754940995062 0.033474652619783003 0 -0.00050890278630062171 0.033477285314188567 0 -0.00048967790326033696 0.033509508931690968 0 -0.00048489754940995062 0.033474652619783003 0 -0.00044094616769412964 0.033501134442874482 0 -0.00048489754940995062 0.033474652619783003 0 -0.0004529630634838863 0.033460441115894503 0 -0.0004529630634838863 0.033460441115894503 0 -0.00049533587154515241 0.033433171735667677 0 -0.00045820078288872523 0.033429587058963463 0 -0.00048489754940995062 0.033474652619783003 0 -0.0004529630634838863 0.033460441115894503 0 -0.00049533587154515241 0.033433171735667677 0 -0.0028905374847028363 0.027334523913840388 0 -0.0028604940646160446 0.026232023484841212 0 -0.0045783173786249128 0.023126489841329128 0 -0.0041817278772109997 0.022762471379493734 0 -0.0042723214413053091 0.02330269167930828 0 -0.00050890278630062171 0.033477285314188567 0 -0.00048489754940995062 0.033474652619783003 0 -0.00051638506368310074 0.033454017645159581 0 -0.00048489754940995062 0.033474652619783003 0 -0.00049533587154515241 0.033433171735667677 0 -0.00051638506368310074 0.033454017645159581 0 -0.0038432117226100166 0.022514871928596362 0 -0.0041817278772109997 0.022762471379493734 0 -0.0038157063314775662 0.022799305958223579 0 -0.0025852282930520702 0.02456151168789206 0 -0.0028604940646160446 0.026232023484841212 0 -0.0041817278772109997 0.022762471379493734 0 -0.0039490839211504042 0.023130118739930761 0 -0.0042723214413053091 0.02330269167930828 0 -0.0041817278772109997 0.022762471379493734 0 -0.0038157063314775662 0.022799305958223579 0 -0.0039490839211504042 0.023130118739930761 0 -0.0039490839211504042 0.023130118739930761 0 -0.0040647641791169906 0.023475813132446198 0 -0.0037802657166543852 0.02362664436955272 0 -0.0039490839211504042 0.023130118739930761 0 -0.0040647641791169906 0.023475813132446198 0 -0.0042723214413053091 0.02330269167930828 0 -0.0036948863564667104 0.023183219313185448 0 -0.0038334151674885943 0.023439744879021954 0 -0.003677927610373628 0.023285225394360794 0 -0.0037802657166543852 0.02362664436955272 0 -0.0040964549532985515 0.02380349499693802 0 -0.004082025346783172 0.024349291712898697 0 -0.0039657444139062793 0.023579956435013118 0 -0.0041422383743756289 0.023862992448199779 0 -0.0040647641791169906 0.023475813132446198 0 -0.0037802657166543852 0.02362664436955272 0 -0.0040964549532985515 0.02380349499693802 0 -0.0040647641791169906 0.023475813132446198 0 -0.0040964549532985515 0.02380349499693802 0 -0.0042798705616683081 0.023609982647588887 0 -0.0045636699698104084 0.023998860297632835 0 -0.0042682343063138355 0.023986322782673392 0 -0.0042798705616683081 0.023609982647588887 0 -0.0040964549532985515 0.02380349499693802 0 -0.0042682343063138355 0.023986322782673392 0 -0.0042798705616683081 0.023609982647588887 0 -0.0045783173786249128 0.023126489841329128 0 -0.0042723214413053091 0.02330269167930828 0 -0.0045626597855693441 0.023629426386956538 0 -0.0042798705616683081 0.023609982647588887 0 -0.0042723214413053091 0.02330269167930828 0 -0.0045626597855693441 0.023629426386956538 0 -0.0040647641791169906 0.023475813132446198 0 -0.0042798705616683081 0.023609982647588887 0 -0.0042723214413053091 0.02330269167930828 0 -0.00049533587154515241 0.033433171735667677 0 -0.00045820078288872523 0.033429587058963463 0 -0.00046723448113501027 0.033401104129390957 0 -0.0028354892316807584 0.02817661826405439 0 -0.0032003267073012023 0.027922137751496011 0 -0.0028905374847028363 0.027334523913840388 0 -0.0028354892316807584 0.02817661826405439 0 -0.0045783173786249128 0.023126489841329128 0 -0.0049624465826878057 0.023520510450795833 0 -0.0045626597855693441 0.023629426386956538 0 -0.00045820078288872523 0.033429587058963463 0 -0.00046723448113501027 0.033401104129390957 0 -0.00041252983769194193 0.033422775486620537 0 -0.0049178954732159311 0.023548563766531382 0 -0.0047700219226902135 0.023751356268302899 0 -0.0052563863252672993 0.023906390781560018 0 -0.0033657971422426055 0.027857831394130474 0 -0.0028902645582836763 0.028728910831565084 0 -0.0028354892316807584 0.02817661826405439 0 -0.0028902645582836763 0.028728910831565084 0 -0.0049324752651057928 0.023786850882606358 0 -0.0052483355436985834 0.024039940504737067 0 -0.0056066402402219122 0.023991650026142286 0 -0.0049324752651057928 0.023786850882606358 0 -0.0049139828348949404 0.024130290085497715 0 -0.0052483355436985834 0.024039940504737067 0 -0.0045636699698104084 0.023998860297632835 0 -0.0042798705616683081 0.023609982647588887 0 -0.0049324752651057928 0.023786850882606358 0 -0.0042798705616683081 0.023609982647588887 0 -0.0045626597855693441 0.023629426386956538 0 -0.0047700219226902135 0.023751356268302899 0 -0.0049178954732159311 0.023548563766531382 0 -0.0045626597855693441 0.023629426386956538 0 -0.0047700219226902135 0.023751356268302899 0 -0.0034452965071019486 0.027584367624210175 0 -0.0033657971422426055 0.027857831394130474 0 -0.0045636699698104084 0.023998860297632835 0 -0.0049324752651057928 0.023786850882606358 0 -0.0049139828348949404 0.024130290085497715 0 -0.0045636699698104084 0.023998860297632835 0 -0.0049139828348949404 0.024130290085497715 0 -0.004661910251949712 0.024277100106678343 0 -0.0049139828348949404 0.024130290085497715 0 -0.0048428842166729092 0.024414008891526968 0 -0.004661910251949712 0.024277100106678343 0 -0.0049139828348949404 0.024130290085497715 0 -0.0048428842166729092 0.024414008891526968 0 -0.0051959862782030861 0.024378600304573471 0 -0.0048428842166729092 0.024414008891526968 0 -0.004661910251949712 0.024277100106678343 0 -0.0046585013020884322 0.02455850590248114 0 -0.0049004482041255168 0.024740436056853426 0 -0.0049366952334692826 0.024719483846832993 0 -0.0049359184931035494 0.024769410991383359 0 -0.0039427443038736422 0.027454519838318061 0 -0.0028902645582836763 0.028728910831565084 0 -0.0052483355436985834 0.024039940504737067 0 -0.0051959862782030861 0.024378600304573471 0 -0.0056066402402219122 0.023991650026142286 0 -0.0049139828348949404 0.024130290085497715 0 -0.0052483355436985834 0.024039940504737067 0 -0.0051959862782030861 0.024378600304573471 0 -0.0050313684059673158 0.024871027198634404 0 -0.0048562996678316464 0.024789652863652794 0 -0.0051490821476622688 0.024787169793919057 0 -0.0049004482041255168 0.024740436056853426 0 -0.0048562996678316464 0.024789652863652794 0 -0.0049359184931035494 0.024769410991383359 0 -0.0039472135988730681 0.028209230876362745 0 -0.0036521999729208568 0.028428615627425047 0 -0.0050313684059673158 0.024871027198634404 0 -0.0048562996678316464 0.024789652863652794 0 -0.0048858581811672399 0.024904922251912993 0 -0.004661910251949712 0.024277100106678343 0 -0.0046585013020884322 0.02455850590248114 0 -0.0044311594958478355 0.024560675632686501 0 -0.0048428842166729092 0.024414008891526968 0 -0.0046585013020884322 0.02455850590248114 0 -0.0047654343205661628 0.024783271138155347 0 -0.0049004482041255168 0.024740436056853426 0 -0.0048562996678316464 0.024789652863652794 0 -0.0047654343205661628 0.024783271138155347 0 -0.0048428842166729092 0.024414008891526968 0 -0.0051959862782030861 0.024378600304573471 0 -0.0047654343205661628 0.024783271138155347 0 -0.0039427443038736422 0.027454519838318061 0 -0.0042223078589123768 0.027099268189589201 0 -0.0048562996678316464 0.024789652863652794 0 -0.0047687154582496403 0.024890681623813984 0 -0.0048858581811672399 0.024904922251912993 0 -0.0048562996678316464 0.024789652863652794 0 -0.0047654343205661628 0.024783271138155347 0 -0.0047687154582496403 0.024890681623813984 0 -0.0047654343205661628 0.024783271138155347 0 -0.0046208091223689657 0.024770990915512384 0 -0.0047687154582496403 0.024890681623813984 0 -0.0046585013020884322 0.02455850590248114 0 -0.0047654343205661628 0.024783271138155347 0 -0.0046208091223689657 0.024770990915512384 0 -0.0041422383743756289 0.023862992448199779 0 -0.0043674698498333371 0.024168191405673393 0 -0.0046208091223689657 0.024770990915512384 0 -0.0044311594958478355 0.024560675632686501 0 -0.0044559583152606348 0.025020356080544908 0 -0.0044311594958478355 0.024560675632686501 0 -0.004082025346783172 0.024349291712898697 0 -0.0044559583152606348 0.025020356080544908 0 -0.0038334151674885943 0.023439744879021954 0 -0.0037921768594811334 0.023671648695779392 0 -0.003970841134883045 0.023709515458201314 0 -0.0046585013020884322 0.02455850590248114 0 -0.0046208091223689657 0.024770990915512384 0 -0.0044311594958478355 0.024560675632686501 0 -0.0037219151594660434 0.023550915491373888 0 -0.0038334151674885943 0.023439744879021954 0 -0.0036469730911116976 0.023458481106571526 0 -0.0037219151594660434 0.023550915491373888 0 -0.0038334151674885943 0.023439744879021954 0 -0.0037921768594811334 0.023671648695779392 0 -0.0037219151594660434 0.023550915491373888 0 -0.0037921768594811334 0.023671648695779392 0 -0.0036153555426002809 0.023634080196591797 0 -0.0038334151674885943 0.023439744879021954 0 -0.0036469730911116976 0.023458481106571526 0 -0.003677927610373628 0.023285225394360794 0 -0.0040964549532985515 0.02380349499693802 0 -0.0042682343063138355 0.023986322782673392 0 -0.004082025346783172 0.024349291712898697 0 -0.0042682343063138355 0.023986322782673392 0 -0.004082025346783172 0.024349291712898697 0 -0.004377202105325443 0.024250895934515321 0 -0.0045636699698104084 0.023998860297632835 0 -0.004661910251949712 0.024277100106678343 0 -0.004377202105325443 0.024250895934515321 0 -0.0045636699698104084 0.023998860297632835 0 -0.0042682343063138355 0.023986322782673392 0 -0.004377202105325443 0.024250895934515321 0 -0.004661910251949712 0.024277100106678343 0 -0.0044311594958478355 0.024560675632686501 0 -0.004377202105325443 0.024250895934515321 0 -0.0044311594958478355 0.024560675632686501 0 -0.004082025346783172 0.024349291712898697 0 -0.004377202105325443 0.024250895934515321 0 0.00062188825539512369 0.034718878499107618 0 0.00068940556546889234 0.034629746559260044 0 0.00070325548226778188 0.034757894682965376 0 0.00051881103111495565 0.034768368431289769 0 0.00060625916775567529 0.034808199477542733 0 0.00062188825539512369 0.034718878499107618 0 0.00060625916775567529 0.034808199477542733 0 0.00062188825539512369 0.034718878499107618 0 0.00070325548226778188 0.034757894682965376 0 0.00051578771820626863 0.03461455372323316 0 0.00062188825539512369 0.034718878499107618 0 0.00068940556546889234 0.034629746559260044 0 0.00051578771820626863 0.03461455372323316 0 0.00058307528170720418 0.03447085992782746 0 0.00068940556546889234 0.034629746559260044 0 0.00077328083465072245 0.034545811265366252 0 0.00058307528170720418 0.03447085992782746 0 0.00068940556546889234 0.034629746559260044 0 0.00068940556546889234 0.034629746559260044 0 0.0007820278875027445 0.034625690118082718 0 0.00079703308026324348 0.034676617363264377 0 0.00077328083465072245 0.034545811265366252 0 0.0007820278875027445 0.034625690118082718 0 0.00083717015499398416 0.034652944395618404 0 0.00077328083465072245 0.034545811265366252 0 0.00068940556546889234 0.034629746559260044 0 0.0007820278875027445 0.034625690118082718 0 0.00068940556546889234 0.034629746559260044 0 0.00079703308026324348 0.034676617363264377 0 0.00070325548226778188 0.034757894682965376 0 0.00079703308026324348 0.034676617363264377 0 0.00070325548226778188 0.034757894682965376 0 0.00084806870353092828 0.034826216913830983 0 -0.001694630361312626 0.030624876118093825 0 -0.0019564728741533416 0.029953543826232481 0 0.00082468252892675979 0.034674898375625256 0 0.00084517489255805456 0.034675015666241718 0 0.00081661141950703509 0.034686410759676947 0 0.00079703308026324348 0.034676617363264377 0 0.00082468252892675979 0.034674898375625256 0 0.00081661141950703509 0.034686410759676947 0 0.00082468252892675979 0.034674898375625256 0 0.00083717015499398416 0.034652944395618404 0 0.00084517489255805456 0.034675015666241718 0 0.00079703308026324348 0.034676617363264377 0 0.00082468252892675979 0.034674898375625256 0 0.00083717015499398416 0.034652944395618404 0 -0.00062987367702079216 0.030897701679556831 0 -0.0015127182961972132 0.0297411512989449 0 -0.0013231219896367202 0.02982845285471427 0 -0.0018186487997387281 0.029361079489870334 0 -0.0020878738375418554 0.029610668215259095 0 -0.00062987367702079216 0.030897701679556831 0 -0.0013933609654732714 0.030218816381953173 0 0.0007820278875027445 0.034625690118082718 0 0.00079703308026324348 0.034676617363264377 0 0.00083717015499398416 0.034652944395618404 0 -0.0028354892316807584 0.02817661826405439 0 -0.0015127182961972132 0.0297411512989449 0 -0.0018186487997387281 0.029361079489870334 0 -0.0020878738375418554 0.029610668215259095 0 -0.0022867518321877641 0.029235344193777234 0 -0.0028464915607410084 0.02939453493505801 0 -0.0020878738375418554 0.029610668215259095 0 -0.0022867518321877641 0.029235344193777234 0 -0.0013933609654732714 0.030218816381953173 0 -0.0028902645582836763 0.028728910831565084 0 -0.0018186487997387281 0.029361079489870334 0 -0.0022867518321877641 0.029235344193777234 0 -0.0023334859314299889 0.02887740952816711 0 -0.0028464915607410084 0.02939453493505801 0 -0.0022867518321877641 0.029235344193777234 0 -0.0023334859314299889 0.02887740952816711 0 -0.0028902645582836763 0.028728910831565084 0 -0.0025911272147018959 0.029136341773150394 0 -0.0049366952334692826 0.024719483846832993 0 -0.0049359184931035494 0.024769410991383359 0 -0.0049754573629443109 0.024765618468689812 0 -0.0022350479462039008 0.028693535472390168 0 -0.003212816987233435 0.029683387281062117 0 -0.0029270009990354554 0.029134676192399029 0 -0.0036521999729208568 0.028428615627425047 0 -0.0025911272147018959 0.029136341773150394 0 -0.0051490821476622688 0.024787169793919057 0 -0.005215575678980313 0.024823751633854831 0 -0.005195995246646757 0.024840867019164863 0 -0.0050313684059673158 0.024871027198634404 0 -0.0051490821476622688 0.024787169793919057 0 -0.0051914561677910108 0.024872619076442164 0 -0.0051490821476622688 0.024787169793919057 0 -0.0051914561677910108 0.024872619076442164 0 -0.005195995246646757 0.024840867019164863 0 -0.0051914561677910108 0.024872619076442164 0 -0.005195995246646757 0.024840867019164863 0 -0.0051739760732778762 0.024856151516721943 0 -0.005195995246646757 0.024840867019164863 0 -0.0052185523828356967 0.024829517786179391 0 -0.0051739760732778762 0.024856151516721943 0 -0.0024422964778036166 0.029748800687592267 0 -0.0025209968514167437 0.029829128499111821 0 -0.0024112806380592951 0.029845741003958492 0 -0.0024958628302605254 0.029177319166180885 0 -0.0028278005100869827 0.029266049674552423 0 -0.005215575678980313 0.024823751633854831 0 -0.005195995246646757 0.024840867019164863 0 -0.0052185523828356967 0.024829517786179391 0 -0.0020130953896801379 0.030268395108411238 0 -0.0020050175375958064 0.030293252918151981 0 -0.0018452824966489038 0.030100536212541822 0 -0.0024958628302605254 0.029177319166180885 0 -0.0024261509218528837 0.029258439327872275 0 -0.001395851426906405 0.028305377980063655 0 -0.0029479922996913707 0.029874391582107238 0 -0.0036012128896081683 0.027861141478834311 0 -0.0025911272147018959 0.029136341773150394 0 -0.0024261509218528837 0.029258439327872275 0 -0.0025911272147018959 0.029136341773150394 0 -0.0024958628302605254 0.029177319166180885 0 -0.0024261509218528837 0.029258439327872275 0 -0.0019564728741533416 0.029953543826232481 0 -0.0033472426932280902 0.029656366029203282 0 -0.0029270009990354554 0.029134676192399029 0 -0.0035651247605665874 0.028984159994078915 0 -0.0022350479462039008 0.028693535472390168 0 -0.0029270009990354554 0.029134676192399029 0 -0.0035651247605665874 0.028984159994078915 0 -0.0028902645582836763 0.028728910831565084 0 -0.0019564728741533416 0.029953543826232481 0 -0.003212816987233435 0.029683387281062117 0 -0.0033472426932280902 0.029656366029203282 0 -0.0029270009990354554 0.029134676192399029 0 -0.0024261509218528837 0.029258439327872275 0 -0.0013534653428345373 0.030321976803934367 0 -0.0019564728741533416 0.029953543826232481 0 -0.0013534653428345373 0.030321976803934367 0 -0.0013391326869273371 0.030235302248853218 0 -0.0014474573452675252 0.02990069145895196 0 -0.0021344543997613595 0.030076408946511309 0 0.00070325548226778188 0.034757894682965376 0 0.00084806870353092828 0.034826216913830983 0 0.00064254193679770294 0.034897324398982313 0 -0.0020050175375958064 0.030293252918151981 0 -0.0016792495892028966 0.030361292549828514 0 -0.0018452824966489038 0.030100536212541822 0 -0.0024958628302605254 0.029177319166180885 0 -0.0023318367599634293 0.029869697206220097 0 -0.0015984158538337812 0.030140269465882778 0 -0.0016792495892028966 0.030361292549828514 0 -0.0018452824966489038 0.030100536212541822 0 -0.0011441456566107717 0.030454954487943955 0 -0.0013534653428345373 0.030321976803934367 0 0.00060625916775567529 0.034808199477542733 0 0.00070325548226778188 0.034757894682965376 0 0.00064254193679770294 0.034897324398982313 0 0.00053479549342273064 0.034897815408239378 0 0.00060625916775567529 0.034808199477542733 0 0.00064254193679770294 0.034897324398982313 0 -0.00073051590683469387 0.034811755792871428 0 -0.0010287315839260702 0.034891844122092036 0 -0.00088372071502273975 0.035062586285539946 0 -0.0010287315839260702 0.034891844122092036 0 -0.00088372071502273975 0.035062586285539946 0 -0.0011356495898606513 0.035075883752428955 0 -0.00080566834354589599 0.035309752515455463 0 -0.00088372071502273975 0.035062586285539946 0 -0.0010839272490958758 0.035231725001106079 0 -0.00080566834354589599 0.035309752515455463 0 -0.0010839272490958758 0.035231725001106079 0 -0.0011597448990687961 0.035308503528794291 0 -0.0015961461365315292 0.030518769386949324 0 -0.0023318367599634293 0.029869697206220097 0 -0.00088372071502273975 0.035062586285539946 0 -0.0010839272490958758 0.035231725001106079 0 -0.0011356495898606513 0.035075883752428955 0 -0.0010839272490958758 0.035231725001106079 0 -0.001265221434889394 0.035216249013132042 0 -0.0011356495898606513 0.035075883752428955 0 -0.0010839272490958758 0.035231725001106079 0 -0.0011799006321734581 0.035341915511110357 0 -0.001265221434889394 0.035216249013132042 0 -0.0023610662825412094 0.029937931419644459 0 -0.0023318367599634293 0.029869697206220097 0 -0.001265221434889394 0.035216249013132042 0 -0.0011356495898606513 0.035075883752428955 0 -0.0013524615315302347 0.035119431402112981 0 -0.0011356495898606513 0.035075883752428955 0 -0.0012626572412511841 0.034942411254063777 0 -0.0013524615315302347 0.035119431402112981 0 -0.0010287315839260702 0.034891844122092036 0 -0.0011356495898606513 0.035075883752428955 0 -0.0012626572412511841 0.034942411254063777 0 -0.0010287315839260702 0.034891844122092036 0 -0.0012626572412511841 0.034942411254063777 0 -0.0012838392000126969 0.03475353976422868 0 -0.0012626572412511841 0.034942411254063777 0 -0.0013524615315302347 0.035119431402112981 0 -0.0017734025509307052 0.03489601659589138 0 -0.0013524615315302347 0.035119431402112981 0 -0.0015625355773972169 0.03530634760258955 0 -0.0017734025509307052 0.03489601659589138 0 -0.0011799006321734581 0.035341915511110357 0 -0.001265221434889394 0.035216249013132042 0 -0.0015625355773972169 0.03530634760258955 0 -0.0023318367599634293 0.029869697206220097 0 -0.0028278005100869827 0.029266049674552423 0 -0.001265221434889394 0.035216249013132042 0 -0.0013524615315302347 0.035119431402112981 0 -0.0015625355773972169 0.03530634760258955 0 -0.0051914561677910108 0.024872619076442164 0 -0.0051739760732778762 0.024856151516721943 0 -0.0052475184716177818 0.024797050582359176 0 -0.0061489151523899032 0.024678636876950297 0 -0.0058300175017505819 0.024723758698129292 0 -0.0059950787225063074 0.025188835046673613 0 -0.0028278005100869827 0.029266049674552423 0 -0.0037268541886210879 0.028753806383451569 0 -0.0058300175017505819 0.024723758698129292 0 -0.0059950787225063074 0.025188835046673613 0 -0.0057194855545032192 0.025022081155212286 0 -0.0028278005100869827 0.029266049674552423 0 -0.0032714612809164505 0.029551742007929295 0 -0.0032714612809164505 0.029551742007929295 0 -0.0036386762003765621 0.029617750611258445 0 -0.0059950787225063074 0.025188835046673613 0 -0.005868492982227057 0.025713666611288877 0 -0.0055712979065748519 0.025317439634246926 0 -0.0017734025509307052 0.03489601659589138 0 -0.0021376464293916555 0.034432085965248715 0 -0.001588902023943025 0.034466437612823961 0 -0.0021376464293916555 0.034432085965248715 0 -0.001588902023943025 0.034466437612823961 0 -0.0015267722445488064 0.033985089820043855 0 -0.001588902023943025 0.034466437612823961 0 -0.0009430405150304454 0.034161079532186597 0 -0.0015267722445488064 0.033985089820043855 0 -0.0012626572412511841 0.034942411254063777 0 -0.0017734025509307052 0.03489601659589138 0 -0.0012838392000126969 0.03475353976422868 0 -0.0017734025509307052 0.03489601659589138 0 -0.001588902023943025 0.034466437612823961 0 -0.0012838392000126969 0.03475353976422868 0 -0.0010287315839260702 0.034891844122092036 0 -0.0012838392000126969 0.03475353976422868 0 -0.00093877037476202795 0.03466792948408192 0 -0.0010211987762763584 0.034338915165925063 0 -0.00095268050470013826 0.034212501170485937 0 -0.0012838392000126969 0.03475353976422868 0 -0.00093877037476202795 0.03466792948408192 0 -0.00099623394364597886 0.034376243757537318 0 -0.001588902023943025 0.034466437612823961 0 -0.0012838392000126969 0.03475353976422868 0 -0.0009430405150304454 0.034161079532186597 0 -0.00069477147276988298 0.034521291165037174 0 -0.00099623394364597886 0.034376243757537318 0 -0.00068085117328366487 0.034304641352455492 0 -0.00069477147276988298 0.034521291165037174 0 -0.00093877037476202795 0.03466792948408192 0 -0.00099623394364597886 0.034376243757537318 0 -0.00073051590683469387 0.034811755792871428 0 -0.0010287315839260702 0.034891844122092036 0 -0.00093877037476202795 0.03466792948408192 0 -0.00073051590683469387 0.034811755792871428 0 -0.00069477147276988298 0.034521291165037174 0 -0.00093877037476202795 0.03466792948408192 0 -0.0050155344429017677 0.024901439133663102 0 -0.0052157041883286103 0.025010704203680959 0 -0.0049698918202533415 0.025231811583476264 0 -0.0050155344429017677 0.024901439133663102 0 -0.0046116334789065632 0.025050649990474853 0 -0.0049698918202533415 0.025231811583476264 0 -0.0043264254069331938 0.024545924038549431 0 -0.0044446600692778469 0.024624548265527377 0 -0.0045026243187354089 0.024434022036266483 0 -0.0043264254069331938 0.024545924038549431 0 -0.0043394283756560178 0.02427561015101895 0 -0.0043844918274767823 0.024257845875129292 0 -0.0043656826710895156 0.024284389648312366 0 -0.0043844918274767823 0.024257845875129292 0 -0.0043656826710895156 0.024284389648312366 0 -0.0043867753822368913 0.024287444837417994 0 -0.0043656826710895156 0.024284389648312366 0 -0.004368289478491735 0.024307971787581199 0 -0.0043446689451459748 0.024289849560509572 0 -0.0043867753822368913 0.024287444837417994 0 -0.004368289478491735 0.024307971787581199 0 -0.0044037530712926539 0.02431550399131633 0 -0.0041640762184366525 0.024087595571778732 0 -0.003988185499055324 0.024018342155796055 0 -0.0043656826710895156 0.024284389648312366 0 -0.0043867753822368913 0.024287444837417994 0 -0.004368289478491735 0.024307971787581199 0 -0.004368289478491735 0.024307971787581199 0 -0.0043446689451459748 0.024289849560509572 0 -0.0043338272788249468 0.024300396559135382 0 -0.0041640762184366525 0.024087595571778732 0 -0.0043674698498333371 0.024168191405673393 0 -0.0043394283756560178 0.02427561015101895 0 -0.0043656826710895156 0.024284389648312366 0 -0.0043446689451459748 0.024289849560509572 0 -0.0043394283756560178 0.02427561015101895 0 -0.0043446689451459748 0.024289849560509572 0 -0.0043299545177248122 0.024292257521260342 0 -0.0043446689451459748 0.024289849560509572 0 -0.0043299545177248122 0.024292257521260342 0 -0.0043338272788249468 0.024300396559135382 0 -0.0043676853862266484 0.024169072566261416 0 -0.0043674698498333371 0.024168191405673393 0 -0.0044559583152606348 0.025020356080544908 0 -0.0047687154582496403 0.024890681623813984 0 -0.0048540738761476358 0.02504747144713192 0 -0.0043299545177248122 0.024292257521260342 0 -0.0043338869886346224 0.024300115716014391 0 -0.0042966204623248322 0.024292596949022957 0 -0.0043394283756560178 0.02427561015101895 0 -0.0043299545177248122 0.024292257521260342 0 -0.0042966204623248322 0.024292596949022957 0 -0.0045026243187354089 0.024434022036266483 0 -0.0046157910009217646 0.02431745422867633 0 -0.0043674698498333371 0.024168191405673393 0 -0.0046157910009217646 0.02431745422867633 0 -0.0046208091223689657 0.024770990915512384 0 -0.0044559583152606348 0.025020356080544908 0 -0.0047687154582496403 0.024890681623813984 0 -0.0047687154582496403 0.024890681623813984 0 -0.0048540738761476358 0.02504747144713192 0 -0.0048858581811672399 0.024904922251912993 0 -0.0054337650670599983 0.02476561711580148 0 -0.0054583561146877299 0.024867442078465526 0 -0.0052157041883286103 0.025010704203680959 0 -0.0054881016615389447 0.024779910221095131 0 -0.0054337650670599983 0.02476561711580148 0 -0.0054583561146877299 0.024867442078465526 0 -0.0046178959359330571 0.024318060886851373 0 -0.0046157910009217646 0.02431745422867633 0 -0.0058300175017505819 0.024723758698129292 0 -0.0054691707954244648 0.024776388212875474 0 -0.0055896163722062428 0.024886469599231471 0 -0.0051914561677910108 0.024872619076442164 0 -0.0052475184716177818 0.024797050582359176 0 -0.0054691707954244648 0.024776388212875474 0 -0.0051914561677910108 0.024872619076442164 0 -0.0054881016615389447 0.024779910221095131 0 -0.0054691707954244648 0.024776388212875474 0 -0.0050313684059673158 0.024871027198634404 0 -0.0051914561677910108 0.024872619076442164 0 -0.0048540738761476358 0.02504747144713192 0 -0.0051914561677910108 0.024872619076442164 0 -0.0054881016615389447 0.024779910221095131 0 -0.0055153248500074371 0.024787503213771971 0 -0.0037268541886210879 0.028753806383451569 0 -0.0039932987882230469 0.028590927896487865 0 -0.0047279864389386476 0.024342041265047215 0 -0.0046157910009217646 0.02431745422867633 0 -0.0050313684059673158 0.024871027198634404 0 -0.0048540738761476358 0.02504747144713192 0 -0.0048858581811672399 0.024904922251912993 0 -0.0054881016615389447 0.024779910221095131 0 -0.0054583561146877299 0.024867442078465526 0 -0.0054691707954244648 0.024776388212875474 0 -0.0054583561146877299 0.024867442078465526 0 -0.0054691707954244648 0.024776388212875474 0 -0.0055896163722062428 0.024886469599231471 0 -0.0058300175017505819 0.024723758698129292 0 -0.0055896163722062428 0.024886469599231471 0 -0.0057194855545032192 0.025022081155212286 0 -0.0059950787225063074 0.025188835046673613 0 -0.0057194855545032192 0.025022081155212286 0 -0.0055712979065748519 0.025317439634246926 0 -0.0055896163722062428 0.024886469599231471 0 -0.0057194855545032192 0.025022081155212286 0 -0.0055048756027141097 0.025026559210689813 0 -0.0054583561146877299 0.024867442078465526 0 -0.0055896163722062428 0.024886469599231471 0 -0.0055048756027141097 0.025026559210689813 0 -0.0055048756027141097 0.025026559210689813 0 -0.0053854001026001769 0.025166791874016901 0 -0.0055712979065748519 0.025317439634246926 0 -0.0057194855545032192 0.025022081155212286 0 -0.0055048756027141097 0.025026559210689813 0 -0.0055712979065748519 0.025317439634246926 0 -0.0050155344429017677 0.024901439133663102 0 -0.0054337650670599983 0.02476561711580148 0 -0.0052157041883286103 0.025010704203680959 0 -0.0052157041883286103 0.025010704203680959 0 -0.0053854001026001769 0.025166791874016901 0 -0.0052227517114643044 0.025335466433585769 0 -0.0054583561146877299 0.024867442078465526 0 -0.0055048756027141097 0.025026559210689813 0 -0.0052157041883286103 0.025010704203680959 0 -0.0055048756027141097 0.025026559210689813 0 -0.0052157041883286103 0.025010704203680959 0 -0.0053854001026001769 0.025166791874016901 0 -0.0053854001026001769 0.025166791874016901 0 -0.0052227517114643044 0.025335466433585769 0 -0.0055712979065748519 0.025317439634246926 0 -0.0052227517114643044 0.025335466433585769 0 -0.0055712979065748519 0.025317439634246926 0 -0.0052823183412037556 0.025729884693201845 0 -0.005868492982227057 0.025713666611288877 0 -0.0055712979065748519 0.025317439634246926 0 -0.0052823183412037556 0.025729884693201845 0 -0.0052823183412037556 0.025729884693201845 0 -0.0049125371718126672 0.025582917718448835 0 -0.0047095076112471839 0.026062862520410394 0 -0.0052227517114643044 0.025335466433585769 0 -0.0052823183412037556 0.025729884693201845 0 -0.0049125371718126672 0.025582917718448835 0 -0.0052157041883286103 0.025010704203680959 0 -0.0052227517114643044 0.025335466433585769 0 -0.0049698918202533415 0.025231811583476264 0 -0.0052227517114643044 0.025335466433585769 0 -0.0049125371718126672 0.025582917718448835 0 -0.0049698918202533415 0.025231811583476264 0 -0.0045850316825933176 0.025008165028976546 0 -0.0046521265439734161 0.025398681436596352 0 -0.0044469012141987469 0.025246748229382995 0 -0.0049125371718126672 0.025582917718448835 0 -0.0049698918202533415 0.025231811583476264 0 -0.0046521265439734161 0.025398681436596352 0 -0.0045850316825933176 0.025008165028976546 0 -0.0049698918202533415 0.025231811583476264 0 -0.0046521265439734161 0.025398681436596352 0 -0.0046572389063650908 0.025669034756597521 0 -0.0043616435098942528 0.025632908677873985 0 -0.0047095076112471839 0.026062862520410394 0 -0.0049125371718126672 0.025582917718448835 0 -0.0046572389063650908 0.025669034756597521 0 -0.0047095076112471839 0.026062862520410394 0 -0.0046521265439734161 0.025398681436596352 0 -0.0046572389063650908 0.025669034756597521 0 -0.0043616435098942528 0.025632908677873985 0 -0.0049125371718126672 0.025582917718448835 0 -0.0046521265439734161 0.025398681436596352 0 -0.0046572389063650908 0.025669034756597521 0 -0.0041770217619462261 0.025721051853171254 0 -0.0037619236994566999 0.025794407152050457 0 -0.003699351898809084 0.025580659067096712 0 -0.0041770217619462261 0.025721051853171254 0 -0.0037619236994566999 0.025794407152050457 0 -0.0039724235046485522 0.025941654333955906 0 -0.0041770217619462261 0.025721051853171254 0 -0.003699351898809084 0.025580659067096712 0 -0.0037465930981819828 0.025320741539099263 0 -0.0040412595837812084 0.025001257643392921 0 -0.0042755829311176543 0.025273216542790234 0 -0.0040785456676248194 0.024732785974630463 0 -0.004186485787322434 0.025671426390364786 0 -0.003828146214895026 0.025349726099543488 0 -0.0043616435098942528 0.025632908677873985 0 -0.0039309116820933198 0.025142421098497205 0 -0.0040657375324943184 0.025181061614023073 0 -0.0038989912695108048 0.025115383255974923 0 -0.0040412595837812084 0.025001257643392921 0 -0.0038900259037302756 0.024804772510734902 0 -0.0038989912695108048 0.025115383255974923 0 -0.0040412595837812084 0.025001257643392921 0 -0.0040657375324943184 0.025181061614023073 0 -0.003828146214895026 0.025349726099543488 0 -0.0038313372916316309 0.025349459804672254 0 -0.0040412595837812084 0.025001257643392921 0 -0.0040657375324943184 0.025181061614023073 0 -0.0042755829311176543 0.025273216542790234 0 -0.0044469012141987469 0.025246748229382995 0 -0.0042755829311176543 0.025273216542790234 0 -0.0043319121567611711 0.025099791460921089 0 -0.0043616435098942528 0.025632908677873985 0 -0.0040657375324943184 0.025181061614023073 0 -0.0042755829311176543 0.025273216542790234 0 -0.0046521265439734161 0.025398681436596352 0 -0.0043616435098942528 0.025632908677873985 0 -0.0044469012141987469 0.025246748229382995 0 -0.0043616435098942528 0.025632908677873985 0 -0.0044469012141987469 0.025246748229382995 0 -0.0042755829311176543 0.025273216542790234 0 -0.0043575274655113551 0.025686073810271846 0 -0.0036660050294602662 0.025323884306085145 0 -0.0038523759330210071 0.025737738269393472 0 -0.0040411001641023174 0.025951862920212222 0 -0.0043575274655113551 0.025686073810271846 0 -0.0042160342477310982 0.026291071335396918 0 -0.0040411001641023174 0.025951862920212222 0 -0.0038523759330210071 0.025737738269393472 0 -0.0037287204354761109 0.026093548621355416 0 -0.0040411001641023174 0.025951862920212222 0 -0.0043575274655113551 0.025686073810271846 0 -0.0038523759330210071 0.025737738269393472 0 -0.0037619236994566999 0.025794407152050457 0 -0.0032982308721297171 0.025636148006799742 0 -0.0036688868012662154 0.026143997089664018 0 -0.0037619236994566999 0.025794407152050457 0 -0.003699351898809084 0.025580659067096712 0 -0.0032982308721297171 0.025636148006799742 0 -0.003699351898809084 0.025580659067096712 0 -0.0032982308721297171 0.025636148006799742 0 -0.0035199864539505596 0.02542924628867058 0 -0.0037465930981819828 0.025320741539099263 0 -0.0035199864539505596 0.02542924628867058 0 -0.0033362712255193931 0.025231197157409287 0 -0.0038420356131303535 0.024933346812498855 0 -0.003462813870595154 0.024843477762831155 0 -0.0036055614680444545 0.024708851167072981 0 -0.0032982308721297171 0.025636148006799742 0 -0.0035199864539505596 0.02542924628867058 0 -0.0033362712255193931 0.025231197157409287 0 -0.003828146214895026 0.025349726099543488 0 -0.003568936004108353 0.025293322099681527 0 -0.003699351898809084 0.025580659067096712 0 -0.0037465930981819828 0.025320741539099263 0 -0.0035199864539505596 0.02542924628867058 0 -0.003828146214895026 0.025349726099543488 0 -0.0037994817269954581 0.025309409466648541 0 -0.0037416540471266295 0.025716366229586722 0 -0.0033868885850866738 0.025274509001433108 0 -0.0032982308721297171 0.025636148006799742 0 -0.0033362712255193931 0.025231197157409287 0 -0.0029300971664190166 0.025139932018176905 0 -0.0043575274655113551 0.025686073810271846 0 -0.0037166620193395668 0.02476156294078748 0 -0.0036660050294602662 0.025323884306085145 0 -0.003568936004108353 0.025293322099681527 0 -0.0033868885850866738 0.025274509001433108 0 -0.003462813870595154 0.024843477762831155 0 -0.0032117436474852269 0.024659243696856348 0 -0.0030288144989506945 0.024718125346967483 0 -0.0031412218782059542 0.024500980217693407 0 -0.0032117436474852269 0.024659243696856348 0 -0.0033499330488180974 0.024632881020597418 0 -0.0031412218782059542 0.024500980217693407 0 -0.0033499330488180974 0.024632881020597418 0 -0.0032953469063754736 0.024434321219312327 0 -0.0031412218782059542 0.024500980217693407 0 -0.0032117436474852269 0.024659243696856348 0 -0.0030736574665374723 0.024595802487771178 0 -0.003462813870595154 0.024843477762831155 0 -0.0032117436474852269 0.024659243696856348 0 -0.0033499330488180974 0.024632881020597418 0 -0.0033499330488180974 0.024632881020597418 0 -0.0032953469063754736 0.024434321219312327 0 -0.0034560816067428098 0.024513590814548257 0 -0.0033499330488180974 0.024632881020597418 0 -0.0034560816067428098 0.024513590814548257 0 -0.0036055614680444545 0.024708851167072981 0 -0.0034560816067428098 0.024513590814548257 0 -0.0036055614680444545 0.024708851167072981 0 -0.0036114334206720322 0.024439026588186738 0 -0.003462813870595154 0.024843477762831155 0 -0.0033499330488180974 0.024632881020597418 0 -0.0036055614680444545 0.024708851167072981 0 -0.0038989912695108048 0.025115383255974923 0 -0.0036055614680444545 0.024708851167072981 0 -0.0038900259037302756 0.024804772510734902 0 -0.0036055614680444545 0.024708851167072981 0 -0.0038496680470962545 0.024537746883492504 0 -0.0038900259037302756 0.024804772510734902 0 -0.0036055614680444545 0.024708851167072981 0 -0.0038496680470962545 0.024537746883492504 0 -0.0036114334206720322 0.024439026588186738 0 -0.0038496680470962545 0.024537746883492504 0 -0.0037094579362079885 0.024175555088729695 0 -0.0036114334206720322 0.024439026588186738 0 -0.0037094579362079885 0.024175555088729695 0 -0.0036114334206720322 0.024439026588186738 0 -0.0034488071475940437 0.024259330531975116 0 -0.0034560816067428098 0.024513590814548257 0 -0.0036114334206720322 0.024439026588186738 0 -0.0034488071475940437 0.024259330531975116 0 -0.0034488071475940437 0.024259330531975116 0 -0.0031134802070014716 0.023809517174155387 0 -0.003104666122829012 0.024076590684260098 0 -0.0037094579362079885 0.024175555088729695 0 -0.0034488071475940437 0.024259330531975116 0 -0.0031134802070014716 0.023809517174155387 0 -0.0032953469063754736 0.024434321219312327 0 -0.0034560816067428098 0.024513590814548257 0 -0.0034488071475940437 0.024259330531975116 0 -0.0032953469063754736 0.024434321219312327 0 -0.0034488071475940437 0.024259330531975116 0 -0.0032648594018826116 0.024268954326608382 0 -0.0034488071475940437 0.024259330531975116 0 -0.0032648594018826116 0.024268954326608382 0 -0.003104666122829012 0.024076590684260098 0 -0.0032648594018826116 0.024268954326608382 0 -0.0031122100553084317 0.024269947886677218 0 -0.003104666122829012 0.024076590684260098 0 -0.0032953469063754736 0.024434321219312327 0 -0.0032648594018826116 0.024268954326608382 0 -0.0031122100553084317 0.024269947886677218 0 -0.0031412218782059542 0.024500980217693407 0 -0.0032953469063754736 0.024434321219312327 0 -0.0031122100553084317 0.024269947886677218 0 -0.0040620444515180754 0.024526685728883384 0 -0.0040643181645933077 0.024385872131582054 0 -0.0042755829311176543 0.025273216542790234 0 -0.0043474674456697041 0.024921348256039106 0 -0.0043319121567611711 0.025099791460921089 0 -0.0043844918274767823 0.024257845875129292 0 -0.0043867753822368913 0.024287444837417994 0 -0.0044118617396287831 0.024271431327200402 0 -0.0043264254069331938 0.024545924038549431 0 -0.0040643181645933077 0.024385872131582054 0 -0.0043264254069331938 0.024545924038549431 0 -0.0043213141465095585 0.02456147465539605 0 -0.0045429556521495787 0.025020694108083507 0 -0.0043474674456697041 0.024921348256039106 0 -0.0043319121567611711 0.025099791460921089 0 -0.0045850316825933176 0.025008165028976546 0 -0.0044469012141987469 0.025246748229382995 0 -0.0043319121567611711 0.025099791460921089 0 -0.0042755829311176543 0.025273216542790234 0 -0.0044389695826763552 0.024553617472517785 0 -0.0040785456676248194 0.024732785974630463 0 -0.0038496680470962545 0.024537746883492504 0 -0.0044389695826763552 0.024553617472517785 0 -0.0040785456676248194 0.024732785974630463 0 -0.0038496680470962545 0.024537746883492504 0 -0.0040785456676248194 0.024732785974630463 0 -0.0038900259037302756 0.024804772510734902 0 -0.0040412595837812084 0.025001257643392921 0 -0.0040785456676248194 0.024732785974630463 0 -0.0038900259037302756 0.024804772510734902 0 -0.0038496680470962545 0.024537746883492504 0 -0.0037094579362079885 0.024175555088729695 0 -0.0044389695826763552 0.024553617472517785 0 -0.0037832433413287694 0.024225590232204008 0 -0.0040643181645933077 0.024385872131582054 0 -0.0036819965582231776 0.024089219917383543 0 -0.0042272642729470657 0.024361627760779596 0 -0.0040138136231956442 0.024107979522944939 0 -0.0040138136231956442 0.024107979522944939 0 -0.0039386588428310621 0.023991728191496371 0 -0.0043023307927604754 0.023944163059977819 0 -0.0036819965582231776 0.024089219917383543 0 -0.0040138136231956442 0.024107979522944939 0 -0.0039386588428310621 0.023991728191496371 0 -0.0040643181645933077 0.024385872131582054 0 -0.003988185499055324 0.024018342155796055 0 -0.0043867753822368913 0.024287444837417994 0 -0.0044118617396287831 0.024271431327200402 0 -0.0044037530712926539 0.02431550399131633 0 -0.0042272642729470657 0.024361627760779596 0 -0.0040138136231956442 0.024107979522944939 0 -0.0043023307927604754 0.023944163059977819 0 -0.0037219151594660434 0.023550915491373888 0 -0.0036153555426002809 0.023634080196591797 0 -0.0036469730911116976 0.023458481106571526 0 -0.0036242905589106886 0.023601436316324678 0 -0.0036520909329613061 0.023441101822125374 0 -0.0035042764224059199 0.023490643293313039 0 -0.003988185499055324 0.024018342155796055 0 -0.003976131316426287 0.023860494488706391 0 -0.003976131316426287 0.023860494488706391 0 -0.0039733029363480058 0.023802823588375165 0 -0.0036520909329613061 0.023441101822125374 0 -0.0035678988061378265 0.023321295349258447 0 -0.003677927610373628 0.023285225394360794 0 -0.0036520909329613061 0.023441101822125374 0 -0.0035462389020473528 0.023405578884194988 0 -0.0035678988061378265 0.023321295349258447 0 -0.0036520909329613061 0.023441101822125374 0 -0.0035462389020473528 0.023405578884194988 0 -0.0035042764224059199 0.023490643293313039 0 -0.0034598751112511318 0.023369303962455595 0 -0.0033886291350611335 0.023423880997257559 0 -0.0033593548348485537 0.023319947394895783 0 -0.0035462389020473528 0.023405578884194988 0 -0.0035678988061378265 0.023321295349258447 0 -0.0034598751112511318 0.023369303962455595 0 -0.0035462389020473528 0.023405578884194988 0 -0.0034598751112511318 0.023369303962455595 0 -0.0035042764224059199 0.023490643293313039 0 -0.0034598751112511318 0.023369303962455595 0 -0.0033886291350611335 0.023423880997257559 0 -0.0035042764224059199 0.023490643293313039 0 -0.003988185499055324 0.024018342155796055 0 -0.0035965002601940151 0.023869306503286836 0 -0.0033886291350611335 0.023423880997257559 0 -0.0035042764224059199 0.023490643293313039 0 -0.0033637466663991519 0.02354849157244969 0 -0.0036242905589106886 0.023601436316324678 0 -0.0035042764224059199 0.023490643293313039 0 -0.0033637466663991519 0.02354849157244969 0 -0.0039386588428310621 0.023991728191496371 0 -0.0043023307927604754 0.023944163059977819 0 -0.0037558428692919415 0.023826752003745285 0 -0.0036819965582231776 0.024089219917383543 0 -0.0039386588428310621 0.023991728191496371 0 -0.0037558428692919415 0.023826752003745285 0 -0.0035965002601940151 0.023869306503286836 0 -0.0032637926099910422 0.023764532107622128 0 -0.0036819965582231776 0.024089219917383543 0 -0.0037558428692919415 0.023826752003745285 0 -0.0034370346323964207 0.023856759137040977 0 -0.0037558428692919415 0.023826752003745285 0 -0.0034370346323964207 0.023856759137040977 0 -0.0031940765727628841 0.023702610446277382 0 -0.0036819965582231776 0.024089219917383543 0 -0.0034370346323964207 0.023856759137040977 0 -0.0031134802070014716 0.023809517174155387 0 -0.0033637466663991519 0.02354849157244969 0 -0.0030994252698469866 0.02351810568300575 0 -0.0031799326267841392 0.023443829804921244 0 -0.0037832433413287694 0.024225590232204008 0 -0.0036105043855261588 0.024131730013973687 0 -0.0034370346323964207 0.023856759137040977 0 -0.0031940765727628841 0.023702610446277382 0 -0.0031134802070014716 0.023809517174155387 0 -0.0031065095530641517 0.023325070631546936 0 -0.003265575550195278 0.023385953072432835 0 -0.0032743439939353944 0.023198389261948223 0 -0.0031799326267841392 0.023443829804921244 0 -0.0031065095530641517 0.023325070631546936 0 -0.0030112448858673597 0.023398521451824701 0 -0.0030994252698469866 0.02351810568300575 0 -0.0031799326267841392 0.023443829804921244 0 -0.0030112448858673597 0.023398521451824701 0 -0.0031799326267841392 0.023443829804921244 0 -0.0031065095530641517 0.023325070631546936 0 -0.003265575550195278 0.023385953072432835 0 -0.0033637466663991519 0.02354849157244969 0 -0.0031799326267841392 0.023443829804921244 0 -0.003265575550195278 0.023385953072432835 0 -0.0033886291350611335 0.023423880997257559 0 -0.0033637466663991519 0.02354849157244969 0 -0.003265575550195278 0.023385953072432835 0 -0.0033886291350611335 0.023423880997257559 0 -0.003265575550195278 0.023385953072432835 0 -0.0033593548348485537 0.023319947394895783 0 -0.0033593548348485537 0.023319947394895783 0 -0.0032743439939353944 0.023198389261948223 0 -0.0034601424942277224 0.023201100523459712 0 -0.003265575550195278 0.023385953072432835 0 -0.0033593548348485537 0.023319947394895783 0 -0.0032743439939353944 0.023198389261948223 0 -0.0032743439939353944 0.023198389261948223 0 -0.0033918470745552161 0.023047481350826671 0 -0.0034601424942277224 0.023201100523459712 0 -0.0031065095530641517 0.023325070631546936 0 -0.0032743439939353944 0.023198389261948223 0 -0.0030620134589731114 0.023139455416332104 0 -0.0032027258537437788 0.022970490618323781 0 -0.0032743439939353944 0.023198389261948223 0 -0.0030620134589731114 0.023139455416332104 0 -0.0032027258537437788 0.022970490618323781 0 -0.0030620134589731114 0.023139455416332104 0 -0.0029983425326252497 0.022962574767258999 0 -0.0032027258537437788 0.022970490618323781 0 -0.0032743439939353944 0.023198389261948223 0 -0.0033918470745552161 0.023047481350826671 0 -0.0035917964401183545 0.022973431458959602 0 -0.0033918470745552161 0.023047481350826671 0 -0.0034601424942277224 0.023201100523459712 0 -0.0035917964401183545 0.022973431458959602 0 -0.0039490839211504042 0.023130118739930761 0 -0.0037802657166543852 0.02362664436955272 0 -0.0035917964401183545 0.022973431458959602 0 -0.0036948863564667104 0.023183219313185448 0 -0.0035975575778028073 0.023187601175333781 0 -0.0035917964401183545 0.022973431458959602 0 -0.0035975575778028073 0.023187601175333781 0 -0.0034601424942277224 0.023201100523459712 0 -0.0038901133921371111 0.023445999488137637 0 -0.0039657444139062793 0.023579956435013118 0 -0.0036948863564667104 0.023183219313185448 0 -0.0035975575778028073 0.023187601175333781 0 -0.003677927610373628 0.023285225394360794 0 -0.0035678988061378265 0.023321295349258447 0 -0.0035975575778028073 0.023187601175333781 0 -0.003677927610373628 0.023285225394360794 0 -0.0035678988061378265 0.023321295349258447 0 -0.0035975575778028073 0.023187601175333781 0 -0.0034601424942277224 0.023201100523459712 0 -0.0035678988061378265 0.023321295349258447 0 -0.0034598751112511318 0.023369303962455595 0 -0.0034601424942277224 0.023201100523459712 0 -0.0034598751112511318 0.023369303962455595 0 -0.0033593548348485537 0.023319947394895783 0 -0.0034601424942277224 0.023201100523459712 0 -0.0020472914844989511 0.022831423223894542 0 -0.0024869157937765746 0.022998255978565176 0 -0.0021459104163691289 0.023317387482020478 0 -0.0020472914844989511 0.022831423223894542 0 -0.0021459104163691289 0.023317387482020478 0 -0.0016758587139268754 0.023157788351638103 0 -0.0020472914844989511 0.022831423223894542 0 -0.0023580619854977843 0.022412537359506123 0 -0.0024869157937765746 0.022998255978565176 0 -0.0020472914844989511 0.022831423223894542 0 -0.0016944774472158223 0.022678276441661691 0 -0.0016758587139268754 0.023157788351638103 0 -0.0012576933434769158 0.022841101617401601 0 -0.0016944774472158223 0.022678276441661691 0 -0.0016758587139268754 0.023157788351638103 0 -0.0020472914844989511 0.022831423223894542 0 -0.0016944774472158223 0.022678276441661691 0 -0.001957108114442808 0.022400032893876157 0 -0.0012576933434769158 0.022841101617401601 0 -0.0015642126049525478 0.022131350298533213 0 -0.0016944774472158223 0.022678276441661691 0 -0.0015642126049525478 0.022131350298533213 0 -0.0016944774472158223 0.022678276441661691 0 -0.001957108114442808 0.022400032893876157 0 -0.0021220343150956432 0.021920483217440372 0 -0.001957108114442808 0.022400032893876157 0 -0.0023580619854977843 0.022412537359506123 0 -0.0020472914844989511 0.022831423223894542 0 -0.001957108114442808 0.022400032893876157 0 -0.0023580619854977843 0.022412537359506123 0 -0.0023580619854977843 0.022412537359506123 0 -0.002851597904788796 0.022576652606938353 0 -0.0024869157937765746 0.022998255978565176 0 -0.0026394161264333346 0.020407277241103621 0 -0.0028341775972437091 0.021535889911268126 0 -0.0027179347961184697 0.021858288717105087 0 -0.0023580619854977843 0.022412537359506123 0 -0.002851597904788796 0.022576652606938353 0 -0.002799237473375322 0.022830229411293219 0 -0.0028780747084122295 0.023087663949838858 0 -0.0029983425326252497 0.022962574767258999 0 -0.0030620134589731114 0.023139455416332104 0 -0.0028780747084122295 0.023087663949838858 0 -0.0029983425326252497 0.022962574767258999 0 -0.0028341775972437091 0.021535889911268126 0 -0.0028960215814213927 0.021899235629946653 0 -0.0031065095530641517 0.023325070631546936 0 -0.0030620134589731114 0.023139455416332104 0 -0.0029220709520311342 0.023292449267900674 0 -0.0030620134589731114 0.023139455416332104 0 -0.0028780747084122295 0.023087663949838858 0 -0.0029220709520311342 0.023292449267900674 0 -0.002851597904788796 0.022576652606938353 0 -0.0024869157937765746 0.022998255978565176 0 -0.0029220709520311342 0.023292449267900674 0 -0.0024869157937765746 0.022998255978565176 0 -0.0025806244922355337 0.023493260487133724 0 -0.0021459104163691289 0.023317387482020478 0 -0.0024869157937765746 0.022998255978565176 0 -0.0025806244922355337 0.023493260487133724 0 -0.0029220709520311342 0.023292449267900674 0 -0.0025806244922355337 0.023493260487133724 0 -0.0029220709520311342 0.023292449267900674 0 -0.0030112448858673597 0.023398521451824701 0 -0.0030994252698469866 0.02351810568300575 0 -0.0025806244922355337 0.023493260487133724 0 -0.0030112448858673597 0.023398521451824701 0 -0.0031065095530641517 0.023325070631546936 0 -0.0029220709520311342 0.023292449267900674 0 -0.0030112448858673597 0.023398521451824701 0 -0.0031940765727628841 0.023702610446277382 0 -0.0025806244922355337 0.023493260487133724 0 -0.0029139864304597719 0.023770832355851635 0 -0.0032637926099910422 0.023764532107622128 0 -0.003096071270829713 0.023718531437081379 0 -0.0031940765727628841 0.023702610446277382 0 -0.0031134802070014716 0.023809517174155387 0 -0.0029139864304597719 0.023770832355851635 0 -0.0029139864304597719 0.023770832355851635 0 -0.0029521393639169937 0.023939533184330977 0 -0.0027228744655875907 0.02391233429424057 0 -0.0031134802070014716 0.023809517174155387 0 -0.0029139864304597719 0.023770832355851635 0 -0.0029521393639169937 0.023939533184330977 0 -0.0031134802070014716 0.023809517174155387 0 -0.0029521393639169937 0.023939533184330977 0 -0.003104666122829012 0.024076590684260098 0 -0.0025806244922355337 0.023493260487133724 0 -0.0027228744655875907 0.02391233429424057 0 -0.0023682880227513707 0.023954659088986949 0 -0.0025806244922355337 0.023493260487133724 0 -0.0023682880227513707 0.023954659088986949 0 -0.0021910336733234385 0.023673551804317062 0 -0.0025806244922355337 0.023493260487133724 0 -0.0029139864304597719 0.023770832355851635 0 -0.0027228744655875907 0.02391233429424057 0 -0.0023682880227513707 0.023954659088986949 0 -0.0021910336733234385 0.023673551804317062 0 -0.0020144839623402536 0.023983240975744616 0 -0.0021910336733234385 0.023673551804317062 0 -0.0018248601976079747 0.023568694012968738 0 -0.0020144839623402536 0.023983240975744616 0 -0.0025806244922355337 0.023493260487133724 0 -0.0021910336733234385 0.023673551804317062 0 -0.0021459104163691289 0.023317387482020478 0 -0.0021910336733234385 0.023673551804317062 0 -0.0021459104163691289 0.023317387482020478 0 -0.0018248601976079747 0.023568694012968738 0 -0.0021459104163691289 0.023317387482020478 0 -0.0016758587139268754 0.023157788351638103 0 -0.0018248601976079747 0.023568694012968738 0 -0.0016758587139268754 0.023157788351638103 0 -0.0015295647874858916 0.023500733263477156 0 -0.0018248601976079747 0.023568694012968738 0 -0.0013441516311418792 0.023302811194533025 0 -0.0016758587139268754 0.023157788351638103 0 -0.0015295647874858916 0.023500733263477156 0 -0.0015295647874858916 0.023500733263477156 0 -0.0018248601976079747 0.023568694012968738 0 -0.0015869171077644265 0.023782228700762267 0 -0.0015869171077644265 0.023782228700762267 0 -0.0016971197881993248 0.024067547566831667 0 -0.0020144839623402536 0.023983240975744616 0 -0.0018248601976079747 0.023568694012968738 0 -0.0015869171077644265 0.023782228700762267 0 -0.0020144839623402536 0.023983240975744616 0 -0.0016971197881993248 0.024067547566831667 0 -0.0020144839623402536 0.023983240975744616 0 -0.002110237909366001 0.024470054814239764 0 -0.0016971197881993248 0.024067547566831667 0 -0.002110237909366001 0.024470054814239764 0 -0.0016615926757173069 0.024432950151758205 0 -0.0023682880227513707 0.023954659088986949 0 -0.002110237909366001 0.024470054814239764 0 -0.002576482666740567 0.024250969658261068 0 -0.0023682880227513707 0.023954659088986949 0 -0.0020144839623402536 0.023983240975744616 0 -0.002110237909366001 0.024470054814239764 0 -0.0029391489695637595 0.025081497460993474 0 -0.0030796521840957842 0.02513528228702603 0 -0.002110237909366001 0.024470054814239764 0 -0.0029227517198955927 0.024589455099273141 0 -0.0025607683396333364 0.025007774969988104 0 -0.002110237909366001 0.024470054814239764 0 -0.0021097040086133318 0.024980015306880887 0 -0.0025607683396333364 0.025007774969988104 0 -0.002110237909366001 0.024470054814239764 0 -0.0017803839341248755 0.024809659461628362 0 -0.0021097040086133318 0.024980015306880887 0 -0.0017803839341248755 0.024809659461628362 0 -0.0015567506526775587 0.024687636604885502 0 -0.0016615926757173069 0.024432950151758205 0 -0.0014869250517295777 0.024920034000972358 0 -0.0017803839341248755 0.024809659461628362 0 -0.0015567506526775587 0.024687636604885502 0 -0.002110237909366001 0.024470054814239764 0 -0.0017803839341248755 0.024809659461628362 0 -0.0016615926757173069 0.024432950151758205 0 -0.0031412218782059542 0.024500980217693407 0 -0.0029780645252946653 0.024366405622735021 0 -0.0031122100553084317 0.024269947886677218 0 -0.0029780645252946653 0.024366405622735021 0 -0.0031122100553084317 0.024269947886677218 0 -0.0028737919485413515 0.024165365036868856 0 -0.0029521393639169937 0.023939533184330977 0 -0.003104666122829012 0.024076590684260098 0 -0.0028737919485413515 0.024165365036868856 0 -0.0031122100553084317 0.024269947886677218 0 -0.003104666122829012 0.024076590684260098 0 -0.0028737919485413515 0.024165365036868856 0 -0.0029521393639169937 0.023939533184330977 0 -0.0027228744655875907 0.02391233429424057 0 -0.0028737919485413515 0.024165365036868856 0 -0.0029780645252946653 0.024366405622735021 0 -0.0028737919485413515 0.024165365036868856 0 -0.002829217653148179 0.024399462362573357 0 -0.0028737919485413515 0.024165365036868856 0 -0.002576482666740567 0.024250969658261068 0 -0.002829217653148179 0.024399462362573357 0 -0.0027228744655875907 0.02391233429424057 0 -0.0028737919485413515 0.024165365036868856 0 -0.002576482666740567 0.024250969658261068 0 -0.0027228744655875907 0.02391233429424057 0 -0.0023682880227513707 0.023954659088986949 0 -0.002576482666740567 0.024250969658261068 0 -0.002110237909366001 0.024470054814239764 0 -0.002576482666740567 0.024250969658261068 0 -0.0025675894901488485 0.024583787738375697 0 -0.002576482666740567 0.024250969658261068 0 -0.0025675894901488485 0.024583787738375697 0 -0.002829217653148179 0.024399462362573357 0 -0.0030796521840957842 0.02513528228702603 0 -0.0033868885850866738 0.025274509001433108 0 -0.0025675894901488485 0.024583787738375697 0 -0.0029480674491910619 0.02459559686173541 0 -0.0030303102837500912 0.02470901471668192 0 -0.0025675894901488485 0.024583787738375697 0 -0.002829217653148179 0.024399462362573357 0 -0.0029480674491910619 0.02459559686173541 0 -0.0029227517198955927 0.024589455099273141 0 -0.0037166620193395668 0.02476156294078748 0 -0.003365544010588307 0.024960081113727609 0 -0.002829217653148179 0.024399462362573357 0 -0.0029480674491910619 0.02459559686173541 0 -0.0030044310867146018 0.024492923359618082 0 -0.0032117436474852269 0.024659243696856348 0 -0.0030288144989506945 0.024718125346967483 0 -0.0030736574665374723 0.024595802487771178 0 -0.0033796157680186724 0.025264415709331852 0 -0.0033868885850866738 0.025274509001433108 0 -0.0029480674491910619 0.02459559686173541 0 -0.0030288144989506945 0.024718125346967483 0 -0.0030736574665374723 0.024595802487771178 0 -0.0031412218782059542 0.024500980217693407 0 -0.0030736574665374723 0.024595802487771178 0 -0.0030044310867146018 0.024492923359618082 0 -0.0029480674491910619 0.02459559686173541 0 -0.0030736574665374723 0.024595802487771178 0 -0.0030044310867146018 0.024492923359618082 0 -0.0029780645252946653 0.024366405622735021 0 -0.002829217653148179 0.024399462362573357 0 -0.0030044310867146018 0.024492923359618082 0 -0.0031412218782059542 0.024500980217693407 0 -0.0029780645252946653 0.024366405622735021 0 -0.0030044310867146018 0.024492923359618082 0 -0.0037166620193395668 0.02476156294078748 0 -0.0036660050294602662 0.025323884306085145 0 -0.003365544010588307 0.024960081113727609 0 -0.0036660050294602662 0.025323884306085145 0 -0.003365544010588307 0.024960081113727609 0 -0.0031565259356012513 0.025166647624249271 0 -0.0036660050294602662 0.025323884306085145 0 -0.0031565259356012513 0.025166647624249271 0 -0.0033886492385814255 0.025603601613129145 0 -0.0031565259356012513 0.025166647624249271 0 -0.0028129582771800731 0.025495658463119145 0 -0.0033886492385814255 0.025603601613129145 0 -0.0029227517198955927 0.024589455099273141 0 -0.003365544010588307 0.024960081113727609 0 -0.0031565259356012513 0.025166647624249271 0 -0.0029227517198955927 0.024589455099273141 0 -0.0031565259356012513 0.025166647624249271 0 -0.0025607683396333364 0.025007774969988104 0 -0.0031565259356012513 0.025166647624249271 0 -0.0028129582771800731 0.025495658463119145 0 -0.0025607683396333364 0.025007774969988104 0 -0.0028129582771800731 0.025495658463119145 0 -0.0031986803851852697 0.025974918389630831 0 -0.0025402070009534483 0.026098628168119194 0 -0.0028129582771800731 0.025495658463119145 0 -0.0031986803851852697 0.025974918389630831 0 -0.0033886492385814255 0.025603601613129145 0 -0.0031986803851852697 0.025974918389630831 0 -0.0033886492385814255 0.025603601613129145 0 -0.0037287204354761109 0.026093548621355416 0 -0.0033886492385814255 0.025603601613129145 0 -0.0038523759330210071 0.025737738269393472 0 -0.0037287204354761109 0.026093548621355416 0 -0.0036660050294602662 0.025323884306085145 0 -0.0033886492385814255 0.025603601613129145 0 -0.0038523759330210071 0.025737738269393472 0 -0.0018734513653870758 0.025200630849604517 0 -0.0016078969258441782 0.025229687776513892 0 -0.0019192898913308395 0.025674550937270495 0 -0.0018734513653870758 0.025200630849604517 0 -0.0022217719661102712 0.02540390381390123 0 -0.0019192898913308395 0.025674550937270495 0 -0.0018734513653870758 0.025200630849604517 0 -0.0016078969258441782 0.025229687776513892 0 -0.0016806452426985725 0.025040998715304554 0 -0.0014869250517295777 0.024920034000972358 0 -0.0016078969258441782 0.025229687776513892 0 -0.0016806452426985725 0.025040998715304554 0 -0.0014869250517295777 0.024920034000972358 0 -0.0017803839341248755 0.024809659461628362 0 -0.0016806452426985725 0.025040998715304554 0 -0.0017803839341248755 0.024809659461628362 0 -0.0018734513653870758 0.025200630849604517 0 -0.0016806452426985725 0.025040998715304554 0 -0.0017803839341248755 0.024809659461628362 0 -0.0018734513653870758 0.025200630849604517 0 -0.0021097040086133318 0.024980015306880887 0 -0.0021097040086133318 0.024980015306880887 0 -0.0025607683396333364 0.025007774969988104 0 -0.0022217719661102712 0.02540390381390123 0 -0.0028129582771800731 0.025495658463119145 0 -0.0025607683396333364 0.025007774969988104 0 -0.0022217719661102712 0.02540390381390123 0 -0.0018734513653870758 0.025200630849604517 0 -0.0021097040086133318 0.024980015306880887 0 -0.0022217719661102712 0.02540390381390123 0 -0.0029685393572067907 0.023394077347388326 0 -0.002894716402650409 0.023062069403004058 0 -0.0011214150634060941 0.018012867100450587 0 -0.0011591685609711154 0.018623581627522662 0 -0.0018687036828435172 0.018385787088900325 0 -0.0028129582771800731 0.025495658463119145 0 -0.0022217719661102712 0.02540390381390123 0 -0.0025402070009534483 0.026098628168119194 0 -0.0023788703428922033 0.021805268248603581 0 -0.002894716402650409 0.023062069403004058 0 -0.0022217719661102712 0.02540390381390123 0 -0.0019192898913308395 0.025674550937270495 0 -0.0024741173654838503 0.025967770069892239 0 -0.00045724976395117057 0.018069070782971621 0 -0.0011214150634060941 0.018012867100450587 0 -0.00058051759089928264 0.018415069567656935 0 -0.00045724976395117057 0.018069070782971621 0 -0.0005338071287294394 0.01781156161751242 0 -0.0011214150634060941 0.018012867100450587 0 -0.0021221281538085076 0.020643352604945119 0 -0.0023788703428922033 0.021805268248603581 0 -0.00041318846825891763 0.017661279992091904 0 -0.0005338071287294394 0.01781156161751242 0 -0.0011214150634060941 0.018012867100450587 0 -0.0011214150634060941 0.018012867100450587 0 -0.0011591685609711154 0.018623581627522662 0 -0.00058051759089928264 0.018415069567656935 0 -0.0013479723812742698 0.025369169262204307 0 -0.0016078969258441782 0.025229687776513892 0 -0.0019192898913308395 0.025674550937270495 0 -0.0011591685609711154 0.018623581627522662 0 -0.00058051759089928264 0.018415069567656935 0 -0.00017563125873206226 0.018880483526143139 0 -0.0011591685609711154 0.018623581627522662 0 -0.001220693944772107 0.0192529609210715 0 -0.00017563125873206226 0.018880483526143139 0 -0.0018687036828435172 0.018385787088900325 0 -0.0016639865342015776 0.019052749763017022 0 -0.0023504892859263853 0.019362264740037636 0 -0.0011591685609711154 0.018623581627522662 0 -0.0018687036828435172 0.018385787088900325 0 -0.0016639865342015776 0.019052749763017022 0 -0.0011591685609711154 0.018623581627522662 0 -0.0016639865342015776 0.019052749763017022 0 -0.001220693944772107 0.0192529609210715 0 -0.0016639865342015776 0.019052749763017022 0 -0.0017412532339274229 0.019667214137444947 0 -0.001220693944772107 0.0192529609210715 0 -0.0016639865342015776 0.019052749763017022 0 -0.0017412532339274229 0.019667214137444947 0 -0.0023504892859263853 0.019362264740037636 0 -0.001220693944772107 0.0192529609210715 0 -0.00084550863836520046 0.019907314067556345 0 -0.00017563125873206226 0.018880483526143139 0 -0.0017412532339274229 0.019667214137444947 0 -0.001220693944772107 0.0192529609210715 0 -0.00084550863836520046 0.019907314067556345 0 -0.0037287204354761109 0.026093548621355416 0 -0.0035080855710685043 0.026572285281771673 0 -0.0042160342477310982 0.026291071335396918 0 -0.0031986803851852697 0.025974918389630831 0 -0.0037287204354761109 0.026093548621355416 0 -0.0035080855710685043 0.026572285281771673 0 -0.0051061975864229022 0.027500791267351249 0 -0.0045923639913153158 0.027193859036715808 0 -0.0049307065343616677 0.027088261871081629 0 -0.002894716402650409 0.023062069403004058 0 -0.003168793069856627 0.023160402435890029 0 -0.0031986803851852697 0.025974918389630831 0 -0.0025402070009534483 0.026098628168119194 0 -0.0035080855710685043 0.026572285281771673 0 -0.002894716402650409 0.023062069403004058 0 -0.0039720246428286664 0.024317314934791133 0 -0.0017412532339274229 0.019667214137444947 0 -0.0023504892859263853 0.019362264740037636 0 -0.0021267816389507182 0.020094705024681393 0 -0.0045923639913153158 0.027193859036715808 0 -0.0049307065343616677 0.027088261871081629 0 -0.0045551150743612222 0.026965567411967616 0 -0.0049307065343616677 0.027088261871081629 0 -0.0045551150743612222 0.026965567411967616 0 -0.0045820729322612391 0.026726186244383134 0 -0.0045551150743612222 0.026965567411967616 0 -0.0045123486815605339 0.026858493436804579 0 -0.0044683467510524474 0.026927781185952886 0 -0.0045923639913153158 0.027193859036715808 0 -0.0045551150743612222 0.026965567411967616 0 -0.0044683467510524474 0.026927781185952886 0 -0.0045820729322612391 0.026726186244383134 0 -0.0048110785334503211 0.026108535120424048 0 -0.0039621902416978813 0.024872591300805359 0 -0.0045820729322612391 0.026726186244383134 0 -0.0044763425242453081 0.027047443613645243 0 -0.0045224265863058272 0.026900308046546865 0 -0.0045123486815605339 0.026858493436804579 0 -0.0045820729322612391 0.026726186244383134 0 -0.0045224265863058272 0.026900308046546865 0 -0.0045551150743612222 0.026965567411967616 0 -0.0045123486815605339 0.026858493436804579 0 -0.0045820729322612391 0.026726186244383134 0 -0.003168793069856627 0.023160402435890029 0 -0.0033427866315680716 0.023186987754374843 0 -0.0049307065343616677 0.027088261871081629 0 -0.0045820729322612391 0.026726186244383134 0 -0.0048110785334503211 0.026108535120424048 0 -0.0023504892859263853 0.019362264740037636 0 -0.0028793534585420206 0.020442990855718143 0 -0.0021267816389507182 0.020094705024681393 0 -0.0028793534585420206 0.020442990855718143 0 -0.0021267816389507182 0.020094705024681393 0 -0.0021509677854051421 0.020647917220900484 0 -0.0021509677854051421 0.020647917220900484 0 -0.0023407446954849653 0.021325109504094109 0 -0.0025892006080012781 0.020842128346081464 0 -0.0021509677854051421 0.020647917220900484 0 -0.0023407446954849653 0.021325109504094109 0 -0.0016141314303294843 0.021110226628783868 0 -0.0023407446954849653 0.021325109504094109 0 -0.0025892006080012781 0.020842128346081464 0 -0.0028416755682833892 0.021280447381272351 0 -0.0028793534585420206 0.020442990855718143 0 -0.0025892006080012781 0.020842128346081464 0 -0.0028416755682833892 0.021280447381272351 0 -0.0028793534585420206 0.020442990855718143 0 -0.0021509677854051421 0.020647917220900484 0 -0.0025892006080012781 0.020842128346081464 0 -0.0048110785334503211 0.026108535120424048 0 -0.00430145298313274 0.024440745420917755 0 -0.0039621902416978813 0.024872591300805359 0 -0.004539765198227237 0.026178283032084564 0 -0.0044807297756338949 0.026003368779802406 0 -0.0033427866315680716 0.023186987754374843 0 -0.0034293202752188239 0.023165096730935603 0 -0.0028793534585420206 0.020442990855718143 0 -0.0028416755682833892 0.021280447381272351 0 -0.0034431499829335743 0.021673435351739614 0 -0.00084550863836520046 0.019907314067556345 0 -0.00094215907507042408 0.020809273005321927 0 -6.0434557908409972e-05 0.020190686712040582 0 -0.00084550863836520046 0.019907314067556345 0 -0.0015384466470178616 0.020372463963275727 0 -0.00094215907507042408 0.020809273005321927 0 -0.0017412532339274229 0.019667214137444947 0 -0.00084550863836520046 0.019907314067556345 0 -0.0015384466470178616 0.020372463963275727 0 -0.0017412532339274229 0.019667214137444947 0 -0.0021267816389507182 0.020094705024681393 0 -0.0015384466470178616 0.020372463963275727 0 -0.0021267816389507182 0.020094705024681393 0 -0.0021509677854051421 0.020647917220900484 0 -0.0015384466470178616 0.020372463963275727 0 -0.0016141314303294843 0.021110226628783868 0 -0.00094215907507042408 0.020809273005321927 0 -0.0012625318084901812 0.021845399645125625 0 -0.0015384466470178616 0.020372463963275727 0 -0.0016141314303294843 0.021110226628783868 0 -0.00094215907507042408 0.020809273005321927 0 -0.0021509677854051421 0.020647917220900484 0 -0.0015384466470178616 0.020372463963275727 0 -0.0016141314303294843 0.021110226628783868 0 -0.00094215907507042408 0.020809273005321927 0 -0.0012625318084901812 0.021845399645125625 0 -0.00040357405022980536 0.021511385536555176 0 -0.00071310219747027902 0.022461214528694744 0 -0.0012625318084901812 0.021845399645125625 0 -0.00040357405022980536 0.021511385536555176 0 -0.00071310219747027902 0.022461214528694744 0 -0.000503830908261742 0.023243156860508724 0 -0.0014447869224961198 0.023161815025225449 0 -0.00071310219747027902 0.022461214528694744 0 -0.0012625318084901812 0.021845399645125625 0 -0.0014447869224961198 0.023161815025225449 0 -0.0012625318084901812 0.021845399645125625 0 -0.0020347534262917149 0.022087622110073556 0 -0.0014447869224961198 0.023161815025225449 0 -0.0020347534262917149 0.022087622110073556 0 -0.002291692908747246 0.02285244433426778 0 -0.0014447869224961198 0.023161815025225449 0 -0.0016141314303294843 0.021110226628783868 0 -0.0012625318084901812 0.021845399645125625 0 -0.0020347534262917149 0.022087622110073556 0 -0.0023407446954849653 0.021325109504094109 0 -0.0016141314303294843 0.021110226628783868 0 -0.0020347534262917149 0.022087622110073556 0 -0.0023407446954849653 0.021325109504094109 0 -0.0026898615483714606 0.021835389472838331 0 -0.0020347534262917149 0.022087622110073556 0 -0.0023407446954849653 0.021325109504094109 0 -0.0028416755682833892 0.021280447381272351 0 -0.0026898615483714606 0.021835389472838331 0 -0.0026898615483714606 0.021835389472838331 0 -0.0020347534262917149 0.022087622110073556 0 -0.0026686094335536966 0.022466565238155746 0 -0.0028416755682833892 0.021280447381272351 0 -0.0026898615483714606 0.021835389472838331 0 -0.0030015708112752695 0.021736733042165737 0 -0.0028416755682833892 0.021280447381272351 0 -0.0034431499829335743 0.021673435351739614 0 -0.0030015708112752695 0.021736733042165737 0 -0.0034431499829335743 0.021673435351739614 0 -0.0030015708112752695 0.021736733042165737 0 -0.0030455062765566607 0.022176008481317025 0 -0.0026898615483714606 0.021835389472838331 0 -0.0030015708112752695 0.021736733042165737 0 -0.0030455062765566607 0.022176008481317025 0 -0.0026898615483714606 0.021835389472838331 0 -0.0030455062765566607 0.022176008481317025 0 -0.0026686094335536966 0.022466565238155746 0 -0.0034431499829335743 0.021673435351739614 0 -0.0030455062765566607 0.022176008481317025 0 -0.0033877748989291851 0.022617553538073924 0 -0.0034431499829335743 0.021673435351739614 0 -0.0033877748989291851 0.022617553538073924 0 -0.0038759985724196692 0.02323567926846886 0 -0.0033877748989291851 0.022617553538073924 0 -0.0031208739629300522 0.022752769147360696 0 -0.0033590200658643083 0.02321885956509662 0 -0.0030455062765566607 0.022176008481317025 0 -0.0031208739629300522 0.022752769147360696 0 -0.0026686094335536966 0.022466565238155746 0 -0.0031208739629300522 0.022752769147360696 0 -0.0028622636270735436 0.023090507064638256 0 -0.0026686094335536966 0.022466565238155746 0 -0.0030455062765566607 0.022176008481317025 0 -0.0033877748989291851 0.022617553538073924 0 -0.0031208739629300522 0.022752769147360696 0 -0.0031208739629300522 0.022752769147360696 0 -0.0028622636270735436 0.023090507064638256 0 -0.0033590200658643083 0.02321885956509662 0 -0.0028622636270735436 0.023090507064638256 0 -0.0033590200658643083 0.02321885956509662 0 -0.003197138953182339 0.02368333280237489 0 -0.0033877748989291851 0.022617553538073924 0 -0.0033590200658643083 0.02321885956509662 0 -0.0038759985724196692 0.02323567926846886 0 -0.002291692908747246 0.02285244433426778 0 -0.0025005854819073556 0.023553274750751016 0 -0.0014447869224961198 0.023161815025225449 0 -0.0020347534262917149 0.022087622110073556 0 -0.0026686094335536966 0.022466565238155746 0 -0.002291692908747246 0.02285244433426778 0 -0.0028622636270735436 0.023090507064638256 0 -0.0026686094335536966 0.022466565238155746 0 -0.002291692908747246 0.02285244433426778 0 -0.0028622636270735436 0.023090507064638256 0 -0.002291692908747246 0.02285244433426778 0 -0.0025005854819073556 0.023553274750751016 0 -0.0020329674814710784 0.024044499161322119 0 -0.0025005854819073556 0.023553274750751016 0 -0.00308604496430314 0.024577533118335979 0 -0.0020329674814710784 0.024044499161322119 0 -0.0025005854819073556 0.023553274750751016 0 -0.0014447869224961198 0.023161815025225449 0 -0.0025005854819073556 0.023553274750751016 0 -0.003197138953182339 0.02368333280237489 0 -0.00308604496430314 0.024577533118335979 0 -0.003197138953182339 0.02368333280237489 0 -0.00308604496430314 0.024577533118335979 0 -0.0038324852704808474 0.024082243990095856 0 -0.0033590200658643083 0.02321885956509662 0 -0.003197138953182339 0.02368333280237489 0 -0.0036890066450801463 0.023544195664891653 0 -0.0028622636270735436 0.023090507064638256 0 -0.0025005854819073556 0.023553274750751016 0 -0.003197138953182339 0.02368333280237489 0 -0.0020329674814710784 0.024044499161322119 0 -0.0014583161586474206 0.024564462583182851 0 -0.0023177007654327339 0.025281618066146271 0 -0.0020329674814710784 0.024044499161322119 0 -0.00308604496430314 0.024577533118335979 0 -0.0023177007654327339 0.025281618066146271 0 -0.0014583161586474206 0.024564462583182851 0 -0.00054382839570473569 0.024178603571815522 0 -0.0014447869224961198 0.023161815025225449 0 -0.0014583161586474206 0.024564462583182851 0 -0.00054382839570473569 0.024178603571815522 0 -0.0013420243454489854 0.025772728629719917 0 -0.00054382839570473569 0.024178603571815522 0 -0.000503830908261742 0.023243156860508724 0 -0.0014447869224961198 0.023161815025225449 0 -0.0020329674814710784 0.024044499161322119 0 -0.0014583161586474206 0.024564462583182851 0 -0.0014447869224961198 0.023161815025225449 0 -0.004654155028412708 0.027125527989186802 0 -0.0046664170975419701 0.027050418025743483 0 -0.0048001528018721974 0.02708605706502324 0 -0.004594484833532345 0.027117963763007954 0 -0.0045970305716975298 0.027047130652795251 0 -0.0046664170975419701 0.027050418025743483 0 -0.004654155028412708 0.027125527989186802 0 -0.004594484833532345 0.027117963763007954 0 -0.0046664170975419701 0.027050418025743483 0 -0.004654155028412708 0.027125527989186802 0 -0.004594484833532345 0.027117963763007954 0 -0.0045836558149114524 0.02715165794367546 0 -0.004594484833532345 0.027117963763007954 0 -0.0045334348002641096 0.027136799311391985 0 -0.0045836558149114524 0.02715165794367546 0 -0.004594484833532345 0.027117963763007954 0 -0.0045334348002641096 0.027136799311391985 0 -0.0045333252140510828 0.027099604404617145 0 -0.0045334348002641096 0.027136799311391985 0 -0.0045333252140510828 0.027099604404617145 0 -0.0044754945652881071 0.027133401579000599 0 -0.004594484833532345 0.027117963763007954 0 -0.0045333252140510828 0.027099604404617145 0 -0.0045970305716975298 0.027047130652795251 0 -0.0045333252140510828 0.027099604404617145 0 -0.0045970305716975298 0.027047130652795251 0 -0.0045582843320347063 0.027008263069216561 0 -0.0045970305716975298 0.027047130652795251 0 -0.0045582843320347063 0.027008263069216561 0 -0.0046282408822127226 0.026946752588111647 0 -0.0045333252140510828 0.027099604404617145 0 -0.0045582843320347063 0.027008263069216561 0 -0.004501087037534211 0.027079702008851826 0 -0.0045582843320347063 0.027008263069216561 0 -0.0045655324890864863 0.026936445659248864 0 -0.0046047388206328062 0.026892198146205283 0 -0.0045582843320347063 0.027008263069216561 0 -0.0045213510212946395 0.0270258675324032 0 -0.0045655324890864863 0.026936445659248864 0 -0.0045582843320347063 0.027008263069216561 0 -0.0045213510212946395 0.0270258675324032 0 -0.004501087037534211 0.027079702008851826 0 -0.0045582843320347063 0.027008263069216561 0 -0.0046282408822127226 0.026946752588111647 0 -0.0046047388206328062 0.026892198146205283 0 -0.0047012109574368199 0.026881701522479536 0 -0.0046664170975419701 0.027050418025743483 0 -0.0048001528018721974 0.02708605706502324 0 -0.0046282408822127226 0.026946752588111647 0 -0.0047012109574368199 0.026881701522479536 0 -0.0046789898252564688 0.026752183131954512 0 -0.0047012109574368199 0.026881701522479536 0 -0.0048001528018721974 0.02708605706502324 0 -0.0048843451524187556 0.026438109292887861 0 -0.0046282408822127226 0.026946752588111647 0 -0.0047012109574368199 0.026881701522479536 0 -0.0046664170975419701 0.027050418025743483 0 -0.0045970305716975298 0.027047130652795251 0 -0.0046282408822127226 0.026946752588111647 0 -0.0046664170975419701 0.027050418025743483 0 -0.0046464017441460821 0.024449392434283273 0 -0.0039807924448516325 0.025026156009610702 0 -0.0043869396514361874 0.025725753859778263 0 -0.0044672858091066286 0.025741043173822923 0 -0.0045036779453207524 0.025791219239583524 0 -0.0046464017441460821 0.024449392434283273 0 -0.0039807924448516325 0.025026156009610702 0 -0.0038324852704808474 0.024082243990095856 0 -0.00308604496430314 0.024577533118335979 0 -0.0039807924448516325 0.025026156009610702 0 -0.0037162097636746771 0.025654752837944817 0 -0.00308604496430314 0.024577533118335979 0 -0.0039807924448516325 0.025026156009610702 0 -0.0038324852704808474 0.024082243990095856 0 -0.0046464017441460821 0.024449392434283273 0 -0.0038324852704808474 0.024082243990095856 0 -0.0038383590270710615 0.023212664710496454 0 -0.0038324852704808474 0.024082243990095856 0 -0.0036890066450801463 0.023544195664891653 0 -0.0038383590270710615 0.023212664710496454 0 -0.003197138953182339 0.02368333280237489 0 -0.0038324852704808474 0.024082243990095856 0 -0.0036890066450801463 0.023544195664891653 0 -0.0044672858091066286 0.025741043173822923 0 -0.0044271815397702377 0.025761744383297831 0 -0.0048001528018721974 0.02708605706502324 0 -0.0046610474658794927 0.027136583047800148 0 -0.0046039729688569699 0.027149370283989806 0 -0.004654155028412708 0.027125527989186802 0 -0.0048001528018721974 0.02708605706502324 0 -0.0046610474658794927 0.027136583047800148 0 -0.004654155028412708 0.027125527989186802 0 -0.0046610474658794927 0.027136583047800148 0 -0.0046225444141940828 0.027137757742207919 0 -0.0046610474658794927 0.027136583047800148 0 -0.0046140708346400789 0.027127615153615656 0 -0.0046039729688569699 0.027149370283989806 0 -0.0046610474658794927 0.027136583047800148 0 -0.0046140708346400789 0.027127615153615656 0 -0.0046225444141940828 0.027137757742207919 0 -0.00430145298313274 0.024440745420917755 0 -0.0038759985724196692 0.02323567926846886 0 -0.0038383590270710615 0.023212664710496454 0 -0.0036890066450801463 0.023544195664891653 0 -0.0038759985724196692 0.02323567926846886 0 -0.0038383590270710615 0.023212664710496454 0 -0.0033590200658643083 0.02321885956509662 0 -0.0036890066450801463 0.023544195664891653 0 -0.0038759985724196692 0.02323567926846886 0 -0.00430145298313274 0.024440745420917755 0 -0.0038383590270710615 0.023212664710496454 0 -0.0039621902416978813 0.024872591300805359 0 -0.0034293202752188239 0.023165096730935603 0 -0.003457122713226912 0.023160568112699131 0 -0.0046039729688569699 0.027149370283989806 0 -0.0045739739013952252 0.027091635857349916 0 -0.0044763425242453081 0.027047443613645243 0 -0.0044271815397702377 0.025761744383297831 0 -0.0044807297756338949 0.026003368779802406 0 -0.0046140708346400789 0.027127615153615656 0 -0.0046039729688569699 0.027149370283989806 0 -0.0045739739013952252 0.027091635857349916 0 -0.0046225444141940828 0.027137757742207919 0 -0.0045958285147901616 0.027108831621070365 0 -0.0045942280749105002 0.027119545904113321 0 -0.0046140708346400789 0.027127615153615656 0 -0.0046225444141940828 0.027137757742207919 0 -0.0045958285147901616 0.027108831621070365 0 -0.0046140708346400789 0.027127615153615656 0 -0.0045739739013952252 0.027091635857349916 0 -0.0045958285147901616 0.027108831621070365 0 -0.0045739739013952252 0.027091635857349916 0 -0.0045958285147901616 0.027108831621070365 0 -0.0045732309011462394 0.02706822125993617 0 -0.0045958285147901616 0.027108831621070365 0 -0.0045830898475284374 0.027097050575762678 0 -0.0045732309011462394 0.02706822125993617 0 -0.0045958285147901616 0.027108831621070365 0 -0.0045942280749105002 0.027119545904113321 0 -0.0045830898475284374 0.027097050575762678 0 -0.0045942280749105002 0.027119545904113321 0 -0.0045907341311861201 0.027138179344730898 0 -0.0045789852916871751 0.027120270744661171 0 -0.0045942280749105002 0.027119545904113321 0 -0.0045789852916871751 0.027120270744661171 0 -0.0045830898475284374 0.027097050575762678 0 -0.0045907341311861201 0.027138179344730898 0 -0.0045694018211162035 0.027153942031808959 0 -0.0045643860233415641 0.027145756045384939 0 -0.0045907341311861201 0.027138179344730898 0 -0.0045643860233415641 0.027145756045384939 0 -0.0045789852916871751 0.027120270744661171 0 -0.0045907341311861201 0.027138179344730898 0 -0.0045836558149114524 0.02715165794367546 0 -0.0045694018211162035 0.027153942031808959 0 -0.0046225444141940828 0.027137757742207919 0 -0.0045942280749105002 0.027119545904113321 0 -0.0045907341311861201 0.027138179344730898 0 -0.004654155028412708 0.027125527989186802 0 -0.0046225444141940828 0.027137757742207919 0 -0.0045836558149114524 0.02715165794367546 0 -0.0046225444141940828 0.027137757742207919 0 -0.0045907341311861201 0.027138179344730898 0 -0.0045836558149114524 0.02715165794367546 0 -0.0045836558149114524 0.02715165794367546 0 -0.0045422045027271431 0.027174504654219975 0 -0.0045143235690092882 0.027158834083718966 0 -0.0045334348002641096 0.027136799311391985 0 -0.0045836558149114524 0.02715165794367546 0 -0.0045143235690092882 0.027158834083718966 0 -0.0045836558149114524 0.02715165794367546 0 -0.0045422045027271431 0.027174504654219975 0 -0.0045694018211162035 0.027153942031808959 0 -0.0045422045027271431 0.027174504654219975 0 -0.0045694018211162035 0.027153942031808959 0 -0.0045643860233415641 0.027145756045384939 0 -0.0045422045027271431 0.027174504654219975 0 -0.0045643860233415641 0.027145756045384939 0 -0.0045335086527475612 0.027173467482415847 0 -0.0045422045027271431 0.027174504654219975 0 -0.0045335086527475612 0.027173467482415847 0 -0.0045099975570534545 0.027233340010498062 0 -0.0045335086527475612 0.027173467482415847 0 -0.0045146005459135987 0.027131474840102591 0 -0.0045498162013074351 0.02712654154773585 0 -0.0045335086527475612 0.027173467482415847 0 -0.0045146005459135987 0.027131474840102591 0 -0.0045099975570534545 0.027233340010498062 0 -0.0045146005459135987 0.027131474840102591 0 -0.0045498162013074351 0.02712654154773585 0 -0.0045653622686898983 0.027091030288755771 0 -0.0045643860233415641 0.027145756045384939 0 -0.0045335086527475612 0.027173467482415847 0 -0.0045498162013074351 0.02712654154773585 0 -0.0045643860233415641 0.027145756045384939 0 -0.0045789852916871751 0.027120270744661171 0 -0.0045707558923917275 0.027097718473095025 0 -0.0045643860233415641 0.027145756045384939 0 -0.0045498162013074351 0.02712654154773585 0 -0.0045707558923917275 0.027097718473095025 0 -0.0045830898475284374 0.027097050575762678 0 -0.0045707558923917275 0.027097718473095025 0 -0.0045698883538880875 0.027053628367920048 0 -0.0045789852916871751 0.027120270744661171 0 -0.0045830898475284374 0.027097050575762678 0 -0.0045707558923917275 0.027097718473095025 0 -0.0045707558923917275 0.027097718473095025 0 -0.004567667982989315 0.027047352833771965 0 -0.0045698883538880875 0.027053628367920048 0 -0.0045707558923917275 0.027097718473095025 0 -0.0045653622686898983 0.027091030288755771 0 -0.004567667982989315 0.027047352833771965 0 -0.0045498162013074351 0.02712654154773585 0 -0.0045707558923917275 0.027097718473095025 0 -0.0045653622686898983 0.027091030288755771 0 -0.0045653622686898983 0.027091030288755771 0 -0.004567667982989315 0.027047352833771965 0 -0.0045806294074690048 0.027061245668487801 0 -0.004567667982989315 0.027047352833771965 0 -0.0045806294074690048 0.027061245668487801 0 -0.0045544203017322069 0.02697674960290386 0 -0.0043990864005448334 0.026608771130250078 0 -0.0044721638583093987 0.026667830229316285 0 -0.0045146005459135987 0.027131474840102591 0 -0.0045653622686898983 0.027091030288755771 0 -0.0045806294074690048 0.027061245668487801 0 -0.0040480598314003354 0.026668076647603584 0 -0.0043522846729350095 0.026458420003916339 0 -0.0044419069292137665 0.026746859689633817 0 -0.0045146005459135987 0.027131474840102591 0 -0.004245726143634298 0.026799572539645058 0 -0.0045516819177041853 0.026852572424943193 0 -0.0043990864005448334 0.026608771130250078 0 -0.0044703166710176297 0.026638087960113743 0 -0.0044358401562804399 0.026679111326364129 0 -0.0043990864005448334 0.026608771130250078 0 -0.0044763425242453081 0.027047443613645243 0 -0.004529279389780619 0.026984448014548763 0 -0.0045224265863058272 0.026900308046546865 0 -0.004529279389780619 0.026984448014548763 0 -0.004525990398759271 0.02695318914214237 0 -0.0045224265863058272 0.026900308046546865 0 -0.0044763425242453081 0.027047443613645243 0 -0.0045451841029124701 0.027037893769068962 0 -0.004529279389780619 0.026984448014548763 0 -0.0045739739013952252 0.027091635857349916 0 -0.0044763425242453081 0.027047443613645243 0 -0.0045451841029124701 0.027037893769068962 0 -0.004529279389780619 0.026984448014548763 0 -0.0045480663996030563 0.027005346537150744 0 -0.004525990398759271 0.02695318914214237 0 -0.0045451841029124701 0.027037893769068962 0 -0.004529279389780619 0.026984448014548763 0 -0.0045480663996030563 0.027005346537150744 0 -0.0045480663996030563 0.027005346537150744 0 -0.0045698883538880875 0.027053628367920048 0 -0.0045518039578025258 0.027002643408705604 0 -0.0045480663996030563 0.027005346537150744 0 -0.0045732309011462394 0.02706822125993617 0 -0.0045698883538880875 0.027053628367920048 0 -0.0045739739013952252 0.027091635857349916 0 -0.0045451841029124701 0.027037893769068962 0 -0.0045732309011462394 0.02706822125993617 0 -0.0045451841029124701 0.027037893769068962 0 -0.0045480663996030563 0.027005346537150744 0 -0.0045732309011462394 0.02706822125993617 0 -0.0045830898475284374 0.027097050575762678 0 -0.0045732309011462394 0.02706822125993617 0 -0.0045698883538880875 0.027053628367920048 0 -0.004567667982989315 0.027047352833771965 0 -0.0045698883538880875 0.027053628367920048 0 -0.0045518039578025258 0.027002643408705604 0 -0.004567667982989315 0.027047352833771965 0 -0.0045518039578025258 0.027002643408705604 0 -0.0045544203017322069 0.02697674960290386 0 -0.0045518039578025258 0.027002643408705604 0 -0.0045141041151918514 0.026947276311859933 0 -0.0045544203017322069 0.02697674960290386 0 -0.0045480663996030563 0.027005346537150744 0 -0.0045518039578025258 0.027002643408705604 0 -0.0045141041151918514 0.026947276311859933 0 -0.0045141041151918514 0.026947276311859933 0 -0.0044683467510524474 0.026927781185952886 0 -0.0045544203017322069 0.02697674960290386 0 -0.0045480663996030563 0.027005346537150744 0 -0.004525990398759271 0.02695318914214237 0 -0.0045141041151918514 0.026947276311859933 0 -0.004525990398759271 0.02695318914214237 0 -0.0045141041151918514 0.026947276311859933 0 -0.0045092901972554854 0.026907808799087825 0 -0.0045123486815605339 0.026858493436804579 0 -0.0045092901972554854 0.026907808799087825 0 -0.0044683467510524474 0.026927781185952886 0 -0.0045141041151918514 0.026947276311859933 0 -0.0045092901972554854 0.026907808799087825 0 -0.0044683467510524474 0.026927781185952886 0 -0.0045123486815605339 0.026858493436804579 0 -0.0045092901972554854 0.026907808799087825 0 -0.0045224265863058272 0.026900308046546865 0 -0.004525990398759271 0.02695318914214237 0 -0.0045092901972554854 0.026907808799087825 0 -0.0045224265863058272 0.026900308046546865 0 -0.0044791640310239004 0.026683588875176103 0 -0.0044721638583093987 0.026667830229316285 0 -0.0039720246428286664 0.024317314934791133 0 -0.004287317594010207 0.024692148799456384 0 -0.0045923639913153158 0.027193859036715808 0 -0.0044683467510524474 0.026927781185952886 0 -0.0044751154235380987 0.026899291208005154 0 -0.0044683467510524474 0.026927781185952886 0 -0.0044751154235380987 0.026899291208005154 0 -0.0046006757935284134 0.026926824362961916 0 -0.0035080855710685043 0.026572285281771673 0 -0.0044751154235380987 0.026899291208005154 0 -0.0041908739076293505 0.026603882474615436 0 -0.0044751154235380987 0.026899291208005154 0 -0.0041908739076293505 0.026603882474615436 0 -0.0044929116766335856 0.026655940963211982 0 -0.0044929116766335856 0.026655940963211982 0 -0.0046006757935284134 0.026926824362961916 0 -0.0047922611402407018 0.026484383336990533 0 -0.0044751154235380987 0.026899291208005154 0 -0.0044929116766335856 0.026655940963211982 0 -0.0046006757935284134 0.026926824362961916 0 -0.0044929116766335856 0.026655940963211982 0 -0.0047922611402407018 0.026484383336990533 0 -0.0042160342477310982 0.026291071335396918 0 -0.0043575274655113551 0.025686073810271846 0 -0.0047922611402407018 0.026484383336990533 0 -0.0042160342477310982 0.026291071335396918 0 -0.0037416540471266295 0.025716366229586722 0 -0.0041041435721868302 0.026200959530521331 0 -0.0035080855710685043 0.026572285281771673 0 -0.0041908739076293505 0.026603882474615436 0 -0.0042160342477310982 0.026291071335396918 0 -0.0041908739076293505 0.026603882474615436 0 -0.0044929116766335856 0.026655940963211982 0 -0.0042160342477310982 0.026291071335396918 0 -0.0040411001641023174 0.025951862920212222 0 -0.0037287204354761109 0.026093548621355416 0 -0.0042160342477310982 0.026291071335396918 0 -0.0040480598314003354 0.026668076647603584 0 -0.0043522846729350095 0.026458420003916339 0 -0.0041356153301552231 0.026189313406760419 0 -0.0043522846729350095 0.026458420003916339 0 -0.0041356153301552231 0.026189313406760419 0 -0.0046212259214985342 0.026126988220128551 0 -0.0040480598314003354 0.026668076647603584 0 -0.0036688868012662154 0.026143997089664018 0 -0.0041356153301552231 0.026189313406760419 0 -0.0043990864005448334 0.026608771130250078 0 -0.0041041435721868302 0.026200959530521331 0 -0.0051177556590663543 0.02701606724548989 0 -0.0046006757935284134 0.026926824362961916 0 -0.0047922611402407018 0.026484383336990533 0 -0.0037619236994566999 0.025794407152050457 0 -0.0036688868012662154 0.026143997089664018 0 -0.0039724235046485522 0.025941654333955906 0 -0.0036688868012662154 0.026143997089664018 0 -0.0039724235046485522 0.025941654333955906 0 -0.0041356153301552231 0.026189313406760419 0 -0.0041770217619462261 0.025721051853171254 0 -0.0039724235046485522 0.025941654333955906 0 -0.0041356153301552231 0.026189313406760419 0 -0.0041770217619462261 0.025721051853171254 0 -0.0041356153301552231 0.026189313406760419 0 -0.0046212259214985342 0.026126988220128551 0 -0.004186485787322434 0.025671426390364786 0 -0.0044880200097214239 0.025952154452614281 0 -0.0043522846729350095 0.026458420003916339 0 -0.0046212259214985342 0.026126988220128551 0 -0.0046564980413125049 0.026542453691271058 0 -0.0043522846729350095 0.026458420003916339 0 -0.0046564980413125049 0.026542453691271058 0 -0.0044419069292137665 0.026746859689633817 0 -0.0047095076112471839 0.026062862520410394 0 -0.0051044029825909826 0.026541201577024776 0 -0.0053314499637654202 0.026147535197651079 0 -0.0046212259214985342 0.026126988220128551 0 -0.0046564980413125049 0.026542453691271058 0 -0.0051044029825909826 0.026541201577024776 0 -0.0044880200097214239 0.025952154452614281 0 -0.0046295364839501621 0.02608597637475191 0 -0.0052823183412037556 0.025729884693201845 0 -0.0047095076112471839 0.026062862520410394 0 -0.0053314499637654202 0.026147535197651079 0 -0.005868492982227057 0.025713666611288877 0 -0.0052823183412037556 0.025729884693201845 0 -0.0053314499637654202 0.026147535197651079 0 -0.005868492982227057 0.025713666611288877 0 -0.0053314499637654202 0.026147535197651079 0 -0.0057304149916412549 0.026305555602583141 0 -0.0036386762003765621 0.029617750611258445 0 -0.0039650748505542085 0.029502642734281721 0 -0.0051044029825909826 0.026541201577024776 0 -0.0053314499637654202 0.026147535197651079 0 -0.0057304149916412549 0.026305555602583141 0 -0.0051044029825909826 0.026541201577024776 0 -0.0055558241538014056 0.026956441027390778 0 -0.0050917912718484388 0.027026383423013122 0 -0.0051044029825909826 0.026541201577024776 0 -0.0057304149916412549 0.026305555602583141 0 -0.0055558241538014056 0.026956441027390778 0 -0.0039650748505542085 0.029502642734281721 0 -0.0042521989196524944 0.029239697068311362 0 -0.0027918794326316477 0.033700069063567269 0 -0.0037904521993164459 0.032175663287579863 0 -0.0023670132441819727 0.032504714471585081 0 -0.0037904521993164459 0.032175663287579863 0 -0.0034177637426503157 0.030945400031584337 0 -0.0023670132441819727 0.032504714471585081 0 -0.0042521989196524944 0.029239697068311362 0 -0.0044606141304345511 0.02893386057920409 0 -0.0037904521993164459 0.032175663287579863 0 -0.0034177637426503157 0.030945400031584337 0 -0.0046395892956677329 0.029916100145275258 0 -0.0055558241538014056 0.026956441027390778 0 -0.0051868094614149025 0.027323527146808257 0 -0.0050917912718484388 0.027026383423013122 0 -0.0055558241538014056 0.026956441027390778 0 -0.0051868094614149025 0.027323527146808257 0 -0.0053426876168584112 0.027663677596504128 0 -0.0051868094614149025 0.027323527146808257 0 -0.0050917912718484388 0.027026383423013122 0 -0.004917638926464238 0.02732650230177442 0 -0.0050917912718484388 0.027026383423013122 0 -0.0048938881504567017 0.027076527286039542 0 -0.004917638926464238 0.02732650230177442 0 -0.0048938881504567017 0.027076527286039542 0 -0.004917638926464238 0.02732650230177442 0 -0.0047164790618574445 0.027114035983642721 0 -0.0048938881504567017 0.027076527286039542 0 -0.0047164790618574445 0.027114035983642721 0 -0.0048572846512852496 0.026843956089001295 0 -0.004917638926464238 0.02732650230177442 0 -0.0047021022968467144 0.027331334764885407 0 -0.0047164790618574445 0.027114035983642721 0 -0.0047021022968467144 0.027331334764885407 0 -0.0045887976914377659 0.027155342089465642 0 -0.0047164790618574445 0.027114035983642721 0 -0.0045146005459135987 0.027131474840102591 0 -0.0045887976914377659 0.027155342089465642 0 -0.0045099975570534545 0.027233340010498062 0 -0.0047021022968467144 0.027331334764885407 0 -0.0045887976914377659 0.027155342089465642 0 -0.0045099975570534545 0.027233340010498062 0 -0.0045146005459135987 0.027131474840102591 0 -0.0045887976914377659 0.027155342089465642 0 -0.0046132117838081771 0.027008517154679366 0 -0.0045887976914377659 0.027155342089465642 0 -0.0047164790618574445 0.027114035983642721 0 -0.0046132117838081771 0.027008517154679366 0 -0.0044703166710176297 0.026638087960113743 0 -0.0045167295556582804 0.026651431990326203 0 -0.0046132117838081771 0.027008517154679366 0 -0.0045516819177041853 0.026852572424943193 0 -0.0048572846512852496 0.026843956089001295 0 -0.0046564980413125049 0.026542453691271058 0 -0.0044419069292137665 0.026746859689633817 0 -0.0048572846512852496 0.026843956089001295 0 -0.0047164790618574445 0.027114035983642721 0 -0.0046132117838081771 0.027008517154679366 0 -0.0048572846512852496 0.026843956089001295 0 -0.0045146005459135987 0.027131474840102591 0 -0.0046132117838081771 0.027008517154679366 0 -0.0045516819177041853 0.026852572424943193 0 -0.0046564980413125049 0.026542453691271058 0 -0.0051044029825909826 0.026541201577024776 0 -0.0048572846512852496 0.026843956089001295 0 -0.0051044029825909826 0.026541201577024776 0 -0.0050917912718484388 0.027026383423013122 0 -0.0048572846512852496 0.026843956089001295 0 -0.0050917912718484388 0.027026383423013122 0 -0.0048938881504567017 0.027076527286039542 0 -0.0048572846512852496 0.026843956089001295 0 -0.00076543177765956696 0.033607650479195228 0 -0.0009430405150304454 0.034161079532186597 0 -0.0010975987219149683 0.033630958430793029 0 -0.00083458316229031645 0.033991751916527264 0 -0.00095268050470013826 0.034212501170485937 0 -0.00078908335317609004 0.034096097666171873 0 -0.00099623394364597886 0.034376243757537318 0 -0.00068085117328366487 0.034304641352455492 0 -0.0009430405150304454 0.034161079532186597 0 -0.0010975987219149683 0.033630958430793029 0 -0.0015267722445488064 0.033985089820043855 0 -0.00076543177765956696 0.033607650479195228 0 -0.0010975987219149683 0.033630958430793029 0 -0.0010644418101408905 0.033368148785408419 0 -0.0010975987219149683 0.033630958430793029 0 -0.0015267722445488064 0.033985089820043855 0 -0.001325953652506132 0.033190568241117206 0 -0.0015267722445488064 0.033985089820043855 0 -0.0019408997368520844 0.033627917060295255 0 -0.001325953652506132 0.033190568241117206 0 -0.0021376464293916555 0.034432085965248715 0 -0.0015267722445488064 0.033985089820043855 0 -0.0019408997368520844 0.033627917060295255 0 -0.0021376464293916555 0.034432085965248715 0 -0.0027918794326316477 0.033700069063567269 0 -0.0019408997368520844 0.033627917060295255 0 -0.0027918794326316477 0.033700069063567269 0 -0.0019408997368520844 0.033627917060295255 0 -0.0023670132441819727 0.032504714471585081 0 -0.0019408997368520844 0.033627917060295255 0 -0.0023670132441819727 0.032504714471585081 0 -0.001325953652506132 0.033190568241117206 0 -0.0023670132441819727 0.032504714471585081 0 -0.0020421490847588454 0.031192087012446558 0 -0.0011427220952027737 0.031847500047300255 0 -0.0034177637426503157 0.030945400031584337 0 -0.0023670132441819727 0.032504714471585081 0 -0.0020421490847588454 0.031192087012446558 0 -0.0020652271970817157 0.032001710085080043 0 -0.0021493286659858548 0.031773180541575172 0 -0.0020421490847588454 0.031192087012446558 0 -0.0011427220952027737 0.031847500047300255 0 -0.0010979928926723812 0.030535279201697817 0 -0.0012665775612216905 0.033217642890825322 0 -0.0010283782104696889 0.033172153261925692 0 -0.0012629653154192341 0.033075802162231341 0 -0.0012665775612216905 0.033217642890825322 0 -0.001325953652506132 0.033190568241117206 0 -0.0010644418101408905 0.033368148785408419 0 -0.0020652271970817157 0.032001710085080043 0 -0.0020387008968022046 0.032106278039664593 0 -0.0023670132441819727 0.032504714471585081 0 -0.0011427220952027737 0.031847500047300255 0 -0.001325953652506132 0.033190568241117206 0 -0.0010975987219149683 0.033630958430793029 0 -0.001325953652506132 0.033190568241117206 0 -0.0010644418101408905 0.033368148785408419 0 -0.0010644418101408905 0.033368148785408419 0 -0.0010283782104696889 0.033172153261925692 0 -0.0008275844368458102 0.033459769490571292 0 -0.0012665775612216905 0.033217642890825322 0 -0.0010644418101408905 0.033368148785408419 0 -0.0010283782104696889 0.033172153261925692 0 -0.0016350716177791706 0.032288195161557377 0 -0.0012942560331311004 0.032581540498729925 0 -0.0018351802597043896 0.034291978528139505 0 -0.00082298929397827477 0.034247818732094676 0 -0.00081409512504524513 0.03388334716480023 0 -0.0010283782104696889 0.033172153261925692 0 -0.0008275844368458102 0.033459769490571292 0 -0.00072203214490900857 0.033383446944926641 0 -0.00076543177765956696 0.033607650479195228 0 -0.0010644418101408905 0.033368148785408419 0 -0.0008275844368458102 0.033459769490571292 0 -0.0013682362608039014 0.032989485369060205 0 -0.0011066179394777732 0.033560802695443454 0 -0.00061070106603857018 0.033074424071303912 0 -0.0013682362608039014 0.032989485369060205 0 -0.0011066179394777732 0.033560802695443454 0 -0.0021464926558747853 0.033438791961781421 0 -0.0018351802597043896 0.034291978528139505 0 -0.0011066179394777732 0.033560802695443454 0 -0.00081409512504524513 0.03388334716480023 0 -0.0018351802597043896 0.034291978528139505 0 -0.0011066179394777732 0.033560802695443454 0 -0.0021464926558747853 0.033438791961781421 0 -0.0018351802597043896 0.034291978528139505 0 -0.0021464926558747853 0.033438791961781421 0 -0.0029379432710908127 0.034127384345090189 0 -0.0016350716177791706 0.032288195161557377 0 -0.0021493286659858548 0.031773180541575172 0 -0.0021464926558747853 0.033438791961781421 0 -0.0030942076982490951 0.032945128134674498 0 -0.0029379432710908127 0.034127384345090189 0 -0.0024684290128425147 0.030861979061554818 0 -0.0021493286659858548 0.031773180541575172 0 -0.0029161208294990514 0.028812254890306581 0 -0.0028541426653527244 0.029735344154420824 0 -0.0034644156944734672 0.029590512927398605 0 -0.0034177637426503157 0.030945400031584337 0 -0.0020421490847588454 0.031192087012446558 0 -0.0024638786020223444 0.030110657714359303 0 -0.0021493286659858548 0.031773180541575172 0 -0.0026278579499979544 0.031462816870885278 0 -0.0020421490847588454 0.031192087012446558 0 -0.0010979928926723812 0.030535279201697817 0 -0.0024638786020223444 0.030110657714359303 0 -0.0029161208294990514 0.028812254890306581 0 -0.0034644156944734672 0.029590512927398605 0 -0.0036223570801121861 0.029049954036901637 0 -0.0029161208294990514 0.028812254890306581 0 -0.0036223570801121861 0.029049954036901637 0 -0.0036329708882305196 0.028429580355869632 0 -0.0029161208294990514 0.028812254890306581 0 -0.0031080602304922461 0.027924861349821469 0 -0.0036329708882305196 0.028429580355869632 0 -0.0031080602304922461 0.027924861349821469 0 -0.0036329708882305196 0.028429580355869632 0 -0.0036790158640795582 0.027673996779200918 0 -0.0024684290128425147 0.030861979061554818 0 -0.0026958944398204412 0.0299787252992968 0 -0.0030942076982490951 0.032945128134674498 0 -0.0033540716271726607 0.031560430895658846 0 -0.0020231954834076752 0.032133215961267926 0 -0.0013682362608039014 0.032989485369060205 0 -0.0021464926558747853 0.033438791961781421 0 -0.0020231954834076752 0.032133215961267926 0 -0.0021464926558747853 0.033438791961781421 0 -0.0030942076982490951 0.032945128134674498 0 -0.0020231954834076752 0.032133215961267926 0 -0.0033540716271726607 0.031560430895658846 0 -0.0020231954834076752 0.032133215961267926 0 -0.002220224556851072 0.030216368417020811 0 -0.0020231954834076752 0.032133215961267926 0 -0.0012319767602558857 0.031006151019469255 0 -0.00079861402591285499 0.032279258813836913 0 -0.0013682362608039014 0.032989485369060205 0 -0.0020231954834076752 0.032133215961267926 0 -0.00079861402591285499 0.032279258813836913 0 -0.0049791669498039197 0.027934930261438097 0 -0.0047063364150934945 0.028039032197683476 0 -0.0048894712264272253 0.028364116747571829 0 -0.0049791669498039197 0.027934930261438097 0 -0.0047063364150934945 0.028039032197683476 0 -0.0050068134061559931 0.027646329495674086 0 -0.0045422045027271431 0.027174504654219975 0 -0.0045143235690092882 0.027158834083718966 0 -0.0044670719279683814 0.027167015746530222 0 -0.0045143235690092882 0.027158834083718966 0 -0.0044670719279683814 0.027167015746530222 0 -0.0044621697390034003 0.027155825869887913 0 -0.0047021022968467144 0.027331334764885407 0 -0.0045099975570534545 0.027233340010498062 0 -0.0047063364150934945 0.028039032197683476 0 -0.0045422045027271431 0.027174504654219975 0 -0.0045099975570534545 0.027233340010498062 0 -0.0044670719279683814 0.027167015746530222 0 -0.0045384544621927311 0.027548752918217845 0 -0.0045446400034615331 0.027575955299639385 0 -0.0047021022968467144 0.027331334764885407 0 -0.0047063364150934945 0.028039032197683476 0 -0.0048371875235929465 0.027578147892558375 0 -0.004917638926464238 0.02732650230177442 0 -0.0047021022968467144 0.027331334764885407 0 -0.0048371875235929465 0.027578147892558375 0 -0.004917638926464238 0.02732650230177442 0 -0.0048371875235929465 0.027578147892558375 0 -0.0050068134061559931 0.027646329495674086 0 -0.0047063364150934945 0.028039032197683476 0 -0.0048371875235929465 0.027578147892558375 0 -0.0050068134061559931 0.027646329495674086 0 -0.0051868094614149025 0.027323527146808257 0 -0.004917638926464238 0.02732650230177442 0 -0.0050068134061559931 0.027646329495674086 0 -0.0051868094614149025 0.027323527146808257 0 -0.0050068134061559931 0.027646329495674086 0 -0.0053426876168584112 0.027663677596504128 0 -0.0049791669498039197 0.027934930261438097 0 -0.0050068134061559931 0.027646329495674086 0 -0.0053426876168584112 0.027663677596504128 0 -0.0034644156944734672 0.029590512927398605 0 -0.0040306692198992591 0.029609844825191075 0 -0.0036223570801121861 0.029049954036901637 0 -0.0034177637426503157 0.030945400031584337 0 -0.0024638786020223444 0.030110657714359303 0 -0.0040306692198992591 0.029609844825191075 0 -0.0026278579499979544 0.031462816870885278 0 -0.0028486303049819277 0.031346012349167965 0 -0.0034177637426503157 0.030945400031584337 0 -0.0046395892956677329 0.029916100145275258 0 -0.0040306692198992591 0.029609844825191075 0 -0.0036223570801121861 0.029049954036901637 0 -0.0041647495568642133 0.028843212946754834 0 -0.0036329708882305196 0.028429580355869632 0 -0.0040306692198992591 0.029609844825191075 0 -0.0036223570801121861 0.029049954036901637 0 -0.0041647495568642133 0.028843212946754834 0 -0.0049791669498039197 0.027934930261438097 0 -0.0053426876168584112 0.027663677596504128 0 -0.0048894712264272253 0.028364116747571829 0 -0.0046395892956677329 0.029916100145275258 0 -0.0041647495568642133 0.028843212946754834 0 -0.0048894712264272253 0.028364116747571829 0 -0.0046395892956677329 0.029916100145275258 0 -0.0040306692198992591 0.029609844825191075 0 -0.0041647495568642133 0.028843212946754834 0 -0.0044606141304345511 0.02893386057920409 0 -0.0045345551268343122 0.028791745546167636 0 -0.0041647495568642133 0.028843212946754834 0 -0.0042897650315249338 0.028250907863455011 0 -0.0048894712264272253 0.028364116747571829 0 -0.0042897650315249338 0.028250907863455011 0 -0.0048735479388439468 0.028321549106941277 0 -0.0048894712264272253 0.028364116747571829 0 -0.0041647495568642133 0.028843212946754834 0 -0.0042897650315249338 0.028250907863455011 0 -0.0036329708882305196 0.028429580355869632 0 -0.0042897650315249338 0.028250907863455011 0 -0.0042054266742705976 0.027446143363075569 0 -0.0036790158640795582 0.027673996779200918 0 -0.0042897650315249338 0.028250907863455011 0 -0.0036329708882305196 0.028429580355869632 0 -0.0036790158640795582 0.027673996779200918 0 -0.0042897650315249338 0.028250907863455011 0 -0.0048735479388439468 0.028321549106941277 0 -0.0042054266742705976 0.027446143363075569 0 -0.0044082957321530964 0.027177811666556896 0 -0.0043248460325419555 0.027286803560243388 0 -0.0042054266742705976 0.027446143363075569 0 -0.0045263045724427938 0.027574536765069223 0 -0.0044903326313816229 0.02753515504365046 0 -0.0043884763041538459 0.027197646921617767 0 -0.0044082957321530964 0.027177811666556896 0 -0.0043248460325419555 0.027286803560243388 0 -0.0044107664581077739 0.02717020908699334 0 -0.0043884763041538459 0.027197646921617767 0 -0.0043248460325419555 0.027286803560243388 0 -0.0044107664581077739 0.02717020908699334 0 -0.0044393964197894384 0.027123377069459564 0 -0.0043248460325419555 0.027286803560243388 0 -0.0043884763041538459 0.027197646921617767 0 -0.0044082957321530964 0.027177811666556896 0 -0.0044245189019268766 0.027164924581320842 0 -0.0044107664581077739 0.02717020908699334 0 -0.0043884763041538459 0.027197646921617767 0 -0.0044245189019268766 0.027164924581320842 0 -0.0045446400034615331 0.027575955299639385 0 -0.0045263045724427938 0.027574536765069223 0 -0.0044082957321530964 0.027177811666556896 0 -0.0044245189019268766 0.027164924581320842 0 -0.0044621697390034003 0.027155825869887913 0 -0.0044670719279683814 0.027167015746530222 0 -0.0044082957321530964 0.027177811666556896 0 -0.0044621697390034003 0.027155825869887913 0 -0.0047063364150934945 0.028039032197683476 0 -0.0048735479388439468 0.028321549106941277 0 -0.0048894712264272253 0.028364116747571829 0 -0.0045334348002641096 0.027136799311391985 0 -0.0044621697390034003 0.027155825869887913 0 -0.0044754945652881071 0.027133401579000599 0 -0.0045334348002641096 0.027136799311391985 0 -0.0045143235690092882 0.027158834083718966 0 -0.0044621697390034003 0.027155825869887913 0 -0.0044245189019268766 0.027164924581320842 0 -0.0044621697390034003 0.027155825869887913 0 -0.0044754945652881071 0.027133401579000599 0 -0.0044245189019268766 0.027164924581320842 0 -0.0044754945652881071 0.027133401579000599 0 -0.0044492524989304073 0.027134211645352888 0 -0.0045333252140510828 0.027099604404617145 0 -0.0044754945652881071 0.027133401579000599 0 -0.004501087037534211 0.027079702008851826 0 -0.0044754945652881071 0.027133401579000599 0 -0.004501087037534211 0.027079702008851826 0 -0.0044492524989304073 0.027134211645352888 0 -0.004501087037534211 0.027079702008851826 0 -0.0044492524989304073 0.027134211645352888 0 -0.0044663226111477626 0.027098668389213862 0 -0.0044107664581077739 0.02717020908699334 0 -0.0044245189019268766 0.027164924581320842 0 -0.0044492524989304073 0.027134211645352888 0 -0.0044107664581077739 0.02717020908699334 0 -0.0044663226111477626 0.027098668389213862 0 -0.0044393964197894384 0.027123377069459564 0 -0.0044107664581077739 0.02717020908699334 0 -0.0044492524989304073 0.027134211645352888 0 -0.0044663226111477626 0.027098668389213862 0 -0.0045213510212946395 0.0270258675324032 0 -0.004501087037534211 0.027079702008851826 0 -0.0044663226111477626 0.027098668389213862 0 -0.0045213510212946395 0.0270258675324032 0 -0.0044663226111477626 0.027098668389213862 0 -0.004507500869928717 0.027026235331034248 0 -0.004507500869928717 0.027026235331034248 0 -0.0045503201203985124 0.026951374971625055 0 -0.0045655324890864863 0.026936445659248864 0 -0.004507500869928717 0.027026235331034248 0 -0.0044982195994379007 0.027031226434771901 0 -0.0045503201203985124 0.026951374971625055 0 -0.004507500869928717 0.027026235331034248 0 -0.0044393964197894384 0.027123377069459564 0 -0.0044982195994379007 0.027031226434771901 0 -0.0044663226111477626 0.027098668389213862 0 -0.004507500869928717 0.027026235331034248 0 -0.0044393964197894384 0.027123377069459564 0 -0.0044982195994379007 0.027031226434771901 0 -0.0045725016158601195 0.026932957151966828 0 -0.004426628960104366 0.027105118777618419 0 -0.0044393964197894384 0.027123377069459564 0 -0.0044982195994379007 0.027031226434771901 0 -0.004426628960104366 0.027105118777618419 0 -0.0044982195994379007 0.027031226434771901 0 -0.0045503201203985124 0.026951374971625055 0 -0.0045725016158601195 0.026932957151966828 0 -0.0045725016158601195 0.026932957151966828 0 -0.0044797874042092735 0.026974010266764967 0 -0.0046579081348753926 0.026854640563661974 0 -0.0045725016158601195 0.026932957151966828 0 -0.004426628960104366 0.027105118777618419 0 -0.0044797874042092735 0.026974010266764967 0 -0.004426628960104366 0.027105118777618419 0 -0.004259067539514905 0.027220685111591977 0 -0.0044797874042092735 0.026974010266764967 0 -0.004259067539514905 0.027220685111591977 0 -0.0041683070681992297 0.027064961872823333 0 -0.0044797874042092735 0.026974010266764967 0 -0.004426628960104366 0.027105118777618419 0 -0.0043248460325419555 0.027286803560243388 0 -0.004259067539514905 0.027220685111591977 0 -0.0044393964197894384 0.027123377069459564 0 -0.004426628960104366 0.027105118777618419 0 -0.0043248460325419555 0.027286803560243388 0 -0.0043248460325419555 0.027286803560243388 0 -0.0042054266742705976 0.027446143363075569 0 -0.004259067539514905 0.027220685111591977 0 -0.0042054266742705976 0.027446143363075569 0 -0.0036790158640795582 0.027673996779200918 0 -0.0037378777025972049 0.027300291798751913 0 -0.0042054266742705976 0.027446143363075569 0 -0.0037378777025972049 0.027300291798751913 0 -0.004259067539514905 0.027220685111591977 0 -0.0037378777025972049 0.027300291798751913 0 -0.004259067539514905 0.027220685111591977 0 -0.0041683070681992297 0.027064961872823333 0 -0.0041683070681992297 0.027064961872823333 0 -0.0039149591764566288 0.026963908987330195 0 -0.0043916981151431722 0.026837948319179104 0 -0.0037378777025972049 0.027300291798751913 0 -0.0041683070681992297 0.027064961872823333 0 -0.0039149591764566288 0.026963908987330195 0 -0.0037378777025972049 0.027300291798751913 0 -0.0039149591764566288 0.026963908987330195 0 -0.0035417247561447757 0.026908018823716705 0 -0.0039149591764566288 0.026963908987330195 0 -0.0035417247561447757 0.026908018823716705 0 -0.0040249637043207219 0.026592305056662605 0 -0.0039149591764566288 0.026963908987330195 0 -0.0043916981151431722 0.026837948319179104 0 -0.0040249637043207219 0.026592305056662605 0 -0.0043916981151431722 0.026837948319179104 0 -0.0045148454783850685 0.026513904822484228 0 -0.0040249637043207219 0.026592305056662605 0 -0.0043916981151431722 0.026837948319179104 0 -0.004717300801078789 0.026672546689244788 0 -0.0045148454783850685 0.026513904822484228 0 -0.0043916981151431722 0.026837948319179104 0 -0.004717300801078789 0.026672546689244788 0 -0.004682486446173393 0.026864060684698873 0 -0.0044797874042092735 0.026974010266764967 0 -0.004682486446173393 0.026864060684698873 0 -0.0046579081348753926 0.026854640563661974 0 -0.0043916981151431722 0.026837948319179104 0 -0.0044797874042092735 0.026974010266764967 0 -0.004682486446173393 0.026864060684698873 0 -0.0041683070681992297 0.027064961872823333 0 -0.0043916981151431722 0.026837948319179104 0 -0.0044797874042092735 0.026974010266764967 0 -0.0010336053500155395 0.029681641890616589 0 -0.002220224556851072 0.030216368417020811 0 -0.0020187070473612007 0.02872723847827385 0 -0.0010336053500155395 0.029681641890616589 0 -0.0012319767602558857 0.031006151019469255 0 -0.002220224556851072 0.030216368417020811 0 -0.0020231954834076752 0.032133215961267926 0 -0.0012319767602558857 0.031006151019469255 0 -0.002220224556851072 0.030216368417020811 0 -0.002220224556851072 0.030216368417020811 0 -0.0035088150588528503 0.029797684022308656 0 -0.0020187070473612007 0.02872723847827385 0 -0.0028337917449116558 0.029259746385072945 0 -0.0028771567945171648 0.028935238442216044 0 -0.0033540716271726607 0.031560430895658846 0 -0.002220224556851072 0.030216368417020811 0 -0.0035088150588528503 0.029797684022308656 0 -0.0026958944398204412 0.0299787252992968 0 -0.0028337917449116558 0.029259746385072945 0 -0.0031080602304922461 0.027924861349821469 0 -0.0036790158640795582 0.027673996779200918 0 -0.0033368909688295213 0.027466546293560965 0 -0.0037378777025972049 0.027300291798751913 0 -0.0033368909688295213 0.027466546293560965 0 -0.0032952215674604216 0.027581677053862264 0 -0.0036790158640795582 0.027673996779200918 0 -0.0037378777025972049 0.027300291798751913 0 -0.0033368909688295213 0.027466546293560965 0 -0.0037378777025972049 0.027300291798751913 0 -0.0035417247561447757 0.026908018823716705 0 -0.0032952215674604216 0.027581677053862264 0 -0.0035417247561447757 0.026908018823716705 0 -0.0032952215674604216 0.027581677053862264 0 -0.0030263582754956344 0.02688155824027012 0 -0.0032952215674604216 0.027581677053862264 0 -0.0020179897236877664 0.027510398227435517 0 -0.0030263582754956344 0.02688155824027012 0 -0.0035088150588528503 0.029797684022308656 0 -0.0032952215674604216 0.027581677053862264 0 -0.0020187070473612007 0.02872723847827385 0 -0.0032952215674604216 0.027581677053862264 0 -0.0020187070473612007 0.02872723847827385 0 -0.0020179897236877664 0.027510398227435517 0 -0.0020179897236877664 0.027510398227435517 0 -0.0023225597496400411 0.026726988863689807 0 -0.0030263582754956344 0.02688155824027012 0 -0.0020179897236877664 0.027510398227435517 0 -0.0012074623527525768 0.027126773283215302 0 -0.001788744966374056 0.0267500431729304 0 -0.0020179897236877664 0.027510398227435517 0 -0.0012074623527525768 0.027126773283215302 0 -0.0011244967199911062 0.028266719298210185 0 -0.0020187070473612007 0.02872723847827385 0 -0.0020179897236877664 0.027510398227435517 0 -0.0011244967199911062 0.028266719298210185 0 -0.0010336053500155395 0.029681641890616589 0 -0.0020187070473612007 0.02872723847827385 0 -0.0011244967199911062 0.028266719298210185 0 -0.0013031781688687919 0.025728925150256893 0 -0.001412956928537659 0.026351004722211965 0 -0.0018751640879801654 0.025017700036349667 0 -0.00079039925377907155 0.025769322887284896 0 -0.00070941882628786448 0.025743519271884216 0 -0.0013031781688687919 0.025728925150256893 0 -0.001412956928537659 0.026351004722211965 0 -0.00071672725143281436 0.026441425779410714 0 -0.0012074623527525768 0.027126773283215302 0 -0.001412956928537659 0.026351004722211965 0 -0.00071672725143281436 0.026441425779410714 0 -0.0012074623527525768 0.027126773283215302 0 -0.001788744966374056 0.0267500431729304 0 -0.001412956928537659 0.026351004722211965 0 -0.0020179897236877664 0.027510398227435517 0 -0.001788744966374056 0.0267500431729304 0 -0.0023225597496400411 0.026726988863689807 0 -0.001788744966374056 0.0267500431729304 0 -0.001412956928537659 0.026351004722211965 0 -0.002166651411541657 0.026124284844611725 0 -0.001788744966374056 0.0267500431729304 0 -0.0023225597496400411 0.026726988863689807 0 -0.002166651411541657 0.026124284844611725 0 -0.001412956928537659 0.026351004722211965 0 -0.002166651411541657 0.026124284844611725 0 -0.0018923345758174305 0.025424831359841592 0 -0.0023225597496400411 0.026726988863689807 0 -0.002166651411541657 0.026124284844611725 0 -0.0028430549563199844 0.026192612043678478 0 -0.002166651411541657 0.026124284844611725 0 -0.0028430549563199844 0.026192612043678478 0 -0.0026276989866640533 0.025513396540048142 0 -0.0023225597496400411 0.026726988863689807 0 -0.0028430549563199844 0.026192612043678478 0 -0.0030263582754956344 0.02688155824027012 0 -0.0035417247561447757 0.026908018823716705 0 -0.0030263582754956344 0.02688155824027012 0 -0.003409499706586373 0.026317338120459416 0 -0.0028430549563199844 0.026192612043678478 0 -0.0030263582754956344 0.02688155824027012 0 -0.003409499706586373 0.026317338120459416 0 -0.0028430549563199844 0.026192612043678478 0 -0.003409499706586373 0.026317338120459416 0 -0.0033064248497917427 0.025736796348709616 0 -0.0028430549563199844 0.026192612043678478 0 -0.0026276989866640533 0.025513396540048142 0 -0.0033064248497917427 0.025736796348709616 0 -0.0029845249462958222 0.025017286265950324 0 -0.0026276989866640533 0.025513396540048142 0 -0.0033064248497917427 0.025736796348709616 0 -0.0015525532438840132 0.025382118411793227 0 -0.0012098778421741258 0.025347699362303973 0 -0.0029845249462958222 0.025017286265950324 0 -0.0026276989866640533 0.025513396540048142 0 -0.0024411934398838441 0.024839831770067461 0 -0.002166651411541657 0.026124284844611725 0 -0.0026276989866640533 0.025513396540048142 0 -0.0018923345758174305 0.025424831359841592 0 -0.00070941882628786448 0.025743519271884216 0 -0.0012098778421741258 0.025347699362303973 0 -0.00089963962894958939 0.025376624438596132 0 -0.00077702184244164566 0.025728229920909871 0 -0.00064667704553319409 0.025690411733349867 0 -0.00070941882628786448 0.025743519271884216 0 -0.00082031349101379216 0.02536918629237974 0 0.00096026861425566111 0.026450081349012 0 0.00096548245971944072 0.026439260842354866 0 0.00095285167842695524 0.026432062222677091 0 -0.0026276989866640533 0.025513396540048142 0 -0.0018923345758174305 0.025424831359841592 0 -0.0024411934398838441 0.024839831770067461 0 0.00096548245971944072 0.026439260842354866 0 0.00097779433544901767 0.026446619044085701 0 0.00097191976314728898 0.026427505826198537 0 0.00096026861425566111 0.026450081349012 0 0.00096548245971944072 0.026439260842354866 0 0.00097779433544901767 0.026446619044085701 0 0.00096947715817959524 0.026460725052585957 0 0.00096026861425566111 0.026450081349012 0 0.00097779433544901767 0.026446619044085701 0 -0.00016798493398081221 0.026152242522115145 0 -0.00070941882628786448 0.025743519271884216 0 -0.0043972785226379044 0.026075187101969235 0 -0.0049533522325480982 0.025663660957107631 0 -0.0049806535878085196 0.026298168590415096 0 -0.004717300801078789 0.026672546689244788 0 -0.0045148454783850685 0.026513904822484228 0 -0.0049806535878085196 0.026298168590415096 0 -0.0043972785226379044 0.026075187101969235 0 -0.0045148454783850685 0.026513904822484228 0 -0.0049806535878085196 0.026298168590415096 0 -0.0043972785226379044 0.026075187101969235 0 -0.0045148454783850685 0.026513904822484228 0 -0.0040249637043207219 0.026592305056662605 0 -0.0035417247561447757 0.026908018823716705 0 -0.003409499706586373 0.026317338120459416 0 -0.0040249637043207219 0.026592305056662605 0 -0.003409499706586373 0.026317338120459416 0 -0.0040249637043207219 0.026592305056662605 0 -0.0038120672176781196 0.02610933422020045 0 -0.003409499706586373 0.026317338120459416 0 -0.0038120672176781196 0.02610933422020045 0 -0.0033064248497917427 0.025736796348709616 0 -0.0043972785226379044 0.026075187101969235 0 -0.0038120672176781196 0.02610933422020045 0 -0.0039322237021891023 0.025649644064716117 0 -0.0043972785226379044 0.026075187101969235 0 -0.0040249637043207219 0.026592305056662605 0 -0.0038120672176781196 0.02610933422020045 0 -0.0038120672176781196 0.02610933422020045 0 -0.0039322237021891023 0.025649644064716117 0 -0.0033064248497917427 0.025736796348709616 0 -0.0039322237021891023 0.025649644064716117 0 -0.0033064248497917427 0.025736796348709616 0 -0.0035260264960551646 0.025276254816351033 0 -0.0029845249462958222 0.025017286265950324 0 -0.0033064248497917427 0.025736796348709616 0 -0.0035260264960551646 0.025276254816351033 0 -0.0029845249462958222 0.025017286265950324 0 -0.0035260264960551646 0.025276254816351033 0 -0.0034147371424139549 0.024698733659061951 0 -0.0039322237021891023 0.025649644064716117 0 -0.0039309469912463656 0.024966428113767189 0 -0.0044628106626554967 0.02530186081802133 0 -0.0035260264960551646 0.025276254816351033 0 -0.0039309469912463656 0.024966428113767189 0 -0.0034147371424139549 0.024698733659061951 0 -0.0039322237021891023 0.025649644064716117 0 -0.0035260264960551646 0.025276254816351033 0 -0.0039309469912463656 0.024966428113767189 0 -0.0039309469912463656 0.024966428113767189 0 -0.004329429965118467 0.024866465059802841 0 -0.0044628106626554967 0.02530186081802133 0 -0.004329429965118467 0.024866465059802841 0 -0.0044628106626554967 0.02530186081802133 0 -0.0046785964244937363 0.024875591225195351 0 -0.0043972785226379044 0.026075187101969235 0 -0.0039322237021891023 0.025649644064716117 0 -0.0044628106626554967 0.02530186081802133 0 -0.0043972785226379044 0.026075187101969235 0 -0.0044628106626554967 0.02530186081802133 0 -0.0049533522325480982 0.025663660957107631 0 -0.0045493989371053235 0.021900836510017348 0 -0.0053268488865315126 0.020973010667959893 0 -0.0044628106626554967 0.02530186081802133 0 -0.0049533522325480982 0.025663660957107631 0 -0.0048684620494039328 0.024879279766885903 0 -0.0044628106626554967 0.02530186081802133 0 -0.0046785964244937363 0.024875591225195351 0 -0.0048684620494039328 0.024879279766885903 0 -0.0031485299825454284 0.018823431158263185 0 -0.0031604335245982358 0.01880872207855588 0 -0.0031449534105848433 0.018796921209525239 0 -0.0031604335245982358 0.01880872207855588 0 -0.0031605024032397792 0.018793633065791793 0 -0.0031449534105848433 0.018796921209525239 0 -0.0031604335245982358 0.01880872207855588 0 -0.0031788897311741961 0.018788635802965123 0 -0.0031605024032397792 0.018793633065791793 0 -0.0031604335245982358 0.01880872207855588 0 -0.0031758775255070659 0.01881327493948266 0 -0.0031788897311741961 0.018788635802965123 0 -0.0031758775255070659 0.01881327493948266 0 -0.0031633291766592899 0.018830608136657986 0 -0.00318223682010761 0.018829182520705392 0 -0.0031604335245982358 0.01880872207855588 0 -0.0031758775255070659 0.01881327493948266 0 -0.0031633291766592899 0.018830608136657986 0 -0.0031485299825454284 0.018823431158263185 0 -0.0031604335245982358 0.01880872207855588 0 -0.0031633291766592899 0.018830608136657986 0 -0.0031633291766592899 0.018830608136657986 0 -0.003164108789101042 0.018854011163074794 0 -0.0031509864629665164 0.018852774156452506 0 -0.0031485299825454284 0.018823431158263185 0 -0.0031633291766592899 0.018830608136657986 0 -0.0031509864629665164 0.018852774156452506 0 -0.0045493989371053235 0.021900836510017348 0 -0.0038443111143698161 0.022719684814666165 0 -0.003164108789101042 0.018854011163074794 0 -0.0031691225802493923 0.018844685119333338 0 -0.0031664227709902802 0.01882985695081818 0 -0.0020139374657730312 0.016991747165064752 0 -0.0020441578726489453 0.016658211550400835 0 -0.0031633291766592899 0.018830608136657986 0 -0.003164108789101042 0.018854011163074794 0 -0.00318223682010761 0.018829182520705392 0 -0.003164108789101042 0.018854011163074794 0 -0.0031721899811041664 0.018857271066887501 0 -0.0031561233411594928 0.018880855857216581 0 -0.0038443111143698161 0.022719684814666165 0 -0.0031291608246781944 0.023660442143823124 0 -0.003164108789101042 0.018854011163074794 0 -0.0031509864629665164 0.018852774156452506 0 -0.0031561233411594928 0.018880855857216581 0 -0.0027038598074501335 0.021769102713565077 0 -0.0021613326474149157 0.019458402563698702 0 -0.0035391118467648208 0.028179600840338555 0 -0.0044585432089906101 0.028192239407834038 0 -0.0035610471678491932 0.028878839647064256 0 -0.0031721899811041664 0.018857271066887501 0 -0.0031730686745087989 0.018836948335995099 0 -0.0031691225802493923 0.018844685119333338 0 -0.003164108789101042 0.018854011163074794 0 -0.0031721899811041664 0.018857271066887501 0 -0.0031691225802493923 0.018844685119333338 0 -0.0031721899811041664 0.018857271066887501 0 -0.0031730686745087989 0.018836948335995099 0 -0.0031838843298500515 0.018839153022813315 0 -0.0031730686745087989 0.018836948335995099 0 -0.0031691225802493923 0.018844685119333338 0 -0.0031664227709902802 0.01882985695081818 0 -0.0031730686745087989 0.018836948335995099 0 -0.0031664227709902802 0.01882985695081818 0 -0.0031693902524757749 0.018823904855367106 0 -0.0031730686745087989 0.018836948335995099 0 -0.0031838843298500515 0.018839153022813315 0 -0.0031693902524757749 0.018823904855367106 0 -0.0021613326474149157 0.019458402563698702 0 -0.0022158702070085648 0.019424126993043453 0 -0.0031313038300603158 0.018757657849711597 0 -0.0031495879993830305 0.018823229479640189 0 -0.0030977312669198762 0.018780278494758822 0 -0.0017522538121299634 0.015897417094619556 0 -0.0021038734847119104 0.017099462440245926 0 -0.0031313038300603158 0.018757657849711597 0 -0.0031495879993830305 0.018823229479640189 0 -0.0031693902524757749 0.018823904855367106 0 0.0039398524733840878 0.0064610853379508393 0 0.0027157099510310913 0.006636802088071575 0 0.0021446058975607457 0.0081596256519490921 0 -0.0031495879993830305 0.018823229479640189 0 -0.0031693902524757749 0.018823904855367106 0 -0.0031745994503142262 0.018827997217281109 0 0.0039398524733840878 0.0064610853379508393 0 0.0056157514987420281 0.0048783908273104968 0 0.0038915654663915899 0.0047943020016610908 0 -0.0017522538121299634 0.015897417094619556 0 -0.002190726348191791 0.015505019718346865 0 0.0039398524733840878 0.0064610853379508393 0 0.0031266072769087351 0.00546686092076376 0 0.0027157099510310913 0.006636802088071575 0 0.0039398524733840878 0.0064610853379508393 0 0.0031266072769087351 0.00546686092076376 0 0.0038915654663915899 0.0047943020016610908 0 -0.0031758775255070659 0.01881327493948266 0 -0.00318223682010761 0.018829182520705392 0 -0.0031958978029250507 0.018802173372748563 0 -0.0031664227709902802 0.01882985695081818 0 -0.0031693902524757749 0.018823904855367106 0 -0.0031745994503142262 0.018827997217281109 0 -0.0020441578726489453 0.016658211550400835 0 -0.002190726348191791 0.015505019718346865 0 -0.002190726348191791 0.015505019718346865 0 -0.0042796596926593126 0.017727297753130589 0 -0.0021328347975560773 0.016740187626997215 0 -0.0025895546077691961 0.015767896908044875 0 -0.0011213830611126563 0.015825628668475991 0 -0.0031758775255070659 0.01881327493948266 0 -0.0031958978029250507 0.018802173372748563 0 -0.0031788897311741961 0.018788635802965123 0 -0.002190726348191791 0.015505019718346865 0 -0.0019433787767153782 0.014882134564067647 0 0.0031552407356667811 0.0045910178946215689 0 0.0038915654663915899 0.0047943020016610908 0 0.0033400060094140242 0.0038348537182817145 0 0.0031266072769087351 0.00546686092076376 0 0.0031552407356667811 0.0045910178946215689 0 0.0025259049027857188 0.0048258788418446517 0 0.0031266072769087351 0.00546686092076376 0 0.0031552407356667811 0.0045910178946215689 0 0.0038915654663915899 0.0047943020016610908 0 0.0056157514987420281 0.0048783908273104968 0 0.0038915654663915899 0.0047943020016610908 0 0.0042128234298146605 0.0039510456935930209 0 0.0042128234298146605 0.0039510456935930209 0 0.0037185595976319602 0.0034065819150280062 0 0.0046348311136551043 0.0028743064754286145 0 0.0056157514987420281 0.0048783908273104968 0 0.0042128234298146605 0.0039510456935930209 0 0.0046348311136551043 0.0028743064754286145 0 0.0037185595976319602 0.0034065819150280062 0 0.0030424067462100964 0.0033795186790798238 0 0.0034906352096366004 0.0028699222872763087 0 0.0038915654663915899 0.0047943020016610908 0 0.0042128234298146605 0.0039510456935930209 0 0.0033400060094140242 0.0038348537182817145 0 0.0042128234298146605 0.0039510456935930209 0 0.0037185595976319602 0.0034065819150280062 0 0.0033400060094140242 0.0038348537182817145 0 0.0031552407356667811 0.0045910178946215689 0 0.0033400060094140242 0.0038348537182817145 0 0.0028736254620377955 0.0040623756152716323 0 0.0033400060094140242 0.0038348537182817145 0 0.0029515394179657566 0.0036706991977633863 0 0.0028736254620377955 0.0040623756152716323 0 0.0033400060094140242 0.0038348537182817145 0 0.0029515394179657566 0.0036706991977633863 0 0.0030424067462100964 0.0033795186790798238 0 0.0037185595976319602 0.0034065819150280062 0 0.0033400060094140242 0.0038348537182817145 0 0.0030424067462100964 0.0033795186790798238 0 0.0025572889702974236 0.0034201363667544292 0 0.0028736254620377955 0.0040623756152716323 0 0.0025259049027857188 0.0048258788418446517 0 0.0025572889702974236 0.0034201363667544292 0 0.0021334446346353165 0.0034900400968972999 0 0.0022632235196685981 0.004045247239522631 0 0.0025572889702974236 0.0034201363667544292 0 0.0025259049027857188 0.0048258788418446517 0 0.0015113867892999828 0.0057617147464061975 0 0.00086848222712224263 0.0079077649828935941 0 0.00061941129204502753 0.0085491902873353464 0 0.0030424067462100964 0.0033795186790798238 0 0.0025572889702974236 0.0034201363667544292 0 0.002612159969909462 0.0029988744495446254 0 0.0029515394179657566 0.0036706991977633863 0 0.0030424067462100964 0.0033795186790798238 0 0.0025572889702974236 0.0034201363667544292 0 0.0029515394179657566 0.0036706991977633863 0 0.0025572889702974236 0.0034201363667544292 0 0.0028736254620377955 0.0040623756152716323 0 0.0031552407356667811 0.0045910178946215689 0 0.0028736254620377955 0.0040623756152716323 0 0.0025259049027857188 0.0048258788418446517 0 0.0021334446346353165 0.0034900400968972999 0 0.0017051071218058729 0.0036837860358352337 0 0.0022632235196685981 0.004045247239522631 0 0.0025572889702974236 0.0034201363667544292 0 0.0021334446346353165 0.0034900400968972999 0 0.0022703826305556741 0.0031617808388742625 0 0.0021334446346353165 0.0034900400968972999 0 0.0018914107890688084 0.0031185389624749944 0 0.0022703826305556741 0.0031617808388742625 0 0.0017051071218058729 0.0036837860358352337 0 0.00087141185196079206 0.0039951535685848324 0 0.0013890057194621865 0.0031697159013082429 0 0.0017051071218058729 0.0036837860358352337 0 0.0013890057194621865 0.0031697159013082429 0 0.0018914107890688084 0.0031185389624749944 0 0.0021334446346353165 0.0034900400968972999 0 0.0017051071218058729 0.0036837860358352337 0 0.0018914107890688084 0.0031185389624749944 0 0.0016531822722620952 0.0042550955749815897 0 0.00087141185196079206 0.0039951535685848324 0 0.0016708458205024683 0.0049793096915186031 0 0.0017051071218058729 0.0036837860358352337 0 0.0016531822722620952 0.0042550955749815897 0 0.00087141185196079206 0.0039951535685848324 0 0.0016531822722620952 0.0042550955749815897 0 0.0022632235196685981 0.004045247239522631 0 0.0019816437977572044 0.0047640260472791946 0 0.0017051071218058729 0.0036837860358352337 0 0.0016531822722620952 0.0042550955749815897 0 0.0022632235196685981 0.004045247239522631 0 0.00061941129204502753 0.0085491902873353464 0 -7.9209589637290647e-05 0.010359670453895546 0 0.0027157099510310913 0.006636802088071575 0 0.0015113867892999828 0.0057617147464061975 0 0.00058458725789124798 0.0081070416695071569 0 0.00031870498745900102 0.010014832538420624 0 -7.9209589637290647e-05 0.010359670453895546 0 0.0031266072769087351 0.00546686092076376 0 0.0027157099510310913 0.006636802088071575 0 0.0024308042016163408 0.0056928303610519135 0 0.0027157099510310913 0.006636802088071575 0 0.0024308042016163408 0.0056928303610519135 0 0.0015113867892999828 0.0057617147464061975 0 0.0031266072769087351 0.00546686092076376 0 0.0025259049027857188 0.0048258788418446517 0 0.0024308042016163408 0.0056928303610519135 0 0.0025259049027857188 0.0048258788418446517 0 0.0024308042016163408 0.0056928303610519135 0 0.0015113867892999828 0.0057617147464061975 0 -0.010990209478961328 -0.0057921224007537013 0 -0.0091378487586502733 -0.0060198121790203882 0 -0.0090366949178452057 -0.0033864440103121311 0 0.00087141185196079206 0.0039951535685848324 0 0.00081139689595205911 0.0027252230384570736 0 5.2043832646345965e-05 0.0029782765540882807 0 -0.0091378487586502733 -0.0060198121790203882 0 -0.0090366949178452057 -0.0033864440103121311 0 -0.0080674074199532549 -0.0047956477052566943 0 -0.0033766325612515648 0.0037076460833910772 0 -0.0032352285019308078 0.00079776639971212992 0 0.00087141185196079206 0.0039951535685848324 0 0.00081139689595205911 0.0027252230384570736 0 0.0013890057194621865 0.0031697159013082429 0 -0.0033766325612515648 0.0037076460833910772 0 -0.00098510273502390054 0.010271378011848648 0 -0.0091378487586502733 -0.0060198121790203882 0 -0.0097630542108862097 -0.0077990632058724356 0 -0.0085091802849900609 -0.0077984314016089924 0 -0.010990209478961328 -0.0057921224007537013 0 -0.0091378487586502733 -0.0060198121790203882 0 -0.0097630542108862097 -0.0077990632058724356 0 -0.0097630542108862097 -0.0077990632058724356 0 -0.0090929803173965627 -0.009265081375891852 0 -0.0085091802849900609 -0.0077984314016089924 0 -0.0097630542108862097 -0.0077990632058724356 0 -0.010098414002272051 -0.0088347291457777418 0 -0.011124892117378117 -0.0083382523988417539 0 -0.0097630542108862097 -0.0077990632058724356 0 -0.010098414002272051 -0.0088347291457777418 0 -0.0090929803173965627 -0.009265081375891852 0 -0.010990209478961328 -0.0057921224007537013 0 -0.011124892117378117 -0.0083382523988417539 0 -0.012927829979688945 -0.0081748736561793565 0 -0.010990209478961328 -0.0057921224007537013 0 -0.0097630542108862097 -0.0077990632058724356 0 -0.011124892117378117 -0.0083382523988417539 0 -0.011124892117378117 -0.0083382523988417539 0 -0.010411149393454168 -0.0099348781072098949 0 -0.012927829979688945 -0.0081748736561793565 0 -0.00059874441568156926 0.026363946510803125 0 -0.0011302620988254909 0.026444713696364395 0 -0.00070434956808978989 0.026068874198719085 0 -0.0011371933745849367 0.015411320597695437 0 -0.0022145150522955258 0.017358684020863147 0 -0.0024477169976116508 0.0095649746503530669 0 -0.00098510273502390054 0.010271378011848648 0 -0.010098414002272051 -0.0088347291457777418 0 -0.011124892117378117 -0.0083382523988417539 0 -0.010411149393454168 -0.0099348781072098949 0 -0.010411149393454168 -0.0099348781072098949 0 -0.0090929803173965627 -0.009265081375891852 0 -0.0078891130755887051 -0.011693595810302635 0 -0.010098414002272051 -0.0088347291457777418 0 -0.010411149393454168 -0.0099348781072098949 0 -0.0090929803173965627 -0.009265081375891852 0 -0.0021038734847119104 0.017099462440245926 0 -0.00041259048745505105 0.014406461786584909 0 -0.00070830831747100429 0.024844519620664151 0 -0.00088824312586997648 0.025018850851030255 0 -0.00076584860549207235 0.025032057165803763 0 0.0021446058975607457 0.0081596256519490921 0 0.00052941037697005209 0.0081587947775959777 0 0.0002770341474449394 0.0098715449090667987 0 -0.00058538372359850693 0.024939535326153582 0 -0.00070830831747100429 0.024844519620664151 0 -0.00076584860549207235 0.025032057165803763 0 0.0027157099510310913 0.006636802088071575 0 0.0021446058975607457 0.0081596256519490921 0 0.00052941037697005209 0.0081587947775959777 0 -0.0021613326474149157 0.019458402563698702 0 -0.0021038734847119104 0.017099462440245926 0 0.0016531822722620952 0.0042550955749815897 0 0.0019816437977572044 0.0047640260472791946 0 0.0016708458205024683 0.0049793096915186031 0 -7.9209589637290647e-05 0.010359670453895546 0 -0.00098510273502390054 0.010271378011848648 0 0.00052941037697005209 0.0081587947775959777 0 -4.9754979423034025e-06 0.0095250185704455412 0 0.0002770341474449394 0.0098715449090667987 0 -0.0011108153154352216 0.026655153666503319 0 -0.0011822437632357391 0.026568325817949771 0 -0.0011302620988254909 0.026444713696364395 0 -7.9209589637290647e-05 0.010359670453895546 0 -0.00055683448985584445 0.013195411817530051 0 -0.0047228341216530934 0.014103133796626246 0 0.0039589228277917719 0.0081473010676275711 0 -0.00030020361925873308 0.0029168110493847199 0 -0.00098510273502390054 0.010271378011848648 0 -0.00055683448985584445 0.013195411817530051 0 -0.00055683448985584445 0.013195411817530051 0 -0.00041259048745505105 0.014406461786584909 0 -0.0011371933745849367 0.015411320597695437 0 -0.0020630145781390268 0.019514046297395986 0 -0.00087733321219888259 0.025034362849241636 0 -0.00092994028223205032 0.025092755855917699 0 -0.00084648716346219456 0.025071985730515847 0 -0.00092994028223205032 0.025092755855917699 0 -0.00087083700247604287 0.025188445294031196 0 -0.00084648716346219456 0.025071985730515847 0 -0.00041259048745505105 0.014406461786584909 0 -0.00038120822768966049 0.014469101033030406 0 -0.00059874441568156926 0.026363946510803125 0 -0.0011108153154352216 0.026655153666503319 0 -0.0011302620988254909 0.026444713696364395 0 -0.00092994028223205032 0.025092755855917699 0 -0.00087083700247604287 0.025188445294031196 0 -0.00090033816553326221 0.025290526128447361 0 -0.0006294003745261048 0.020812574298075939 0 -0.003651358312376605 0.017101408082381434 0 0.0033297340325453119 0.010795781198833964 0 -0.00055683448985584445 0.013195411817530051 0 -0.0011371933745849367 0.015411320597695437 0 -0.00041259048745505105 0.014406461786584909 0 -0.0011371933745849367 0.015411320597695437 0 -0.0021613326474149157 0.019458402563698702 0 -0.0027551223718032558 0.022850828057375219 0 -0.00076584860549207235 0.025032057165803763 0 -0.00084648716346219456 0.025071985730515847 0 -0.00080734358943160972 0.025272233676134664 0 -0.00058538372359850693 0.024939535326153582 0 -0.00076584860549207235 0.025032057165803763 0 -0.00080734358943160972 0.025272233676134664 0 -0.0035391118467648208 0.028179600840338555 0 -0.0035610471678491932 0.028878839647064256 0 -0.0029378496954912711 0.027975186388489424 0 -0.00087083700247604287 0.025188445294031196 0 -0.00084648716346219456 0.025071985730515847 0 -0.00080734358943160972 0.025272233676134664 0 -0.00088824312586997648 0.025018850851030255 0 -0.00076584860549207235 0.025032057165803763 0 -0.00084648716346219456 0.025071985730515847 0 -0.0033408561093198862 0.027645409887268029 0 -0.0029378496954912711 0.027975186388489424 0 -0.0029901846038788197 0.027220622107941472 0 -0.0035391118467648208 0.028179600840338555 0 -0.0033408561093198862 0.027645409887268029 0 -0.0029378496954912711 0.027975186388489424 0 -0.00090033816553326221 0.025290526128447361 0 -0.00096998356201134805 0.025357572825249745 0 -0.00095716262861450041 0.025415663238920069 0 -0.00087083700247604287 0.025188445294031196 0 -0.00080734358943160972 0.025272233676134664 0 -0.00090033816553326221 0.025290526128447361 0 -0.00080734358943160972 0.025272233676134664 0 -0.00090033816553326221 0.025290526128447361 0 -0.00095716262861450041 0.025415663238920069 0 -0.00092994028223205032 0.025092755855917699 0 -0.00090033816553326221 0.025290526128447361 0 -0.00096998356201134805 0.025357572825249745 0 -0.0027551223718032558 0.022850828057375219 0 -0.0025874512061318487 0.024072405529944805 0 -0.0021911116041719988 0.027006797861901403 0 -0.0029901846038788197 0.027220622107941472 0 -0.0026980212187600948 0.02667807144808107 0 -0.0029378496954912711 0.027975186388489424 0 -0.0021911116041719988 0.027006797861901403 0 -0.0029901846038788197 0.027220622107941472 0 -0.0029901846038788197 0.027220622107941472 0 -0.0032214416795594354 0.026686232082339625 0 -0.0026980212187600948 0.02667807144808107 0 -0.0029901846038788197 0.027220622107941472 0 -0.0032214416795594354 0.026686232082339625 0 -0.0036442368982642021 0.027150665526494391 0 -0.0033408561093198862 0.027645409887268029 0 -0.0029901846038788197 0.027220622107941472 0 -0.0036442368982642021 0.027150665526494391 0 -0.00070434956808978989 0.026068874198719085 0 -0.0003923944503799799 0.025699041671299151 0 8.7564723131451207e-05 0.026079000146247207 0 -0.0024477169976116508 0.0095649746503530669 0 -0.002255858253506768 0.0084474491027285992 0 -0.00059874441568156926 0.026363946510803125 0 -0.00070434956808978989 0.026068874198719085 0 8.7564723131451207e-05 0.026079000146247207 0 -0.0012327737462827734 0.026488330524332495 0 -0.0010197727332864029 0.025986480023385054 0 -0.00070434956808978989 0.026068874198719085 0 -0.0010197727332864029 0.025986480023385054 0 -0.00070434956808978989 0.026068874198719085 0 -0.00072683969228270931 0.025766290405274235 0 -0.0020630145781390268 0.019514046297395986 0 -0.0022828581777923351 0.020635040973149433 0 -0.00096998356201134805 0.025357572825249745 0 -0.00095716262861450041 0.025415663238920069 0 -0.00082376508830006925 0.025357202673705913 0 -0.0010197727332864029 0.025986480023385054 0 -0.00072683969228270931 0.025766290405274235 0 -0.00082376508830006925 0.025357202673705913 0 -0.00072683969228270931 0.025766290405274235 0 -0.0003923944503799799 0.025699041671299151 0 -0.00082376508830006925 0.025357202673705913 0 -0.00070434956808978989 0.026068874198719085 0 -0.00072683969228270931 0.025766290405274235 0 -0.0003923944503799799 0.025699041671299151 0 -0.0003923944503799799 0.025699041671299151 0 -0.00051642617792094008 0.025218646678838396 0 -0.00011806131337368447 0.025416566157074192 0 -0.0003923944503799799 0.025699041671299151 0 -0.00051642617792094008 0.025218646678838396 0 -0.00082376508830006925 0.025357202673705913 0 -0.00051642617792094008 0.025218646678838396 0 -0.00024882945913839126 0.024798360114990904 0 -0.00011806131337368447 0.025416566157074192 0 -0.00051642617792094008 0.025218646678838396 0 -0.00082931931848670393 0.024980086326322815 0 -0.00024882945913839126 0.024798360114990904 0 -0.0025874512061318487 0.024072405529944805 0 -0.0022327734573083877 0.02429417675796753 0 -0.00051642617792094008 0.025218646678838396 0 -0.00082376508830006925 0.025357202673705913 0 -0.00082931931848670393 0.024980086326322815 0 -0.00095716262861450041 0.025415663238920069 0 -0.00082376508830006925 0.025357202673705913 0 -0.00082931931848670393 0.024980086326322815 0 -0.0014583161586474206 0.024564462583182851 0 -0.0013420243454489854 0.025772728629719917 0 -0.0023177007654327339 0.025281618066146271 0 -0.0020341124052831862 0.024216317693532122 0 -0.0022327734573083877 0.02429417675796753 0 -0.00054382839570473569 0.024178603571815522 0 -0.00082931931848670393 0.024980086326322815 0 -0.00024882945913839126 0.024798360114990904 0 -0.0027739787924447794 0.026046006920942 0 -0.0034144857207925347 0.026123750957273369 0 -0.0032214416795594354 0.026686232082339625 0 -0.0027739787924447794 0.026046006920942 0 -0.0032214416795594354 0.026686232082339625 0 -0.0026980212187600948 0.02667807144808107 0 -0.0021911116041719988 0.027006797861901403 0 -0.0013420243454489854 0.025772728629719917 0 -0.0022702190164933726 0.026169861695787253 0 -0.0021911116041719988 0.027006797861901403 0 -0.0026980212187600948 0.02667807144808107 0 -0.0022702190164933726 0.026169861695787253 0 -0.0027739787924447794 0.026046006920942 0 -0.0026980212187600948 0.02667807144808107 0 -0.0022702190164933726 0.026169861695787253 0 -0.0027739787924447794 0.026046006920942 0 -0.0022702190164933726 0.026169861695787253 0 -0.0023177007654327339 0.025281618066146271 0 -0.0013420243454489854 0.025772728629719917 0 -0.0022702190164933726 0.026169861695787253 0 -0.0023177007654327339 0.025281618066146271 0 -0.00308604496430314 0.024577533118335979 0 -0.0023177007654327339 0.025281618066146271 0 -0.0030697982095359926 0.025544544012341176 0 -0.00308604496430314 0.024577533118335979 0 -0.0030697982095359926 0.025544544012341176 0 -0.0037162097636746771 0.025654752837944817 0 -0.0027739787924447794 0.026046006920942 0 -0.0023177007654327339 0.025281618066146271 0 -0.0030697982095359926 0.025544544012341176 0 -0.0027739787924447794 0.026046006920942 0 -0.0034144857207925347 0.026123750957273369 0 -0.0030697982095359926 0.025544544012341176 0 -0.0034144857207925347 0.026123750957273369 0 -0.0030697982095359926 0.025544544012341176 0 -0.0037162097636746771 0.025654752837944817 0 -0.0039807924448516325 0.025026156009610702 0 -0.0037162097636746771 0.025654752837944817 0 -0.0041052977894528867 0.025934587829188119 0 -0.0037162097636746771 0.025654752837944817 0 -0.0041052977894528867 0.025934587829188119 0 -0.0039061370235237989 0.02622167860894167 0 -0.0034144857207925347 0.026123750957273369 0 -0.0037162097636746771 0.025654752837944817 0 -0.0039061370235237989 0.02622167860894167 0 -0.0034144857207925347 0.026123750957273369 0 -0.0039061370235237989 0.02622167860894167 0 -0.0037300616553938757 0.026618176642998932 0 -0.0039061370235237989 0.02622167860894167 0 -0.0040490546554589361 0.026536922480375487 0 -0.0043264190707607789 0.02643326915403291 0 -0.0041052977894528867 0.025934587829188119 0 -0.0039061370235237989 0.02622167860894167 0 -0.0043264190707607789 0.02643326915403291 0 -0.0039061370235237989 0.02622167860894167 0 -0.0040490546554589361 0.026536922480375487 0 -0.0037300616553938757 0.026618176642998932 0 -0.0040490546554589361 0.026536922480375487 0 -0.0037300616553938757 0.026618176642998932 0 -0.0041862715215919355 0.026827105987439186 0 -0.0034144857207925347 0.026123750957273369 0 -0.0032214416795594354 0.026686232082339625 0 -0.0037300616553938757 0.026618176642998932 0 -0.0045092323188902859 0.026645545929449666 0 -0.0047466388812229974 0.026628102763213281 0 -0.0046352234280629357 0.026886564358818785 0 -0.0045092323188902859 0.026645545929449666 0 -0.0041862715215919355 0.026827105987439186 0 -0.0046352234280629357 0.026886564358818785 0 -0.0040490546554589361 0.026536922480375487 0 -0.0043264190707607789 0.02643326915403291 0 -0.0041862715215919355 0.026827105987439186 0 -0.0045092323188902859 0.026645545929449666 0 -0.0043264190707607789 0.02643326915403291 0 -0.0041862715215919355 0.026827105987439186 0 -0.0043264190707607789 0.02643326915403291 0 -0.0045927957010223706 0.026471608287418388 0 -0.0045335258144857107 0.026246688155553564 0 -0.0045092323188902859 0.026645545929449666 0 -0.0043264190707607789 0.02643326915403291 0 -0.0045927957010223706 0.026471608287418388 0 -0.0045927957010223706 0.026471608287418388 0 -0.0047344235465457294 0.026470430076472522 0 -0.0047466388812229974 0.026628102763213281 0 -0.0045092323188902859 0.026645545929449666 0 -0.0045927957010223706 0.026471608287418388 0 -0.0047466388812229974 0.026628102763213281 0 -0.0045927957010223706 0.026471608287418388 0 -0.0045335258144857107 0.026246688155553564 0 -0.0047344235465457294 0.026470430076472522 0 -0.0045335258144857107 0.026246688155553564 0 -0.0048843451524187556 0.026438109292887861 0 -0.0047344235465457294 0.026470430076472522 0 -0.0045335258144857107 0.026246688155553564 0 -0.0043869396514361874 0.025725753859778263 0 -0.0048843451524187556 0.026438109292887861 0 -0.0046464017441460821 0.024449392434283273 0 -0.0043869396514361874 0.025725753859778263 0 -0.0048843451524187556 0.026438109292887861 0 -0.0041052977894528867 0.025934587829188119 0 -0.0045335258144857107 0.026246688155553564 0 -0.0043869396514361874 0.025725753859778263 0 -0.0041052977894528867 0.025934587829188119 0 -0.0043264190707607789 0.02643326915403291 0 -0.0045335258144857107 0.026246688155553564 0 -0.0039807924448516325 0.025026156009610702 0 -0.0041052977894528867 0.025934587829188119 0 -0.0043869396514361874 0.025725753859778263 0 -0.0047012109574368199 0.026881701522479536 0 -0.0046789898252564688 0.026752183131954512 0 -0.0048843451524187556 0.026438109292887861 0 -0.0046789898252564688 0.026752183131954512 0 -0.0047606739339324843 0.026592782635127196 0 -0.0048843451524187556 0.026438109292887861 0 -0.0046789898252564688 0.026752183131954512 0 -0.0046938280447375337 0.026692311679068288 0 -0.0047606739339324843 0.026592782635127196 0 -0.0046938280447375337 0.026692311679068288 0 -0.0047606739339324843 0.026592782635127196 0 -0.0047213349508070535 0.026655113490366512 0 -0.0047606739339324843 0.026592782635127196 0 -0.0048843451524187556 0.026438109292887861 0 -0.0048007861846389045 0.026536112336215396 0 -0.0048843451524187556 0.026438109292887861 0 -0.0047344235465457294 0.026470430076472522 0 -0.0048007861846389045 0.026536112336215396 0 -0.0045655324890864863 0.026936445659248864 0 -0.0046352220560561316 0.026806562797060274 0 -0.0046133311684019886 0.026846056015690692 0 -0.0045213510212946395 0.0270258675324032 0 -0.004507500869928717 0.027026235331034248 0 -0.0045655324890864863 0.026936445659248864 0 -0.0046282408822127226 0.026946752588111647 0 -0.0046789898252564688 0.026752183131954512 0 -0.0046047388206328062 0.026892198146205283 0 -0.0045655324890864863 0.026936445659248864 0 -0.0046047388206328062 0.026892198146205283 0 -0.0046352220560561316 0.026806562797060274 0 -0.0046789898252564688 0.026752183131954512 0 -0.0046047388206328062 0.026892198146205283 0 -0.0046352220560561316 0.026806562797060274 0 -0.0046703005324217443 0.026742852661117689 0 -0.0046133311684019886 0.026846056015690692 0 -0.0046738152059530849 0.02676806085051104 0 -0.0046938280447375337 0.026692311679068288 0 -0.0046352220560561316 0.026806562797060274 0 -0.0046703005324217443 0.026742852661117689 0 -0.0046789898252564688 0.026752183131954512 0 -0.0046938280447375337 0.026692311679068288 0 -0.0046352220560561316 0.026806562797060274 0 -0.0046938280447375337 0.026692311679068288 0 -0.0046703005324217443 0.026742852661117689 0 -0.0047213349508070535 0.026655113490366512 0 -0.0046352220560561316 0.026806562797060274 0 -0.0046703005324217443 0.026742852661117689 0 -0.0046133311684019886 0.026846056015690692 0 -0.0045503201203985124 0.026951374971625055 0 -0.0045725016158601195 0.026932957151966828 0 -0.0046133311684019886 0.026846056015690692 0 -0.0045503201203985124 0.026951374971625055 0 -0.0045655324890864863 0.026936445659248864 0 -0.0046133311684019886 0.026846056015690692 0 -0.0046738152059530849 0.02676806085051104 0 -0.0046579081348753926 0.026854640563661974 0 -0.0046635686762688923 0.026796373713554294 0 -0.0045725016158601195 0.026932957151966828 0 -0.0046133311684019886 0.026846056015690692 0 -0.0046738152059530849 0.02676806085051104 0 -0.0045725016158601195 0.026932957151966828 0 -0.0046738152059530849 0.02676806085051104 0 -0.0046579081348753926 0.026854640563661974 0 -0.0046703005324217443 0.026742852661117689 0 -0.0046738152059530849 0.02676806085051104 0 -0.0047213349508070535 0.026655113490366512 0 -0.0046738152059530849 0.02676806085051104 0 -0.0047213349508070535 0.026655113490366512 0 -0.0046635686762688923 0.026796373713554294 0 -0.0036461053689205518 0.02503098211703245 0 -0.0035272571226346843 0.024722185976379717 0 -0.0048007861846389045 0.026536112336215396 0 -0.0047213349508070535 0.026655113490366512 0 -0.0046635686762688923 0.026796373713554294 0 -0.0048007861846389045 0.026536112336215396 0 -0.0047466388812229974 0.026628102763213281 0 -0.0050558465935144781 0.026890014938525997 0 -0.0047344235465457294 0.026470430076472522 0 -0.0048007861846389045 0.026536112336215396 0 -0.0047466388812229974 0.026628102763213281 0 -0.0047606739339324843 0.026592782635127196 0 -0.0048007861846389045 0.026536112336215396 0 -0.0047213349508070535 0.026655113490366512 0 -0.0047466388812229974 0.026628102763213281 0 -0.0050558465935144781 0.026890014938525997 0 -0.0046352234280629357 0.026886564358818785 0 -0.0035272571226346843 0.024722185976379717 0 -0.0031291608246781944 0.023660442143823124 0 -0.0050558465935144781 0.026890014938525997 0 -0.0047429613704206763 0.027351906757047267 0 -0.0046352234280629357 0.026886564358818785 0 -0.0050558465935144781 0.026890014938525997 0 -0.0047429613704206763 0.027351906757047267 0 -0.0052891575388696625 0.027517354720369671 0 -0.004682486446173393 0.026864060684698873 0 -0.0046635686762688923 0.026796373713554294 0 -0.0046636820259566515 0.026849485783987308 0 -0.004682486446173393 0.026864060684698873 0 -0.0046579081348753926 0.026854640563661974 0 -0.0046635686762688923 0.026796373713554294 0 -0.003146870285536479 0.023820530108474871 0 -0.0031291608246781944 0.023660442143823124 0 -0.004717300801078789 0.026672546689244788 0 -0.004682486446173393 0.026864060684698873 0 -0.0049819731700761786 0.026743138064060448 0 -0.004717300801078789 0.026672546689244788 0 -0.0049806535878085196 0.026298168590415096 0 -0.0049819731700761786 0.026743138064060448 0 -0.0044585432089906101 0.028192239407834038 0 -0.0047429613704206763 0.027351906757047267 0 -0.0052891575388696625 0.027517354720369671 0 -0.0027038598074501335 0.021769102713565077 0 -0.0031291608246781944 0.023660442143823124 0 -0.0044585432089906101 0.028192239407834038 0 -0.0037848536589903418 0.027718671205433108 0 -0.0042572984299015116 0.02733265003434926 0 -0.0044585432089906101 0.028192239407834038 0 -0.0047429613704206763 0.027351906757047267 0 -0.0042572984299015116 0.02733265003434926 0 -0.0035391118467648208 0.028179600840338555 0 -0.0044585432089906101 0.028192239407834038 0 -0.0037848536589903418 0.027718671205433108 0 -0.0035391118467648208 0.028179600840338555 0 -0.0033408561093198862 0.027645409887268029 0 -0.0037848536589903418 0.027718671205433108 0 -0.0033408561093198862 0.027645409887268029 0 -0.0037848536589903418 0.027718671205433108 0 -0.0036442368982642021 0.027150665526494391 0 -0.0037848536589903418 0.027718671205433108 0 -0.0036442368982642021 0.027150665526494391 0 -0.0042572984299015116 0.02733265003434926 0 -0.0032214416795594354 0.026686232082339625 0 -0.0037300616553938757 0.026618176642998932 0 -0.0036442368982642021 0.027150665526494391 0 -0.0037300616553938757 0.026618176642998932 0 -0.0036442368982642021 0.027150665526494391 0 -0.0041862715215919355 0.026827105987439186 0 -0.0036442368982642021 0.027150665526494391 0 -0.0041862715215919355 0.026827105987439186 0 -0.0042572984299015116 0.02733265003434926 0 -0.0041862715215919355 0.026827105987439186 0 -0.0046352234280629357 0.026886564358818785 0 -0.0042572984299015116 0.02733265003434926 0 -0.0047429613704206763 0.027351906757047267 0 -0.0046352234280629357 0.026886564358818785 0 -0.0042572984299015116 0.02733265003434926 0 3.109142440776979e-05 0.034846251608411934 0 3.7994024019893715e-05 0.03485277992096799 0 3.9861594741942479e-05 0.034716323441085252 0 3.109142440776979e-05 0.034846251608411934 0 3.9861594741942479e-05 0.034716323441085252 0 5.1522511092791894e-05 0.034719615041404271 0 3.109142440776979e-05 0.034846251608411934 0 1.3675028483453151e-07 0.034999763787299076 0 -1.8749186180591193e-07 0.03499934626256121 0 3.109142440776979e-05 0.034846251608411934 0 1.3675028483453151e-07 0.034999763787299076 0 3.7994024019893715e-05 0.03485277992096799 0 1.3675028483453151e-07 0.034999763787299076 0 5.3458210684981521e-05 0.034926385807427782 0 3.7994024019893715e-05 0.03485277992096799 0 5.3458210684981521e-05 0.034926385807427782 0 3.7994024019893715e-05 0.03485277992096799 0 3.5507501423120511e-05 0.034742369299121667 0 1.3675028483453151e-07 0.034999763787299076 0 5.3458210684981521e-05 0.034926385807427782 0 3.1002999167610211e-08 0.034999861705112996 0 3.7994024019893715e-05 0.03485277992096799 0 3.9861594741942479e-05 0.034716323441085252 0 3.5507501423120511e-05 0.034742369299121667 0 3.9861594741942479e-05 0.034716323441085252 0 2.9124208492266303e-05 0.034641882108895961 0 3.5507501423120511e-05 0.034742369299121667 0 3.9861594741942479e-05 0.034716323441085252 0 3.2764238603931216e-05 0.034568256358716229 0 6.0411484541829364e-05 0.03459769039778729 0 3.9861594741942479e-05 0.034716323441085252 0 3.2764238603931216e-05 0.034568256358716229 0 2.9124208492266303e-05 0.034641882108895961 0 3.2764238603931216e-05 0.034568256358716229 0 6.0411484541829364e-05 0.03459769039778729 0 3.2752684315927967e-05 0.034426415366719483 0 6.0411484541829364e-05 0.03459769039778729 0 5.1522511092791894e-05 0.034719615041404271 0 7.7800609931320884e-05 0.034645969410903477 0 3.9861594741942479e-05 0.034716323441085252 0 6.0411484541829364e-05 0.03459769039778729 0 5.1522511092791894e-05 0.034719615041404271 0 7.7800609931320884e-05 0.034645969410903477 0 6.5151694941158262e-05 0.034644657415451197 0 3.922720701454454e-05 0.034776681571631815 0 5.1522511092791894e-05 0.034719615041404271 0 7.7800609931320884e-05 0.034645969410903477 0 3.922720701454454e-05 0.034776681571631815 0 7.7800609931320884e-05 0.034645969410903477 0 0.00011855120010884392 0.034527490409488479 0 0.00010966055012952888 0.034554050163620044 0 6.0411484541829364e-05 0.03459769039778729 0 7.7800609931320884e-05 0.034645969410903477 0 0.00011855120010884392 0.034527490409488479 0 6.0411484541829364e-05 0.03459769039778729 0 0.00011855120010884392 0.034527490409488479 0 0.0001693961180115473 0.034494370874021796 0 0.00010966055012952888 0.034554050163620044 0 0.00013789494189551322 0.034475683293321374 0 0.00014677047889475047 0.034464295835224833 0 0.00011855120010884392 0.034527490409488479 0 0.00010966055012952888 0.034554050163620044 0 0.00014677047889475047 0.034464295835224833 0 0.00010966055012952888 0.034554050163620044 0 6.5151694941158262e-05 0.034644657415451197 0 9.6905220083656182e-05 0.034536974127469228 0 7.7800609931320884e-05 0.034645969410903477 0 0.00010966055012952888 0.034554050163620044 0 6.5151694941158262e-05 0.034644657415451197 0 6.5151694941158262e-05 0.034644657415451197 0 3.922720701454454e-05 0.034776681571631815 0 2.4239525079406849e-06 0.03464917205926097 0 6.5151694941158262e-05 0.034644657415451197 0 2.4239525079406849e-06 0.03464917205926097 0 9.6905220083656182e-05 0.034536974127469228 0 3.109142440776979e-05 0.034846251608411934 0 5.1522511092791894e-05 0.034719615041404271 0 3.922720701454454e-05 0.034776681571631815 0 3.109142440776979e-05 0.034846251608411934 0 3.922720701454454e-05 0.034776681571631815 0 -1.8749186180591193e-07 0.03499934626256121 0 -2.6594507971059918e-10 0.035000001113659619 0 1.4440582120391913e-09 0.03499999987997255 0 9.7074618394581732e-07 0.035000443942416609 0 3.922720701454454e-05 0.034776681571631815 0 -1.8749186180591193e-07 0.03499934626256121 0 2.4239525079406849e-06 0.03464917205926097 0 1.1974904787863057e-07 0.034999736409718554 0 5.9715875988566339e-05 0.034905695387856657 0 1.4440582120391913e-09 0.03499999987997255 0 9.7074618394581732e-07 0.035000443942416609 0 1.548779965647249e-06 0.034999741779596701 0 2.4239525079406849e-06 0.03464917205926097 0 6.6618608386124876e-05 0.034467584480314659 0 9.6905220083656182e-05 0.034536974127469228 0 5.9715875988566339e-05 0.034905695387856657 0 8.9138444307056532e-05 0.034858495709357173 0 9.7074618394581732e-07 0.035000443942416609 0 1.548779965647249e-06 0.034999741779596701 0 3.1917240676284849e-06 0.035000087051956313 0 1.548779965647249e-06 0.034999741779596701 0 3.3039039947648582e-06 0.034998903072292989 0 3.1917240676284849e-06 0.035000087051956313 0 1.4440582120391913e-09 0.03499999987997255 0 1.548779965647249e-06 0.034999741779596701 0 -6.6775611089894145e-11 0.035000001007956819 0 1.548779965647249e-06 0.034999741779596701 0 -6.6775611089894145e-11 0.035000001007956819 0 2.4793209760997127e-06 0.034998531815151272 0 1.548779965647249e-06 0.034999741779596701 0 3.3039039947648582e-06 0.034998903072292989 0 2.4793209760997127e-06 0.034998531815151272 0 3.3039039947648582e-06 0.034998903072292989 0 2.4793209760997127e-06 0.034998531815151272 0 4.0464672544003613e-06 0.034997576296718381 0 2.4793209760997127e-06 0.034998531815151272 0 3.3050921368642571e-06 0.034994899276321656 0 4.0464672544003613e-06 0.034997576296718381 0 8.7282141466471467e-05 0.034879912182629272 0 9.1530180542019688e-05 0.034873367330724915 0 8.8492817520725374e-06 0.034994251379015712 0 3.3050921368642571e-06 0.034994899276321656 0 1.4064312864045377e-05 0.035000597807964128 0 1.7516228520427677e-06 0.034993170806484127 0 8.8492817520725374e-06 0.034994251379015712 0 3.3050921368642571e-06 0.034994899276321656 0 -6.6775611089894145e-11 0.035000001007956819 0 2.4793209760997127e-06 0.034998531815151272 0 3.3050921368642571e-06 0.034994899276321656 0 7.2706171377654924e-11 0.034999975786324862 0 1.7516228520427677e-06 0.034993170806484127 0 -6.6775611089894145e-11 0.035000001007956819 0 1.7516228520427677e-06 0.034993170806484127 0 -6.6775611089894145e-11 0.035000001007956819 0 3.3050921368642571e-06 0.034994899276321656 0 3.4003023167463315e-05 0.034987049046046673 0 1.6790888455814442e-05 0.034989099278250078 0 2.3920130382517084e-05 0.034996796459976796 0 3.4003023167463315e-05 0.034987049046046673 0 2.3920130382517084e-05 0.034996796459976796 0 3.2420677733095635e-05 0.03500120744775341 0 1.6790888455814442e-05 0.034989099278250078 0 2.3920130382517084e-05 0.034996796459976796 0 1.4064312864045377e-05 0.035000597807964128 0 1.6790888455814442e-05 0.034989099278250078 0 8.8492817520725374e-06 0.034994251379015712 0 1.4064312864045377e-05 0.035000597807964128 0 2.3920130382517084e-05 0.034996796459976796 0 1.4064312864045377e-05 0.035000597807964128 0 2.5284778936602757e-05 0.035008352291363044 0 3.3039039947648582e-06 0.034998903072292989 0 4.0464672544003613e-06 0.034997576296718381 0 5.2726057555737657e-06 0.034998616798203333 0 9.1530180542019688e-05 0.034873367330724915 0 0.00010250040021542575 0.034851348656561899 0 2.3920130382517084e-05 0.034996796459976796 0 2.5284778936602757e-05 0.035008352291363044 0 3.2420677733095635e-05 0.03500120744775341 0 2.613149521722773e-05 0.035007487321710419 0 3.2420677733095635e-05 0.03500120744775341 0 3.4451060777473487e-05 0.035013669631052409 0 0.00010250040021542575 0.034851348656561899 0 9.2506662862218658e-05 0.0348633055941781 0 0.00012943090666801688 0.03439662648906288 0 0.00013313536050127848 0.034452988675644405 0 0.00016244627054441314 0.034426059304598723 0 0.00010250040021542575 0.034851348656561899 0 8.6613070255593382e-05 0.034753274174111462 0 0.00013313536050127848 0.034452988675644405 0 0.00016080749138414372 0.034431732507132454 0 0.00016244627054441314 0.034426059304598723 0 3.3039039947648582e-06 0.034998903072292989 0 5.2726057555737657e-06 0.034998616798203333 0 3.1917240676284849e-06 0.035000087051956313 0 0.00012943090666801688 0.03439662648906288 0 0.00013313536050127848 0.034452988675644405 0 6.6618608386124876e-05 0.034467584480314659 0 0.00010250040021542575 0.034851348656561899 0 8.9138444307056532e-05 0.034858495709357173 0 0.00013313536050127848 0.034452988675644405 0 6.6618608386124876e-05 0.034467584480314659 0 9.6905220083656182e-05 0.034536974127469228 0 0.00013313536050127848 0.034452988675644405 0 0.00013789494189551322 0.034475683293321374 0 0.00016080749138414372 0.034431732507132454 0 0.00013313536050127848 0.034452988675644405 0 9.6905220083656182e-05 0.034536974127469228 0 0.00013789494189551322 0.034475683293321374 0 0.00010966055012952888 0.034554050163620044 0 9.6905220083656182e-05 0.034536974127469228 0 0.00013789494189551322 0.034475683293321374 0 0.00013789494189551322 0.034475683293321374 0 0.0001551940727887534 0.034435655900613392 0 0.00014677047889475047 0.034464295835224833 0 0.00013789494189551322 0.034475683293321374 0 0.0001551940727887534 0.034435655900613392 0 0.00016080749138414372 0.034431732507132454 0 0.0001551940727887534 0.034435655900613392 0 0.00016644346549933751 0.034395117508144134 0 0.00018030827019139615 0.034390737637206951 0 0.00016644346549933751 0.034395117508144134 0 0.00016111966821434948 0.034416347110195887 0 0.00016080749138414372 0.034431732507132454 0 7.6849551645704684e-05 0.03465206890861635 0 7.2394505032370916e-05 0.034659379583119834 0 0.0001551940727887534 0.034435655900613392 0 0.00016644346549933751 0.034395117508144134 0 0.00016080749138414372 0.034431732507132454 0 0.00019975777627439836 0.034276312942817889 0 0.00021818093947766851 0.034312497999746783 0 0.00024975099545852033 0.03425853132948279 0 0.00021818093947766851 0.034312497999746783 0 0.00024220911207381007 0.034265627517471829 0 0.00022367413657600784 0.034316412825545276 0 0.00016644346549933751 0.034395117508144134 0 0.00021818093947766851 0.034312497999746783 0 0.00018030827019139615 0.034390737637206951 0 7.2394505032370916e-05 0.034659379583119834 0 7.4540058098333898e-05 0.034652400126055256 0 0.00016644346549933751 0.034395117508144134 0 0.00018181893084449785 0.034353306469019254 0 0.00021818093947766851 0.034312497999746783 0 0.00021818093947766851 0.034312497999746783 0 0.00024975099545852033 0.03425853132948279 0 0.00024220911207381007 0.034265627517471829 0 0.00019975777627439836 0.034276312942817889 0 0.00026024031396370873 0.034250853957785939 0 0.00024975099545852033 0.03425853132948279 0 4.3012375753306929e-05 0.035019913428151847 0 4.2249919939275373e-05 0.035012206625515435 0 5.1274885410922861e-05 0.035008812618162861 0 7.2394505032370916e-05 0.034659379583119834 0 0.00010332757816424906 0.034676166696985734 0 0.00016111966821434948 0.034416347110195887 0 0.00016080749138414372 0.034431732507132454 0 0.00016244627054441314 0.034426059304598723 0 7.2394505032370916e-05 0.034659379583119834 0 8.6613070255593382e-05 0.034753274174111462 0 4.3012375753306929e-05 0.035019913428151847 0 4.2249919939275373e-05 0.035012206625515435 0 3.4451060777473487e-05 0.035013669631052409 0 4.2249919939275373e-05 0.035012206625515435 0 3.4451060777473487e-05 0.035013669631052409 0 4.0406067298690274e-05 0.035006398974490267 0 3.2420677733095635e-05 0.03500120744775341 0 4.0406067298690274e-05 0.035006398974490267 0 4.497556877749702e-05 0.034997751820312548 0 3.2420677733095635e-05 0.03500120744775341 0 3.4451060777473487e-05 0.035013669631052409 0 4.0406067298690274e-05 0.035006398974490267 0 5.1274885410922861e-05 0.035008812618162861 0 4.497556877749702e-05 0.034997751820312548 0 5.9965744727775344e-05 0.034997107045600807 0 4.0406067298690274e-05 0.035006398974490267 0 5.1274885410922861e-05 0.035008812618162861 0 4.497556877749702e-05 0.034997751820312548 0 4.2249919939275373e-05 0.035012206625515435 0 4.0406067298690274e-05 0.035006398974490267 0 5.1274885410922861e-05 0.035008812618162861 0 5.1084805796073734e-05 0.034985709312012107 0 4.497556877749702e-05 0.034997751820312548 0 5.9965744727775344e-05 0.034997107045600807 0 3.4003023167463315e-05 0.034987049046046673 0 3.2420677733095635e-05 0.03500120744775341 0 4.497556877749702e-05 0.034997751820312548 0 3.4003023167463315e-05 0.034987049046046673 0 5.1084805796073734e-05 0.034985709312012107 0 4.497556877749702e-05 0.034997751820312548 0 0.00028223853925154964 0.034418548057945579 0 0.00029888981207794671 0.034307842255445746 0 0.00022131412307357676 0.034356446007089661 0 0.00029888981207794671 0.034307842255445746 0 0.0002430052779943271 0.034261260163724445 0 0.00022131412307357676 0.034356446007089661 0 0.00012951623801034151 0.034750316302943125 0 0.00012266158868373258 0.034705784587426548 0 6.8710468028024225e-05 0.0349847250579403 0 5.1084805796073734e-05 0.034985709312012107 0 5.9965744727775344e-05 0.034997107045600807 0 0.00010332757816424906 0.034676166696985734 0 0.00012266158868373258 0.034705784587426548 0 0.00026024031396370873 0.034250853957785939 0 0.00029888981207794671 0.034307842255445746 0 0.00026643066704038848 0.034256864025397758 0 0.00029888981207794671 0.034307842255445746 0 0.00026643066704038848 0.034256864025397758 0 0.0002430052779943271 0.034261260163724445 0 0.0002430052779943271 0.034261260163724445 0 0.00025359482734037237 0.034235543526420012 0 0.00022592456647415726 0.034182021175744169 0 0.00026643066704038848 0.034256864025397758 0 0.0002430052779943271 0.034261260163724445 0 0.00025359482734037237 0.034235543526420012 0 0.00026024031396370873 0.034250853957785939 0 0.00026643066704038848 0.034256864025397758 0 0.00024975099545852033 0.03425853132948279 0 0.00026643066704038848 0.034256864025397758 0 0.00025359482734037237 0.034235543526420012 0 0.00024975099545852033 0.03425853132948279 0 0.00025359482734037237 0.034235543526420012 0 0.00024220911207381007 0.034265627517471829 0 0.0002377731459420784 0.034221545165947873 0 0.00025359482734037237 0.034235543526420012 0 0.00024975099545852033 0.03425853132948279 0 0.00024220911207381007 0.034265627517471829 0 0.00025359482734037237 0.034235543526420012 0 0.0002377731459420784 0.034221545165947873 0 0.00022592456647415726 0.034182021175744169 0 0.0002377731459420784 0.034221545165947873 0 0.00019296652268423903 0.034082210745214038 0 0.00022592456647415726 0.034182021175744169 0 0.0002377731459420784 0.034221545165947873 0 0.00018144927124761134 0.034103883565634159 0 0.00019296652268423903 0.034082210745214038 0 9.0262386654712355e-05 0.03420044172904823 0 0.00012820379443228617 0.034159459227100557 0 0.00018144927124761134 0.034103883565634159 0 0.0002377731459420784 0.034221545165947873 0 0.00023272153201620894 0.034309609850497066 0 0.00018144927124761134 0.034103883565634159 0 0.00013151143604855759 0.034334235522902136 0 0.00013335799867391106 0.034320905484237947 0 0.0002377731459420784 0.034221545165947873 0 0.00023272153201620894 0.034309609850497066 0 0.00022367413657600784 0.034316412825545276 0 0.00024220911207381007 0.034265627517471829 0 0.0002377731459420784 0.034221545165947873 0 0.00022367413657600784 0.034316412825545276 0 0.00021818093947766851 0.034312497999746783 0 0.00022367413657600784 0.034316412825545276 0 0.00018030827019139615 0.034390737637206951 0 0.00022367413657600784 0.034316412825545276 0 0.00018452751295223221 0.034413272915695112 0 0.00018030827019139615 0.034390737637206951 0 0.00011855120010884392 0.034527490409488479 0 0.00018452751295223221 0.034413272915695112 0 0.00014677047889475047 0.034464295835224833 0 0.0001551940727887534 0.034435655900613392 0 0.00014677047889475047 0.034464295835224833 0 0.00018030827019139615 0.034390737637206951 0 0.00018452751295223221 0.034413272915695112 0 0.00014677047889475047 0.034464295835224833 0 0.00018030827019139615 0.034390737637206951 0 0.00011855120010884392 0.034527490409488479 0 0.00018452751295223221 0.034413272915695112 0 0.0001693961180115473 0.034494370874021796 0 0.00023272153201620894 0.034309609850497066 0 0.00022367413657600784 0.034316412825545276 0 0.00018452751295223221 0.034413272915695112 0 0.00013151143604855759 0.034334235522902136 0 0.00012753992304794759 0.034359396438570368 0 0.00023272153201620894 0.034309609850497066 0 0.00018452751295223221 0.034413272915695112 0 0.0001693961180115473 0.034494370874021796 0 9.0262386654712355e-05 0.03420044172904823 0 4.131541624162564e-05 0.034375376096128202 0 7.6008982121946833e-05 0.034274368415939366 0 6.0411484541829364e-05 0.03459769039778729 0 4.131541624162564e-05 0.034375376096128202 0 3.2752684315927967e-05 0.034426415366719483 0 0.00012409549184658097 0.034373203105933635 0 0.00012753992304794759 0.034359396438570368 0 4.131541624162564e-05 0.034375376096128202 0 3.2752684315927967e-05 0.034426415366719483 0 7.6008982121946833e-05 0.034274368415939366 0 7.6008982121946833e-05 0.034274368415939366 0 0.00010700280742583025 0.034170535092109856 0 8.890642705941678e-05 0.034227957828076375 0 0.00010700280742583025 0.034170535092109856 0 0.00012820379443228617 0.034159459227100557 0 0.00013684014265769753 0.034051963985762927 0 7.6008982121946833e-05 0.034274368415939366 0 0.00010700280742583025 0.034170535092109856 0 0.00012820379443228617 0.034159459227100557 0 0.00012820379443228617 0.034159459227100557 0 0.00013684014265769753 0.034051963985762927 0 0.00018144927124761134 0.034103883565634159 0 9.0262386654712355e-05 0.03420044172904823 0 7.6008982121946833e-05 0.034274368415939366 0 0.00012820379443228617 0.034159459227100557 0 0.00013684014265769753 0.034051963985762927 0 0.00012187040492577875 0.033903098555420577 0 0.00016041040354847905 0.033924516069965646 0 0.00013684014265769753 0.034051963985762927 0 0.00016041040354847905 0.033924516069965646 0 0.00018144927124761134 0.034103883565634159 0 0.00010700280742583025 0.034170535092109856 0 0.00013684014265769753 0.034051963985762927 0 0.00010253746378053523 0.034096568159356529 0 0.00013684014265769753 0.034051963985762927 0 0.00012187040492577875 0.033903098555420577 0 0.00010253746378053523 0.034096568159356529 0 0.00012187040492577875 0.033903098555420577 0 0.00017229986067128584 0.033583824758767714 0 0.00014587112127399115 0.033934027901225051 0 0.00012187040492577875 0.033903098555420577 0 0.00016112896837521925 0.033782492611394113 0 0.00017229986067128584 0.033583824758767714 0 0.00016112896837521925 0.033782492611394113 0 0.00015943836773195871 0.033772338709153693 0 0.00017229986067128584 0.033583824758767714 0 0.00012187040492577875 0.033903098555420577 0 0.00016112896837521925 0.033782492611394113 0 0.00016041040354847905 0.033924516069965646 0 0.00015943836773195871 0.033772338709153693 0 0.00016377920653446688 0.033938176746281898 0 0.00016041040354847905 0.033924516069965646 0 0.00016112896837521925 0.033782492611394113 0 0.00015943836773195871 0.033772338709153693 0 0.00016041040354847905 0.033924516069965646 0 0.00015943836773195871 0.033772338709153693 0 0.00012994939907062772 0.033911427600045556 0 0.00010797306852147241 0.033762671911514858 0 0.00015943836773195871 0.033772338709153693 0 0.00012994939907062772 0.033911427600045556 0 0.00016377920653446688 0.033938176746281898 0 0.00012994939907062772 0.033911427600045556 0 0.00016377920653446688 0.033938176746281898 0 0.00015619224424144848 0.034042829605235893 0 0.00016377920653446688 0.033938176746281898 0 0.00019296652268423903 0.034082210745214038 0 0.00015619224424144848 0.034042829605235893 0 0.00016377920653446688 0.033938176746281898 0 0.00016041040354847905 0.033924516069965646 0 0.00019296652268423903 0.034082210745214038 0 0.00016041040354847905 0.033924516069965646 0 0.00018144927124761134 0.034103883565634159 0 0.00019296652268423903 0.034082210745214038 0 0.00019296652268423903 0.034082210745214038 0 0.00017432394899193697 0.034133780281765842 0 0.00022592456647415726 0.034182021175744169 0 0.00019296652268423903 0.034082210745214038 0 0.00017432394899193697 0.034133780281765842 0 0.00015619224424144848 0.034042829605235893 0 0.00017432394899193697 0.034133780281765842 0 0.00016083627364964036 0.034256714008796103 0 0.00011896642970633302 0.034148068992423175 0 0.00017432394899193697 0.034133780281765842 0 0.00011896642970633302 0.034148068992423175 0 0.00015619224424144848 0.034042829605235893 0 0.00017432394899193697 0.034133780281765842 0 0.00022592456647415726 0.034182021175744169 0 0.00016083627364964036 0.034256714008796103 0 0.0002430052779943271 0.034261260163724445 0 0.00016083627364964036 0.034256714008796103 0 0.00022131412307357676 0.034356446007089661 0 0.0002430052779943271 0.034261260163724445 0 0.00022592456647415726 0.034182021175744169 0 0.00016083627364964036 0.034256714008796103 0 0.00016083627364964036 0.034256714008796103 0 5.5937820413765816e-05 0.034268989381089535 0 0.00011896642970633302 0.034148068992423175 0 0.00016083627364964036 0.034256714008796103 0 7.3689327409707533e-05 0.034347075198598975 0 5.5937820413765816e-05 0.034268989381089535 0 0.00016083627364964036 0.034256714008796103 0 7.3689327409707533e-05 0.034347075198598975 0 0.00011622092275578452 0.034383798232267122 0 4.8330361220336147e-05 0.034495224719922134 0 7.3689327409707533e-05 0.034347075198598975 0 0.00011622092275578452 0.034383798232267122 0 0.00016083627364964036 0.034256714008796103 0 0.00011622092275578452 0.034383798232267122 0 0.00022131412307357676 0.034356446007089661 0 0.00013534220030887351 0.034501426418200323 0 0.00011622092275578452 0.034383798232267122 0 0.00022131412307357676 0.034356446007089661 0 -1.8429267216969804e-06 0.034375745986600252 0 -9.2812731853253582e-05 0.03427257675560693 0 2.3390196344791142e-05 0.034350808732719444 0 0.00019326492859812478 0.034324106941005572 0 -3.0383771781314642e-05 0.034178286131502839 0 9.2219027037858828e-05 0.034453446898172868 0 2.3390196344791142e-05 0.034350808732719444 0 0.00019326492859812478 0.034324106941005572 0 -1.7540996944746491e-06 0.034375802201453282 0 -1.8429267216969804e-06 0.034375745986600252 0 4.8330361220336147e-05 0.034495224719922134 0 7.3689327409707533e-05 0.034347075198598975 0 -1.0626212867604321e-05 0.034376962621689974 0 7.3689327409707533e-05 0.034347075198598975 0 -1.0626212867604321e-05 0.034376962621689974 0 5.5937820413765816e-05 0.034268989381089535 0 -1.0626212867604321e-05 0.034376962621689974 0 -3.3851467494852059e-05 0.034349736461562141 0 5.5937820413765816e-05 0.034268989381089535 0 -3.3851467494852059e-05 0.034349736461562141 0 6.2845550234727788e-05 0.03418711446594809 0 5.5937820413765816e-05 0.034268989381089535 0 -1.8429267216969804e-06 0.034375745986600252 0 -3.1310296043118758e-07 0.034364533621907639 0 6.2845550234727788e-05 0.03418711446594809 0 5.5937820413765816e-05 0.034268989381089535 0 0.00011896642970633302 0.034148068992423175 0 6.2813125362159181e-05 0.034214561863034836 0 6.2845550234727788e-05 0.03418711446594809 0 2.0884397463181273e-05 0.034181954299435664 0 6.2845550234727788e-05 0.03418711446594809 0 2.4896700625203365e-05 0.034075631024968495 0 2.0884397463181273e-05 0.034181954299435664 0 6.2845550234727788e-05 0.03418711446594809 0 9.4825088027655573e-05 0.034047365012758159 0 2.4896700625203365e-05 0.034075631024968495 0 6.2845550234727788e-05 0.03418711446594809 0 9.4825088027655573e-05 0.034047365012758159 0 0.00011896642970633302 0.034148068992423175 0 9.4825088027655573e-05 0.034047365012758159 0 0.00011896642970633302 0.034148068992423175 0 0.00015619224424144848 0.034042829605235893 0 0.00012994939907062772 0.033911427600045556 0 9.4825088027655573e-05 0.034047365012758159 0 0.00015619224424144848 0.034042829605235893 0 0.00012994939907062772 0.033911427600045556 0 9.4825088027655573e-05 0.034047365012758159 0 5.4016666321830529e-05 0.033931358944010073 0 5.4016666321830529e-05 0.033931358944010073 0 -9.0663159622490799e-05 0.033967520127295481 0 2.4896700625203365e-05 0.034075631024968495 0 5.4016666321830529e-05 0.033931358944010073 0 -9.0663159622490799e-05 0.033967520127295481 0 -7.9735309944342498e-05 0.033788792210193 0 -9.0663159622490799e-05 0.033967520127295481 0 -0.00029484409334344105 0.033897620866998039 0 -7.9735309944342498e-05 0.033788792210193 0 -9.0663159622490799e-05 0.033967520127295481 0 -0.00013739450073458042 0.034119038815240192 0 2.4896700625203365e-05 0.034075631024968495 0 -9.0663159622490799e-05 0.033967520127295481 0 -0.00013739450073458042 0.034119038815240192 0 -0.00029484409334344105 0.033897620866998039 0 9.4825088027655573e-05 0.034047365012758159 0 5.4016666321830529e-05 0.033931358944010073 0 2.4896700625203365e-05 0.034075631024968495 0 -0.00013739450073458042 0.034119038815240192 0 2.4896700625203365e-05 0.034075631024968495 0 2.0884397463181273e-05 0.034181954299435664 0 -0.00019748144390763502 0.034184065841221467 0 -9.2812731853253582e-05 0.03427257675560693 0 -0.00026606543931882113 0.034012673498991931 0 -3.0383771781314642e-05 0.034178286131502839 0 -0.00019054651930180866 0.034308347959754092 0 -0.00026606543931882113 0.034012673498991931 0 -0.00019054651930180866 0.034308347959754092 0 -0.00047859766296282622 0.034135388299490935 0 -1.1676000357801504e-05 0.03451392501390748 0 2.3390196344791142e-05 0.034350808732719444 0 -0.00019054651930180866 0.034308347959754092 0 2.3390196344791142e-05 0.034350808732719444 0 -3.0383771781314642e-05 0.034178286131502839 0 -0.00019054651930180866 0.034308347959754092 0 -0.00068085117328366487 0.034304641352455492 0 -0.0004459243102115214 0.034398756171237249 0 -0.00047859766296282622 0.034135388299490935 0 -0.00019054651930180866 0.034308347959754092 0 -0.0004459243102115214 0.034398756171237249 0 -0.00047859766296282622 0.034135388299490935 0 -0.00078908335317609004 0.034096097666171873 0 -0.00068085117328366487 0.034304641352455492 0 -0.00047859766296282622 0.034135388299490935 0 -0.00078908335317609004 0.034096097666171873 0 -0.00047859766296282622 0.034135388299490935 0 -0.00048956133023885472 0.033826647056856562 0 -0.00076543177765956696 0.033607650479195228 0 -0.0008275844368458102 0.033459769490571292 0 -0.00058972974782280671 0.03362944585366115 0 -0.00083458316229031645 0.033991751916527264 0 -0.00077163242709027456 0.033876635713029367 0 -0.00078908335317609004 0.034096097666171873 0 -0.00048956133023885472 0.033826647056856562 0 -0.00058972974782280671 0.03362944585366115 0 -0.00019748144390763502 0.034184065841221467 0 -0.0002575941813441394 0.034139539424156796 0 -0.00026606543931882113 0.034012673498991931 0 -0.00047859766296282622 0.034135388299490935 0 -0.00048956133023885472 0.033826647056856562 0 -0.00013739450073458042 0.034119038815240192 0 -0.00048956133023885472 0.033826647056856562 0 -0.00029484409334344105 0.033897620866998039 0 -0.00029484409334344105 0.033897620866998039 0 -0.00038317350360773483 0.033879855061325702 0 -7.9735309944342498e-05 0.033788792210193 0 -0.00048956133023885472 0.033826647056856562 0 -0.00029484409334344105 0.033897620866998039 0 -0.00058972974782280671 0.03362944585366115 0 -0.00029484409334344105 0.033897620866998039 0 -0.00082298929397827477 0.034247818732094676 0 -0.00038317350360773483 0.033879855061325702 0 -0.00029484409334344105 0.033897620866998039 0 -0.00058972974782280671 0.03362944585366115 0 -0.00072203214490900857 0.033383446944926641 0 -0.0008275844368458102 0.033459769490571292 0 -0.00058972974782280671 0.03362944585366115 0 -0.00072203214490900857 0.033383446944926641 0 -0.0011635603659445788 0.032679408342597138 0 -0.0012942560331311004 0.032581540498729925 0 -0.0011066179394777732 0.033560802695443454 0 -0.00081409512504524513 0.03388334716480023 0 -0.0002368008427083906 0.033554436054425284 0 -0.00081409512504524513 0.03388334716480023 0 -0.0002368008427083906 0.033554436054425284 0 -0.00038317350360773483 0.033879855061325702 0 -0.00082298929397827477 0.034247818732094676 0 -0.00081409512504524513 0.03388334716480023 0 -0.00038317350360773483 0.033879855061325702 0 -0.0011066179394777732 0.033560802695443454 0 -0.0002368008427083906 0.033554436054425284 0 -0.00061070106603857018 0.033074424071303912 0 -0.0002368008427083906 0.033554436054425284 0 -0.00038317350360773483 0.033879855061325702 0 -7.9735309944342498e-05 0.033788792210193 0 -0.0002368008427083906 0.033554436054425284 0 -7.9735309944342498e-05 0.033788792210193 0 0.00018754482628829697 0.033518128609786688 0 -7.9735309944342498e-05 0.033788792210193 0 0.00010797306852147241 0.033762671911514858 0 0.00018754482628829697 0.033518128609786688 0 5.4016666321830529e-05 0.033931358944010073 0 -7.9735309944342498e-05 0.033788792210193 0 0.00010797306852147241 0.033762671911514858 0 0.00012994939907062772 0.033911427600045556 0 5.4016666321830529e-05 0.033931358944010073 0 0.00010797306852147241 0.033762671911514858 0 0.00015943836773195871 0.033772338709153693 0 0.00018754482628829697 0.033518128609786688 0 0.00017229986067128584 0.033583824758767714 0 0.00015943836773195871 0.033772338709153693 0 0.00010797306852147241 0.033762671911514858 0 0.00018754482628829697 0.033518128609786688 0 -0.0002368008427083906 0.033554436054425284 0 0.00018754482628829697 0.033518128609786688 0 0.00033621928986604351 0.032891054689005439 0 0.00018754482628829697 0.033518128609786688 0 0.00017229986067128584 0.033583824758767714 0 0.00033621928986604351 0.032891054689005439 0 0.00017229986067128584 0.033583824758767714 0 0.00033621928986604351 0.032891054689005439 0 0.0003350450661459164 0.033720886269755918 0 0.00080000037980665285 0.032290601652141787 0 0.0009387330153482514 0.03204950016203198 0 -0.00079861402591285499 0.032279258813836913 0 0.00033621928986604351 0.032891054689005439 0 -2.4341089565629537e-05 0.030716905307668681 0 -0.0012319767602558857 0.031006151019469255 0 -0.00079861402591285499 0.032279258813836913 0 -2.4341089565629537e-05 0.030716905307668681 0 -0.0013682362608039014 0.032989485369060205 0 -0.00079861402591285499 0.032279258813836913 0 -0.00061070106603857018 0.033074424071303912 0 -0.00079861402591285499 0.032279258813836913 0 -0.00061070106603857018 0.033074424071303912 0 0.00033621928986604351 0.032891054689005439 0 -0.0002368008427083906 0.033554436054425284 0 -0.00061070106603857018 0.033074424071303912 0 0.00033621928986604351 0.032891054689005439 0 -2.4341089565629537e-05 0.030716905307668681 0 0.0013119691413189416 0.029159990758699884 0 -9.7166291773502329e-05 0.02889255339022417 0 -0.0010336053500155395 0.029681641890616589 0 -2.4341089565629537e-05 0.030716905307668681 0 -9.7166291773502329e-05 0.02889255339022417 0 -0.0010336053500155395 0.029681641890616589 0 -0.0012319767602558857 0.031006151019469255 0 -2.4341089565629537e-05 0.030716905307668681 0 0.00033621928986604351 0.032891054689005439 0 -2.4341089565629537e-05 0.030716905307668681 0 0.0017483738833168764 0.030692040034068595 0 0.00017229986067128584 0.033583824758767714 0 0.0003350450661459164 0.033720886269755918 0 0.00014587112127399115 0.033934027901225051 0 0.0003350450661459164 0.033720886269755918 0 0.00024750444608679024 0.034055945566056213 0 0.00014587112127399115 0.033934027901225051 0 0.0009387330153482514 0.03204950016203198 0 0.0011553280776639115 0.031617467575269648 0 0.0017483738833168764 0.030692040034068595 0 0.0013119691413189416 0.029159990758699884 0 0.002617561147754108 0.028836810243562872 0 -2.4341089565629537e-05 0.030716905307668681 0 0.0017483738833168764 0.030692040034068595 0 0.0013119691413189416 0.029159990758699884 0 0.0013119691413189416 0.029159990758699884 0 0.0014293562932739179 0.028289584306387353 0 0.002617561147754108 0.028836810243562872 0 0.0013119691413189416 0.029159990758699884 0 0.0014293562932739179 0.028289584306387353 0 0.00062996951161848193 0.028037103763495538 0 0.0014293562932739179 0.028289584306387353 0 0.002617561147754108 0.028836810243562872 0 0.0020899517334754454 0.027949544300916219 0 0.002617561147754108 0.028836810243562872 0 0.0020899517334754454 0.027949544300916219 0 0.0029142963912319356 0.027473441619436791 0 0.0020899517334754454 0.027949544300916219 0 0.0022450966264248575 0.027388179780779568 0 0.0015726462989283441 0.027085934586145631 0 0.0020899517334754454 0.027949544300916219 0 0.0022450966264248575 0.027388179780779568 0 0.0029142963912319356 0.027473441619436791 0 0.0014293562932739179 0.028289584306387353 0 0.0012816606329261631 0.027689282173714688 0 0.00062996951161848193 0.028037103763495538 0 0.0014293562932739179 0.028289584306387353 0 0.0020899517334754454 0.027949544300916219 0 0.0012816606329261631 0.027689282173714688 0 0.0020899517334754454 0.027949544300916219 0 0.0012816606329261631 0.027689282173714688 0 0.0015726462989283441 0.027085934586145631 0 0.0012816606329261631 0.027689282173714688 0 0.00067905459615721345 0.02709511859513216 0 0.0015726462989283441 0.027085934586145631 0 0.00022138297206093313 0.027488702353155692 0 0.00062996951161848193 0.028037103763495538 0 0.00067905459615721345 0.02709511859513216 0 0.0012816606329261631 0.027689282173714688 0 0.00062996951161848193 0.028037103763495538 0 0.00067905459615721345 0.02709511859513216 0 0.00022138297206093313 0.027488702353155692 0 0.00062996951161848193 0.028037103763495538 0 -0.00032614889939069572 0.027787176828839671 0 0.00062996951161848193 0.028037103763495538 0 -9.7166291773502329e-05 0.02889255339022417 0 -0.00032614889939069572 0.027787176828839671 0 0.0013119691413189416 0.029159990758699884 0 0.00062996951161848193 0.028037103763495538 0 -9.7166291773502329e-05 0.02889255339022417 0 -0.0011244967199911062 0.028266719298210185 0 -9.7166291773502329e-05 0.02889255339022417 0 -0.00032614889939069572 0.027787176828839671 0 -0.0010336053500155395 0.029681641890616589 0 -0.0011244967199911062 0.028266719298210185 0 -9.7166291773502329e-05 0.02889255339022417 0 -0.0012074623527525768 0.027126773283215302 0 -0.0011244967199911062 0.028266719298210185 0 -0.00032614889939069572 0.027787176828839671 0 -0.0012074623527525768 0.027126773283215302 0 -0.00032614889939069572 0.027787176828839671 0 -4.3124801471425044e-05 0.026883568925671654 0 0.00022138297206093313 0.027488702353155692 0 -0.00032614889939069572 0.027787176828839671 0 -4.3124801471425044e-05 0.026883568925671654 0 -0.0012074623527525768 0.027126773283215302 0 -4.3124801471425044e-05 0.026883568925671654 0 -0.00048153746087487253 0.026326489693029666 0 0.00024543721059845874 0.026686796104422515 0 0.00038031282230756048 0.0265746996263111 0 -4.3124801471425044e-05 0.026883568925671654 0 -0.00041863074738122475 0.026422130106722914 0 0.00030158607736616215 0.026436670201843798 0 0.00036482121584254147 0.026568061061408306 0 0.00038031282230756048 0.0265746996263111 0 -4.3124801471425044e-05 0.026883568925671654 0 0.00067905459615721345 0.02709511859513216 0 0.00030158607736616215 0.026436670201843798 0 0.00022138297206093313 0.027488702353155692 0 -4.3124801471425044e-05 0.026883568925671654 0 0.00067905459615721345 0.02709511859513216 0 0.00067905459615721345 0.02709511859513216 0 0.00030158607736616215 0.026436670201843798 0 0.00098033528686098216 0.026307678878063512 0 0.00030158607736616215 0.026436670201843798 0 0.00034491815655397784 0.025475869734978691 0 0.00098033528686098216 0.026307678878063512 0 0.00034491815655397784 0.025475869734978691 0 0.00098033528686098216 0.026307678878063512 0 0.0014657364734876601 0.025548772556935648 0 0.00096947715817959524 0.026460725052585957 0 0.00097780952408907254 0.026471009233158184 0 0.00098808030949217095 0.026460016508772912 0 0.00038031282230756048 0.0265746996263111 0 0.00092694371910572143 0.026581156908480907 0 -0.00041863074738122475 0.026422130106722914 0 0.00030158607736616215 0.026436670201843798 0 0.00034491815655397784 0.025475869734978691 0 -0.00016798493398081221 0.026152242522115145 0 0.00038031282230756048 0.0265746996263111 0 0.00096947715817959524 0.026460725052585957 0 0.00098808030949217095 0.026460016508772912 0 0.00097779433544901767 0.026446619044085701 0 0.00098808030949217095 0.026460016508772912 0 0.00097779433544901767 0.026446619044085701 0 0.00099946757515091385 0.026448886844886083 0 0.00034491815655397784 0.025475869734978691 0 0.0011378594363281361 0.024493456657208153 0 0.0014657364734876601 0.025548772556935648 0 0.00092694371910572143 0.026581156908480907 0 0.0014289775121671072 0.02675157243586376 0 0.00097779433544901767 0.026446619044085701 0 0.00099946757515091385 0.026448886844886083 0 0.0009880968318264024 0.026436309457529679 0 0.00099946757515091385 0.026448886844886083 0 0.00099993489699082478 0.026430518395621654 0 0.0009880968318264024 0.026436309457529679 0 0.00097779433544901767 0.026446619044085701 0 0.0009880968318264024 0.026436309457529679 0 0.00097191976314728898 0.026427505826198537 0 0.0020303832225366902 0.027238825010527455 0 0.0017919169867492246 0.027295340667117727 0 0.0031261373706497173 0.029584305436280888 0 0.0034456488247288451 0.02909580927813514 0 0.0029516112879506089 0.029382538438163519 0 0.0031261373706497173 0.029584305436280888 0 0.0034456488247288451 0.02909580927813514 0 0.0033989489001319487 0.029629886583931668 0 0.0011378594363281361 0.024493456657208153 0 0.0022617517993696922 0.024770770975270813 0 0.0019286146391571688 0.023513602886111769 0 0.0014289775121671072 0.02675157243586376 0 0.0017919169867492246 0.027295340667117727 0 0.00099946757515091385 0.026448886844886083 0 0.00099993489699082478 0.026430518395621654 0 0.0010109994181777696 0.026437253744662381 0 0.0011378594363281361 0.024493456657208153 0 0.0022617517993696922 0.024770770975270813 0 0.0014657364734876601 0.025548772556935648 0 0.0020303832225366902 0.027238825010527455 0 0.0021895726600772883 0.027305738781240246 0 0.0034456488247288451 0.02909580927813514 0 0.0033577028216274008 0.028234669026906887 0 0.0029650485772916612 0.028700954139098157 0 0.0026134335290786148 0.026050675355137928 0 0.0014657364734876601 0.025548772556935648 0 0.0017656272286338222 0.026376971675056506 0 0.0022617517993696922 0.024770770975270813 0 0.0026134335290786148 0.026050675355137928 0 0.0014657364734876601 0.025548772556935648 0 0.00098033528686098216 0.026307678878063512 0 0.0014657364734876601 0.025548772556935648 0 0.0017656272286338222 0.026376971675056506 0 0.00098033528686098216 0.026307678878063512 0 0.0017656272286338222 0.026376971675056506 0 0.0015726462989283441 0.027085934586145631 0 0.0017656272286338222 0.026376971675056506 0 0.0015726462989283441 0.027085934586145631 0 0.0022262597003653226 0.026882301691661257 0 0.00067905459615721345 0.02709511859513216 0 0.00098033528686098216 0.026307678878063512 0 0.0015726462989283441 0.027085934586145631 0 0.0021895726600772883 0.027305738781240246 0 0.0022470205339485006 0.027362081961125131 0 0.0026134335290786148 0.026050675355137928 0 0.0022262597003653226 0.026882301691661257 0 0.0029142963912319356 0.027473441619436791 0 0.0026134335290786148 0.026050675355137928 0 0.0017656272286338222 0.026376971675056506 0 0.0022262597003653226 0.026882301691661257 0 0.0022450966264248575 0.027388179780779568 0 0.0015726462989283441 0.027085934586145631 0 0.0022262597003653226 0.026882301691661257 0 0.0022450966264248575 0.027388179780779568 0 0.0022262597003653226 0.026882301691661257 0 0.0029142963912319356 0.027473441619436791 0 0.0029625645937300768 0.027953359349149776 0 0.0029142963912319356 0.027473441619436791 0 0.0030303810851829405 0.027488471908580642 0 0.0033577028216274008 0.028234669026906887 0 0.0029625645937300768 0.027953359349149776 0 0.0029142963912319356 0.027473441619436791 0 0.0029625645937300768 0.027953359349149776 0 0.002354081076176301 0.028335728429797997 0 0.0030303810851829405 0.027488471908580642 0 0.0012137635490958398 0.031277068052342136 0 0.0012690703027484682 0.03130528141293816 0 4.4120853380272072e-05 0.034180042135028746 0 -6.6372015126936508e-05 0.034120464099087415 0 0.00010442287073375093 0.034188914358874077 0 0.0033577028216274008 0.028234669026906887 0 0.0029625645937300768 0.027953359349149776 0 0.0029650485772916612 0.028700954139098157 0 0.0029625645937300768 0.027953359349149776 0 0.002354081076176301 0.028335728429797997 0 0.0029650485772916612 0.028700954139098157 0 0.0029650485772916612 0.028700954139098157 0 0.0026254945165749563 0.029085337035975552 0 0.0029516112879506089 0.029382538438163519 0 0.0034456488247288451 0.02909580927813514 0 0.0029650485772916612 0.028700954139098157 0 0.0029516112879506089 0.029382538438163519 0 0.002354081076176301 0.028335728429797997 0 0.0029650485772916612 0.028700954139098157 0 0.0026254945165749563 0.029085337035975552 0 0.002354081076176301 0.028335728429797997 0 0.0022893566326791879 0.029167232579685915 0 0.0026254945165749563 0.029085337035975552 0 0.002354081076176301 0.028335728429797997 0 0.0022893566326791879 0.029167232579685915 0 0.0015814973248343567 0.029558363722522272 0 0.0022893566326791879 0.029167232579685915 0 0.0026254945165749563 0.029085337035975552 0 0.0025955417564577418 0.029678881655359167 0 0.0022893566326791879 0.029167232579685915 0 0.0025955417564577418 0.029678881655359167 0 0.0015814973248343567 0.029558363722522272 0 0.0031261373706497173 0.029584305436280888 0 0.0029516112879506089 0.029382538438163519 0 0.0028792080582412754 0.029715025286762033 0 0.0025955417564577418 0.029678881655359167 0 0.0029516112879506089 0.029382538438163519 0 0.0028792080582412754 0.029715025286762033 0 0.0026254945165749563 0.029085337035975552 0 0.0025955417564577418 0.029678881655359167 0 0.0029516112879506089 0.029382538438163519 0 0.00047684266922491236 0.033431749095713073 0 0.00057845452588762669 0.033402728747965515 0 0.00053701921811157016 0.033004644996017712 0 0.00012534532769471388 0.033655853830836462 0 0.0016190046179955224 0.033048188970557897 0 0.00097865363155493412 0.032496175644652833 0 0.00053701921811157016 0.033004644996017712 0 0.0016190046179955224 0.033048188970557897 0 0.00097865363155493412 0.032496175644652833 0 0.0016190046179955224 0.033048188970557897 0 0.0015955716474808004 0.032157735009594506 0 0.00053701921811157016 0.033004644996017712 0 -8.5505188801271779e-05 0.033491969940130206 0 0.0011681841982234076 0.031370624257660455 0 0.0025955417564577418 0.029678881655359167 0 0.0015814973248343567 0.029558363722522272 0 0.0012760112964821455 0.031235954140204584 0 0.00053701921811157016 0.033004644996017712 0 -8.5505188801271779e-05 0.033491969940130206 0 0.00012534532769471388 0.033655853830836462 0 -6.6372015126936508e-05 0.034120464099087415 0 -8.5505188801271779e-05 0.033491969940130206 0 8.9703676587102402e-05 0.034005726612412912 0 -8.5505188801271779e-05 0.033491969940130206 0 0.00012534532769471388 0.033655853830836462 0 8.9703676587102402e-05 0.034005726612412912 0 0.0012137635490958398 0.031277068052342136 0 0.0011380279643676712 0.031326104971993035 0 0.00012534532769471388 0.033655853830836462 0 0.00018613435482805026 0.033946905851648383 0 0.0002067980614552584 0.033895218362375058 0 0.00012534532769471388 0.033655853830836462 0 0.00018613435482805026 0.033946905851648383 0 8.9703676587102402e-05 0.034005726612412912 0 0.00018613435482805026 0.033946905851648383 0 0.00015466553370081432 0.034126518708550276 0 0.00021317668371106423 0.034081596795365141 0 0.00018613435482805026 0.033946905851648383 0 0.00015466553370081432 0.034126518708550276 0 8.9703676587102402e-05 0.034005726612412912 0 0.00015466553370081432 0.034126518708550276 0 8.9703676587102402e-05 0.034005726612412912 0 7.6975405542858437e-05 0.034159571903160102 0 -6.6372015126936508e-05 0.034120464099087415 0 8.9703676587102402e-05 0.034005726612412912 0 7.6975405542858437e-05 0.034159571903160102 0 4.4120853380272072e-05 0.034180042135028746 0 7.6975405542858437e-05 0.034159571903160102 0 8.9357752274000951e-05 0.034200792259941777 0 4.4120853380272072e-05 0.034180042135028746 0 -6.6372015126936508e-05 0.034120464099087415 0 7.6975405542858437e-05 0.034159571903160102 0 0.00015466553370081432 0.034126518708550276 0 7.6975405542858437e-05 0.034159571903160102 0 0.00013258151044327366 0.034216001205260804 0 0.00015466553370081432 0.034126518708550276 0 0.00013258151044327366 0.034216001205260804 0 0.00019585142027127655 0.034227344824211518 0 7.6975405542858437e-05 0.034159571903160102 0 0.00013258151044327366 0.034216001205260804 0 8.9357752274000951e-05 0.034200792259941777 0 0.00013258151044327366 0.034216001205260804 0 0.00010613951946787191 0.03421974428122225 0 8.9357752274000951e-05 0.034200792259941777 0 0.00010613951946787191 0.03421974428122225 0 8.8764706718859221e-05 0.034165703211421164 0 8.9357752274000951e-05 0.034200792259941777 0 0.00010613951946787191 0.03421974428122225 0 8.8764706718859221e-05 0.034165703211421164 0 9.400855624706486e-05 0.034126490587000992 0 0.00010613951946787191 0.03421974428122225 0 9.400855624706486e-05 0.034126490587000992 0 9.631311236842744e-05 0.034203509993272707 0 8.8764706718859221e-05 0.034165703211421164 0 9.8736804954010387e-05 0.034094290863038036 0 9.400855624706486e-05 0.034126490587000992 0 8.8764706718859221e-05 0.034165703211421164 0 8.9357752274000951e-05 0.034200792259941777 0 7.526844696667702e-05 0.03416867823041201 0 4.4120853380272072e-05 0.034180042135028746 0 8.9357752274000951e-05 0.034200792259941777 0 7.526844696667702e-05 0.03416867823041201 0 7.526844696667702e-05 0.03416867823041201 0 0.00010442287073375093 0.034188914358874077 0 0.00012767874546285046 0.03410974512918389 0 4.4120853380272072e-05 0.034180042135028746 0 7.526844696667702e-05 0.03416867823041201 0 0.00010442287073375093 0.034188914358874077 0 0.0011553280776639115 0.031617467575269648 0 0.0012690703027484682 0.03130528141293816 0 0.002617561147754108 0.028836810243562872 0 0.0029142963912319356 0.027473441619436791 0 0.0030303810851829405 0.027488471908580642 0 0.00024750444608679024 0.034055945566056213 0 0.00010442287073375093 0.034188914358874077 0 0.00012767874546285046 0.03410974512918389 0 7.526844696667702e-05 0.03416867823041201 0 0.00012767874546285046 0.03410974512918389 0 9.8736804954010387e-05 0.034094290863038036 0 8.8764706718859221e-05 0.034165703211421164 0 7.526844696667702e-05 0.03416867823041201 0 9.8736804954010387e-05 0.034094290863038036 0 0.00012767874546285046 0.03410974512918389 0 9.8736804954010387e-05 0.034094290863038036 0 0.00014587112127399115 0.033934027901225051 0 9.8736804954010387e-05 0.034094290863038036 0 0.00014587112127399115 0.033934027901225051 0 0.00010735569004682311 0.034024788452078902 0 0.00024750444608679024 0.034055945566056213 0 0.00012767874546285046 0.03410974512918389 0 0.00014587112127399115 0.033934027901225051 0 0.00012187040492577875 0.033903098555420577 0 0.00014587112127399115 0.033934027901225051 0 0.00010735569004682311 0.034024788452078902 0 0.00012187040492577875 0.033903098555420577 0 0.00010735569004682311 0.034024788452078902 0 0.00010253746378053523 0.034096568159356529 0 0.00010253746378053523 0.034096568159356529 0 9.400855624706486e-05 0.034126490587000992 0 9.631311236842744e-05 0.034203509993272707 0 0.00010735569004682311 0.034024788452078902 0 0.00010253746378053523 0.034096568159356529 0 9.400855624706486e-05 0.034126490587000992 0 9.8736804954010387e-05 0.034094290863038036 0 0.00010735569004682311 0.034024788452078902 0 9.400855624706486e-05 0.034126490587000992 0 8.5949596239378833e-05 0.034288308161784166 0 8.890642705941678e-05 0.034227957828076375 0 6.5652356955917869e-05 0.034315591007494449 0 8.5949596239378833e-05 0.034288308161784166 0 9.631311236842744e-05 0.034203509993272707 0 8.890642705941678e-05 0.034227957828076375 0 0.00010253746378053523 0.034096568159356529 0 9.631311236842744e-05 0.034203509993272707 0 8.890642705941678e-05 0.034227957828076375 0 0.00010700280742583025 0.034170535092109856 0 0.00010253746378053523 0.034096568159356529 0 8.890642705941678e-05 0.034227957828076375 0 7.6008982121946833e-05 0.034274368415939366 0 8.890642705941678e-05 0.034227957828076375 0 6.5652356955917869e-05 0.034315591007494449 0 3.2752684315927967e-05 0.034426415366719483 0 6.5652356955917869e-05 0.034315591007494449 0 3.9657156138554834e-05 0.034395056759106049 0 3.2752684315927967e-05 0.034426415366719483 0 7.6008982121946833e-05 0.034274368415939366 0 6.5652356955917869e-05 0.034315591007494449 0 3.2752684315927967e-05 0.034426415366719483 0 3.9657156138554834e-05 0.034395056759106049 0 2.3557923189137541e-05 0.034475614576252415 0 3.9657156138554834e-05 0.034395056759106049 0 4.5799362762543928e-05 0.03437967039260699 0 1.683498206645454e-05 0.03444751410171748 0 3.9657156138554834e-05 0.034395056759106049 0 6.500740986537273e-05 0.034340862102234582 0 4.5799362762543928e-05 0.03437967039260699 0 3.9657156138554834e-05 0.034395056759106049 0 1.683498206645454e-05 0.03444751410171748 0 2.3557923189137541e-05 0.034475614576252415 0 6.5652356955917869e-05 0.034315591007494449 0 3.9657156138554834e-05 0.034395056759106049 0 6.500740986537273e-05 0.034340862102234582 0 8.5949596239378833e-05 0.034288308161784166 0 6.5652356955917869e-05 0.034315591007494449 0 6.500740986537273e-05 0.034340862102234582 0 6.500740986537273e-05 0.034340862102234582 0 9.4655053282877101e-05 0.034326909955882265 0 4.5799362762543928e-05 0.03437967039260699 0 8.5949596239378833e-05 0.034288308161784166 0 6.500740986537273e-05 0.034340862102234582 0 9.4655053282877101e-05 0.034326909955882265 0 4.5799362762543928e-05 0.03437967039260699 0 3.0073483629047967e-05 0.03441605375230454 0 1.8522302173444395e-05 0.034416684147905226 0 4.5799362762543928e-05 0.03437967039260699 0 8.4224831604625018e-05 0.034367963076666737 0 3.0073483629047967e-05 0.03441605375230454 0 9.4655053282877101e-05 0.034326909955882265 0 4.5799362762543928e-05 0.03437967039260699 0 8.4224831604625018e-05 0.034367963076666737 0 9.4655053282877101e-05 0.034326909955882265 0 8.4224831604625018e-05 0.034367963076666737 0 0.00014101558812063642 0.034303630824854651 0 9.4655053282877101e-05 0.034326909955882265 0 0.00014101558812063642 0.034303630824854651 0 0.00011541200895724543 0.03427186944284457 0 0.00014101558812063642 0.034303630824854651 0 0.00011541200895724543 0.03427186944284457 0 0.00015098427143167014 0.034262971739346476 0 8.5949596239378833e-05 0.034288308161784166 0 9.4655053282877101e-05 0.034326909955882265 0 0.00011541200895724543 0.03427186944284457 0 8.5949596239378833e-05 0.034288308161784166 0 9.631311236842744e-05 0.034203509993272707 0 0.00011541200895724543 0.03427186944284457 0 0.00010613951946787191 0.03421974428122225 0 9.631311236842744e-05 0.034203509993272707 0 0.00011541200895724543 0.03427186944284457 0 0.00010613951946787191 0.03421974428122225 0 0.00011541200895724543 0.03427186944284457 0 0.00015098427143167014 0.034262971739346476 0 0.00013258151044327366 0.034216001205260804 0 0.00010613951946787191 0.03421974428122225 0 0.00015098427143167014 0.034262971739346476 0 0.00015098427143167014 0.034262971739346476 0 0.00019585142027127655 0.034227344824211518 0 0.00019230540730695014 0.034285616502605705 0 0.00013258151044327366 0.034216001205260804 0 0.00015098427143167014 0.034262971739346476 0 0.00019585142027127655 0.034227344824211518 0 0.00019230540730695014 0.034285616502605705 0 0.0002798449836131399 0.03427834884965409 0 0.00014558673883177588 0.034348839861222641 0 0.00014101558812063642 0.034303630824854651 0 0.00019230540730695014 0.034285616502605705 0 0.00014558673883177588 0.034348839861222641 0 0.00014101558812063642 0.034303630824854651 0 0.00015098427143167014 0.034262971739346476 0 0.00019230540730695014 0.034285616502605705 0 0.00019585142027127655 0.034227344824211518 0 0.00019230540730695014 0.034285616502605705 0 0.0002798449836131399 0.03427834884965409 0 0.00015466553370081432 0.034126518708550276 0 0.00019585142027127655 0.034227344824211518 0 0.00021317668371106423 0.034081596795365141 0 0.00019585142027127655 0.034227344824211518 0 0.0002798449836131399 0.03427834884965409 0 0.00021317668371106423 0.034081596795365141 0 0.00018613435482805026 0.033946905851648383 0 0.00021317668371106423 0.034081596795365141 0 0.0002067980614552584 0.033895218362375058 0 0.00021317668371106423 0.034081596795365141 0 0.00029352623199665025 0.034026227130727109 0 0.0002067980614552584 0.033895218362375058 0 0.0002798449836131399 0.03427834884965409 0 0.00021317668371106423 0.034081596795365141 0 0.00029352623199665025 0.034026227130727109 0 0.0002798449836131399 0.03427834884965409 0 0.00029352623199665025 0.034026227130727109 0 0.0004850616942491096 0.034018930232680648 0 0.00014625476130157526 0.033765182312772202 0 0.00018088679771166227 0.033678457748898306 0 0.00029352623199665025 0.034026227130727109 0 0.00036075803513730597 0.033877103526993572 0 0.0004850616942491096 0.034018930232680648 0 0.00063626786833302618 0.033367024185399434 0 0.00057845452588762669 0.033402728747965515 0 0.00029352623199665025 0.034026227130727109 0 0.00036075803513730597 0.033877103526993572 0 0.0002067980614552584 0.033895218362375058 0 0.0025160805889412538 0.032680501971071869 0 0.0016190046179955224 0.033048188970557897 0 0.002115146463661218 0.032195438604150597 0 0.0016190046179955224 0.033048188970557897 0 0.0015955716474808004 0.032157735009594506 0 0.002115146463661218 0.032195438604150597 0 0.00029597247592288729 0.033392075873246316 0 0.00031748229005949412 0.033542849026932248 0 -0.00034083120612558848 0.034607777768126478 0 -0.00043829125245777912 0.034638239332134023 0 -0.00011602866337506992 0.034695850732871528 0 8.1763749470596217e-05 0.03479937505052938 0 5.2562446546932829e-05 0.034625383714250543 0 -0.00011602866337506992 0.034695850732871528 0 0.00024794906984082954 0.033420437231498963 0 0.00029597247592288729 0.033392075873246316 0 0.00063626786833302618 0.033367024185399434 0 0.00029597247592288729 0.033392075873246316 0 8.1763749470596217e-05 0.03479937505052938 0 0.00019155343411970076 0.034619023463925314 0 5.2562446546932829e-05 0.034625383714250543 0 0.00029597247592288729 0.033392075873246316 0 0.00018088679771166227 0.033678457748898306 0 0.00036075803513730597 0.033877103526993572 0 0.00061975159586277067 0.033831872120183869 0 0.0004850616942491096 0.034018930232680648 0 0.0002798449836131399 0.03427834884965409 0 0.00019155343411970076 0.034619023463925314 0 0.00010537396112695969 0.034457090714807924 0 0.00019155343411970076 0.034619023463925314 0 5.2562446546932829e-05 0.034625383714250543 0 0.00010537396112695969 0.034457090714807924 0 5.2562446546932829e-05 0.034625383714250543 0 4.203611466554094e-06 0.034557907721651814 0 -0.00011602866337506992 0.034695850732871528 0 5.2562446546932829e-05 0.034625383714250543 0 4.203611466554094e-06 0.034557907721651814 0 0.00010537396112695969 0.034457090714807924 0 4.203611466554094e-06 0.034557907721651814 0 3.9701996017699088e-05 0.034451362961322361 0 -3.426743269177272e-05 0.034572344479469087 0 4.203611466554094e-06 0.034557907721651814 0 0.00010537396112695969 0.034457090714807924 0 3.9701996017699088e-05 0.034451362961322361 0 0.00010537396112695969 0.034457090714807924 0 0.00014558673883177588 0.034348839861222641 0 3.9701996017699088e-05 0.034451362961322361 0 0.0002798449836131399 0.03427834884965409 0 0.00010537396112695969 0.034457090714807924 0 0.00014558673883177588 0.034348839861222641 0 8.4224831604625018e-05 0.034367963076666737 0 0.00014558673883177588 0.034348839861222641 0 3.9701996017699088e-05 0.034451362961322361 0 8.4224831604625018e-05 0.034367963076666737 0 0.00014101558812063642 0.034303630824854651 0 0.00014558673883177588 0.034348839861222641 0 8.4224831604625018e-05 0.034367963076666737 0 3.9701996017699088e-05 0.034451362961322361 0 3.0073483629047967e-05 0.03441605375230454 0 3.9701996017699088e-05 0.034451362961322361 0 -2.5988427693546126e-05 0.034512946675422179 0 -3.426743269177272e-05 0.034572344479469087 0 3.9701996017699088e-05 0.034451362961322361 0 -2.5988427693546126e-05 0.034512946675422179 0 3.0073483629047967e-05 0.03441605375230454 0 -2.5988427693546126e-05 0.034512946675422179 0 -5.6984065293890915e-05 0.03465433783019687 0 -0.00011401454888099371 0.034549689866089799 0 -2.5988427693546126e-05 0.034512946675422179 0 -0.00011401454888099371 0.034549689866089799 0 -5.0561251356626484e-05 0.034480193705112239 0 -5.6984065293890915e-05 0.03465433783019687 0 -3.426743269177272e-05 0.034572344479469087 0 -0.00011602866337506992 0.034695850732871528 0 -2.5988427693546126e-05 0.034512946675422179 0 -5.6984065293890915e-05 0.03465433783019687 0 -3.426743269177272e-05 0.034572344479469087 0 4.203611466554094e-06 0.034557907721651814 0 -3.426743269177272e-05 0.034572344479469087 0 -0.00011602866337506992 0.034695850732871528 0 -0.00011602866337506992 0.034695850732871528 0 -6.7423712243056669e-05 0.034736608773741393 0 -0.0001034480661695165 0.034709685810381689 0 -5.6984065293890915e-05 0.03465433783019687 0 -6.7423712243056669e-05 0.034736608773741393 0 -6.0827423523965748e-05 0.034754194573350917 0 -5.6984065293890915e-05 0.03465433783019687 0 -0.00011602866337506992 0.034695850732871528 0 -6.7423712243056669e-05 0.034736608773741393 0 -0.0001034480661695165 0.034709685810381689 0 -3.2341703217361303e-05 0.034807200585916014 0 -2.7167760652702049e-05 0.034731765329049542 0 -6.7423712243056669e-05 0.034736608773741393 0 -0.0001034480661695165 0.034709685810381689 0 -3.2341703217361303e-05 0.034807200585916014 0 -0.0001034480661695165 0.034709685810381689 0 -2.7167760652702049e-05 0.034731765329049542 0 -0.00010440433234301305 0.034623040393282803 0 -0.0001034480661695165 0.034709685810381689 0 -0.00019075142154753604 0.03460443403923967 0 -0.00010440433234301305 0.034623040393282803 0 -0.00011602866337506992 0.034695850732871528 0 -0.0001034480661695165 0.034709685810381689 0 -0.00020497607609467019 0.034646052897476041 0 -0.00034083120612558848 0.034607777768126478 0 -0.00011602866337506992 0.034695850732871528 0 -0.00020497607609467019 0.034646052897476041 0 -0.0001034480661695165 0.034709685810381689 0 -0.00020497607609467019 0.034646052897476041 0 -0.00019075142154753604 0.03460443403923967 0 1.1709501687227522e-05 0.034862951339295567 0 -3.2341703217361303e-05 0.034807200585916014 0 -2.2807166499448606e-07 0.034999476812612181 0 1.1709501687227522e-05 0.034862951339295567 0 -2.2807166499448606e-07 0.034999476812612181 0 6.945602597263922e-08 0.034999936861922258 0 1.1709501687227522e-05 0.034862951339295567 0 -3.2341703217361303e-05 0.034807200585916014 0 -2.7167760652702049e-05 0.034731765329049542 0 -3.2341703217361303e-05 0.034807200585916014 0 -6.0827423523965748e-05 0.034754194573350917 0 -2.2807166499448606e-07 0.034999476812612181 0 -6.7423712243056669e-05 0.034736608773741393 0 -3.2341703217361303e-05 0.034807200585916014 0 -6.0827423523965748e-05 0.034754194573350917 0 -7.6770374532841571e-10 0.034999999254794155 0 6.9945630213299118e-07 0.03500032839084357 0 9.4055926007153925e-10 0.035000001953052987 0 9.6549496742219859e-08 0.0349997860343867 0 4.1896865799704242e-05 0.034918280384662964 0 -6.0827423523965748e-05 0.034754194573350917 0 -2.2807166499448606e-07 0.034999476812612181 0 -0.00011087978537174339 0.0347202247465992 0 6.9945630213299118e-07 0.03500032839084357 0 9.4055926007153925e-10 0.035000001953052987 0 1.2813100184793685e-10 0.034999995852256764 0 -5.6984065293890915e-05 0.03465433783019687 0 -6.0827423523965748e-05 0.034754194573350917 0 -0.00011401454888099371 0.034549689866089799 0 -6.0827423523965748e-05 0.034754194573350917 0 -0.00011087978537174339 0.0347202247465992 0 -0.00011401454888099371 0.034549689866089799 0 4.1896865799704242e-05 0.034918280384662964 0 7.4258734402289815e-05 0.034884227909700409 0 6.9945630213299118e-07 0.03500032839084357 0 1.2813100184793685e-10 0.034999995852256764 0 1.5208679520317338e-06 0.034998412064835623 0 6.9945630213299118e-07 0.03500032839084357 0 3.7240913649987747e-06 0.034998163882315809 0 1.5208679520317338e-06 0.034998412064835623 0 4.6081848186044655e-06 0.035001582781164671 0 0.00089406139338527404 0.034977404483415603 0 1.2813100184793685e-10 0.034999995852256764 0 1.5208679520317338e-06 0.034998412064835623 0 2.254107930179436e-07 0.034996619764046236 0 3.7240913649987747e-06 0.034998163882315809 0 1.5208679520317338e-06 0.034998412064835623 0 2.5074904560707288e-06 0.034996009603866063 0 2.254107930179436e-07 0.034996619764046236 0 2.5074904560707288e-06 0.034996009603866063 0 5.2145047684532028e-07 0.034993326234990518 0 0.00089406139338527404 0.034977404483415603 0 0.00019380206994586119 0.034996206038067572 0 -3.3099697251215006e-09 0.034903042910548805 0 3.8482812361938976e-09 0.035000000317864301 0 -1.5363505256076711e-05 0.034997891618947612 0 1.5208679520317338e-06 0.034998412064835623 0 2.254107930179436e-07 0.034996619764046236 0 2.5074904560707288e-06 0.034996009603866063 0 2.5074904560707288e-06 0.034996009603866063 0 5.2145047684532028e-07 0.034993326234990518 0 3.3439573636498319e-06 0.034993632720416515 0 0.00018662622926745134 0.034448994059357092 0 0.00010988716496993241 0.034511637626452596 0 0.00018447439598903034 0.03459839301053113 0 0.00019380206994586119 0.034996206038067572 0 0.00018249224450818974 0.034913062268545431 0 -1.1529299247722337e-08 0.035000097340067246 0 -1.0715058925080201e-06 0.034999926854679834 0 2.1693744161590434e-06 0.035009306130524123 0 3.1270968733374707e-06 0.034999489127487841 0 0.00019380206994586119 0.034996206038067572 0 0.00019380206994586119 0.034996206038067572 0 0.00013874245719735305 0.034937360415911452 0 0.00018662622926745134 0.034448994059357092 0 0.00010988716496993241 0.034511637626452596 0 9.0164789838007782e-05 0.034444949881008317 0 5.2145653562256367e-05 0.034472402468926196 0 3.1734995952383585e-05 0.034492243826004729 0 5.2847147649069658e-05 0.034534495396900108 0 0.00010988716496993241 0.034511637626452596 0 5.2145653562256367e-05 0.034472402468926196 0 5.2847147649069658e-05 0.034534495396900108 0 0.00010988716496993241 0.034511637626452596 0 5.2145653562256367e-05 0.034472402468926196 0 9.0164789838007782e-05 0.034444949881008317 0 0.00013874245719735305 0.034937360415911452 0 0.00010879319734689054 0.034893944590045155 0 5.2145653562256367e-05 0.034472402468926196 0 9.0164789838007782e-05 0.034444949881008317 0 2.9604169099144772e-05 0.034442799572408499 0 2.5074904560707288e-06 0.034996009603866063 0 3.3439573636498319e-06 0.034993632720416515 0 6.4145963278278878e-06 0.03499395582274193 0 3.7240913649987747e-06 0.034998163882315809 0 2.5074904560707288e-06 0.034996009603866063 0 6.4145963278278878e-06 0.03499395582274193 0 7.4258734402289815e-05 0.034884227909700409 0 0.00010879319734689054 0.034893944590045155 0 -2.5988427693546126e-05 0.034512946675422179 0 -5.0561251356626484e-05 0.034480193705112239 0 6.189045082722193e-07 0.034424737828014897 0 -0.00011401454888099371 0.034549689866089799 0 -5.0561251356626484e-05 0.034480193705112239 0 -7.8154376426048519e-05 0.03441827010876481 0 -5.0561251356626484e-05 0.034480193705112239 0 6.189045082722193e-07 0.034424737828014897 0 -7.8154376426048519e-05 0.03441827010876481 0 9.1421261643869037e-05 0.034879149249370481 0 0.00010879319734689054 0.034893944590045155 0 -2.5988427693546126e-05 0.034512946675422179 0 3.0073483629047967e-05 0.03441605375230454 0 6.189045082722193e-07 0.034424737828014897 0 3.0073483629047967e-05 0.03441605375230454 0 6.189045082722193e-07 0.034424737828014897 0 1.8522302173444395e-05 0.034416684147905226 0 6.189045082722193e-07 0.034424737828014897 0 1.8522302173444395e-05 0.034416684147905226 0 1.2282919411013016e-05 0.034449265772571812 0 1.8522302173444395e-05 0.034416684147905226 0 1.2282919411013016e-05 0.034449265772571812 0 1.683498206645454e-05 0.03444751410171748 0 4.5799362762543928e-05 0.03437967039260699 0 1.8522302173444395e-05 0.034416684147905226 0 1.683498206645454e-05 0.03444751410171748 0 5.2145653562256367e-05 0.034472402468926196 0 2.4029427176206944e-05 0.034459895796581659 0 2.9604169099144772e-05 0.034442799572408499 0 0.00011132238070187755 0.034885565097677623 0 0.00010879319734689054 0.034893944590045155 0 6.189045082722193e-07 0.034424737828014897 0 2.4029427176206944e-05 0.034459895796581659 0 3.3738800482973988e-05 0.034442125025669915 0 6.189045082722193e-07 0.034424737828014897 0 1.2282919411013016e-05 0.034449265772571812 0 2.4029427176206944e-05 0.034459895796581659 0 1.2282919411013016e-05 0.034449265772571812 0 2.4029427176206944e-05 0.034459895796581659 0 2.0216370364094805e-05 0.034476450257055299 0 5.2145653562256367e-05 0.034472402468926196 0 2.4029427176206944e-05 0.034459895796581659 0 3.1734995952383585e-05 0.034492243826004729 0 2.4029427176206944e-05 0.034459895796581659 0 2.0216370364094805e-05 0.034476450257055299 0 3.1734995952383585e-05 0.034492243826004729 0 1.9554638500931248e-05 0.034519460408446848 0 1.683498206645454e-05 0.03444751410171748 0 2.0192395257238437e-05 0.034546453787103359 0 2.0216370364094805e-05 0.034476450257055299 0 3.1734995952383585e-05 0.034492243826004729 0 1.9554638500931248e-05 0.034519460408446848 0 3.1734995952383585e-05 0.034492243826004729 0 1.9554638500931248e-05 0.034519460408446848 0 5.2847147649069658e-05 0.034534495396900108 0 1.2282919411013016e-05 0.034449265772571812 0 2.0216370364094805e-05 0.034476450257055299 0 1.9554638500931248e-05 0.034519460408446848 0 1.9554638500931248e-05 0.034519460408446848 0 2.0192395257238437e-05 0.034546453787103359 0 2.8333660665457273e-05 0.034622069819552105 0 1.2282919411013016e-05 0.034449265772571812 0 1.9554638500931248e-05 0.034519460408446848 0 1.683498206645454e-05 0.03444751410171748 0 1.683498206645454e-05 0.03444751410171748 0 2.3557923189137541e-05 0.034475614576252415 0 2.0192395257238437e-05 0.034546453787103359 0 3.2764238603931216e-05 0.034568256358716229 0 3.2752684315927967e-05 0.034426415366719483 0 2.3557923189137541e-05 0.034475614576252415 0 3.2764238603931216e-05 0.034568256358716229 0 2.3557923189137541e-05 0.034475614576252415 0 2.0192395257238437e-05 0.034546453787103359 0 2.0192395257238437e-05 0.034546453787103359 0 2.9124208492266303e-05 0.034641882108895961 0 2.8333660665457273e-05 0.034622069819552105 0 3.2764238603931216e-05 0.034568256358716229 0 2.0192395257238437e-05 0.034546453787103359 0 2.9124208492266303e-05 0.034641882108895961 0 2.9124208492266303e-05 0.034641882108895961 0 3.5507501423120511e-05 0.034742369299121667 0 2.8333660665457273e-05 0.034622069819552105 0 3.5507501423120511e-05 0.034742369299121667 0 2.8333660665457273e-05 0.034622069819552105 0 5.4458671532700011e-05 0.034708703848311845 0 2.8333660665457273e-05 0.034622069819552105 0 5.4458671532700011e-05 0.034708703848311845 0 4.4070602397433141e-05 0.034603624276620407 0 5.3458210684981521e-05 0.034926385807427782 0 5.4458671532700011e-05 0.034708703848311845 0 0.00018447439598903034 0.03459839301053113 0 0.00017772777041970134 0.034893964047608188 0 0.00018249224450818974 0.034913062268545431 0 5.3458210684981521e-05 0.034926385807427782 0 3.5507501423120511e-05 0.034742369299121667 0 5.4458671532700011e-05 0.034708703848311845 0 5.3458210684981521e-05 0.034926385807427782 0 3.1002999167610211e-08 0.034999861705112996 0 2.1693744161590434e-06 0.035009306130524123 0 5.4458671532700011e-05 0.034708703848311845 0 0.00018447439598903034 0.03459839301053113 0 8.3825336473262031e-05 0.034587596078244326 0 -1.1529299247722337e-08 0.035000097340067246 0 3.1002999167610211e-08 0.034999861705112996 0 2.1693744161590434e-06 0.035009306130524123 0 0.00010988716496993241 0.034511637626452596 0 0.00018447439598903034 0.03459839301053113 0 8.3825336473262031e-05 0.034587596078244326 0 0.00010988716496993241 0.034511637626452596 0 5.2847147649069658e-05 0.034534495396900108 0 8.3825336473262031e-05 0.034587596078244326 0 1.9554638500931248e-05 0.034519460408446848 0 5.2847147649069658e-05 0.034534495396900108 0 4.4070602397433141e-05 0.034603624276620407 0 1.9554638500931248e-05 0.034519460408446848 0 2.8333660665457273e-05 0.034622069819552105 0 4.4070602397433141e-05 0.034603624276620407 0 5.4458671532700011e-05 0.034708703848311845 0 4.4070602397433141e-05 0.034603624276620407 0 8.3825336473262031e-05 0.034587596078244326 0 5.2847147649069658e-05 0.034534495396900108 0 4.4070602397433141e-05 0.034603624276620407 0 8.3825336473262031e-05 0.034587596078244326 0 8.7128377985280191e-06 0.034978791188159754 0 4.1049427238467737e-07 0.03498706435253178 0 7.2611682379728469e-06 0.034994426916889886 0 8.7128377985280191e-06 0.034978791188159754 0 1.6784852754771194e-08 0.034999975299081915 0 7.2611682379728469e-06 0.034994426916889886 0 1.6784852754771194e-08 0.034999975299081915 0 6.902533571598884e-06 0.034975278598068746 0 -3.5464210888380651e-09 0.034999961088919465 0 8.7128377985280191e-06 0.034978791188159754 0 1.6784852754771194e-08 0.034999975299081915 0 6.902533571598884e-06 0.034975278598068746 0 8.7128377985280191e-06 0.034978791188159754 0 1.3654229407289995e-05 0.034935673306288981 0 6.902533571598884e-06 0.034975278598068746 0 1.3654229407289995e-05 0.034935673306288981 0 6.8288321374228899e-05 0.034804800573062178 0 9.8832581969923036e-05 0.034897578783418648 0 8.7128377985280191e-06 0.034978791188159754 0 1.3654229407289995e-05 0.034935673306288981 0 4.1049427238467737e-07 0.03498706435253178 0 1.3654229407289995e-05 0.034935673306288981 0 6.8288321374228899e-05 0.034804800573062178 0 -2.3539835028314431e-05 0.034812785818679547 0 0.00021368969507576944 0.034679107258365607 0 0.00021812428535656665 0.034612052241960081 0 -2.3539835028314431e-05 0.034812785818679547 0 2.1186223997259191e-05 0.034747644693630515 0 -4.8192240998441013e-05 0.034704631141451267 0 6.8288321374228899e-05 0.034804800573062178 0 -2.3539835028314431e-05 0.034812785818679547 0 2.1186223997259191e-05 0.034747644693630515 0 0.00021812428535656665 0.034612052241960081 0 0.00023088385918823977 0.034390250992522645 0 6.8288321374228899e-05 0.034804800573062178 0 2.1186223997259191e-05 0.034747644693630515 0 8.1740051896226005e-05 0.034718268924098392 0 6.8288321374228899e-05 0.034804800573062178 0 8.1740051896226005e-05 0.034718268924098392 0 0.00011776986046511298 0.034762131436031796 0 0.00033982149426222037 0.033227428451921476 0 0.00070486885792336493 0.032520694459040884 0 2.1186223997259191e-05 0.034747644693630515 0 8.1740051896226005e-05 0.034718268924098392 0 4.0179903979564065e-05 0.034652375280150208 0 8.1740051896226005e-05 0.034718268924098392 0 4.0179903979564065e-05 0.034652375280150208 0 0.00015633067071924017 0.034706452882721839 0 2.1186223997259191e-05 0.034747644693630515 0 -4.8192240998441013e-05 0.034704631141451267 0 4.0179903979564065e-05 0.034652375280150208 0 7.2428245829864206e-06 0.034997557188020445 0 7.2611682379728469e-06 0.034994426916889886 0 1.0961741668159007e-05 0.034998391479517693 0 4.1049427238467737e-07 0.03498706435253178 0 7.2428245829864206e-06 0.034997557188020445 0 7.2611682379728469e-06 0.034994426916889886 0 1.6784852754771194e-08 0.034999975299081915 0 7.2611682379728469e-06 0.034994426916889886 0 -2.4480726851541315e-09 0.0349999711735118 0 -2.4480726851541315e-09 0.0349999711735118 0 1.0961741668159007e-05 0.034998391479517693 0 5.3652083454733773e-08 0.035000105073391567 0 7.2611682379728469e-06 0.034994426916889886 0 -2.4480726851541315e-09 0.0349999711735118 0 1.0961741668159007e-05 0.034998391479517693 0 1.0961741668159007e-05 0.034998391479517693 0 2.0344604298046146e-05 0.034993553982866347 0 5.3652083454733773e-08 0.035000105073391567 0 1.0961741668159007e-05 0.034998391479517693 0 2.0344604298046146e-05 0.034993553982866347 0 1.7060050393920556e-05 0.034995353707911174 0 2.0344604298046146e-05 0.034993553982866347 0 5.3652083454733773e-08 0.035000105073391567 0 4.3117532793065011e-05 0.03497074093751032 0 0.00023088385918823977 0.034390250992522645 0 0.00023819536687237676 0.033911671553845765 0 7.2428245829864206e-06 0.034997557188020445 0 1.0961741668159007e-05 0.034998391479517693 0 1.7060050393920556e-05 0.034995353707911174 0 0.00062594057285555473 0.035128407259150715 0 0.00050478578903871566 0.034609855215896351 0 4.3117532793065011e-05 0.03497074093751032 0 0.00060371739687038349 0.033597116015309049 0 0.00030184206478837348 0.034073887107885607 0 3.1666110632294705e-05 0.033530037537583379 0 0.00060371739687038349 0.033597116015309049 0 0.00030184206478837348 0.034073887107885607 0 0.00050478578903871566 0.034609855215896351 0 0.00023819536687237676 0.033911671553845765 0 0.00025255657068919542 0.033954782539393311 0 0.00030184206478837348 0.034073887107885607 0 0.00050478578903871566 0.034609855215896351 0 0.00049177409698591143 0.03463187792949917 0 0.00050478578903871566 0.034609855215896351 0 4.3117532793065011e-05 0.03497074093751032 0 1.8664518838178166e-07 0.034999207001471536 0 5.3652083454733773e-08 0.035000105073391567 0 4.3117532793065011e-05 0.03497074093751032 0 1.8664518838178166e-07 0.034999207001471536 0 2.0344604298046146e-05 0.034993553982866347 0 1.7060050393920556e-05 0.034995353707911174 0 4.3117532793065011e-05 0.03497074093751032 0 0.00023819536687237676 0.033911671553845765 0 0.00026595285267760042 0.033983598014401879 0 0.00050478578903871566 0.034609855215896351 0 1.8664518838178166e-07 0.034999207001471536 0 0.00049177409698591143 0.03463187792949917 0 1.4839173830062949e-07 0.034999449219538743 0 6.1949439448355349e-05 0.034699539108941184 0 3.3609127696719873e-05 0.034872129656719764 0 1.4839173830062949e-07 0.034999449219538743 0 0.0001054585114073935 0.034457956694203588 0 6.1949439448355349e-05 0.034699539108941184 0 1.0547156319764817e-07 0.034999552733467734 0 -5.4497965907832078e-06 0.03487835378880437 0 0.0001054585114073935 0.034457956694203588 0 6.2411053467683781e-05 0.034534402157443432 0 6.1949439448355349e-05 0.034699539108941184 0 0.0001054585114073935 0.034457956694203588 0 6.2411053467683781e-05 0.034534402157443432 0 -7.4728938149012031e-06 0.034334801624287849 0 3.079399488081292e-05 0.034570622587905969 0 6.2411053467683781e-05 0.034534402157443432 0 -7.4728938149012031e-06 0.034334801624287849 0 3.079399488081292e-05 0.034570622587905969 0 6.1949439448355349e-05 0.034699539108941184 0 2.9841073173880107e-05 0.034734551546521553 0 3.079399488081292e-05 0.034570622587905969 0 6.2411053467683781e-05 0.034534402157443432 0 6.1949439448355349e-05 0.034699539108941184 0 1.1709501687227522e-05 0.034862951339295567 0 2.9841073173880107e-05 0.034734551546521553 0 -2.7167760652702049e-05 0.034731765329049542 0 3.079399488081292e-05 0.034570622587905969 0 2.9841073173880107e-05 0.034734551546521553 0 -3.5473961089209631e-05 0.034587508396790839 0 2.9841073173880107e-05 0.034734551546521553 0 -2.7167760652702049e-05 0.034731765329049542 0 -3.5473961089209631e-05 0.034587508396790839 0 1.4839173830062949e-07 0.034999449219538743 0 6.945602597263922e-08 0.034999936861922258 0 3.3609127696719873e-05 0.034872129656719764 0 1.1709501687227522e-05 0.034862951339295567 0 2.9841073173880107e-05 0.034734551546521553 0 3.3609127696719873e-05 0.034872129656719764 0 1.1709501687227522e-05 0.034862951339295567 0 6.945602597263922e-08 0.034999936861922258 0 3.3609127696719873e-05 0.034872129656719764 0 6.1949439448355349e-05 0.034699539108941184 0 2.9841073173880107e-05 0.034734551546521553 0 3.3609127696719873e-05 0.034872129656719764 0 -0.00019189832325487247 0.034431690153194063 0 -0.00029244976695987264 0.034556194925752536 0 -0.00041567073297075216 0.034451133042774529 0 -0.00034083120612558848 0.034607777768126478 0 -0.00020497607609467019 0.034646052897476041 0 -0.00029244976695987264 0.034556194925752536 0 -0.00020497607609467019 0.034646052897476041 0 -0.00029244976695987264 0.034556194925752536 0 -0.00019075142154753604 0.03460443403923967 0 -0.00019189832325487247 0.034431690153194063 0 -0.00029244976695987264 0.034556194925752536 0 -0.00019075142154753604 0.03460443403923967 0 -0.00019189832325487247 0.034431690153194063 0 -0.00019075142154753604 0.03460443403923967 0 -0.00010440433234301305 0.034623040393282803 0 -2.7167760652702049e-05 0.034731765329049542 0 -0.00010440433234301305 0.034623040393282803 0 -3.5473961089209631e-05 0.034587508396790839 0 -0.00019189832325487247 0.034431690153194063 0 -0.00010440433234301305 0.034623040393282803 0 -3.5473961089209631e-05 0.034587508396790839 0 -0.00019189832325487247 0.034431690153194063 0 -5.8736797288675484e-05 0.034374208649274186 0 -0.00014318148913085028 0.034160826351883521 0 -0.00019189832325487247 0.034431690153194063 0 -3.5473961089209631e-05 0.034587508396790839 0 -5.8736797288675484e-05 0.034374208649274186 0 3.079399488081292e-05 0.034570622587905969 0 -5.8736797288675484e-05 0.034374208649274186 0 -7.4728938149012031e-06 0.034334801624287849 0 3.079399488081292e-05 0.034570622587905969 0 -3.5473961089209631e-05 0.034587508396790839 0 -5.8736797288675484e-05 0.034374208649274186 0 -5.8736797288675484e-05 0.034374208649274186 0 -7.4728938149012031e-06 0.034334801624287849 0 -0.00014318148913085028 0.034160826351883521 0 -7.4728938149012031e-06 0.034334801624287849 0 -0.00014318148913085028 0.034160826351883521 0 -0.0001274243152473016 0.033832188099515839 0 1.2111110483464462e-06 0.033754764186724628 0 4.5329479222391376e-05 0.033706095478686214 0 -0.00019189832325487247 0.034431690153194063 0 -0.00035900191994044138 0.033949358922274554 0 -0.00041567073297075216 0.034451133042774529 0 -0.00019189832325487247 0.034431690153194063 0 -0.00014318148913085028 0.034160826351883521 0 -0.00035900191994044138 0.033949358922274554 0 -0.00035900191994044138 0.033949358922274554 0 -0.00046257660380328431 0.033454016691761131 0 -0.00076637159840684834 0.033615007339359938 0 -0.00014318148913085028 0.034160826351883521 0 -0.00035900191994044138 0.033949358922274554 0 -0.0001274243152473016 0.033832188099515839 0 -0.00035900191994044138 0.033949358922274554 0 -0.00046257660380328431 0.033454016691761131 0 -0.0001274243152473016 0.033832188099515839 0 -0.00046257660380328431 0.033454016691761131 0 -0.0001274243152473016 0.033832188099515839 0 -0.0002711864746837536 0.033335074993063381 0 0.0001054585114073935 0.034457956694203588 0 -7.4728938149012031e-06 0.034334801624287849 0 -0.0001274243152473016 0.033832188099515839 0 0.00030184206478837348 0.034073887107885607 0 0.00049177409698591143 0.03463187792949917 0 -0.0001274243152473016 0.033832188099515839 0 -5.4497965907832078e-06 0.03487835378880437 0 -4.8089719666697315e-05 0.034806309399866113 0 -0.0001274243152473016 0.033832188099515839 0 3.1666110632294705e-05 0.033530037537583379 0 -0.0002711864746837536 0.033335074993063381 0 0.00030184206478837348 0.034073887107885607 0 -0.0001274243152473016 0.033832188099515839 0 3.1666110632294705e-05 0.033530037537583379 0 0.00060371739687038349 0.033597116015309049 0 3.1666110632294705e-05 0.033530037537583379 0 -0.0002670862988422078 0.032808430614822547 0 0.00023819536687237676 0.033911671553845765 0 0.00033982149426222037 0.033227428451921476 0 -4.8192240998441013e-05 0.034704631141451267 0 -7.2042221737374026e-05 0.034596708933022323 0 4.0179903979564065e-05 0.034652375280150208 0 3.1666110632294705e-05 0.033530037537583379 0 -0.0002711864746837536 0.033335074993063381 0 -0.0002670862988422078 0.032808430614822547 0 -0.00051667167011192744 0.03306927327538018 0 -0.0002670862988422078 0.032808430614822547 0 -0.00074707659074169683 0.032717585442651728 0 -0.00046257660380328431 0.033454016691761131 0 -0.00051667167011192744 0.03306927327538018 0 -0.00077171422044339634 0.032997916587398604 0 -0.00046257660380328431 0.033454016691761131 0 -0.00051667167011192744 0.03306927327538018 0 -0.0002711864746837536 0.033335074993063381 0 -0.00051667167011192744 0.03306927327538018 0 -0.0002711864746837536 0.033335074993063381 0 -0.0002670862988422078 0.032808430614822547 0 -0.00074707659074169683 0.032717585442651728 0 -0.00077171422044339634 0.032997916587398604 0 -0.0010900070815614525 0.032447831134382536 0 -0.00077171422044339634 0.032997916587398604 0 -0.0010900070815614525 0.032447831134382536 0 -0.0010583886034406622 0.032837515510347332 0 -0.00051667167011192744 0.03306927327538018 0 -0.00074707659074169683 0.032717585442651728 0 -0.00077171422044339634 0.032997916587398604 0 -0.0010900070815614525 0.032447831134382536 0 -0.0012628841476628693 0.0320782315237799 0 -0.00097942762947098244 0.032483468166180161 0 -0.0010900070815614525 0.032447831134382536 0 -0.0012628841476628693 0.0320782315237799 0 -0.0010583886034406622 0.032837515510347332 0 -0.0012628841476628693 0.0320782315237799 0 -0.0014557983051856525 0.03298137947393804 0 -0.0010583886034406622 0.032837515510347332 0 -0.0014557983051856525 0.03298137947393804 0 -0.0010583886034406622 0.032837515510347332 0 -0.0012273180104529406 0.03341645740037389 0 -0.0010583886034406622 0.032837515510347332 0 -0.0012273180104529406 0.03341645740037389 0 -0.00076637159840684834 0.033615007339359938 0 -0.0014557983051856525 0.03298137947393804 0 -0.0012273180104529406 0.03341645740037389 0 -0.0017698538637915011 0.033514586199964731 0 -0.00077171422044339634 0.032997916587398604 0 -0.0010583886034406622 0.032837515510347332 0 -0.00076637159840684834 0.033615007339359938 0 -0.00046257660380328431 0.033454016691761131 0 -0.00077171422044339634 0.032997916587398604 0 -0.00076637159840684834 0.033615007339359938 0 -0.00076637159840684834 0.033615007339359938 0 -0.0011635888936766009 0.033941628629919771 0 -0.00061714123526981804 0.034207877464403867 0 -0.00035900191994044138 0.033949358922274554 0 -0.00076637159840684834 0.033615007339359938 0 -0.00061714123526981804 0.034207877464403867 0 -0.0011635888936766009 0.033941628629919771 0 -0.0018308413398568824 0.034216894014188128 0 -0.0017698538637915011 0.033514586199964731 0 -0.0012273180104529406 0.03341645740037389 0 -0.00076637159840684834 0.033615007339359938 0 -0.0011635888936766009 0.033941628629919771 0 -0.0012273180104529406 0.03341645740037389 0 -0.0011635888936766009 0.033941628629919771 0 -0.0017698538637915011 0.033514586199964731 0 -0.0010097938784369446 0.034811078777472144 0 -0.0010718340813139471 0.034510864352420255 0 -0.0018308413398568824 0.034216894014188128 0 -0.0011635888936766009 0.033941628629919771 0 -0.0010718340813139471 0.034510864352420255 0 -0.0018308413398568824 0.034216894014188128 0 0.00029597247592288729 0.033392075873246316 0 0.00062868533588822416 0.032704422675759799 0 0.0025160805889412538 0.032680501971071869 0 0.0035398336080772488 0.032516477201504898 0 0.0025279626703485791 0.031710511827029324 0 -0.00034083120612558848 0.034607777768126478 0 -0.00041564092242928958 0.034641795726066744 0 -0.00041567073297075216 0.034451133042774529 0 -0.0010097938784369446 0.034811078777472144 0 -0.0010718340813139471 0.034510864352420255 0 -0.00061714123526981804 0.034207877464403867 0 0.00029597247592288729 0.033392075873246316 0 4.5329479222391376e-05 0.033706095478686214 0 -0.0011635888936766009 0.033941628629919771 0 -0.0010718340813139471 0.034510864352420255 0 -0.00061714123526981804 0.034207877464403867 0 -0.00034083120612558848 0.034607777768126478 0 -0.00029244976695987264 0.034556194925752536 0 -0.00041567073297075216 0.034451133042774529 0 0.0016342953920724854 0.031680457169202078 0 0.002115146463661218 0.032195438604150597 0 0.0025279626703485791 0.031710511827029324 0 0.0016342953920724854 0.031680457169202078 0 0.0015955716474808004 0.032157735009594506 0 0.0013358430617111281 0.031923817116163898 0 0.0016342953920724854 0.031680457169202078 0 0.0015955716474808004 0.032157735009594506 0 0.002115146463661218 0.032195438604150597 0 0.0025160805889412538 0.032680501971071869 0 0.002115146463661218 0.032195438604150597 0 0.0025279626703485791 0.031710511827029324 0 -0.0018308413398568824 0.034216894014188128 0 -0.0017698538637915011 0.033514586199964731 0 -0.0028229739972127298 0.033485664041597037 0 0.0016342953920724854 0.031680457169202078 0 0.0014400305296056169 0.031264458273875702 0 0.0011681841982234076 0.031370624257660455 0 0.00062868533588822416 0.032704422675759799 0 0.00099246160159437245 0.0319928310347425 0 0.0016342953920724854 0.031680457169202078 0 0.0025279626703485791 0.031710511827029324 0 0.0014400305296056169 0.031264458273875702 0 0.00089897882695080399 0.029265259473797805 0 -0.00022149993165127379 0.030275037395917203 0 0.00096481560178506432 0.0306262055697883 0 0.00099246160159437245 0.0319928310347425 0 0.00059463392122887054 0.032103515665669421 0 -0.0017698538637915011 0.033514586199964731 0 -0.0028229739972127298 0.033485664041597037 0 -0.0022055426774872239 0.032920830539237785 0 -0.0014557983051856525 0.03298137947393804 0 -0.0017698538637915011 0.033514586199964731 0 -0.0022055426774872239 0.032920830539237785 0 -0.0012628841476628693 0.0320782315237799 0 -0.0014557983051856525 0.03298137947393804 0 -0.0022055426774872239 0.032920830539237785 0 -0.0012628841476628693 0.0320782315237799 0 -0.00015389326431138438 0.031586054094423194 0 -0.00097942762947098244 0.032483468166180161 0 0.00047410345774031589 0.032138024276141576 0 0.00059463392122887054 0.032103515665669421 0 -0.0012628841476628693 0.0320782315237799 0 -0.00022149993165127379 0.030275037395917203 0 -0.00015389326431138438 0.031586054094423194 0 -0.00015389326431138438 0.031586054094423194 0 0.00096481560178506432 0.0306262055697883 0 0.00093232543333426194 0.031989542972907223 0 -0.00022149993165127379 0.030275037395917203 0 -0.00015389326431138438 0.031586054094423194 0 0.00096481560178506432 0.0306262055697883 0 0.0032315731683638608 0.030372456782488299 0 0.0033608360604856788 0.030160562202908053 0 0.003579642526424814 0.030304334640477704 0 0.0032315731683638608 0.030372456782488299 0 0.0033608360604856788 0.030160562202908053 0 0.0029767155133471634 0.030051401784934133 0 0.0033608360604856788 0.030160562202908053 0 0.0032803439279449733 0.029933685402728678 0 0.0029767155133471634 0.030051401784934133 0 0.0033608360604856788 0.030160562202908053 0 0.0032803439279449733 0.029933685402728678 0 0.0036196975797052476 0.030109527626754975 0 0.0015630992717933069 0.032132364347460675 0 0.001290893830785342 0.032384246857834031 0 0.00025658664213314727 0.034780330400590413 0 0.00020261330705091335 0.034755234347852923 0 0.00019349671275593241 0.034796932528632252 0 0.0014754208860710612 0.03195005423258325 0 0.0011870901091010928 0.032166474373536293 0 0.0033608360604856788 0.030160562202908053 0 0.0036196975797052476 0.030109527626754975 0 0.003579642526424814 0.030304334640477704 0 -0.00015389326431138438 0.031586054094423194 0 0.00093232543333426194 0.031989542972907223 0 -0.00097942762947098244 0.032483468166180161 0 0.0011870901091010928 0.032166474373536293 0 0.00070486885792336493 0.032520694459040884 0 -0.0010900070815614525 0.032447831134382536 0 -0.00097942762947098244 0.032483468166180161 0 -0.00099594793045896884 0.032357574488501677 0 0.0036196975797052476 0.030109527626754975 0 0.003579642526424814 0.030304334640477704 0 0.0039163739386747463 0.030260904746995044 0 0.001290893830785342 0.032384246857834031 0 0.00070486885792336493 0.032520694459040884 0 0.0006101014052295868 0.032599137084609944 0 0.00070486885792336493 0.032520694459040884 0 -0.0002670862988422078 0.032808430614822547 0 -0.00074707659074169683 0.032717585442651728 0 -0.00099594793045896884 0.032357574488501677 0 8.1740051896226005e-05 0.034718268924098392 0 0.00013873855652019366 0.03471769966338132 0 0.00011776986046511298 0.034762131436031796 0 -0.00074707659074169683 0.032717585442651728 0 -0.0010900070815614525 0.032447831134382536 0 -0.00099594793045896884 0.032357574488501677 0 6.8288321374228899e-05 0.034804800573062178 0 0.00011776986046511298 0.034762131436031796 0 0.00013845035632180938 0.034807206860109165 0 0.00013873855652019366 0.03471769966338132 0 0.00011776986046511298 0.034762131436031796 0 0.00015736933348832179 0.03476664064467315 0 0.00011776986046511298 0.034762131436031796 0 0.00015736933348832179 0.03476664064467315 0 0.00013845035632180938 0.034807206860109165 0 0.00020261330705091335 0.034755234347852923 0 0.00013873855652019366 0.03471769966338132 0 0.00015736933348832179 0.03476664064467315 0 0.00020261330705091335 0.034755234347852923 0 0.00015736933348832179 0.03476664064467315 0 0.00019349671275593241 0.034796932528632252 0 0.00015736933348832179 0.03476664064467315 0 0.00019349671275593241 0.034796932528632252 0 0.00013845035632180938 0.034807206860109165 0 0.00019349671275593241 0.034796932528632252 0 0.00013845035632180938 0.034807206860109165 0 0.0001741215313908042 0.034851960793299802 0 0.00019349671275593241 0.034796932528632252 0 0.0001741215313908042 0.034851960793299802 0 0.00021775003613268206 0.034822759632956862 0 6.8288321374228899e-05 0.034804800573062178 0 0.00013845035632180938 0.034807206860109165 0 9.8832581969923036e-05 0.034897578783418648 0 0.00013845035632180938 0.034807206860109165 0 9.8832581969923036e-05 0.034897578783418648 0 0.0001741215313908042 0.034851960793299802 0 9.8832581969923036e-05 0.034897578783418648 0 0.0001741215313908042 0.034851960793299802 0 0.00018654209976837183 0.034900022382527172 0 0.0001741215313908042 0.034851960793299802 0 0.00022908750807516072 0.034862609071363723 0 0.00018654209976837183 0.034900022382527172 0 0.00022908750807516072 0.034862609071363723 0 0.00026213059180944359 0.034821845698173398 0 0.00021775003613268206 0.034822759632956862 0 0.0001741215313908042 0.034851960793299802 0 0.00022908750807516072 0.034862609071363723 0 0.00021775003613268206 0.034822759632956862 0 0.00022908750807516072 0.034862609071363723 0 0.00026213059180944359 0.034821845698173398 0 0.0002909460927088271 0.034849309550670254 0 0.00025658664213314727 0.034780330400590413 0 0.00026213059180944359 0.034821845698173398 0 0.00021775003613268206 0.034822759632956862 0 0.00025658664213314727 0.034780330400590413 0 0.00026213059180944359 0.034821845698173398 0 0.00030735615597787331 0.034794736180841848 0 0.00025658664213314727 0.034780330400590413 0 0.00019349671275593241 0.034796932528632252 0 0.00021775003613268206 0.034822759632956862 0 0.0016877136628717371 0.031792416899444821 0 0.0017273223616713113 0.031337520657184037 0 0.0028318490499751859 0.02985282603128234 0 0.0029428262812192722 0.029816965230577697 0 0.0027649413706145034 0.029821560043074027 0 0.0028318490499751859 0.02985282603128234 0 0.0027929737725867661 0.02985105186652634 0 0.0027649413706145034 0.029821560043074027 0 0.0028318490499751859 0.02985282603128234 0 0.0027929737725867661 0.02985105186652634 0 0.0027896154598795442 0.029906960204291479 0 0.0028318490499751859 0.02985282603128234 0 0.0029428262812192722 0.029816965230577697 0 0.0029767155133471634 0.030051401784934133 0 0.0015630992717933069 0.032132364347460675 0 0.0016877136628717371 0.031792416899444821 0 0.00026213059180944359 0.034821845698173398 0 0.00030735615597787331 0.034794736180841848 0 0.0002909460927088271 0.034849309550670254 0 0.00030735615597787331 0.034794736180841848 0 0.0002909460927088271 0.034849309550670254 0 0.00032624828504892789 0.034814158578426124 0 0.0002909460927088271 0.034849309550670254 0 0.0003293218555059078 0.034835693077526667 0 0.00032624828504892789 0.034814158578426124 0 0.00030735615597787331 0.034794736180841848 0 0.00032624828504892789 0.034814158578426124 0 0.00036284530124755114 0.034803939124670988 0 0.0003293218555059078 0.034835693077526667 0 0.00032624828504892789 0.034814158578426124 0 0.00035163583392384403 0.034820368822996384 0 0.00032624828504892789 0.034814158578426124 0 0.00035163583392384403 0.034820368822996384 0 0.00036284530124755114 0.034803939124670988 0 0.00035163583392384403 0.034820368822996384 0 0.00036284530124755114 0.034803939124670988 0 0.00036224541348271299 0.034811628410452607 0 0.0003293218555059078 0.034835693077526667 0 0.00035163583392384403 0.034820368822996384 0 0.00035106142239830422 0.034836950208366246 0 0.00035106142239830422 0.034836950208366246 0 0.00036242904167026359 0.034828212301808284 0 0.00036646282498918278 0.034838286139827208 0 0.00035163583392384403 0.034820368822996384 0 0.00035106142239830422 0.034836950208366246 0 0.00036242904167026359 0.034828212301808284 0 0.0027827752588089759 0.029844530082948705 0 0.0027649413706145034 0.029821560043074027 0 0.0028100632446995347 0.029883647495874514 0 0.00036242904167026359 0.034828212301808284 0 0.00036679807414037087 0.03481840140359669 0 0.00037678073098580748 0.034827522429067746 0 0.00036242904167026359 0.034828212301808284 0 0.00037678073098580748 0.034827522429067746 0 0.00036646282498918278 0.034838286139827208 0 0.0017273223616713113 0.031337520657184037 0 0.0019850904379107967 0.029915327788562641 0 0.00038269932630033085 0.034810417817348768 0 0.00036284530124755114 0.034803939124670988 0 0.00044047006757623008 0.03480692821200998 0 0.00038269932630033085 0.034810417817348768 0 0.00039354988361582036 0.034812594302146664 0 0.00044047006757623008 0.03480692821200998 0 0.0017273223616713113 0.031337520657184037 0 0.0016822319827824908 0.031631093162865255 0 0.0027649413706145034 0.029821560043074027 0 0.0028421463119779706 0.029952552397053744 0 0.0028100632446995347 0.029883647495874514 0 0.00035163583392384403 0.034820368822996384 0 0.00036679807414037087 0.03481840140359669 0 0.00036224541348271299 0.034811628410452607 0 0.00035163583392384403 0.034820368822996384 0 0.00036242904167026359 0.034828212301808284 0 0.00036679807414037087 0.03481840140359669 0 0.00036679807414037087 0.03481840140359669 0 0.00036224541348271299 0.034811628410452607 0 0.00037117623862843317 0.034812128653294895 0 0.00036679807414037087 0.03481840140359669 0 0.0003795882750674425 0.034817349714988746 0 0.00037117623862843317 0.034812128653294895 0 0.00036679807414037087 0.03481840140359669 0 0.0003795882750674425 0.034817349714988746 0 0.00037678073098580748 0.034827522429067746 0 0.00038269932630033085 0.034810417817348768 0 0.0003795882750674425 0.034817349714988746 0 0.00037117623862843317 0.034812128653294895 0 0.0003795882750674425 0.034817349714988746 0 0.00037678073098580748 0.034827522429067746 0 0.00038986453215816461 0.034820170453134465 0 0.00038986453215816461 0.034820170453134465 0 0.00040642042804923354 0.034815580726930036 0 0.00039355141326669491 0.034827503585993499 0 0.00037678073098580748 0.034827522429067746 0 0.00038986453215816461 0.034820170453134465 0 0.00039355141326669491 0.034827503585993499 0 0.00038986453215816461 0.034820170453134465 0 0.00040642042804923354 0.034815580726930036 0 0.00039354988361582036 0.034812594302146664 0 0.00040642042804923354 0.034815580726930036 0 0.00041087364216244531 0.034823992018066949 0 0.00039355141326669491 0.034827503585993499 0 0.0003795882750674425 0.034817349714988746 0 0.00038986453215816461 0.034820170453134465 0 0.00039354988361582036 0.034812594302146664 0 0.00038269932630033085 0.034810417817348768 0 0.0003795882750674425 0.034817349714988746 0 0.00039354988361582036 0.034812594302146664 0 0.0027936830304989575 0.029856916062135155 0 0.0027827752588089759 0.029844530082948705 0 0.0028100632446995347 0.029883647495874514 0 0.0027999627480777139 0.029863127752851982 0 0.0027936830304989575 0.029856916062135155 0 0.0028100632446995347 0.029883647495874514 0 0.0027999627480777139 0.029863127752851982 0 0.0028077740875443362 0.029859209924695766 0 0.0027935388209685105 0.029848586505066697 0 0.0027936830304989575 0.029856916062135155 0 0.0027836302104315667 0.029844053884817499 0 0.0027935388209685105 0.029848586505066697 0 0.0027999627480777139 0.029863127752851982 0 0.0027936830304989575 0.029856916062135155 0 0.0027935388209685105 0.029848586505066697 0 0.0027936830304989575 0.029856916062135155 0 0.0027827752588089759 0.029844530082948705 0 0.0027836302104315667 0.029844053884817499 0 0.0027827752588089759 0.029844530082948705 0 0.0027767464778996487 0.029837112945838594 0 0.0027836302104315667 0.029844053884817499 0 0.0027827752588089759 0.029844530082948705 0 0.0027767464778996487 0.029837112945838594 0 0.0027649413706145034 0.029821560043074027 0 0.0027767464778996487 0.029837112945838594 0 0.0027649413706145034 0.029821560043074027 0 0.002776046202507119 0.029836597927261323 0 0.00036284530124755114 0.034803939124670988 0 0.00036224541348271299 0.034811628410452607 0 0.00037117623862843317 0.034812128653294895 0 0.00038269932630033085 0.034810417817348768 0 0.00036284530124755114 0.034803939124670988 0 0.00037117623862843317 0.034812128653294895 0 0.0003294879198413834 0.034722414366773847 0 0.00044047006757623008 0.03480692821200998 0 0.00045319749420513078 0.034789159701967394 0 0.0028421463119779706 0.029952552397053744 0 0.0028697378330447922 0.029915355723150707 0 0.0029162639104964253 0.0299233047947535 0 0.0004541200449568918 0.034809743425203279 0 0.00045319749420513078 0.034789159701967394 0 0.00047231054587233744 0.034814905314169475 0 0.0004541200449568918 0.034809743425203279 0 0.00044047006757623008 0.03480692821200998 0 0.00045319749420513078 0.034789159701967394 0 0.0028421463119779706 0.029952552397053744 0 0.0028328125731640033 0.029914520450384119 0 0.0028475158056319601 0.029912332771012885 0 0.0028421463119779706 0.029952552397053744 0 0.0028475158056319601 0.029912332771012885 0 0.0028697378330447922 0.029915355723150707 0 0.00040642042804923354 0.034815580726930036 0 0.00039354988361582036 0.034812594302146664 0 0.00044047006757623008 0.03480692821200998 0 0.00040642042804923354 0.034815580726930036 0 0.00044047006757623008 0.03480692821200998 0 0.00042151078543988744 0.034818440867582207 0 0.00040642042804923354 0.034815580726930036 0 0.00041087364216244531 0.034823992018066949 0 0.00042151078543988744 0.034818440867582207 0 0.0028421463119779706 0.029952552397053744 0 0.0028100632446995347 0.029883647495874514 0 0.0028328125731640033 0.029914520450384119 0 0.0028100632446995347 0.029883647495874514 0 0.0028077740875443362 0.029859209924695766 0 0.0028222247998993463 0.029870381052066092 0 0.0027999627480777139 0.029863127752851982 0 0.0028100632446995347 0.029883647495874514 0 0.0028077740875443362 0.029859209924695766 0 0.0028222247998993463 0.029870381052066092 0 0.0028332499536168586 0.029888999893409519 0 0.002844580637316069 0.029858151017885241 0 0.0028100632446995347 0.029883647495874514 0 0.0028222247998993463 0.029870381052066092 0 0.0028332499536168586 0.029888999893409519 0 0.0028100632446995347 0.029883647495874514 0 0.0028332499536168586 0.029888999893409519 0 0.0028328125731640033 0.029914520450384119 0 0.0028332499536168586 0.029888999893409519 0 0.0028328125731640033 0.029914520450384119 0 0.0028475158056319601 0.029912332771012885 0 0.0028475158056319601 0.029912332771012885 0 0.0028587154419389966 0.029890508780819322 0 0.0028697378330447922 0.029915355723150707 0 0.0028332499536168586 0.029888999893409519 0 0.0028475158056319601 0.029912332771012885 0 0.0028587154419389966 0.029890508780819322 0 0.0028332499536168586 0.029888999893409519 0 0.0028587154419389966 0.029890508780819322 0 0.002844580637316069 0.029858151017885241 0 0.0028587154419389966 0.029890508780819322 0 0.002844580637316069 0.029858151017885241 0 0.0028927119454484462 0.029846073034507183 0 0.0028587154419389966 0.029890508780819322 0 0.0028946456835233516 0.02989013554300152 0 0.0028927119454484462 0.029846073034507183 0 0.0028946456835233516 0.02989013554300152 0 0.0028697378330447922 0.029915355723150707 0 0.0029162639104964253 0.0299233047947535 0 0.0028587154419389966 0.029890508780819322 0 0.0028946456835233516 0.02989013554300152 0 0.0028697378330447922 0.029915355723150707 0 0.0028927119454484462 0.029846073034507183 0 0.0028582262519489848 0.029819939418971101 0 0.0029048368854773269 0.02976501493872475 0 0.0028582262519489848 0.029819939418971101 0 0.0028438515112058117 0.029791120555893374 0 0.0029048368854773269 0.02976501493872475 0 0.002844580637316069 0.029858151017885241 0 0.0028927119454484462 0.029846073034507183 0 0.0028582262519489848 0.029819939418971101 0 0.002844580637316069 0.029858151017885241 0 0.0028582262519489848 0.029819939418971101 0 0.0028251984742018871 0.029840272135946491 0 0.0028582262519489848 0.029819939418971101 0 0.0028251984742018871 0.029840272135946491 0 0.0028438515112058117 0.029791120555893374 0 0.0028251984742018871 0.029840272135946491 0 0.0028087055885402828 0.029819886432215944 0 0.0028438515112058117 0.029791120555893374 0 0.0028077740875443362 0.029859209924695766 0 0.0028222247998993463 0.029870381052066092 0 0.0028251984742018871 0.029840272135946491 0 0.0028222247998993463 0.029870381052066092 0 0.002844580637316069 0.029858151017885241 0 0.0028251984742018871 0.029840272135946491 0 0.0028077740875443362 0.029859209924695766 0 0.0028251984742018871 0.029840272135946491 0 0.0028046980732651721 0.02984234764735116 0 0.0028077740875443362 0.029859209924695766 0 0.0028046980732651721 0.02984234764735116 0 0.0027935388209685105 0.029848586505066697 0 0.0028046980732651721 0.02984234764735116 0 0.0028087055885402828 0.029819886432215944 0 0.0027902603504317697 0.029838538046796384 0 0.0028251984742018871 0.029840272135946491 0 0.0028046980732651721 0.02984234764735116 0 0.0028087055885402828 0.029819886432215944 0 0.0028087055885402828 0.029819886432215944 0 0.0027978356654532084 0.029825004262032287 0 0.0028242175729827315 0.029787144688178377 0 0.0028087055885402828 0.029819886432215944 0 0.0028438515112058117 0.029791120555893374 0 0.0028242175729827315 0.029787144688178377 0 0.0028438515112058117 0.029791120555893374 0 0.0028708908602199453 0.029740032607591116 0 0.0029048368854773269 0.02976501493872475 0 0.0028438515112058117 0.029791120555893374 0 0.0028708908602199453 0.029740032607591116 0 0.0028242175729827315 0.029787144688178377 0 0.0027929737725867661 0.02985105186652634 0 0.0027649413706145034 0.029821560043074027 0 0.0027785873865835762 0.029840199851022778 0 0.0027804214660888233 0.029842513497800611 0 0.0027785873865835762 0.029840199851022778 0 0.002778848409590222 0.029839920882354452 0 0.0027816258431117113 0.029847438925034622 0 0.0027804214660888233 0.029842513497800611 0 0.0027785873865835762 0.029840199851022778 0 0.0027929737725867661 0.02985105186652634 0 0.0027816258431117113 0.029847438925034622 0 0.0027785873865835762 0.029840199851022778 0 0.0027649413706145034 0.029821560043074027 0 0.0027785873865835762 0.029840199851022778 0 0.002776046202507119 0.029836597927261323 0 0.0027785873865835762 0.029840199851022778 0 0.002776046202507119 0.029836597927261323 0 0.002778848409590222 0.029839920882354452 0 0.0027767464778996487 0.029837112945838594 0 0.002776046202507119 0.029836597927261323 0 0.002778848409590222 0.029839920882354452 0 0.0027767464778996487 0.029837112945838594 0 0.002778848409590222 0.029839920882354452 0 0.0027836302104315667 0.029844053884817499 0 0.0027836302104315667 0.029844053884817499 0 0.0027839642588765954 0.029841972459493268 0 0.0027935388209685105 0.029848586505066697 0 0.002778848409590222 0.029839920882354452 0 0.0027836302104315667 0.029844053884817499 0 0.0027839642588765954 0.029841972459493268 0 0.0028046980732651721 0.02984234764735116 0 0.0027935388209685105 0.029848586505066697 0 0.0027902603504317697 0.029838538046796384 0 0.0027839642588765954 0.029841972459493268 0 0.0027935388209685105 0.029848586505066697 0 0.0027902603504317697 0.029838538046796384 0 0.0027804214660888233 0.029842513497800611 0 0.0027839642588765954 0.029841972459493268 0 0.0027902603504317697 0.029838538046796384 0 0.0027804214660888233 0.029842513497800611 0 0.0027902603504317697 0.029838538046796384 0 0.0027863626555835689 0.029838983429481103 0 0.0027804214660888233 0.029842513497800611 0 0.002778848409590222 0.029839920882354452 0 0.0027839642588765954 0.029841972459493268 0 0.0027804214660888233 0.029842513497800611 0 0.0027863626555835689 0.029838983429481103 0 0.002780035136868397 0.029859337477380749 0 0.0028087055885402828 0.029819886432215944 0 0.0027863626555835689 0.029838983429481103 0 0.0027978356654532084 0.029825004262032287 0 0.0028087055885402828 0.029819886432215944 0 0.0027902603504317697 0.029838538046796384 0 0.0027863626555835689 0.029838983429481103 0 0.0027863626555835689 0.029838983429481103 0 0.0027978356654532084 0.029825004262032287 0 0.0027841369623337873 0.029852739960643134 0 0.0027863626555835689 0.029838983429481103 0 0.0027841369623337873 0.029852739960643134 0 0.002780035136868397 0.029859337477380749 0 0.0027841369623337873 0.029852739960643134 0 0.002780035136868397 0.029859337477380749 0 0.0027799656440150012 0.029888621239613111 0 0.0027929737725867661 0.02985105186652634 0 0.002780035136868397 0.029859337477380749 0 0.0027896154598795442 0.029906960204291479 0 0.0027816258431117113 0.029847438925034622 0 0.0027804214660888233 0.029842513497800611 0 0.002780035136868397 0.029859337477380749 0 0.0027929737725867661 0.02985105186652634 0 0.0027816258431117113 0.029847438925034622 0 0.002780035136868397 0.029859337477380749 0 0.0027799656440150012 0.029888621239613111 0 0.0027745004534424837 0.029980190668265506 0 0.0027896154598795442 0.029906960204291479 0 0.002780035136868397 0.029859337477380749 0 0.0027799656440150012 0.029888621239613111 0 0.0027896154598795442 0.029906960204291479 0 0.0027841369623337873 0.029852739960643134 0 0.0027799656440150012 0.029888621239613111 0 0.0027951611780935612 0.029843293758726488 0 0.0027978356654532084 0.029825004262032287 0 0.0027841369623337873 0.029852739960643134 0 0.0027951611780935612 0.029843293758726488 0 0.0027799656440150012 0.029888621239613111 0 0.0027951611780935612 0.029843293758726488 0 0.0027890877221510967 0.029904092385968802 0 0.0027951611780935612 0.029843293758726488 0 0.0027890877221510967 0.029904092385968802 0 0.0028228988356960114 0.029806327360982258 0 0.0027890877221510967 0.029904092385968802 0 0.0028228988356960114 0.029806327360982258 0 0.0028256772546061855 0.02987884722152084 0 0.0027799656440150012 0.029888621239613111 0 0.0027890877221510967 0.029904092385968802 0 0.0027745004534424837 0.029980190668265506 0 0.0027890877221510967 0.029904092385968802 0 0.0027745004534424837 0.029980190668265506 0 0.0027780762339234435 0.03001226714149972 0 0.0028708908602199453 0.029740032607591116 0 0.002864769388184626 0.029725268407950263 0 0.0029431040630940185 0.029640690391467973 0 0.0028708908602199453 0.029740032607591116 0 0.002864769388184626 0.029725268407950263 0 0.0028242175729827315 0.029787144688178377 0 0.0027951611780935612 0.029843293758726488 0 0.0028242175729827315 0.029787144688178377 0 0.0028228988356960114 0.029806327360982258 0 0.002864769388184626 0.029725268407950263 0 0.0028242175729827315 0.029787144688178377 0 0.0028228988356960114 0.029806327360982258 0 0.0027978356654532084 0.029825004262032287 0 0.0027951611780935612 0.029843293758726488 0 0.0028242175729827315 0.029787144688178377 0 0.002864769388184626 0.029725268407950263 0 0.0028228988356960114 0.029806327360982258 0 0.002869624987902406 0.029736387698403234 0 0.0028228988356960114 0.029806327360982258 0 0.002869624987902406 0.029736387698403234 0 0.0028256772546061855 0.02987884722152084 0 0.002864769388184626 0.029725268407950263 0 0.002869624987902406 0.029736387698403234 0 0.0029456089873141785 0.029573945432753507 0 0.0029010914163731427 0.029738164392503149 0 0.0029782409714879474 0.029630253928641669 0 0.0029456089873141785 0.029573945432753507 0 0.002869624987902406 0.029736387698403234 0 0.0029010914163731427 0.029738164392503149 0 0.0029456089873141785 0.029573945432753507 0 0.0029010914163731427 0.029738164392503149 0 0.0028745254633056861 0.029875922637187607 0 0.0028256772546061855 0.02987884722152084 0 0.002869624987902406 0.029736387698403234 0 0.0029010914163731427 0.029738164392503149 0 0.0028256772546061855 0.02987884722152084 0 0.0029010914163731427 0.029738164392503149 0 0.0028745254633056861 0.029875922637187607 0 0.0029782409714879474 0.029630253928641669 0 0.0027780762339234435 0.03001226714149972 0 0.0028256772546061855 0.02987884722152084 0 0.0027925342593982569 0.030062089783510965 0 0.0027780762339234435 0.03001226714149972 0 0.0027925342593982569 0.030062089783510965 0 0.0027425134110425492 0.030161223373247767 0 0.0027890877221510967 0.029904092385968802 0 0.0027780762339234435 0.03001226714149972 0 0.0028256772546061855 0.02987884722152084 0 0.0028745254633056861 0.029875922637187607 0 0.0027925342593982569 0.030062089783510965 0 0.0028216959239317058 0.030080857730985271 0 0.0028745254633056861 0.029875922637187607 0 0.0028256772546061855 0.02987884722152084 0 0.0027925342593982569 0.030062089783510965 0 0.0027925342593982569 0.030062089783510965 0 0.0027592547462958164 0.030261879993015123 0 0.0027425134110425492 0.030161223373247767 0 0.0027592547462958164 0.030261879993015123 0 0.0026794365211098752 0.030565505473987512 0 0.0027425134110425492 0.030161223373247767 0 0.0027425134110425492 0.030161223373247767 0 0.0028181801520927416 0.030014338701521561 0 0.002861242507903902 0.030217113670561031 0 0.0026794365211098752 0.030565505473987512 0 0.0027425134110425492 0.030161223373247767 0 0.002861242507903902 0.030217113670561031 0 0.0027745004534424837 0.029980190668265506 0 0.0027780762339234435 0.03001226714149972 0 0.0027425134110425492 0.030161223373247767 0 0.0028318490499751859 0.02985282603128234 0 0.0028181801520927416 0.030014338701521561 0 0.0029767155133471634 0.030051401784934133 0 0.0027745004534424837 0.029980190668265506 0 0.0027425134110425492 0.030161223373247767 0 0.0028181801520927416 0.030014338701521561 0 0.0028318490499751859 0.02985282603128234 0 0.0028181801520927416 0.030014338701521561 0 0.0027896154598795442 0.029906960204291479 0 0.0027745004534424837 0.029980190668265506 0 0.0028181801520927416 0.030014338701521561 0 0.0027896154598795442 0.029906960204291479 0 0.0032803439279449733 0.029933685402728678 0 0.0029428262812192722 0.029816965230577697 0 0.0029767155133471634 0.030051401784934133 0 0.0028181801520927416 0.030014338701521561 0 0.0029767155133471634 0.030051401784934133 0 0.002861242507903902 0.030217113670561031 0 0.0032315731683638608 0.030372456782488299 0 0.0029767155133471634 0.030051401784934133 0 0.002861242507903902 0.030217113670561031 0 0.0032315731683638608 0.030372456782488299 0 0.0026794365211098752 0.030565505473987512 0 0.002861242507903902 0.030217113670561031 0 0.0014754208860710612 0.03195005423258325 0 0.00159030663980599 0.031865102577963558 0 0.00093232543333426194 0.031989542972907223 0 0.0026794365211098752 0.030565505473987512 0 0.0019682562136489235 0.030662639078346345 0 0.00096481560178506432 0.0306262055697883 0 0.00093232543333426194 0.031989542972907223 0 0.0019682562136489235 0.030662639078346345 0 0.0019682562136489235 0.030662639078346345 0 0.0027191515080476369 0.030230234137988733 0 0.0019614447876763232 0.030044844187031638 0 0.00096481560178506432 0.0306262055697883 0 0.0019682562136489235 0.030662639078346345 0 0.0019614447876763232 0.030044844187031638 0 0.0027592547462958164 0.030261879993015123 0 0.0027191515080476369 0.030230234137988733 0 0.0028216959239317058 0.030080857730985271 0 0.0027592547462958164 0.030261879993015123 0 0.0026794365211098752 0.030565505473987512 0 0.0027191515080476369 0.030230234137988733 0 0.0026794365211098752 0.030565505473987512 0 0.0019682562136489235 0.030662639078346345 0 0.0027191515080476369 0.030230234137988733 0 0.0012510839568011813 0.031738884764518561 0 0.0011567273795953569 0.03177757134353705 0 0.0027191515080476369 0.030230234137988733 0 0.002794837883208676 0.03003029564298881 0 0.002701909109948795 0.029951573294743412 0 0.0027191515080476369 0.030230234137988733 0 0.002794837883208676 0.03003029564298881 0 0.0028216959239317058 0.030080857730985271 0 0.002794837883208676 0.03003029564298881 0 0.002701909109948795 0.029951573294743412 0 0.0028104195133900741 0.02992094466425305 0 0.0027191515080476369 0.030230234137988733 0 0.002701909109948795 0.029951573294743412 0 0.0025360630031518103 0.02997986785081392 0 0.002701909109948795 0.029951573294743412 0 0.0025360630031518103 0.02997986785081392 0 0.0026351864861521969 0.029850614392321319 0 0.002701909109948795 0.029951573294743412 0 0.0026351864861521969 0.029850614392321319 0 0.0027793097539176789 0.029847373412190466 0 0.002701909109948795 0.029951573294743412 0 0.0027793097539176789 0.029847373412190466 0 0.0028104195133900741 0.02992094466425305 0 0.002424616964319132 0.029864941117250111 0 0.0025360630031518103 0.02997986785081392 0 0.0026351864861521969 0.029850614392321319 0 0.00089897882695080399 0.029265259473797805 0 0.00096481560178506432 0.0306262055697883 0 0.0019614447876763232 0.030044844187031638 0 0.00099246160159437245 0.0319928310347425 0 0.0011567273795953569 0.03177757134353705 0 0.002424616964319132 0.029864941117250111 0 0.0026351864861521969 0.029850614392321319 0 0.0026537788735003184 0.029730997723321002 0 0.00099246160159437245 0.0319928310347425 0 0.001731017638111064 0.03119187469569442 0 0.0014400305296056169 0.031264458273875702 0 0.0012760112964821455 0.031235954140204584 0 0.0011681841982234076 0.031370624257660455 0 0.0026351864861521969 0.029850614392321319 0 0.0027109912954195866 0.029780347741787401 0 0.0026537788735003184 0.029730997723321002 0 0.0026351864861521969 0.029850614392321319 0 0.0027109912954195866 0.029780347741787401 0 0.0027793097539176789 0.029847373412190466 0 0.001999134473964795 0.030900831770994671 0 0.001731017638111064 0.03119187469569442 0 0.0027109912954195866 0.029780347741787401 0 0.0026537788735003184 0.029730997723321002 0 0.0027284913437014037 0.029752263428486102 0 0.0015814973248343567 0.029558363722522272 0 0.0012760112964821455 0.031235954140204584 0 0.0011681841982234076 0.031370624257660455 0 0.0011380279643676712 0.031326104971993035 0 0.0011415469861373604 0.03130982751781048 0 0.00097865363155493412 0.032496175644652833 0 0.00053701921811157016 0.033004644996017712 0 0.0011681841982234076 0.031370624257660455 0 0.00097865363155493412 0.032496175644652833 0 0.0013358430617111281 0.031923817116163898 0 0.0011681841982234076 0.031370624257660455 0 0.00097865363155493412 0.032496175644652833 0 0.0015955716474808004 0.032157735009594506 0 0.0013358430617111281 0.031923817116163898 0 0.0016342953920724854 0.031680457169202078 0 0.0013358430617111281 0.031923817116163898 0 0.0011681841982234076 0.031370624257660455 0 0.0031261373706497173 0.029584305436280888 0 0.0028792080582412754 0.029715025286762033 0 0.0030122607666566519 0.029826249284165843 0 0.0028792080582412754 0.029715025286762033 0 0.0027284913437014037 0.029752263428486102 0 0.002909313517294307 0.029792307474772871 0 0.0028792080582412754 0.029715025286762033 0 0.002909313517294307 0.029792307474772871 0 0.0030122607666566519 0.029826249284165843 0 0.0025955417564577418 0.029678881655359167 0 0.0028792080582412754 0.029715025286762033 0 0.0027284913437014037 0.029752263428486102 0 0.0025955417564577418 0.029678881655359167 0 0.0026537788735003184 0.029730997723321002 0 0.0027284913437014037 0.029752263428486102 0 0.0027284913437014037 0.029752263428486102 0 0.0027694640866889357 0.029793802244721466 0 0.0028618720983270216 0.02980728120579456 0 0.0027284913437014037 0.029752263428486102 0 0.0028618720983270216 0.02980728120579456 0 0.002909313517294307 0.029792307474772871 0 0.0027109912954195866 0.029780347741787401 0 0.0027284913437014037 0.029752263428486102 0 0.0027694640866889357 0.029793802244721466 0 0.0027109912954195866 0.029780347741787401 0 0.0027694640866889357 0.029793802244721466 0 0.0027793097539176789 0.029847373412190466 0 0.0027694640866889357 0.029793802244721466 0 0.0027793097539176789 0.029847373412190466 0 0.0028618720983270216 0.02980728120579456 0 0.0027793097539176789 0.029847373412190466 0 0.0028618720983270216 0.02980728120579456 0 0.0028763683747632194 0.029852818596849798 0 0.0028618720983270216 0.02980728120579456 0 0.002909313517294307 0.029792307474772871 0 0.0029833540769909424 0.029797649248969008 0 0.0028618720983270216 0.02980728120579456 0 0.0029833540769909424 0.029797649248969008 0 0.0028763683747632194 0.029852818596849798 0 0.002909313517294307 0.029792307474772871 0 0.0029833540769909424 0.029797649248969008 0 0.0030122607666566519 0.029826249284165843 0 0.0029833540769909424 0.029797649248969008 0 0.0029357156577627299 0.029831422017141923 0 0.0030100667031525267 0.029682205741628262 0 0.0029833540769909424 0.029797649248969008 0 0.0029357156577627299 0.029831422017141923 0 0.0028763683747632194 0.029852818596849798 0 0.0027793097539176789 0.029847373412190466 0 0.0028763683747632194 0.029852818596849798 0 0.0028104195133900741 0.02992094466425305 0 0.0029357156577627299 0.029831422017141923 0 0.0028763683747632194 0.029852818596849798 0 0.0028656549825823319 0.029934213682186909 0 0.002794837883208676 0.03003029564298881 0 0.0028656549825823319 0.029934213682186909 0 0.0028104195133900741 0.02992094466425305 0 0.0028763683747632194 0.029852818596849798 0 0.0028656549825823319 0.029934213682186909 0 0.0028104195133900741 0.02992094466425305 0 0.002794837883208676 0.03003029564298881 0 0.0028656549825823319 0.029934213682186909 0 0.0028216959239317058 0.030080857730985271 0 0.0028656549825823319 0.029934213682186909 0 0.0028216959239317058 0.030080857730985271 0 0.0029223679241340904 0.029847899458706941 0 0.0029357156577627299 0.029831422017141923 0 0.0028656549825823319 0.029934213682186909 0 0.0029223679241340904 0.029847899458706941 0 0.0028745254633056861 0.029875922637187607 0 0.0028216959239317058 0.030080857730985271 0 0.0029223679241340904 0.029847899458706941 0 0.0027925342593982569 0.030062089783510965 0 0.0027592547462958164 0.030261879993015123 0 0.0028216959239317058 0.030080857730985271 0 0.0029223679241340904 0.029847899458706941 0 0.0030100667031525267 0.029682205741628262 0 0.0029782409714879474 0.029630253928641669 0 0.0029357156577627299 0.029831422017141923 0 0.0029223679241340904 0.029847899458706941 0 0.0030100667031525267 0.029682205741628262 0 0.0028745254633056861 0.029875922637187607 0 0.0029223679241340904 0.029847899458706941 0 0.0029782409714879474 0.029630253928641669 0 0.0030468522847066407 0.029515856050397509 0 0.0030100667031525267 0.029682205741628262 0 0.0029782409714879474 0.029630253928641669 0 0.0030468522847066407 0.029515856050397509 0 0.0029599890656718743 0.029533842684292901 0 0.0030100667031525267 0.029682205741628262 0 0.0030468522847066407 0.029515856050397509 0 0.0029599890656718743 0.029533842684292901 0 0.0031140305775385051 0.029244368189733715 0 0.0029599890656718743 0.029533842684292901 0 0.0030100667031525267 0.029682205741628262 0 0.0029467519831431208 0.029742291958596161 0 0.0040241682057231137 0.02782629368607055 0 0.0044750352247272069 0.028641258278530635 0 0.0039473737586325566 0.028343454390912612 0 0.0024202517850018101 0.028430659283460547 0 0.0018852456945146737 0.027430307482387891 0 0.0029833540769909424 0.029797649248969008 0 0.0030100667031525267 0.029682205741628262 0 0.0029467519831431208 0.029742291958596161 0 0.0029833540769909424 0.029797649248969008 0 0.0030122607666566519 0.029826249284165843 0 0.0029996670762262845 0.02982005092214193 0 0.0020654512827971935 0.027604033834157993 0 0.0018852456945146737 0.027430307482387891 0 0.0018852456945146737 0.027430307482387891 0 0.0017919169867492246 0.027295340667117727 0 0.0010069277552837584 0.026419785343195678 0 0.00099993489699082478 0.026430518395621654 0 0.0010109994181777696 0.026437253744662381 0 0.0030122607666566519 0.029826249284165843 0 0.0029996670762262845 0.02982005092214193 0 0.0030031404070310574 0.029829327217405041 0 0.001771108835789963 0.027556494478451075 0 0.0017919169867492246 0.027295340667117727 0 0.0031261373706497173 0.029584305436280888 0 0.0030122607666566519 0.029826249284165843 0 0.0033989489001319487 0.029629886583931668 0 0.0009880968318264024 0.026436309457529679 0 0.00098895139717161402 0.02642369923537128 0 0.00097191976314728898 0.026427505826198537 0 0.0015784713308792783 0.02665911924936297 0 0.00099719323326975004 0.025868502389889161 0 0.00099993489699082478 0.026430518395621654 0 0.0009880968318264024 0.026436309457529679 0 0.00098895139717161402 0.02642369923537128 0 0.0044750352247272069 0.028641258278530635 0 0.0038521880935614371 0.028944725436797488 0 0.0039473737586325566 0.028343454390912612 0 0.0010069277552837584 0.026419785343195678 0 0.00099993489699082478 0.026430518395621654 0 0.00098895139717161402 0.02642369923537128 0 0.0018852456945146737 0.027430307482387891 0 0.0015784713308792783 0.02665911924936297 0 0.0038521880935614371 0.028944725436797488 0 0.0034135501955720486 0.02861150178065059 0 0.0031786190952575967 0.029275295868051984 0 0.0038521880935614371 0.028944725436797488 0 0.0034135501955720486 0.02861150178065059 0 0.0039473737586325566 0.028343454390912612 0 0.0034135501955720486 0.02861150178065059 0 0.0039473737586325566 0.028343454390912612 0 0.0038707953149031893 0.027928249889717979 0 0.0034135501955720486 0.02861150178065059 0 0.0038707953149031893 0.027928249889717979 0 0.0030638772077325087 0.027733477541863807 0 0.0040241682057231137 0.02782629368607055 0 0.0039473737586325566 0.028343454390912612 0 0.0038707953149031893 0.027928249889717979 0 0.0040241682057231137 0.02782629368607055 0 0.0038707953149031893 0.027928249889717979 0 0.0043033949182103414 0.027387743405978517 0 0.0038707953149031893 0.027928249889717979 0 0.0043033949182103414 0.027387743405978517 0 0.0030638772077325087 0.027733477541863807 0 0.0043033949182103414 0.027387743405978517 0 0.0034089689697202543 0.025250706627351245 0 0.0031040113819992389 0.026733556836736713 0 0.0043033949182103414 0.027387743405978517 0 0.0044705540515998041 0.024656282649935302 0 0.0060519718087544468 0.023996870089573206 0 0.0028528491893817544 0.026300248428861507 0 0.0027583843646033055 0.026208819610953497 0 0.0043033949182103414 0.027387743405978517 0 0.0044705540515998041 0.024656282649935302 0 0.0034089689697202543 0.025250706627351245 0 0.0044705540515998041 0.024656282649935302 0 0.0060519718087544468 0.023996870089573206 0 0.0049411127078198922 0.023276619617487844 0 0.0044705540515998041 0.024656282649935302 0 0.0038253089695245344 0.023548245377181781 0 0.0034089689697202543 0.025250706627351245 0 0.0044705540515998041 0.024656282649935302 0 0.0038253089695245344 0.023548245377181781 0 0.0049411127078198922 0.023276619617487844 0 0.0043033949182103414 0.027387743405978517 0 0.0039683005561087824 0.029313509741214386 0 0.0034418332843091136 0.028619976682846906 0 0.0039683005561087824 0.029313509741214386 0 0.0034418332843091136 0.028619976682846906 0 0.0033537512233927686 0.029381935094068921 0 0.0024202517850018101 0.028430659283460547 0 0.0025780229349371283 0.028712919663755401 0 0.0040241682057231137 0.02782629368607055 0 0.0043033949182103414 0.027387743405978517 0 0.0034418332843091136 0.028619976682846906 0 0.0034418332843091136 0.028619976682846906 0 0.0031140305775385051 0.029244368189733715 0 0.0031834021007041977 0.029188105337508725 0 0.0029599890656718743 0.029533842684292901 0 0.0034418332843091136 0.028619976682846906 0 0.0031140305775385051 0.029244368189733715 0 0.0031140305775385051 0.029244368189733715 0 0.0029782409714879474 0.029630253928641669 0 0.0029456089873141785 0.029573945432753507 0 0.0030468522847066407 0.029515856050397509 0 0.0031140305775385051 0.029244368189733715 0 0.0029782409714879474 0.029630253928641669 0 0.0029456089873141785 0.029573945432753507 0 0.0030572810265120575 0.029413364285725462 0 0.0029431040630940185 0.029640690391467973 0 0.0031140305775385051 0.029244368189733715 0 0.0029456089873141785 0.029573945432753507 0 0.0030572810265120575 0.029413364285725462 0 0.0030572810265120575 0.029413364285725462 0 0.0030375803265476815 0.029584019195294343 0 0.0029431040630940185 0.029640690391467973 0 0.002864769388184626 0.029725268407950263 0 0.0029456089873141785 0.029573945432753507 0 0.0029431040630940185 0.029640690391467973 0 0.0034418332843091136 0.028619976682846906 0 0.0031834021007041977 0.029188105337508725 0 0.0033537512233927686 0.029381935094068921 0 0.0031140305775385051 0.029244368189733715 0 0.0030572810265120575 0.029413364285725462 0 0.0031834021007041977 0.029188105337508725 0 0.0030572810265120575 0.029413364285725462 0 0.0031834021007041977 0.029188105337508725 0 0.0031308660496324847 0.029559658216411065 0 0.0030572810265120575 0.029413364285725462 0 0.0030375803265476815 0.029584019195294343 0 0.0031308660496324847 0.029559658216411065 0 0.0031834021007041977 0.029188105337508725 0 0.0033537512233927686 0.029381935094068921 0 0.0031308660496324847 0.029559658216411065 0 0.0033537512233927686 0.029381935094068921 0 0.0032477096668652502 0.029676154256567968 0 0.0031308660496324847 0.029559658216411065 0 0.0033537512233927686 0.029381935094068921 0 0.0032477096668652502 0.029676154256567968 0 0.0034337389078216416 0.029748965205832114 0 0.0031308660496324847 0.029559658216411065 0 0.0031294840534194595 0.029749388597046508 0 0.0030117069955763348 0.029706745519715284 0 0.0032477096668652502 0.029676154256567968 0 0.0031308660496324847 0.029559658216411065 0 0.0031294840534194595 0.029749388597046508 0 0.0032477096668652502 0.029676154256567968 0 0.0031294840534194595 0.029749388597046508 0 0.0032384566359703972 0.02981853774549004 0 0.0031294840534194595 0.029749388597046508 0 0.0030438152241219142 0.029829737930234329 0 0.0031376730951390092 0.02987080054477299 0 0.0031294840534194595 0.029749388597046508 0 0.0032384566359703972 0.02981853774549004 0 0.0031376730951390092 0.02987080054477299 0 0.0032477096668652502 0.029676154256567968 0 0.0032384566359703972 0.02981853774549004 0 0.0034337389078216416 0.029748965205832114 0 0.0032384566359703972 0.02981853774549004 0 0.0033260954563522137 0.02988695921642346 0 0.0034337389078216416 0.029748965205832114 0 0.0028708908602199453 0.029740032607591116 0 0.0029431040630940185 0.029640690391467973 0 0.0029048368854773269 0.02976501493872475 0 0.0029431040630940185 0.029640690391467973 0 0.0029048368854773269 0.02976501493872475 0 0.0030117069955763348 0.029706745519715284 0 0.0030375803265476815 0.029584019195294343 0 0.0031308660496324847 0.029559658216411065 0 0.0030117069955763348 0.029706745519715284 0 0.0030375803265476815 0.029584019195294343 0 0.0029431040630940185 0.029640690391467973 0 0.0030117069955763348 0.029706745519715284 0 0.0030117069955763348 0.029706745519715284 0 0.0030438152241219142 0.029829737930234329 0 0.002960503132022882 0.029821071391558724 0 0.0031294840534194595 0.029749388597046508 0 0.0030117069955763348 0.029706745519715284 0 0.0030438152241219142 0.029829737930234329 0 0.0029048368854773269 0.02976501493872475 0 0.0030117069955763348 0.029706745519715284 0 0.002960503132022882 0.029821071391558724 0 0.0028927119454484462 0.029846073034507183 0 0.0029048368854773269 0.02976501493872475 0 0.002960503132022882 0.029821071391558724 0 0.0019850904379107967 0.029915327788562641 0 0.0020492783206880467 0.027970798835177512 0 0.0028421463119779706 0.029952552397053744 0 0.0030609534419667773 0.030008285059209987 0 0.0029807833220060315 0.029959336188910911 0 0.00045319749420513078 0.034789159701967394 0 0.00054846100538800035 0.034810579782966977 0 0.00047231054587233744 0.034814905314169475 0 0.0028421463119779706 0.029952552397053744 0 0.0030609534419667773 0.030008285059209987 0 0.0031907634348380428 0.030124039856747276 0 0.0029162639104964253 0.0299233047947535 0 0.0029369483005714839 0.029881012309681421 0 0.002970665282729898 0.029920521442521473 0 0.0028946456835233516 0.02989013554300152 0 0.0029162639104964253 0.0299233047947535 0 0.0029369483005714839 0.029881012309681421 0 0.0028946456835233516 0.02989013554300152 0 0.0028927119454484462 0.029846073034507183 0 0.0029369483005714839 0.029881012309681421 0 0.0028927119454484462 0.029846073034507183 0 0.002960503132022882 0.029821071391558724 0 0.0029369483005714839 0.029881012309681421 0 0.002960503132022882 0.029821071391558724 0 0.0029369483005714839 0.029881012309681421 0 0.0029992963309503511 0.02988860982612716 0 0.0029162639104964253 0.0299233047947535 0 0.002970665282729898 0.029920521442521473 0 0.0029807833220060315 0.029959336188910911 0 0.0029369483005714839 0.029881012309681421 0 0.002970665282729898 0.029920521442521473 0 0.0029992963309503511 0.02988860982612716 0 0.002970665282729898 0.029920521442521473 0 0.0030103065400400217 0.029933574077493304 0 0.0029807833220060315 0.029959336188910911 0 0.0030103065400400217 0.029933574077493304 0 0.0029992963309503511 0.02988860982612716 0 0.0030617143586738585 0.029932452534052127 0 0.0030103065400400217 0.029933574077493304 0 0.0030617143586738585 0.029932452534052127 0 0.0030418491712548871 0.029966338254878863 0 0.002970665282729898 0.029920521442521473 0 0.0030103065400400217 0.029933574077493304 0 0.0029992963309503511 0.02988860982612716 0 0.0030438152241219142 0.029829737930234329 0 0.002960503132022882 0.029821071391558724 0 0.0029992963309503511 0.02988860982612716 0 0.0030438152241219142 0.029829737930234329 0 0.0029992963309503511 0.02988860982612716 0 0.0030617143586738585 0.029932452534052127 0 0.0030438152241219142 0.029829737930234329 0 0.0030617143586738585 0.029932452534052127 0 0.0031376730951390092 0.02987080054477299 0 0.0030865032262265024 0.029978428219282913 0 0.0030609534419667773 0.030008285059209987 0 0.0031220180301832316 0.030002773225963373 0 0.0030617143586738585 0.029932452534052127 0 0.0030865032262265024 0.029978428219282913 0 0.0031456597061466931 0.029964202439368065 0 0.0030617143586738585 0.029932452534052127 0 0.0030865032262265024 0.029978428219282913 0 0.0030418491712548871 0.029966338254878863 0 0.0030865032262265024 0.029978428219282913 0 0.0030609534419667773 0.030008285059209987 0 0.0030418491712548871 0.029966338254878863 0 0.0030609534419667773 0.030008285059209987 0 0.0030418491712548871 0.029966338254878863 0 0.0029807833220060315 0.029959336188910911 0 0.0030103065400400217 0.029933574077493304 0 0.0030418491712548871 0.029966338254878863 0 0.0029807833220060315 0.029959336188910911 0 0.0028421463119779706 0.029952552397053744 0 0.0029162639104964253 0.0299233047947535 0 0.0029807833220060315 0.029959336188910911 0 0.0033078011377312912 0.02998260649460744 0 0.0034450645548866174 0.029875050143098401 0 0.0033064025403512494 0.030157082401059049 0 0.0033260954563522137 0.02988695921642346 0 0.0033078011377312912 0.02998260649460744 0 0.0034450645548866174 0.029875050143098401 0 0.0032215039512221884 0.029922089215846524 0 0.0032129306746105065 0.029993894263706865 0 0.0033078011377312912 0.02998260649460744 0 0.0033260954563522137 0.02988695921642346 0 0.0032215039512221884 0.029922089215846524 0 0.0033078011377312912 0.02998260649460744 0 0.0032384566359703972 0.02981853774549004 0 0.0033260954563522137 0.02988695921642346 0 0.0032215039512221884 0.029922089215846524 0 0.0032384566359703972 0.02981853774549004 0 0.0031376730951390092 0.02987080054477299 0 0.0032215039512221884 0.029922089215846524 0 0.0030617143586738585 0.029932452534052127 0 0.0031376730951390092 0.02987080054477299 0 0.0031456597061466931 0.029964202439368065 0 0.0031376730951390092 0.02987080054477299 0 0.0032215039512221884 0.029922089215846524 0 0.0031456597061466931 0.029964202439368065 0 0.0032215039512221884 0.029922089215846524 0 0.0032129306746105065 0.029993894263706865 0 0.0031456597061466931 0.029964202439368065 0 0.0032129306746105065 0.029993894263706865 0 0.0031662570810617493 0.030008230824629105 0 0.0031456597061466931 0.029964202439368065 0 0.0030609534419667773 0.030008285059209987 0 0.0031555722162647116 0.030049676097555603 0 0.0031907634348380428 0.030124039856747276 0 0.0032129306746105065 0.029993894263706865 0 0.0031662570810617493 0.030008230824629105 0 0.0032002536782058978 0.030042002166577358 0 0.0030865032262265024 0.029978428219282913 0 0.0031456597061466931 0.029964202439368065 0 0.0031220180301832316 0.030002773225963373 0 0.0031662570810617493 0.030008230824629105 0 0.0031456597061466931 0.029964202439368065 0 0.0031220180301832316 0.030002773225963373 0 0.0030609534419667773 0.030008285059209987 0 0.0031220180301832316 0.030002773225963373 0 0.0031555722162647116 0.030049676097555603 0 0.0031662570810617493 0.030008230824629105 0 0.0031220180301832316 0.030002773225963373 0 0.0031555722162647116 0.030049676097555603 0 0.0032129306746105065 0.029993894263706865 0 0.0032002536782058978 0.030042002166577358 0 0.003243387131069698 0.030058747544809115 0 0.0031555722162647116 0.030049676097555603 0 0.0032002536782058978 0.030042002166577358 0 0.0031907634348380428 0.030124039856747276 0 0.0032002536782058978 0.030042002166577358 0 0.003243387131069698 0.030058747544809115 0 0.0031907634348380428 0.030124039856747276 0 0.0031662570810617493 0.030008230824629105 0 0.0031555722162647116 0.030049676097555603 0 0.0032002536782058978 0.030042002166577358 0 0.003243387131069698 0.030058747544809115 0 0.0033078011377312912 0.02998260649460744 0 0.0033064025403512494 0.030157082401059049 0 0.0032129306746105065 0.029993894263706865 0 0.003243387131069698 0.030058747544809115 0 0.0033078011377312912 0.02998260649460744 0 0.0023307002361203722 0.026195162879520381 0 0.0019219214458628252 0.027008048296257518 0 0.0067811586277254964 0.021409451958627004 0 0.0053339309462893322 0.020266808707886361 0 0.0056338877425679704 0.022239015439491569 0 0.0023307002361203722 0.026195162879520381 0 0.001870796300880674 0.025500033620110826 0 0.0067811586277254964 0.021409451958627004 0 0.0053339309462893322 0.020266808707886361 0 0.0052280111229639648 0.018459952677493695 0 0.0056338877425679704 0.022239015439491569 0 0.0047173696318705176 0.018727604172106144 0 0.0039645805955052385 0.019927565094744325 0 0.0053339309462893322 0.020266808707886361 0 0.0056338877425679704 0.022239015439491569 0 0.0036753547585376403 0.018908116096967461 0 0.0056338877425679704 0.022239015439491569 0 0.0039645805955052385 0.019927565094744325 0 0.0038254077184565432 0.021128594365542465 0 0.0037410343592324978 0.01891951759624216 0 0.0033344777621100632 0.017972795636586967 0 0.0056338877425679704 0.022239015439491569 0 0.004268140344825761 0.022448581591276041 0 0.0038254077184565432 0.021128594365542465 0 0.0038253089695245344 0.023548245377181781 0 0.004268140344825761 0.022448581591276041 0 0.0049411127078198922 0.023276619617487844 0 0.0060519718087544468 0.023996870089573206 0 0.0056338877425679704 0.022239015439491569 0 0.0049411127078198922 0.023276619617487844 0 0.0056338877425679704 0.022239015439491569 0 0.004268140344825761 0.022448581591276041 0 0.0049411127078198922 0.023276619617487844 0 0.0027583843646033055 0.026208819610953497 0 0.0023307002361203722 0.026195162879520381 0 0.0060519718087544468 0.023996870089573206 0 0.0067811586277254964 0.021409451958627004 0 0.0056338877425679704 0.022239015439491569 0 0.0039683005561087824 0.029313509741214386 0 0.0035633958079994863 0.030097906929251236 0 0.0034337389078216416 0.029748965205832114 0 0.0039683005561087824 0.029313509741214386 0 0.0033537512233927686 0.029381935094068921 0 0.0034337389078216416 0.029748965205832114 0 0.0033260954563522137 0.02988695921642346 0 0.0034450645548866174 0.029875050143098401 0 0.0034337389078216416 0.029748965205832114 0 0.0023307002361203722 0.026195162879520381 0 0.0023894769515801729 0.026353689242894277 0 0.0014209145776522792 0.025737510211541376 0 0.0014580018782106719 0.025658735333470874 0 0.0015032187818661653 0.025777860175382247 0 0.0014209145776522792 0.025737510211541376 0 0.0014482797299717261 0.025787411912890162 0 0.0015032187818661653 0.025777860175382247 0 0.0014209145776522792 0.025737510211541376 0 0.0014580018782106719 0.025658735333470874 0 0.0014120365114923745 0.025690516936800099 0 0.0014209145776522792 0.025737510211541376 0 0.0014120365114923745 0.025690516936800099 0 0.0013775242994435027 0.025715073009547878 0 0.0014209145776522792 0.025737510211541376 0 0.0013710519595472215 0.025761594392376578 0 0.0013910525323647259 0.025789135320057843 0 0.0014209145776522792 0.025737510211541376 0 0.0014482797299717261 0.025787411912890162 0 0.0013910525323647259 0.025789135320057843 0 0.0014209145776522792 0.025737510211541376 0 0.0013775242994435027 0.025715073009547878 0 0.0013710519595472215 0.025761594392376578 0 0.0035345779400916639 0.018257035737437057 0 0.0036753547585376403 0.018908116096967461 0 0.0021112222176833078 0.01627185016255368 0 0.001870796300880674 0.025500033620110826 0 0.0010771167647498354 0.023331700358249108 0 0.0035345779400916639 0.018257035737437057 0 0.003365487806575725 0.016385858380165933 0 0.0021112222176833078 0.01627185016255368 0 0.0035345779400916639 0.018257035737437057 0 0.0045959938203007462 0.018564645210812223 0 0.003365487806575725 0.016385858380165933 0 0.0033344777621100632 0.017972795636586967 0 0.0025379696045542688 0.016254193192829162 0 0.0035345779400916639 0.018257035737437057 0 0.0036753547585376403 0.018908116096967461 0 0.0052280111229639648 0.018459952677493695 0 0.0019237618885345634 0.025388179031835208 0 0.001870796300880674 0.025500033620110826 0 0.0047173696318705176 0.018727604172106144 0 0.0039645805955052385 0.019927565094744325 0 0.0034899511322117917 0.018753241511143597 0 0.0053339309462893322 0.020266808707886361 0 0.0036753547585376403 0.018908116096967461 0 0.0052280111229639648 0.018459952677493695 0 0.0027288465839175589 0.026436136652366788 0 0.002672550332504063 0.026295941568729757 0 0.0027725630926724652 0.026325658486110466 0 0.0014580018782106719 0.025658735333470874 0 0.0014120365114923745 0.025690516936800099 0 0.001366758729408258 0.025632323310433136 0 0.001870796300880674 0.025500033620110826 0 0.0019219214458628252 0.027008048296257518 0 0.0014120365114923745 0.025690516936800099 0 0.001366758729408258 0.025632323310433136 0 0.0013775242994435027 0.025715073009547878 0 0.0013527933060860414 0.025681055211129747 0 0.0013280793365445065 0.025673609057076857 0 0.0013174864822747903 0.025759473161648061 0 0.0020492783206880467 0.027970798835177512 0 0.00096264519819612882 0.028111810239611373 0 0.0019219214458628252 0.027008048296257518 0 0.0020492783206880467 0.027970798835177512 0 0.003243387131069698 0.030058747544809115 0 0.0033064025403512494 0.030157082401059049 0 0.0031907634348380428 0.030124039856747276 0 0.00054846100538800035 0.034810579782966977 0 0.00047231054587233744 0.034814905314169475 0 0.00049780382753596782 0.034845363251888091 0 0.00054846100538800035 0.034810579782966977 0 0.00049780382753596782 0.034845363251888091 0 0.00050545515100212652 0.034903182064805451 0 0.00047231054587233744 0.034814905314169475 0 0.00049780382753596782 0.034845363251888091 0 0.00046531401113009629 0.034854767694277589 0 0.00049780382753596782 0.034845363251888091 0 0.00050545515100212652 0.034903182064805451 0 0.00046531401113009629 0.034854767694277589 0 0.00050545515100212652 0.034903182064805451 0 0.00043077527948865015 0.034885703885031066 0 0.00046531401113009629 0.034854767694277589 0 0.0019219214458628252 0.027008048296257518 0 0.0019446690137887995 0.026754585231831912 0 0.001366758729408258 0.025632323310433136 0 0.0013775242994435027 0.025715073009547878 0 0.0013174864822747903 0.025759473161648061 0 0.0013280793365445065 0.025673609057076857 0 0.0012811324856893032 0.025760425525863117 0 0.0013174864822747903 0.025759473161648061 0 0.0012811324856893032 0.025760425525863117 0 0.0013174864822747903 0.025759473161648061 0 0.0013246596755790731 0.025801190336369496 0 0.0013174864822747903 0.025759473161648061 0 0.0013710519595472215 0.025761594392376578 0 0.0013246596755790731 0.025801190336369496 0 0.0013775242994435027 0.025715073009547878 0 0.0013174864822747903 0.025759473161648061 0 0.0013710519595472215 0.025761594392376578 0 0.0013710519595472215 0.025761594392376578 0 0.0013246596755790731 0.025801190336369496 0 0.0013910525323647259 0.025789135320057843 0 0.0013246596755790731 0.025801190336369496 0 0.0012227910644607627 0.025882425908328947 0 0.0013682472347881218 0.025855299129437789 0 0.0013246596755790731 0.025801190336369496 0 0.0013682472347881218 0.025855299129437789 0 0.0013910525323647259 0.025789135320057843 0 0.0012811324856893032 0.025760425525863117 0 0.0013246596755790731 0.025801190336369496 0 0.0012227910644607627 0.025882425908328947 0 0.00050545515100212652 0.034903182064805451 0 0.0004669909748856945 0.034984871457433182 0 0.00043061930756114152 0.034942947292085899 0 0.00096264519819612882 0.028111810239611373 0 0.00041519310983792002 0.026596312652680448 0 0.00041519310983792002 0.026596312652680448 0 0.0007247800011123105 0.024525012444214671 0 9.7084513198378224e-05 0.020566074836570372 0 0.00032549654049379354 0.020601184209883709 0 0.00032813209091897447 0.020694057453687718 0 0.00032549654049379354 0.020601184209883709 0 0.00030999808448666996 0.020619313701401819 0 0.00032813209091897447 0.020694057453687718 0 0.00032549654049379354 0.020601184209883709 0 0.00030999808448666996 0.020619313701401819 0 0.00030683265668492079 0.020712042752044794 0 0.00030999808448666996 0.020619313701401819 0 0.00025169849593974659 0.020625716918119111 0 0.00027744103556630469 0.0206408362434282 0 0.0013682472347881218 0.025855299129437789 0 0.0014482797299717261 0.025787411912890162 0 0.0015210677460037534 0.025823494556677738 0 0.0007247800011123105 0.024525012444214671 0 0.00078659471183559302 0.022773641479185352 0 0.0013682472347881218 0.025855299129437789 0 0.0014482797299717261 0.025787411912890162 0 0.0013910525323647259 0.025789135320057843 0 0.003365487806575725 0.016385858380165933 0 0.0027776267141386523 0.015610447782716043 0 0.0021112222176833078 0.01627185016255368 0 0.0010771167647498354 0.023331700358249108 0 0.00078659471183559302 0.022773641479185352 0 0.0014482797299717261 0.025787411912890162 0 0.0015032187818661653 0.025777860175382247 0 0.0015210677460037534 0.025823494556677738 0 0.00032509492969180011 0.02057836876702281 0 0.00042630914342096395 0.018687147605270762 0 -1.9003897933423868e-05 0.020335071938064043 0 0.00030683265668492079 0.020712042752044794 0 0.00032509492969180011 0.02057836876702281 0 -1.9003897933423868e-05 0.020335071938064043 0 0.00030999808448666996 0.020619313701401819 0 0.00030683265668492079 0.020712042752044794 0 0.00032509492969180011 0.02057836876702281 0 0.00078659471183559302 0.022773641479185352 0 0.00044560694163042563 0.02059375201024382 0 0.00032509492969180011 0.02057836876702281 0 0.00025169849593974659 0.020625716918119111 0 0.00014159155323811476 0.020622774322199593 0 0.00030999808448666996 0.020619313701401819 0 0.00032509492969180011 0.02057836876702281 0 0.00025169849593974659 0.020625716918119111 0 0.00028130133016777205 0.018901514535221042 0 0.00023477599281718101 0.018601391289717467 0 0.00032509492969180011 0.02057836876702281 0 0.00014159155323811476 0.020622774322199593 0 -9.7216500785937891e-05 0.020614545566085701 0 0.00025169849593974659 0.020625716918119111 0 0.00014159155323811476 0.020622774322199593 0 0.00027744103556630469 0.0206408362434282 0 0.00014159155323811476 0.020622774322199593 0 0.00027744103556630469 0.0206408362434282 0 0.00016567742075904339 0.020516769382415499 0 0.00014159155323811476 0.020622774322199593 0 -9.7216500785937891e-05 0.020614545566085701 0 0.00016567742075904339 0.020516769382415499 0 0.00027744103556630469 0.0206408362434282 0 0.00031829038137753154 0.020614387379871348 0 0.00032813209091897447 0.020694057453687718 0 0.00030999808448666996 0.020619313701401819 0 0.00027744103556630469 0.0206408362434282 0 0.00032813209091897447 0.020694057453687718 0 0.00027744103556630469 0.0206408362434282 0 0.00031829038137753154 0.020614387379871348 0 0.00016567742075904339 0.020516769382415499 0 0.00031829038137753154 0.020614387379871348 0 0.00026271466847658587 0.020317460426221168 0 0.00037275177129630173 0.020770445555070485 0 0.00031829038137753154 0.020614387379871348 0 0.00026271466847658587 0.020317460426221168 0 0.00016567742075904339 0.020516769382415499 0 -9.7216500785937891e-05 0.020614545566085701 0 -2.2609480517310559e-05 0.020117479213729084 0 -0.00060346046989428982 0.019581429434297862 0 -9.7216500785937891e-05 0.020614545566085701 0 0.00016567742075904339 0.020516769382415499 0 -2.2609480517310559e-05 0.020117479213729084 0 0.00026271466847658587 0.020317460426221168 0 0.00016567742075904339 0.020516769382415499 0 -2.2609480517310559e-05 0.020117479213729084 0 0.00026271466847658587 0.020317460426221168 0 -2.2609480517310559e-05 0.020117479213729084 0 6.7992217205902267e-05 0.019253663101930153 0 -2.2609480517310559e-05 0.020117479213729084 0 6.7992217205902267e-05 0.019253663101930153 0 -0.00060346046989428982 0.019581429434297862 0 0.00026271466847658587 0.020317460426221168 0 6.7992217205902267e-05 0.019253663101930153 0 0.00025731300500060107 0.020252563829700167 0 0.00026271466847658587 0.020317460426221168 0 0.00025731300500060107 0.020252563829700167 0 0.00037275177129630173 0.020770445555070485 0 9.9834129865231037e-07 0.018670071516515153 0 5.4161053132628303e-07 0.02059517256891228 0 0.00025731300500060107 0.020252563829700167 0 6.7992217205902267e-05 0.019253663101930153 0 9.9834129865231037e-07 0.018670071516515153 0 0.00025731300500060107 0.020252563829700167 0 6.7992217205902267e-05 0.019253663101930153 0 9.9834129865231037e-07 0.018670071516515153 0 -2.4119633265382307e-06 0.016748354656209444 0 5.4161053132628303e-07 0.02059517256891228 0 0.00025017239895067334 0.021586430903758985 0 -3.137974883521988e-07 0.022519873837274103 0 5.4161053132628303e-07 0.02059517256891228 0 0.00025731300500060107 0.020252563829700167 0 0.00025017239895067334 0.021586430903758985 0 0.00025731300500060107 0.020252563829700167 0 0.00025017239895067334 0.021586430903758985 0 0.00037275177129630173 0.020770445555070485 0 0.00025017239895067334 0.021586430903758985 0 0.00021939906371790677 0.020881338047208386 0 -0.00019576443369789947 0.021072446928300917 0 0.00025017239895067334 0.021586430903758985 0 0.00037275177129630173 0.020770445555070485 0 0.00021939906371790677 0.020881338047208386 0 0.00037275177129630173 0.020770445555070485 0 0.00032813209091897447 0.020694057453687718 0 0.00021939906371790677 0.020881338047208386 0 0.00031829038137753154 0.020614387379871348 0 0.00037275177129630173 0.020770445555070485 0 0.00032813209091897447 0.020694057453687718 0 9.7084513198378224e-05 0.020566074836570372 0 0.00032813209091897447 0.020694057453687718 0 0.00021939906371790677 0.020881338047208386 0 -0.0016408011797945671 0.026659276376532735 0 -0.0011885022551008 0.025511440527471944 0 -0.00041056164803803593 0.026403489433364461 0 9.7084513198378224e-05 0.020566074836570372 0 0.00021939906371790677 0.020881338047208386 0 -0.00019576443369789947 0.021072446928300917 0 0.00041519310983792002 0.026596312652680448 0 0.00054705702121099649 0.024979303662324297 0 -0.0011885022551008 0.025511440527471944 0 4.3400380518157041e-05 0.025334692598328015 0 -0.00041056164803803593 0.026403489433364461 0 0.00054705702121099649 0.024979303662324297 0 0.00058449167861212323 0.024513911309697965 0 -0.0011885022551008 0.025511440527471944 0 -0.00035298294662931031 0.023446644230120096 0 4.3400380518157041e-05 0.025334692598328015 0 0.00025017239895067334 0.021586430903758985 0 -0.00019576443369789947 0.021072446928300917 0 -0.00035298294662931031 0.023446644230120096 0 -0.00035298294662931031 0.023446644230120096 0 -3.137974883521988e-07 0.022519873837274103 0 -4.4041056701957699e-08 0.024444399649536146 0 0.00025017239895067334 0.021586430903758985 0 -0.00035298294662931031 0.023446644230120096 0 -3.137974883521988e-07 0.022519873837274103 0 -4.4041056701957699e-08 0.024444399649536146 0 0.0001084264755734613 0.024642880311799117 0 4.5833782031388886e-07 0.026368947521559369 0 -0.00035298294662931031 0.023446644230120096 0 -4.4041056701957699e-08 0.024444399649536146 0 0.0001084264755734613 0.024642880311799117 0 0.0001084264755734613 0.024642880311799117 0 0.00035718876583468672 0.025548223957062875 0 4.3400380518157041e-05 0.025334692598328015 0 -0.00035298294662931031 0.023446644230120096 0 0.0001084264755734613 0.024642880311799117 0 4.3400380518157041e-05 0.025334692598328015 0 0.0001084264755734613 0.024642880311799117 0 0.00035718876583468672 0.025548223957062875 0 4.5833782031388886e-07 0.026368947521559369 0 0.00035718876583468672 0.025548223957062875 0 0.00044797191267393943 0.026078850980886022 0 0.000467365403072618 0.026059059928262122 0 0.00035718876583468672 0.025548223957062875 0 4.3400380518157041e-05 0.025334692598328015 0 0.00044797191267393943 0.026078850980886022 0 4.3400380518157041e-05 0.025334692598328015 0 0.00044797191267393943 0.026078850980886022 0 -0.00041056164803803593 0.026403489433364461 0 0.00028222367035789697 0.035032867506461986 0 0.00030583397482030432 0.034962299572032576 0 0.00022613541529652509 0.03499347303119197 0 0.00024249232701992164 0.034946135786754394 0 0.00022010035138400532 0.034934401378863125 0 0.00030583397482030432 0.034962299572032576 0 0.00031130208741305944 0.034917451890612211 0 0.00024742211564674003 0.034920206830706221 0 0.00030583397482030432 0.034962299572032576 0 0.00037622071266628501 0.034931694560464036 0 0.00031130208741305944 0.034917451890612211 0 0.00030583397482030432 0.034962299572032576 0 0.00037562383856191457 0.035008492056289774 0 0.00037622071266628501 0.034931694560464036 0 0.00028222367035789697 0.035032867506461986 0 0.00030583397482030432 0.034962299572032576 0 0.00037562383856191457 0.035008492056289774 0 0.00013967192565220854 0.029692364823930985 0 7.2447217656886525e-05 0.028401035297102688 0 0.00041519310983792002 0.026596312652680448 0 7.2447217656886525e-05 0.028401035297102688 0 0.0004669909748856945 0.034984871457433182 0 0.00037562383856191457 0.035008492056289774 0 0.00043061930756114152 0.034942947292085899 0 0.00037562383856191457 0.035008492056289774 0 0.00043061930756114152 0.034942947292085899 0 0.00037622071266628501 0.034931694560464036 0 0.00037622071266628501 0.034931694560464036 0 0.00038640576385831621 0.034884680799898912 0 0.00034680494651963392 0.034884924580153305 0 0.00037622071266628501 0.034931694560464036 0 0.00038640576385831621 0.034884680799898912 0 0.00043077527948865015 0.034885703885031066 0 0.00038640576385831621 0.034884680799898912 0 0.00043077527948865015 0.034885703885031066 0 0.00040657469734174212 0.03485004417233984 0 0.00038640576385831621 0.034884680799898912 0 0.00037582185440892185 0.034863920902618736 0 0.00034680494651963392 0.034884924580153305 0 0.00043061930756114152 0.034942947292085899 0 0.00037622071266628501 0.034931694560464036 0 0.00043077527948865015 0.034885703885031066 0 0.00050545515100212652 0.034903182064805451 0 0.00043061930756114152 0.034942947292085899 0 0.00043077527948865015 0.034885703885031066 0 0.00043077527948865015 0.034885703885031066 0 0.00046531401113009629 0.034854767694277589 0 0.00043626808581088213 0.034849077804281717 0 0.00046531401113009629 0.034854767694277589 0 0.00043626808581088213 0.034849077804281717 0 0.00045031459537637358 0.034826735314594154 0 0.00043077527948865015 0.034885703885031066 0 0.00043626808581088213 0.034849077804281717 0 0.00040657469734174212 0.03485004417233984 0 0.00043626808581088213 0.034849077804281717 0 0.0004286926030039083 0.034827793004033165 0 0.00040657469734174212 0.03485004417233984 0 0.00041087364216244531 0.034823992018066949 0 0.0004286926030039083 0.034827793004033165 0 0.00040657469734174212 0.03485004417233984 0 0.00041087364216244531 0.034823992018066949 0 0.00042151078543988744 0.034818440867582207 0 0.0004286926030039083 0.034827793004033165 0 0.00044047006757623008 0.03480692821200998 0 0.00042151078543988744 0.034818440867582207 0 0.0004286926030039083 0.034827793004033165 0 0.00047231054587233744 0.034814905314169475 0 0.00046531401113009629 0.034854767694277589 0 0.00045031459537637358 0.034826735314594154 0 0.00043626808581088213 0.034849077804281717 0 0.0004286926030039083 0.034827793004033165 0 0.00045031459537637358 0.034826735314594154 0 0.00044047006757623008 0.03480692821200998 0 0.0004286926030039083 0.034827793004033165 0 0.00045031459537637358 0.034826735314594154 0 0.0004541200449568918 0.034809743425203279 0 0.00044047006757623008 0.03480692821200998 0 0.00045031459537637358 0.034826735314594154 0 0.0004541200449568918 0.034809743425203279 0 0.00047231054587233744 0.034814905314169475 0 0.00045031459537637358 0.034826735314594154 0 0.00037582185440892185 0.034863920902618736 0 0.00038324897403941666 0.034842475992197593 0 0.00035751955598322207 0.034857005903814083 0 0.00038640576385831621 0.034884680799898912 0 0.00037582185440892185 0.034863920902618736 0 0.00040657469734174212 0.03485004417233984 0 0.00037582185440892185 0.034863920902618736 0 0.00040657469734174212 0.03485004417233984 0 0.00038324897403941666 0.034842475992197593 0 0.00041087364216244531 0.034823992018066949 0 0.00040657469734174212 0.03485004417233984 0 0.00039873016174768569 0.034836268254762534 0 0.00040657469734174212 0.03485004417233984 0 0.00039873016174768569 0.034836268254762534 0 0.00038324897403941666 0.034842475992197593 0 0.00041087364216244531 0.034823992018066949 0 0.00039873016174768569 0.034836268254762534 0 0.00039355141326669491 0.034827503585993499 0 0.00039873016174768569 0.034836268254762534 0 0.00039355141326669491 0.034827503585993499 0 0.00038324897403941666 0.034842475992197593 0 0.00037678073098580748 0.034827522429067746 0 0.00038324897403941666 0.034842475992197593 0 0.00036646282498918278 0.034838286139827208 0 0.00038324897403941666 0.034842475992197593 0 0.00036646282498918278 0.034838286139827208 0 0.00035751955598322207 0.034857005903814083 0 0.00037678073098580748 0.034827522429067746 0 0.00039355141326669491 0.034827503585993499 0 0.00038324897403941666 0.034842475992197593 0 0.00032805390216037654 0.034858026582569437 0 0.00029755989222881755 0.034888372432623167 0 0.00034680494651963392 0.034884924580153305 0 0.00035106142239830422 0.034836950208366246 0 0.00036646282498918278 0.034838286139827208 0 0.00035751955598322207 0.034857005903814083 0 0.00035106142239830422 0.034836950208366246 0 0.00035751955598322207 0.034857005903814083 0 0.00032805390216037654 0.034858026582569437 0 0.00035751955598322207 0.034857005903814083 0 0.00032805390216037654 0.034858026582569437 0 0.00034680494651963392 0.034884924580153305 0 0.00037582185440892185 0.034863920902618736 0 0.00035751955598322207 0.034857005903814083 0 0.00034680494651963392 0.034884924580153305 0 0.0003293218555059078 0.034835693077526667 0 0.00035106142239830422 0.034836950208366246 0 0.00032805390216037654 0.034858026582569437 0 0.0002909460927088271 0.034849309550670254 0 0.00032805390216037654 0.034858026582569437 0 0.00029755989222881755 0.034888372432623167 0 0.0002909460927088271 0.034849309550670254 0 0.00029755989222881755 0.034888372432623167 0 0.00024742211564674003 0.034920206830706221 0 0.0002909460927088271 0.034849309550670254 0 0.0003293218555059078 0.034835693077526667 0 0.00032805390216037654 0.034858026582569437 0 0.00029755989222881755 0.034888372432623167 0 0.00031130208741305944 0.034917451890612211 0 0.00024742211564674003 0.034920206830706221 0 0.00029755989222881755 0.034888372432623167 0 0.00031130208741305944 0.034917451890612211 0 0.00034680494651963392 0.034884924580153305 0 0.00037622071266628501 0.034931694560464036 0 0.00031130208741305944 0.034917451890612211 0 0.00034680494651963392 0.034884924580153305 0 0.00022010035138400532 0.034934401378863125 0 0.00018078122776615766 0.034914402030298962 0 0.0002148199319216117 0.034940774373296429 0 0.00014956083956666841 0.034926212179974013 0 0.00016626867774537264 0.034981290935418019 0 0.00022908750807516072 0.034862609071363723 0 0.0002909460927088271 0.034849309550670254 0 0.00024742211564674003 0.034920206830706221 0 0.00022908750807516072 0.034862609071363723 0 0.00024742211564674003 0.034920206830706221 0 0.00018654209976837183 0.034900022382527172 0 0.00015875605837342959 0.034903351516876353 0 0.00018078122776615766 0.034914402030298962 0 9.8832581969923036e-05 0.034897578783418648 0 0.00014956083956666841 0.034926212179974013 0 0.00010332450588430859 0.034943145037748168 0 0.00010332450588430859 0.034943145037748168 0 0.0001205923804827429 0.034966991237000498 0 8.2728769111767978e-05 0.034967937536253123 0 0.0001205923804827429 0.034966991237000498 0 9.6783101525142959e-05 0.034987399631542737 0 8.2728769111767978e-05 0.034967937536253123 0 0.00014956083956666841 0.034926212179974013 0 0.00010332450588430859 0.034943145037748168 0 0.0001205923804827429 0.034966991237000498 0 0.00014956083956666841 0.034926212179974013 0 0.0001205923804827429 0.034966991237000498 0 0.00016626867774537264 0.034981290935418019 0 0.0001205923804827429 0.034966991237000498 0 0.00011950640578772879 0.035002473262309659 0 0.00016626867774537264 0.034981290935418019 0 0.0001205923804827429 0.034966991237000498 0 9.6783101525142959e-05 0.034987399631542737 0 0.00011950640578772879 0.035002473262309659 0 9.6783101525142959e-05 0.034987399631542737 0 0.00011950640578772879 0.035002473262309659 0 8.3644140219784176e-05 0.035007370643164379 0 0.00011950640578772879 0.035002473262309659 0 9.2876780785908851e-05 0.035030629149822259 0 8.3644140219784176e-05 0.035007370643164379 0 0.00011950640578772879 0.035002473262309659 0 9.2876780785908851e-05 0.035030629149822259 0 0.00012562307534185713 0.035029423802864952 0 0.00011950640578772879 0.035002473262309659 0 0.00015092061629146309 0.035011610260647689 0 0.00016626867774537264 0.034981290935418019 0 0.00011950640578772879 0.035002473262309659 0 0.00015092061629146309 0.035011610260647689 0 0.00012562307534185713 0.035029423802864952 0 0.00015092061629146309 0.035011610260647689 0 0.00012562307534185713 0.035029423802864952 0 0.00016124111776868742 0.03503578798543773 0 0.00017955153570378384 0.035013399825909064 0 0.00022613541529652509 0.03499347303119197 0 0.0001955543221608675 0.035047472246284836 0 0.00017955153570378384 0.035013399825909064 0 0.00016626867774537264 0.034981290935418019 0 0.00022613541529652509 0.03499347303119197 0 0.00015092061629146309 0.035011610260647689 0 0.00017955153570378384 0.035013399825909064 0 0.00016124111776868742 0.03503578798543773 0 0.00015092061629146309 0.035011610260647689 0 0.00017955153570378384 0.035013399825909064 0 0.00016626867774537264 0.034981290935418019 0 0.00030583397482030432 0.034962299572032576 0 0.0002148199319216117 0.034940774373296429 0 0.00022613541529652509 0.03499347303119197 0 0.0002148199319216117 0.034940774373296429 0 0.00016626867774537264 0.034981290935418019 0 0.00022613541529652509 0.03499347303119197 0 0.00028222367035789697 0.035032867506461986 0 0.00022613541529652509 0.03499347303119197 0 0.0001955543221608675 0.035047472246284836 0 0.00013967192565220854 0.029692364823930985 0 0.00022172322345751075 0.03080579233260735 0 0.00044797191267393943 0.026078850980886022 0 0.00042684509945203403 0.026051605312446775 0 0.000467365403072618 0.026059059928262122 0 0.00042684509945203403 0.026051605312446775 0 0.00019447217753580488 0.026469683474521225 0 -0.00030059576996403471 0.026151094836546415 0 0.00022172322345751075 0.03080579233260735 0 0.00025731869859703832 0.031974065995246055 0 0.00017955153570378384 0.035013399825909064 0 0.0001955543221608675 0.035047472246284836 0 0.00016124111776868742 0.03503578798543773 0 0.00042684509945203403 0.026051605312446775 0 0.00019447217753580488 0.026469683474521225 0 0.000467365403072618 0.026059059928262122 0 0.00019447217753580488 0.026469683474521225 0 0.000467365403072618 0.026059059928262122 0 0.00031217283078791111 0.026650618584336747 0 0.00035718876583468672 0.025548223957062875 0 0.000467365403072618 0.026059059928262122 0 0.00031217283078791111 0.026650618584336747 0 0.00035718876583468672 0.025548223957062875 0 0.00031217283078791111 0.026650618584336747 0 4.5833782031388886e-07 0.026368947521559369 0 0.00031217283078791111 0.026650618584336747 0 1.3108381899805939e-06 0.02829420499914621 0 -3.550466216102375e-05 0.027274236484067748 0 0.00019447217753580488 0.026469683474521225 0 0.00031217283078791111 0.026650618584336747 0 -3.550466216102375e-05 0.027274236484067748 0 0.00031217283078791111 0.026650618584336747 0 1.3108381899805939e-06 0.02829420499914621 0 4.5833782031388886e-07 0.026368947521559369 0 -0.00018697183863001046 0.028374316255743371 0 -3.2488913857545187e-06 0.03021547513012075 0 -0.0014986110592715295 0.028366765961786389 0 -8.7989881291317178e-07 0.030221918544332167 0 4.7081823546369736e-05 0.03112053208175982 0 1.3108381899805939e-06 0.02829420499914621 0 -0.00018697183863001046 0.028374316255743371 0 -3.550466216102375e-05 0.027274236484067748 0 1.3108381899805939e-06 0.02829420499914621 0 -0.00018697183863001046 0.028374316255743371 0 -3.2488913857545187e-06 0.03021547513012075 0 -0.00018697183863001046 0.028374316255743371 0 -0.0009097882356957558 0.027535110782574378 0 -0.0014986110592715295 0.028366765961786389 0 -3.550466216102375e-05 0.027274236484067748 0 -0.0009097882356957558 0.027535110782574378 0 -0.0010234173339139223 0.0266555994602173 0 -0.00018697183863001046 0.028374316255743371 0 -3.550466216102375e-05 0.027274236484067748 0 -0.0009097882356957558 0.027535110782574378 0 0.00026251903181694948 0.032117953683546356 0 0.00025731869859703832 0.031974065995246055 0 -3.550466216102375e-05 0.027274236484067748 0 -0.0010234173339139223 0.0266555994602173 0 -0.00030059576996403471 0.026151094836546415 0 9.0876128594124432e-05 0.035068476356187109 0 0.00012568721951763603 0.035042082911272907 0 9.0578378439002018e-05 0.035054311486321467 0 0.00019447217753580488 0.026469683474521225 0 -3.550466216102375e-05 0.027274236484067748 0 -0.00030059576996403471 0.026151094836546415 0 0.0001955543221608675 0.035047472246284836 0 0.00012935788860200898 0.035050164493212868 0 0.00016124111776868742 0.03503578798543773 0 0.00012562307534185713 0.035029423802864952 0 0.00012661015854690684 0.035054211110539781 0 0.00016124111776868742 0.03503578798543773 0 0.00025731869859703832 0.031974065995246055 0 0.00012687181923677052 0.032153454812196697 0 0.00012661015854690684 0.035054211110539781 0 9.0578378439002018e-05 0.035054311486321467 0 0.00010469128304533107 0.035043307718971857 0 0.00025731869859703832 0.031974065995246055 0 0.00018627713930115798 0.032090699434883262 0 9.0578378439002018e-05 0.035054311486321467 0 0.00010469128304533107 0.035043307718971857 0 8.7412219682328233e-05 0.035044627802332216 0 0.00012562307534185713 0.035029423802864952 0 0.00012661015854690684 0.035054211110539781 0 0.00010469128304533107 0.035043307718971857 0 9.2876780785908851e-05 0.035030629149822259 0 0.00012562307534185713 0.035029423802864952 0 0.00010469128304533107 0.035043307718971857 0 9.2876780785908851e-05 0.035030629149822259 0 0.00010469128304533107 0.035043307718971857 0 8.7412219682328233e-05 0.035044627802332216 0 9.2876780785908851e-05 0.035030629149822259 0 8.7412219682328233e-05 0.035044627802332216 0 7.1778101616742042e-05 0.035041964066127376 0 9.2876780785908851e-05 0.035030629149822259 0 7.1778101616742042e-05 0.035041964066127376 0 6.5240360959925624e-05 0.03502518883885071 0 7.1778101616742042e-05 0.035041964066127376 0 5.2778153525584263e-05 0.035037653662726355 0 6.5240360959925624e-05 0.03502518883885071 0 7.1778101616742042e-05 0.035041964066127376 0 5.9881533031638574e-05 0.035056494161914857 0 7.6504906946408801e-05 0.035055928829300691 0 7.1778101616742042e-05 0.035041964066127376 0 5.9881533031638574e-05 0.035056494161914857 0 5.2778153525584263e-05 0.035037653662726355 0 8.7412219682328233e-05 0.035044627802332216 0 7.1778101616742042e-05 0.035041964066127376 0 7.6504906946408801e-05 0.035055928829300691 0 9.0578378439002018e-05 0.035054311486321467 0 8.7412219682328233e-05 0.035044627802332216 0 7.6504906946408801e-05 0.035055928829300691 0 5.9881533031638574e-05 0.035056494161914857 0 2.9695350206750443e-05 0.03504376980430933 0 5.2778153525584263e-05 0.035037653662726355 0 2.9695350206750443e-05 0.03504376980430933 0 5.2778153525584263e-05 0.035037653662726355 0 3.8111175239995551e-05 0.035020779258433887 0 0.00014258611486073176 0.032716920804664457 0 0.00022248782717015456 0.033665664856275555 0 5.9881533031638574e-05 0.035056494161914857 0 2.9695350206750443e-05 0.03504376980430933 0 6.0607886350024847e-05 0.035085613121941528 0 -4.7921352935892477e-05 0.034921506249014272 0 -3.8875460597772125e-05 0.034915499386933287 0 -3.1716315285502888e-06 0.034941076830718516 0 -1.1966646040880338e-05 0.034978281435069029 0 -4.7921352935892477e-05 0.034921506249014272 0 -3.1716315285502888e-06 0.034941076830718516 0 0.00061855946429684595 0.033587757094503179 0 0.00033128787014595116 0.032384922064659434 0 0.00026251903181694948 0.032117953683546356 0 0.00033128787014595116 0.032384922064659434 0 9.0876128594124432e-05 0.035068476356187109 0 7.1270283799241432e-05 0.035067962553056227 0 6.0607886350024847e-05 0.035085613121941528 0 -0.0009097882356957558 0.027535110782574378 0 -0.0010234173339139223 0.0266555994602173 0 -0.0021158909755790169 0.027269689083605265 0 5.9881533031638574e-05 0.035056494161914857 0 7.1270283799241432e-05 0.035067962553056227 0 6.0607886350024847e-05 0.035085613121941528 0 9.0876128594124432e-05 0.035068476356187109 0 7.6504906946408801e-05 0.035055928829300691 0 7.1270283799241432e-05 0.035067962553056227 0 9.0876128594124432e-05 0.035068476356187109 0 9.0578378439002018e-05 0.035054311486321467 0 7.6504906946408801e-05 0.035055928829300691 0 5.9881533031638574e-05 0.035056494161914857 0 7.6504906946408801e-05 0.035055928829300691 0 7.1270283799241432e-05 0.035067962553056227 0 -0.0009097882356957558 0.027535110782574378 0 -0.0021158909755790169 0.027269689083605265 0 -0.0014986110592715295 0.028366765961786389 0 7.1915897049991504e-05 0.031500146452722408 0 8.4112983380575318e-05 0.03147004194786119 0 -8.3694956860921147e-06 0.031407408785219519 0 0.00033128787014595116 0.032384922064659434 0 4.7081823546369736e-05 0.03112053208175982 0 7.5919022079453977e-05 0.031500077496712214 0 8.4112983380575318e-05 0.03147004194786119 0 -8.3694956860921147e-06 0.031407408785219519 0 0.00011282855823770525 0.03297811333299612 0 -0.00011466892545392878 0.033130298264433165 0 -0.00021645463746034914 0.032784345644293972 0 0.00033128787014595116 0.032384922064659434 0 0.00014258611486073176 0.032716920804664457 0 7.5919022079453977e-05 0.031500077496712214 0 8.4112983380575318e-05 0.03147004194786119 0 0.00010332994306749019 0.031481591954332068 0 8.4112983380575318e-05 0.03147004194786119 0 4.4039861540347455e-05 0.031402242549723722 0 2.8475036687428856e-05 0.031489367018958707 0 0.00013958907926212605 0.032713558194585587 0 0.00014258611486073176 0.032716920804664457 0 0.00014258611486073176 0.032716920804664457 0 9.1707367653090936e-05 0.032956185226773717 0 4.4039861540347455e-05 0.031402242549723722 0 -0.00028310010273246337 0.031463925593860076 0 2.8475036687428856e-05 0.031489367018958707 0 7.1915897049991504e-05 0.031500146452722408 0 2.8475036687428856e-05 0.031489367018958707 0 0.00012388880559663769 0.031668595403212686 0 -0.00028310010273246337 0.031463925593860076 0 2.8475036687428856e-05 0.031489367018958707 0 0.00012388880559663769 0.031668595403212686 0 7.1915897049991504e-05 0.031500146452722408 0 8.4112983380575318e-05 0.03147004194786119 0 2.8475036687428856e-05 0.031489367018958707 0 -0.00028310010273246337 0.031463925593860076 0 0.00012388880559663769 0.031668595403212686 0 5.7376062746387723e-09 0.03232442066891035 0 9.1707367653090936e-05 0.032956185226773717 0 1.0284560290866093e-08 0.032329503810609048 0 -2.4860572068356476e-09 0.030222713677866969 0 0.00012388880559663769 0.031668595403212686 0 5.7376062746387723e-09 0.03232442066891035 0 -2.4860572068356476e-09 0.030222713677866969 0 0.00012388880559663769 0.031668595403212686 0 -8.3694956860921147e-06 0.031407408785219519 0 7.1915897049991504e-05 0.031500146452722408 0 0.00012388880559663769 0.031668595403212686 0 -8.3694956860921147e-06 0.031407408785219519 0 -3.9388394901699445e-07 0.032330961841161111 0 2.7072801014909397e-07 0.034998168616842164 0 -1.3854062868082356e-05 0.034620066065303053 0 2.7072801014909397e-07 0.034998168616842164 0 -1.1215468957859995e-05 0.034918847726821092 0 -1.4246757056689899e-07 0.035000720016394773 0 2.7072801014909397e-07 0.034998168616842164 0 -1.3854062868082356e-05 0.034620066065303053 0 -1.1215468957859995e-05 0.034918847726821092 0 -1.3854062868082356e-05 0.034620066065303053 0 -9.5007017862549188e-05 0.034752114255306797 0 -1.1215468957859995e-05 0.034918847726821092 0 7.328265167543022e-05 0.033106388864334639 0 6.6991650028044747e-05 0.033072897868205636 0 -0.00015258552427246155 0.033487447823717917 0 -3.9388394901699445e-07 0.032330961841161111 0 9.3229449322201568e-05 0.033471822534507499 0 -3.9388394901699445e-07 0.032330961841161111 0 -1.3854062868082356e-05 0.034620066065303053 0 9.3229449322201568e-05 0.033471822534507499 0 9.1707367653090936e-05 0.032956185226773717 0 6.6991650028044747e-05 0.033072897868205636 0 9.1707367653090936e-05 0.032956185226773717 0 0.00022248782717015456 0.033665664856275555 0 -9.5007017862549188e-05 0.034752114255306797 0 -0.00010184007969989671 0.034883131068022127 0 -1.1215468957859995e-05 0.034918847726821092 0 -0.00017672350737599156 0.034853100056093426 0 -0.00010184007969989671 0.034883131068022127 0 -0.00011168030336666851 0.034970721898133841 0 -0.00017672350737599156 0.034853100056093426 0 -9.5007017862549188e-05 0.034752114255306797 0 -0.00010184007969989671 0.034883131068022127 0 -0.00010184007969989671 0.034883131068022127 0 -1.1215468957859995e-05 0.034918847726821092 0 -0.00011168030336666851 0.034970721898133841 0 -1.1215468957859995e-05 0.034918847726821092 0 -3.1929079214440331e-05 0.034986749271506405 0 -1.4246757056689899e-07 0.035000720016394773 0 -1.1215468957859995e-05 0.034918847726821092 0 -3.1929079214440331e-05 0.034986749271506405 0 -0.00011168030336666851 0.034970721898133841 0 0.00012275992704916582 0.034360060113579019 0 0.00022248782717015456 0.033665664856275555 0 0.00022248782717015456 0.033665664856275555 0 0.00027549011503127311 0.034033506440575623 0 -1.1966646040880338e-05 0.034978281435069029 0 -3.1716315285502888e-06 0.034941076830718516 0 3.4070516059795735e-07 0.034991815696409904 0 5.8397746379915793e-08 0.034996143159374583 0 2.9716040827366792e-06 0.034996483596219194 0 3.4070516059795735e-07 0.034991815696409904 0 5.8397746379915793e-08 0.034996143159374583 0 -5.9711912186749654e-09 0.034999970769952926 0 3.4070516059795735e-07 0.034991815696409904 0 0.00012275992704916582 0.034360060113579019 0 1.2268387727243259e-06 0.034996742641741858 0 2.8446819657949334e-06 0.035002239642575123 0 8.8275355401831079e-09 0.035000016647369986 0 3.4070516059795735e-07 0.034991815696409904 0 -5.9711912186749654e-09 0.034999970769952926 0 8.8275355401831079e-09 0.035000016647369986 0 3.4070516059795735e-07 0.034991815696409904 0 2.8446819657949334e-06 0.035002239642575123 0 8.8275355401831079e-09 0.035000016647369986 0 5.0193251111465194e-06 0.034992671646089553 0 2.8446819657949334e-06 0.035002239642575123 0 1.4643789781594414e-05 0.034994456091088616 0 5.0193251111465194e-06 0.034992671646089553 0 2.8446819657949334e-06 0.035002239642575123 0 1.4643789781594414e-05 0.034994456091088616 0 2.9471810314838584e-05 0.035002447255447544 0 2.9695350206750443e-05 0.03504376980430933 0 2.8446819657949334e-06 0.035002239642575123 0 3.8111175239995551e-05 0.035020779258433887 0 -1.1966646040880338e-05 0.034978281435069029 0 2.8446819657949334e-06 0.035002239642575123 0 3.4070516059795735e-07 0.034991815696409904 0 0.00061855946429684595 0.033587757094503179 0 0.00066660089061395188 0.03389959359954909 0 2.8446819657949334e-06 0.035002239642575123 0 3.8111175239995551e-05 0.035020779258433887 0 2.9471810314838584e-05 0.035002447255447544 0 5.2778153525584263e-05 0.035037653662726355 0 3.8111175239995551e-05 0.035020779258433887 0 6.5240360959925624e-05 0.03502518883885071 0 3.8111175239995551e-05 0.035020779258433887 0 6.5240360959925624e-05 0.03502518883885071 0 5.4150980563800873e-05 0.035005079886292416 0 3.8111175239995551e-05 0.035020779258433887 0 2.9471810314838584e-05 0.035002447255447544 0 5.4150980563800873e-05 0.035005079886292416 0 9.2876780785908851e-05 0.035030629149822259 0 6.5240360959925624e-05 0.03502518883885071 0 8.3644140219784176e-05 0.035007370643164379 0 6.5240360959925624e-05 0.03502518883885071 0 8.3644140219784176e-05 0.035007370643164379 0 5.4150980563800873e-05 0.035005079886292416 0 9.6783101525142959e-05 0.034987399631542737 0 8.3644140219784176e-05 0.035007370643164379 0 7.1801309556669441e-05 0.034990489622279623 0 8.3644140219784176e-05 0.035007370643164379 0 7.1801309556669441e-05 0.034990489622279623 0 5.4150980563800873e-05 0.035005079886292416 0 7.1801309556669441e-05 0.034990489622279623 0 5.4150980563800873e-05 0.035005079886292416 0 4.1085148379478657e-05 0.034985704022386245 0 9.6783101525142959e-05 0.034987399631542737 0 7.1801309556669441e-05 0.034990489622279623 0 8.2728769111767978e-05 0.034967937536253123 0 1.4643789781594414e-05 0.034994456091088616 0 2.9471810314838584e-05 0.035002447255447544 0 4.1085148379478657e-05 0.034985704022386245 0 2.9471810314838584e-05 0.035002447255447544 0 5.4150980563800873e-05 0.035005079886292416 0 4.1085148379478657e-05 0.034985704022386245 0 1.4643789781594414e-05 0.034994456091088616 0 4.1085148379478657e-05 0.034985704022386245 0 1.9133394208457186e-05 0.03497746940185871 0 4.1085148379478657e-05 0.034985704022386245 0 5.5252274570480581e-05 0.034954951799318429 0 1.9133394208457186e-05 0.03497746940185871 0 4.1085148379478657e-05 0.034985704022386245 0 8.2728769111767978e-05 0.034967937536253123 0 5.5252274570480581e-05 0.034954951799318429 0 0.00010332450588430859 0.034943145037748168 0 8.2728769111767978e-05 0.034967937536253123 0 5.5252274570480581e-05 0.034954951799318429 0 7.1801309556669441e-05 0.034990489622279623 0 4.1085148379478657e-05 0.034985704022386245 0 8.2728769111767978e-05 0.034967937536253123 0 1.3654229407289995e-05 0.034935673306288981 0 9.8832581969923036e-05 0.034897578783418648 0 5.5252274570480581e-05 0.034954951799318429 0 9.8832581969923036e-05 0.034897578783418648 0 0.00010332450588430859 0.034943145037748168 0 5.5252274570480581e-05 0.034954951799318429 0 1.3654229407289995e-05 0.034935673306288981 0 5.5252274570480581e-05 0.034954951799318429 0 1.9133394208457186e-05 0.03497746940185871 0 1.3654229407289995e-05 0.034935673306288981 0 6.902533571598884e-06 0.034975278598068746 0 1.9133394208457186e-05 0.03497746940185871 0 6.902533571598884e-06 0.034975278598068746 0 -3.5464210888380651e-09 0.034999961088919465 0 5.0193251111465194e-06 0.034992671646089553 0 8.8275355401831079e-09 0.035000016647369986 0 -3.5464210888380651e-09 0.034999961088919465 0 5.0193251111465194e-06 0.034992671646089553 0 1.4643789781594414e-05 0.034994456091088616 0 5.0193251111465194e-06 0.034992671646089553 0 1.9133394208457186e-05 0.03497746940185871 0 6.902533571598884e-06 0.034975278598068746 0 5.0193251111465194e-06 0.034992671646089553 0 1.9133394208457186e-05 0.03497746940185871 0 0.0020204323751458276 0.000743347597797454 0 0.0022052037040392507 -1.5674668237680582e-05 0 0.0010897949801572796 0.0010378871776385936 0 -0.0015519933382266017 0.0084251977043677435 0 -0.00271036986474543 0.0087649083523565225 0 0.0020204323751458276 0.000743347597797454 0 0.0010897949801572796 0.0010378871776385936 0 0.001817493627786439 0.0015317380261200453 0 0.0020204323751458276 0.000743347597797454 0 0.0024436668816595715 0.00091698857156506219 0 0.0022005440890567069 0.0013158961565868923 0 0.0020204323751458276 0.000743347597797454 0 0.0024436668816595715 0.00091698857156506219 0 0.0023892372106563754 0.0006047044423059453 0 0.0020204323751458276 0.000743347597797454 0 0.0023892372106563754 0.0006047044423059453 0 0.0023274849210984535 0.00054345530123816948 0 0.0024687196361189885 0.00065075628215517656 0 0.0023892372106563754 0.0006047044423059453 0 0.0023274849210984535 0.00054345530123816948 0 -0.012376186351044908 0.01940812574472707 0 -0.010903330465716191 0.01982786171528975 0 -0.010305488262815628 0.016653963240260083 0 -0.012376186351044908 0.01940812574472707 0 -0.010903330465716191 0.01982786171528975 0 -0.01127598448387917 0.021534046635963578 0 -0.0013307675896211775 0.0076041559633921538 0 -0.0015519933382266017 0.0084251977043677435 0 -0.010903330465716191 0.01982786171528975 0 -0.0095418612650408612 0.019388367608869396 0 -0.010305488262815628 0.016653963240260083 0 -0.010903330465716191 0.01982786171528975 0 -0.0095418612650408612 0.019388367608869396 0 -0.0097585308018834308 0.021068634354316537 0 -0.0095418612650408612 0.019388367608869396 0 -0.0079559697951620632 0.020569141855162256 0 -0.0097585308018834308 0.021068634354316537 0 -0.008202383410960995 0.018681522002205318 0 -0.0079559697951620632 0.020569141855162256 0 -0.0060223955521993373 0.019648318748270655 0 -0.0095418612650408612 0.019388367608869396 0 -0.008202383410960995 0.018681522002205318 0 -0.0079559697951620632 0.020569141855162256 0 -0.0078578342407596129 0.017135144563248914 0 -0.010305488262815628 0.016653963240260083 0 -0.0072535159437739534 0.015437875840113842 0 -0.008202383410960995 0.018681522002205318 0 -0.0078578342407596129 0.017135144563248914 0 -0.010305488262815628 0.016653963240260083 0 -0.008202383410960995 0.018681522002205318 0 -0.0078578342407596129 0.017135144563248914 0 -0.0062356716866928553 0.017606770176646871 0 -0.0078578342407596129 0.017135144563248914 0 -0.0072535159437739534 0.015437875840113842 0 -0.0062356716866928553 0.017606770176646871 0 -0.0095418612650408612 0.019388367608869396 0 -0.008202383410960995 0.018681522002205318 0 -0.010305488262815628 0.016653963240260083 0 0.0010897949801572796 0.0010378871776385936 0 0.0011535954888248073 0.0021379547831419177 0 -0.00033106419933740401 0.002824495204715091 0 -0.00271036986474543 0.0087649083523565225 0 -0.0029077713982580931 0.008435947451251315 0 0.0010897949801572796 0.0010378871776385936 0 0.0011535954888248073 0.0021379547831419177 0 0.001817493627786439 0.0015317380261200453 0 -0.010305488262815628 0.016653963240260083 0 -0.0072535159437739534 0.015437875840113842 0 -0.0079969313007395241 0.01342724745248673 0 -0.00033106419933740401 0.002824495204715091 0 0.0013429390602628876 0.0030960355723974827 0 -0.00045425342398512902 0.0046028434132624569 0 0.0011535954888248073 0.0021379547831419177 0 -0.00033106419933740401 0.002824495204715091 0 0.0013429390602628876 0.0030960355723974827 0 0.0011535954888248073 0.0021379547831419177 0 0.0013429390602628876 0.0030960355723974827 0 0.0017369532765102904 0.0021146355566949945 0 0.0004744305774690882 0.0040010667440748323 0 0.0012142129596290176 0.0034400776927479676 0 0.0010375522402316937 0.0040849448390408395 0 0.0013429390602628876 0.0030960355723974827 0 0.0017369532765102904 0.0021146355566949945 0 0.0024079120889352779 0.0017269940550720226 0 0.0004744305774690882 0.0040010667440748323 0 0.001327918682043392 0.0025868941846615727 0 0.0012142129596290176 0.0034400776927479676 0 0.00097532227164559126 0.0030127160243491424 0 0.0016195893907331241 0.0026155551468110025 0 0.0011535954888248073 0.0021379547831419177 0 0.0017369532765102904 0.0021146355566949945 0 0.001817493627786439 0.0015317380261200453 0 0.0017369532765102904 0.0021146355566949945 0 0.0020301348670297764 0.0017048415489661895 0 0.0024079120889352779 0.0017269940550720226 0 0.0020204323751458276 0.000743347597797454 0 0.001817493627786439 0.0015317380261200453 0 0.0022005440890567069 0.0013158961565868923 0 0.0017369532765102904 0.0021146355566949945 0 0.0020301348670297764 0.0017048415489661895 0 0.001817493627786439 0.0015317380261200453 0 0.0020301348670297764 0.0017048415489661895 0 0.001817493627786439 0.0015317380261200453 0 0.0022005440890567069 0.0013158961565868923 0 0.0024436668816595715 0.00091698857156506219 0 0.0022005440890567069 0.0013158961565868923 0 0.0024079120889352779 0.0017269940550720226 0 0.0015510465540600931 0.0026964555163922267 0 0.001327918682043392 0.0025868941846615727 0 0.0026198622376894768 0.0008839379232593352 0 0.0020301348670297764 0.0017048415489661895 0 0.0022005440890567069 0.0013158961565868923 0 0.0024079120889352779 0.0017269940550720226 0 0.0015510465540600931 0.0026964555163922267 0 0.001327918682043392 0.0025868941846615727 0 0.0012142129596290176 0.0034400776927479676 0 0.0012142129596290176 0.0034400776927479676 0 0.0014811723420471768 0.0039489108736638573 0 0.0010375522402316937 0.0040849448390408395 0 0.0015510465540600931 0.0026964555163922267 0 0.0012142129596290176 0.0034400776927479676 0 0.0015508430494603183 0.0034390863306590666 0 0.0012142129596290176 0.0034400776927479676 0 0.0015508430494603183 0.0034390863306590666 0 0.0014811723420471768 0.0039489108736638573 0 0.0015510465540600931 0.0026964555163922267 0 0.0015508430494603183 0.0034390863306590666 0 0.0020620933248945831 0.0036725709282926732 0 0.0015508430494603183 0.0034390863306590666 0 0.0020620933248945831 0.0036725709282926732 0 0.0014811723420471768 0.0039489108736638573 0 0.0015510465540600931 0.0026964555163922267 0 0.0020620933248945831 0.0036725709282926732 0 0.0038594281375987911 0.0035761015001637472 0 0.0015510465540600931 0.0026964555163922267 0 0.002803598364046186 0.0011862248351575222 0 0.0026198622376894768 0.0008839379232593352 0 0.0023638281964962859 0.0010505787793713779 0 0.0026999518077097948 0.00096574800192635491 0 0.002803598364046186 0.0011862248351575222 0 0.0028645471479467788 0.00066013409494536358 0 0.0029743613001663991 0.00051141766825568713 0 0.002803598364046186 0.0011862248351575222 0 0.0028645471479467788 0.00066013409494536358 0 0.0026198622376894768 0.0008839379232593352 0 0.0028645471479467788 0.00066013409494536358 0 0.0026198622376894768 0.0008839379232593352 0 0.0029018602193216143 0.00023718071439553321 0 0.0016195893907331241 0.0026155551468110025 0 0.0019434520579273825 0.0024064854380936372 0 0.0024436668816595715 0.00091698857156506219 0 0.0024079120889352779 0.0017269940550720226 0 0.0026198622376894768 0.0008839379232593352 0 0.0029743613001663991 0.00051141766825568713 0 0.0030412655487866481 0.00012713452610926305 0 0.003042812294137295 0.00026112341079423444 0 0.0030412655487866481 0.00012713452610926305 0 0.003042812294137295 0.00026112341079423444 0 0.0030732182519257411 -0.00013920230886092373 0 0.0030412655487866481 0.00012713452610926305 0 0.0030732182519257411 -0.00013920230886092373 0 0.0030639664493052015 -0.00016508221890231686 0 0.002803598364046186 0.0011862248351575222 0 0.0029743613001663991 0.00051141766825568713 0 0.003042812294137295 0.00026112341079423444 0 0.0026999518077097948 0.00096574800192635491 0 0.0028123031119586641 0.00054927263744076527 0 0.0028645471479467788 0.00066013409494536358 0 0.0029875306397083245 0.00031800618072186674 0 0.0029018602193216143 0.00023718071439553321 0 0.0028645471479467788 0.00066013409494536358 0 0.0029743613001663991 0.00051141766825568713 0 0.0029875306397083245 0.00031800618072186674 0 0.0029743613001663991 0.00051141766825568713 0 0.0029875306397083245 0.00031800618072186674 0 0.0030412655487866481 0.00012713452610926305 0 0.0030412655487866481 0.00012713452610926305 0 0.0030236565071870519 -3.3972970084059908e-05 0 0.0030639664493052015 -0.00016508221890231686 0 0.0029875306397083245 0.00031800618072186674 0 0.0030412655487866481 0.00012713452610926305 0 0.0030236565071870519 -3.3972970084059908e-05 0 0.0030236565071870519 -3.3972970084059908e-05 0 0.0029018602193216143 0.00023718071439553321 0 0.0029492463732361468 -0.00017531338893028587 0 0.0029875306397083245 0.00031800618072186674 0 0.0030236565071870519 -3.3972970084059908e-05 0 0.0029018602193216143 0.00023718071439553321 0 0.0029018602193216143 0.00023718071439553321 0 0.0024491332931468454 0.00038617690962220456 0 0.0028730096619539423 -7.7618612892154591e-05 0 0.0024436668816595715 0.00091698857156506219 0 0.0023892372106563754 0.0006047044423059453 0 0.0024491332931468454 0.00038617690962220456 0 0.0024436668816595715 0.00091698857156506219 0 0.0026198622376894768 0.0008839379232593352 0 0.0024491332931468454 0.00038617690962220456 0 0.0026198622376894768 0.0008839379232593352 0 0.0029018602193216143 0.00023718071439553321 0 0.0024491332931468454 0.00038617690962220456 0 0.0024687196361189885 0.00065075628215517656 0 0.0023892372106563754 0.0006047044423059453 0 0.0024491332931468454 0.00038617690962220456 0 0.0024687196361189885 0.00065075628215517656 0 0.0024491332931468454 0.00038617690962220456 0 0.002572245565695627 0.00098416943168765352 0 0.0024491332931468454 0.00038617690962220456 0 0.002572245565695627 0.00098416943168765352 0 0.0016463395456363346 0.00097811926118736639 0 0.00018548646620179953 -0.00022042776245127275 0 -0.00014330885985951926 -0.0001323238686124374 0 0.0016463395456363346 0.00097811926118736639 0 0.0019069098213845483 0.0016625037704434934 0 0.00081165026269502732 0.0019305294155010986 0 0.002572245565695627 0.00098416943168765352 0 0.0016463395456363346 0.00097811926118736639 0 0.0019069098213845483 0.0016625037704434934 0 0.002572245565695627 0.00098416943168765352 0 0.0019069098213845483 0.0016625037704434934 0 0.0025789590215654877 0.0016643589176747351 0 0.0029018602193216143 0.00023718071439553321 0 0.0028730096619539423 -7.7618612892154591e-05 0 0.0029492463732361468 -0.00017531338893028587 0 -0.00014330885985951926 -0.0001323238686124374 0 -0.0011973094060006753 0.00016927869027718204 0 0.0028730096619539423 -7.7618612892154591e-05 0 0.0029492463732361468 -0.00017531338893028587 0 0.0030663455038718594 7.6660490788639575e-05 0 0.0029492463732361468 -0.00017531338893028587 0 0.0030663455038718594 7.6660490788639575e-05 0 0.0028608121544971042 0.00013996718878452597 0 -0.0011973094060006753 0.00016927869027718204 0 -0.0032352285019308078 0.00079776639971212992 0 0.0030663455038718594 7.6660490788639575e-05 0 0.0028972102563204981 0.00057634636614479638 0 0.0028608121544971042 0.00013996718878452597 0 0.00081165026269502732 0.0019305294155010986 0 0.00081139689595205911 0.0027252230384570736 0 0.0016337036306493615 0.002513832495523307 0 0.00081139689595205911 0.0027252230384570736 0 0.0016337036306493615 0.002513832495523307 0 0.0013890057194621865 0.0031697159013082429 0 0.00081165026269502732 0.0019305294155010986 0 0.00081139689595205911 0.0027252230384570736 0 5.2043832646345965e-05 0.0029782765540882807 0 0.0030663455038718594 7.6660490788639575e-05 0 0.0029751903165496588 0.00067490941040013696 0 0.0028972102563204981 0.00057634636614479638 0 -0.0032352285019308078 0.00079776639971212992 0 -0.0031388217294782157 0.00085913406493713705 0 0.0025789590215654877 0.0016643589176747351 0 0.002339028732428295 0.0022587302192667237 0 0.0030132825782761522 0.0024852417989621417 0 0.0019069098213845483 0.0016625037704434934 0 0.0025789590215654877 0.0016643589176747351 0 0.002339028732428295 0.0022587302192667237 0 0.0019069098213845483 0.0016625037704434934 0 0.00081165026269502732 0.0019305294155010986 0 0.0016337036306493615 0.002513832495523307 0 0.0019069098213845483 0.0016625037704434934 0 0.002339028732428295 0.0022587302192667237 0 0.0016337036306493615 0.002513832495523307 0 0.0016337036306493615 0.002513832495523307 0 0.0018914107890688084 0.0031185389624749944 0 0.0022419055429917611 0.0027834355287935145 0 0.0016337036306493615 0.002513832495523307 0 0.0013890057194621865 0.0031697159013082429 0 0.0018914107890688084 0.0031185389624749944 0 0.0018914107890688084 0.0031185389624749944 0 0.0022703826305556741 0.0031617808388742625 0 0.0022419055429917611 0.0027834355287935145 0 0.002339028732428295 0.0022587302192667237 0 0.0016337036306493615 0.002513832495523307 0 0.0022419055429917611 0.0027834355287935145 0 0.002339028732428295 0.0022587302192667237 0 0.0022419055429917611 0.0027834355287935145 0 0.0026330702050114184 0.0027093206131418969 0 0.002339028732428295 0.0022587302192667237 0 0.0026330702050114184 0.0027093206131418969 0 0.0030132825782761522 0.0024852417989621417 0 0.0022419055429917611 0.0027834355287935145 0 0.0026330702050114184 0.0027093206131418969 0 0.002612159969909462 0.0029988744495446254 0 0.0022703826305556741 0.0031617808388742625 0 0.0022419055429917611 0.0027834355287935145 0 0.002612159969909462 0.0029988744495446254 0 0.0025572889702974236 0.0034201363667544292 0 0.0022703826305556741 0.0031617808388742625 0 0.002612159969909462 0.0029988744495446254 0 0.0030424067462100964 0.0033795186790798238 0 0.002612159969909462 0.0029988744495446254 0 0.0034906352096366004 0.0028699222872763087 0 -0.00090214065751573788 0.01412706691699224 0 -0.0010005932102585963 0.014198871984395393 0 0.0026330702050114184 0.0027093206131418969 0 0.002612159969909462 0.0029988744495446254 0 0.0029074303228893506 0.0030187338659042767 0 -0.0010005932102585963 0.014198871984395393 0 -0.0019433787767153782 0.014882134564067647 0 0.0037185595976319602 0.0034065819150280062 0 0.0034906352096366004 0.0028699222872763087 0 0.0046348311136551043 0.0028743064754286145 0 -0.0021964721729133799 0.015595120084261208 0 -0.0015537267284489056 0.015619344364459855 0 -0.0020077055516967944 0.014651583844594068 0 -0.012806739432039686 0.027367349887046852 0 -0.013508099021847584 0.025875507095014894 0 -0.01171119022390996 0.025997762915880449 0 -0.0019433787767153782 0.014882134564067647 0 -0.0014412538243659741 0.013536255655080882 0 0.0026330702050114184 0.0027093206131418969 0 0.0029074303228893506 0.0030187338659042767 0 0.0030132825782761522 0.0024852417989621417 0 -0.0010005932102585963 0.014198871984395393 0 -0.0014412538243659741 0.013536255655080882 0 -0.012806739432039686 0.027367349887046852 0 -0.01171119022390996 0.025997762915880449 0 -0.010128513746467848 0.027482095017688554 0 -0.0019433787767153782 0.014882134564067647 0 -0.0042796596926593126 0.017727297753130589 0 -0.01171119022390996 0.025997762915880449 0 -0.011025471889991117 0.024659539267267803 0 -0.0101305333752963 0.025790549408163672 0 -0.01171119022390996 0.025997762915880449 0 -0.012187555146702314 0.024543908104571348 0 -0.011025471889991117 0.024659539267267803 0 -0.013508099021847584 0.025875507095014894 0 -0.01171119022390996 0.025997762915880449 0 -0.012187555146702314 0.024543908104571348 0 -0.012187555146702314 0.024543908104571348 0 -0.011025471889991117 0.024659539267267803 0 -0.011505950162753542 0.023280853348446102 0 0.0025789590215654877 0.0016643589176747351 0 0.0029319432233346539 0.002445795753237633 0 0.0031328099979971808 0.0012673545920484988 0 -0.013508099021847584 0.025875507095014894 0 -0.012187555146702314 0.024543908104571348 0 -0.01290854161210115 0.022669851209632136 0 -0.0017147765026763241 0.011962395205255313 0 -0.0014412538243659741 0.013536255655080882 0 -0.0014412538243659741 0.013536255655080882 0 -0.0018738557041416478 0.011412093543861941 0 0.002572245565695627 0.00098416943168765352 0 0.0025789590215654877 0.0016643589176747351 0 0.0031328099979971808 0.0012673545920484988 0 -0.012187555146702314 0.024543908104571348 0 -0.01290854161210115 0.022669851209632136 0 -0.011505950162753542 0.023280853348446102 0 -0.011025471889991117 0.024659539267267803 0 -0.011505950162753542 0.023280853348446102 0 -0.01012308109508092 0.022988026558788746 0 -0.011505950162753542 0.023280853348446102 0 -0.01127598448387917 0.021534046635963578 0 -0.01012308109508092 0.022988026558788746 0 -0.01290854161210115 0.022669851209632136 0 -0.011505950162753542 0.023280853348446102 0 -0.01127598448387917 0.021534046635963578 0 -0.012376186351044908 0.01940812574472707 0 -0.01290854161210115 0.022669851209632136 0 -0.01127598448387917 0.021534046635963578 0 -0.0015519933382266017 0.0084251977043677435 0 -0.0018738557041416478 0.011412093543861941 0 0.0033291954935969863 0.0001337326741547971 0 0.002572245565695627 0.00098416943168765352 0 0.0031328099979971808 0.0012673545920484988 0 -0.0015519933382266017 0.0084251977043677435 0 1.6098132119895581e-05 0.0063639642282180943 0 0.0024687196361189885 0.00065075628215517656 0 0.0023274849210984535 0.00054345530123816948 0 0.002572245565695627 0.00098416943168765352 0 -0.0087389376808123358 0.022053160468570632 0 -0.0079559697951620632 0.020569141855162256 0 -0.0072649700676929874 0.022536306037778977 0 -0.0079559697951620632 0.020569141855162256 0 -0.0072649700676929874 0.022536306037778977 0 -0.0061037548076376706 0.021634967429481195 0 -0.0087389376808123358 0.022053160468570632 0 -0.0079559697951620632 0.020569141855162256 0 -0.0097585308018834308 0.021068634354316537 0 -0.01127598448387917 0.021534046635963578 0 -0.0097585308018834308 0.021068634354316537 0 -0.01012308109508092 0.022988026558788746 0 -0.0087389376808123358 0.022053160468570632 0 -0.0097585308018834308 0.021068634354316537 0 -0.01012308109508092 0.022988026558788746 0 -0.010903330465716191 0.01982786171528975 0 -0.01127598448387917 0.021534046635963578 0 -0.0097585308018834308 0.021068634354316537 0 -0.0087389376808123358 0.022053160468570632 0 -0.01012308109508092 0.022988026558788746 0 -0.0084553823189674384 0.023314744603095933 0 -0.01012308109508092 0.022988026558788746 0 -0.0084553823189674384 0.023314744603095933 0 -0.009118921183489493 0.024646659269964153 0 -0.0087389376808123358 0.022053160468570632 0 -0.0084553823189674384 0.023314744603095933 0 -0.0072649700676929874 0.022536306037778977 0 -0.0084553823189674384 0.023314744603095933 0 -0.0072649700676929874 0.022536306037778977 0 -0.0073473200530489776 0.024062936062189479 0 -0.0073473200530489776 0.024062936062189479 0 -0.007613257465990883 0.025362885432754688 0 -0.009118921183489493 0.024646659269964153 0 -0.0084553823189674384 0.023314744603095933 0 -0.0073473200530489776 0.024062936062189479 0 -0.009118921183489493 0.024646659269964153 0 -0.007613257465990883 0.025362885432754688 0 -0.009118921183489493 0.024646659269964153 0 -0.0086601770594539329 0.026171455245518029 0 -0.011025471889991117 0.024659539267267803 0 -0.009118921183489493 0.024646659269964153 0 -0.0101305333752963 0.025790549408163672 0 -0.011025471889991117 0.024659539267267803 0 -0.01012308109508092 0.022988026558788746 0 -0.009118921183489493 0.024646659269964153 0 -0.009118921183489493 0.024646659269964153 0 -0.0101305333752963 0.025790549408163672 0 -0.0086601770594539329 0.026171455245518029 0 -0.0042796596926593126 0.017727297753130589 0 -0.0048972854247795261 0.019484328084688432 0 -0.010072522178851278 0.027451242033252964 0 -0.0086601770594539329 0.026171455245518029 0 -0.0080806780268343325 0.027540793330532998 0 -0.01171119022390996 0.025997762915880449 0 -0.0101305333752963 0.025790549408163672 0 -0.010128513746467848 0.027482095017688554 0 -0.0101305333752963 0.025790549408163672 0 -0.010128513746467848 0.027482095017688554 0 -0.0086601770594539329 0.026171455245518029 0 -0.0042796596926593126 0.017727297753130589 0 -0.0050887295216009883 0.018607372829699109 0 -0.0048972854247795261 0.019484328084688432 0 -0.0053268488865315126 0.020973010667959893 0 -0.0072012629623641371 0.0264537207999938 0 -0.0080806780268343325 0.027540793330532998 0 -0.0060396174631970863 0.027623963356025898 0 -0.007613257465990883 0.025362885432754688 0 -0.0072012629623641371 0.0264537207999938 0 -0.0086601770594539329 0.026171455245518029 0 -0.0072012629623641371 0.0264537207999938 0 -0.0086601770594539329 0.026171455245518029 0 -0.0080806780268343325 0.027540793330532998 0 -0.007613257465990883 0.025362885432754688 0 -0.0072012629623641371 0.0264537207999938 0 -0.0054473472531020124 0.025665152904899857 0 -0.0072012629623641371 0.0264537207999938 0 -0.0060396174631970863 0.027623963356025898 0 -0.0054473472531020124 0.025665152904899857 0 -0.0053268488865315126 0.020973010667959893 0 -0.0055026590542789876 0.02199979493115977 0 -0.004966683243782786 0.024860100147176482 0 -0.0048521812511665707 0.024226848698707171 0 -0.0046125378029938727 0.024624868395897864 0 -0.0046785964244937363 0.024875591225195351 0 -0.004966683243782786 0.024860100147176482 0 -0.0046125378029938727 0.024624868395897864 0 -0.0053097699055504009 0.020997577952834693 0 -0.0053268488865315126 0.020973010667959893 0 -0.0055026590542789876 0.02199979493115977 0 -0.0055291371249406619 0.022227590489530054 0 -0.0054473472531020124 0.025665152904899857 0 -0.0060898980499003112 0.023333872600420056 0 -0.00483417665602853 0.023603258750272544 0 -0.0073473200530489776 0.024062936062189479 0 -0.007613257465990883 0.025362885432754688 0 -0.0054473472531020124 0.025665152904899857 0 -0.0073473200530489776 0.024062936062189479 0 -0.0054473472531020124 0.025665152904899857 0 -0.0060898980499003112 0.023333872600420056 0 -0.0048521812511665707 0.024226848698707171 0 -0.0041816053341671858 0.023901994006072364 0 -0.0042581380347843072 0.024467717738481054 0 -0.0048521812511665707 0.024226848698707171 0 -0.0041816053341671858 0.023901994006072364 0 -0.00483417665602853 0.023603258750272544 0 -0.0048521812511665707 0.024226848698707171 0 -0.0042581380347843072 0.024467717738481054 0 -0.0046125378029938727 0.024624868395897864 0 -0.004329429965118467 0.024866465059802841 0 -0.0046785964244937363 0.024875591225195351 0 -0.0046125378029938727 0.024624868395897864 0 -0.0039309469912463656 0.024966428113767189 0 -0.004329429965118467 0.024866465059802841 0 -0.0042581380347843072 0.024467717738481054 0 -0.004329429965118467 0.024866465059802841 0 -0.0042581380347843072 0.024467717738481054 0 -0.0046125378029938727 0.024624868395897864 0 -0.0039309469912463656 0.024966428113767189 0 -0.0034147371424139549 0.024698733659061951 0 -0.0036086597651600496 0.02416994321630658 0 -0.0039309469912463656 0.024966428113767189 0 -0.0042581380347843072 0.024467717738481054 0 -0.0036086597651600496 0.02416994321630658 0 -0.0029845249462958222 0.025017286265950324 0 -0.0034147371424139549 0.024698733659061951 0 -0.0029737982123478738 0.024099587572077603 0 -0.0034147371424139549 0.024698733659061951 0 -0.0029737982123478738 0.024099587572077603 0 -0.0036086597651600496 0.02416994321630658 0 -0.0030539572570707184 0.023620863927626128 0 -0.0036086597651600496 0.02416994321630658 0 -0.0033461894170423107 0.023317751089522505 0 -0.0029737982123478738 0.024099587572077603 0 -0.0030539572570707184 0.023620863927626128 0 -0.0036086597651600496 0.02416994321630658 0 -0.0041816053341671858 0.023901994006072364 0 -0.0042581380347843072 0.024467717738481054 0 -0.0036086597651600496 0.02416994321630658 0 -0.0041816053341671858 0.023901994006072364 0 -0.0036086597651600496 0.02416994321630658 0 -0.0033461894170423107 0.023317751089522505 0 -0.0041816053341671858 0.023901994006072364 0 -0.0033461894170423107 0.023317751089522505 0 -0.0038282339277493191 0.022958734308990241 0 -0.0033461894170423107 0.023317751089522505 0 -0.0033142997408754497 0.022848618577978423 0 -0.0038282339277493191 0.022958734308990241 0 -0.0033142997408754497 0.022848618577978423 0 -0.0038282339277493191 0.022958734308990241 0 -0.0033305852872087035 0.022383558665885341 0 -0.0033461894170423107 0.023317751089522505 0 -0.0027771545150618699 0.023186734962175579 0 -0.0029942726687364586 0.022739942404124414 0 -0.0030539572570707184 0.023620863927626128 0 -0.0033461894170423107 0.023317751089522505 0 -0.0027771545150618699 0.023186734962175579 0 -0.0033461894170423107 0.023317751089522505 0 -0.0033142997408754497 0.022848618577978423 0 -0.0029942726687364586 0.022739942404124414 0 -0.0027771545150618699 0.023186734962175579 0 -0.0029942726687364586 0.022739942404124414 0 -0.0025858485869388018 0.022771696328376542 0 -0.0029942726687364586 0.022739942404124414 0 -0.0027689232190964649 0.022495199385951785 0 -0.0025858485869388018 0.022771696328376542 0 -0.0029942726687364586 0.022739942404124414 0 -0.0030441824721491283 0.022398012462479924 0 -0.0033305852872087035 0.022383558665885341 0 -0.0029942726687364586 0.022739942404124414 0 -0.0030441824721491283 0.022398012462479924 0 -0.0027689232190964649 0.022495199385951785 0 -0.0033305852872087035 0.022383558665885341 0 -0.0037731798410568025 0.021940190351332104 0 -0.0030949361003592322 0.020950751650399162 0 -0.0038282339277493191 0.022958734308990241 0 -0.0033305852872087035 0.022383558665885341 0 -0.0037731798410568025 0.021940190351332104 0 -0.0033142997408754497 0.022848618577978423 0 -0.0029942726687364586 0.022739942404124414 0 -0.0033305852872087035 0.022383558665885341 0 -0.0038282339277493191 0.022958734308990241 0 -0.0037731798410568025 0.021940190351332104 0 -0.0048069117937454848 0.022475036540398889 0 -0.0037731798410568025 0.021940190351332104 0 -0.0049339852274556412 0.021137459650154095 0 -0.0048069117937454848 0.022475036540398889 0 -0.0037731798410568025 0.021940190351332104 0 -0.0049339852274556412 0.021137459650154095 0 -0.0043382606271140335 0.019677933989000116 0 -0.0049339852274556412 0.021137459650154095 0 -0.0061037548076376706 0.021634967429481195 0 -0.0060223955521993373 0.019648318748270655 0 -0.0079559697951620632 0.020569141855162256 0 -0.0061037548076376706 0.021634967429481195 0 -0.0060223955521993373 0.019648318748270655 0 -0.0049339852274556412 0.021137459650154095 0 -0.0061037548076376706 0.021634967429481195 0 -0.0048069117937454848 0.022475036540398889 0 -0.0072649700676929874 0.022536306037778977 0 -0.0061037548076376706 0.021634967429481195 0 -0.0060898980499003112 0.023333872600420056 0 -0.0061037548076376706 0.021634967429481195 0 -0.0060898980499003112 0.023333872600420056 0 -0.0048069117937454848 0.022475036540398889 0 -0.0072649700676929874 0.022536306037778977 0 -0.0073473200530489776 0.024062936062189479 0 -0.0060898980499003112 0.023333872600420056 0 -0.0060898980499003112 0.023333872600420056 0 -0.00483417665602853 0.023603258750272544 0 -0.0048069117937454848 0.022475036540398889 0 -0.0041816053341671858 0.023901994006072364 0 -0.0038282339277493191 0.022958734308990241 0 -0.00483417665602853 0.023603258750272544 0 -0.0038282339277493191 0.022958734308990241 0 -0.00483417665602853 0.023603258750272544 0 -0.0048069117937454848 0.022475036540398889 0 0.0034135501955720486 0.02861150178065059 0 0.0031786190952575967 0.029275295868051984 0 0.0025052903250398946 0.028655862829356928 0 -0.0011666030792465967 0.023730680160656954 0 -0.0015255234966639196 0.023568572097787035 0 -0.0015194199228255696 0.023165788912315136 0 0.00099719323326975004 0.025868502389889161 0 0.00043236634008463412 0.025343305895469403 0 0.00096548245971944072 0.026439260842354866 0 0.00097191976314728898 0.026427505826198537 0 0.00095285167842695524 0.026432062222677091 0 -0.0011666030792465967 0.023730680160656954 0 -0.0017627447973653898 0.023911616053672459 0 -0.0015255234966639196 0.023568572097787035 0 0.00099719323326975004 0.025868502389889161 0 -0.00082031349101379216 0.02536918629237974 0 -0.00082031349101379216 0.02536918629237974 0 -0.0012098778421741258 0.025347699362303973 0 -0.00082031349101379216 0.02536918629237974 0 -0.0012694849872760016 0.02430274332766514 0 -0.0017627447973653898 0.023911616053672459 0 -0.0015255234966639196 0.023568572097787035 0 -0.001978863504961367 0.023287504843580067 0 -0.0015255234966639196 0.023568572097787035 0 -0.001978863504961367 0.023287504843580067 0 -0.0015194199228255696 0.023165788912315136 0 -0.0014314898780488079 0.02448889882914149 0 -0.0017782525107711063 0.023517652656398012 0 -0.0022413983905058372 0.024042997515802172 0 -0.0017782525107711063 0.023517652656398012 0 -0.0022413983905058372 0.024042997515802172 0 -0.0025046859887214719 0.02360633939311535 0 -0.0029845249462958222 0.025017286265950324 0 -0.0022413983905058372 0.024042997515802172 0 -0.0017093545637707338 0.024713837710216818 0 -0.0014314898780488079 0.02448889882914149 0 -0.0022413983905058372 0.024042997515802172 0 -0.0017961873716777251 0.024594533960342963 0 -0.0013373338309492972 0.025188851609639303 0 -0.0012098778421741258 0.025347699362303973 0 -0.0029845249462958222 0.025017286265950324 0 -0.0029737982123478738 0.024099587572077603 0 -0.0022413983905058372 0.024042997515802172 0 -0.0029737982123478738 0.024099587572077603 0 -0.0022413983905058372 0.024042997515802172 0 -0.0025046859887214719 0.02360633939311535 0 -0.0030539572570707184 0.023620863927626128 0 -0.0027771545150618699 0.023186734962175579 0 -0.0025046859887214719 0.02360633939311535 0 -0.0029737982123478738 0.024099587572077603 0 -0.0030539572570707184 0.023620863927626128 0 -0.0025046859887214719 0.02360633939311535 0 -0.0027771545150618699 0.023186734962175579 0 -0.0025046859887214719 0.02360633939311535 0 -0.0023576312745675469 0.023141612077823063 0 -0.0027771545150618699 0.023186734962175579 0 -0.0023576312745675469 0.023141612077823063 0 -0.0025858485869388018 0.022771696328376542 0 -0.0027689232190964649 0.022495199385951785 0 -0.0025858485869388018 0.022771696328376542 0 -0.0024575638247635897 0.022489505839933394 0 -0.0025858485869388018 0.022771696328376542 0 -0.0024575638247635897 0.022489505839933394 0 -0.0021770782285654836 0.022675391302763075 0 -0.0023576312745675469 0.023141612077823063 0 -0.0025858485869388018 0.022771696328376542 0 -0.0021770782285654836 0.022675391302763075 0 -0.0012694849872760016 0.02430274332766514 0 -0.0014272379421069498 0.023923887853129645 0 -0.001978863504961367 0.023287504843580067 0 -0.0021770782285654836 0.022675391302763075 0 -0.0018770873054346912 0.02261310003469641 0 -0.0017782525107711063 0.023517652656398012 0 -0.0025046859887214719 0.02360633939311535 0 -0.0023576312745675469 0.023141612077823063 0 -0.0017782525107711063 0.023517652656398012 0 -0.0023576312745675469 0.023141612077823063 0 -0.0021770782285654836 0.022675391302763075 0 -0.00019841454731116137 0.024620074716136635 0 0.00043236634008463412 0.025343305895469403 0 -0.001978863504961367 0.023287504843580067 0 -0.0018770873054346912 0.02261310003469641 0 -0.0015194199228255696 0.023165788912315136 0 0.0011111669188999249 0.02752480214894781 0 0.0030638772077325087 0.027733477541863807 0 0.0025052903250398946 0.028655862829356928 0 0.0011111669188999249 0.02752480214894781 0 0.0030638772077325087 0.027733477541863807 0 0.00214721818911137 0.026702101905675318 0 0.0034135501955720486 0.02861150178065059 0 0.0030638772077325087 0.027733477541863807 0 0.0025052903250398946 0.028655862829356928 0 0.0038253089695245344 0.023548245377181781 0 0.0024862645400100915 0.023654536346856901 0 0.0034089689697202543 0.025250706627351245 0 0.0024862645400100915 0.023654536346856901 0 0.0022347702767613513 0.025298479797759559 0 0.0034089689697202543 0.025250706627351245 0 0.0022347702767613513 0.025298479797759559 0 0.0034089689697202543 0.025250706627351245 0 0.0031040113819992389 0.026733556836736713 0 0.0043033949182103414 0.027387743405978517 0 0.0030638772077325087 0.027733477541863807 0 0.0031040113819992389 0.026733556836736713 0 0.0030638772077325087 0.027733477541863807 0 0.0031040113819992389 0.026733556836736713 0 0.00214721818911137 0.026702101905675318 0 0.0022347702767613513 0.025298479797759559 0 0.0031040113819992389 0.026733556836736713 0 0.00214721818911137 0.026702101905675318 0 0.0022347702767613513 0.025298479797759559 0 0.00214721818911137 0.026702101905675318 0 0.0011814844604102117 0.025756845012064579 0 0.0011111669188999249 0.02752480214894781 0 0.00214721818911137 0.026702101905675318 0 0.0011814844604102117 0.025756845012064579 0 0.0022347702767613513 0.025298479797759559 0 0.0011814844604102117 0.025756845012064579 0 0.0010870393657941432 0.02394109796295972 0 0.0024862645400100915 0.023654536346856901 0 0.0022347702767613513 0.025298479797759559 0 0.0010870393657941432 0.02394109796295972 0 0.0011814844604102117 0.025756845012064579 0 0.0010870393657941432 0.02394109796295972 0 -0.00077025696224345254 0.025069133540954133 0 0.0010870393657941432 0.02394109796295972 0 -0.00077025696224345254 0.025069133540954133 0 -0.00013466227594001879 0.022152000734368259 0 -0.00077025696224345254 0.025069133540954133 0 -0.0022851836305500619 0.021791579839362956 0 -0.00013466227594001879 0.022152000734368259 0 0.0011111669188999249 0.02752480214894781 0 0.0011814844604102117 0.025756845012064579 0 -0.00077025696224345254 0.025069133540954133 0 -0.0024575638247635897 0.022489505839933394 0 -0.0021770782285654836 0.022675391302763075 0 -0.0022400208479901322 0.022171909166075962 0 -0.0021770782285654836 0.022675391302763075 0 -0.0018770873054346912 0.02261310003469641 0 -0.0022400208479901322 0.022171909166075962 0 -0.00019841454731116137 0.024620074716136635 0 -0.0007746179689576987 0.023862673432882456 0 -0.0022400208479901322 0.022171909166075962 0 -0.0026144125963424897 0.022329170919916073 0 -0.0025798345898555373 0.022140794212983064 0 -0.0024575638247635897 0.022489505839933394 0 -0.0022400208479901322 0.022171909166075962 0 -0.0026144125963424897 0.022329170919916073 0 -0.0027689232190964649 0.022495199385951785 0 -0.0024575638247635897 0.022489505839933394 0 -0.0026144125963424897 0.022329170919916073 0 -0.0022400208479901322 0.022171909166075962 0 -0.0025798345898555373 0.022140794212983064 0 -0.0022851836305500619 0.021791579839362956 0 -0.0007746179689576987 0.023862673432882456 0 -0.0010505313882834579 0.023458525470554013 0 -0.0025798345898555373 0.022140794212983064 0 -0.0022851836305500619 0.021791579839362956 0 -0.0030966723338538486 0.021400719463720838 0 -0.0022851836305500619 0.021791579839362956 0 -0.0010278206120254332 0.021065197866754874 0 -0.00013466227594001879 0.022152000734368259 0 -0.0022851836305500619 0.021791579839362956 0 -0.0017987153887185818 0.020491492467709475 0 -0.0010278206120254332 0.021065197866754874 0 -0.0022851836305500619 0.021791579839362956 0 -0.0017987153887185818 0.020491492467709475 0 -0.0030966723338538486 0.021400719463720838 0 -0.0017987153887185818 0.020491492467709475 0 -0.0030966723338538486 0.021400719463720838 0 -0.0021446634073225977 0.017997587017856285 0 -0.0017987153887185818 0.020491492467709475 0 -0.00032462419929230865 0.019932948362988135 0 -0.0021446634073225977 0.017997587017856285 0 -0.0017987153887185818 0.020491492467709475 0 -0.00032462419929230865 0.019932948362988135 0 -0.0010278206120254332 0.021065197866754874 0 -0.00032462419929230865 0.019932948362988135 0 0.0005165520858963832 0.020950940608514546 0 -0.0010278206120254332 0.021065197866754874 0 -0.00032462419929230865 0.019932948362988135 0 0.0005165520858963832 0.020950940608514546 0 0.0014782254344432684 0.01962469007876903 0 0.0005165520858963832 0.020950940608514546 0 -0.0010278206120254332 0.021065197866754874 0 -0.00013466227594001879 0.022152000734368259 0 0.0024862645400100915 0.023654536346856901 0 0.0010870393657941432 0.02394109796295972 0 0.0016056930910577614 0.02181778304070979 0 0.0005165520858963832 0.020950940608514546 0 -0.00013466227594001879 0.022152000734368259 0 0.0016056930910577614 0.02181778304070979 0 0.0010870393657941432 0.02394109796295972 0 -0.00013466227594001879 0.022152000734368259 0 0.0016056930910577614 0.02181778304070979 0 0.0005165520858963832 0.020950940608514546 0 0.0016056930910577614 0.02181778304070979 0 0.0014782254344432684 0.01962469007876903 0 0.0016056930910577614 0.02181778304070979 0 0.0014782254344432684 0.01962469007876903 0 0.0026355723252151726 0.020579030523336605 0 0.0014782254344432684 0.01962469007876903 0 0.0026355723252151726 0.020579030523336605 0 0.0029048947512329126 0.019373199441983766 0 0.0026355723252151726 0.020579030523336605 0 0.0039645805955052385 0.019927565094744325 0 0.0029048947512329126 0.019373199441983766 0 0.0026355723252151726 0.020579030523336605 0 0.0039645805955052385 0.019927565094744325 0 0.0038254077184565432 0.021128594365542465 0 0.0026355723252151726 0.020579030523336605 0 0.0038254077184565432 0.021128594365542465 0 0.0030454157163938658 0.022160263886822591 0 0.004268140344825761 0.022448581591276041 0 0.0038254077184565432 0.021128594365542465 0 0.0030454157163938658 0.022160263886822591 0 0.0016056930910577614 0.02181778304070979 0 0.0026355723252151726 0.020579030523336605 0 0.0030454157163938658 0.022160263886822591 0 0.0024862645400100915 0.023654536346856901 0 0.0016056930910577614 0.02181778304070979 0 0.0030454157163938658 0.022160263886822591 0 0.0038253089695245344 0.023548245377181781 0 0.0024862645400100915 0.023654536346856901 0 0.0030454157163938658 0.022160263886822591 0 0.0038253089695245344 0.023548245377181781 0 0.004268140344825761 0.022448581591276041 0 0.0030454157163938658 0.022160263886822591 0 -0.0045501309441632973 0.017715793266102599 0 -0.0043382606271140335 0.019677933989000116 0 -0.0024705371587254031 0.017747588690509016 0 -0.0045501309441632973 0.017715793266102599 0 -0.0024705371587254031 0.017747588690509016 0 -0.0037234719540283909 0.015636127331568894 0 -0.0045501309441632973 0.017715793266102599 0 -0.0037234719540283909 0.015636127331568894 0 -0.0054776514775319593 0.015948927429573115 0 -0.0045501309441632973 0.017715793266102599 0 -0.0062356716866928553 0.017606770176646871 0 -0.0054776514775319593 0.015948927429573115 0 -0.0072535159437739534 0.015437875840113842 0 -0.0062356716866928553 0.017606770176646871 0 -0.0054776514775319593 0.015948927429573115 0 -0.0045501309441632973 0.017715793266102599 0 -0.0062356716866928553 0.017606770176646871 0 -0.0060223955521993373 0.019648318748270655 0 -0.008202383410960995 0.018681522002205318 0 -0.0062356716866928553 0.017606770176646871 0 -0.0060223955521993373 0.019648318748270655 0 -0.0049339852274556412 0.021137459650154095 0 -0.0060223955521993373 0.019648318748270655 0 -0.0043382606271140335 0.019677933989000116 0 -0.0037731798410568025 0.021940190351332104 0 -0.0043382606271140335 0.019677933989000116 0 -0.0024705371587254031 0.017747588690509016 0 -0.0045501309441632973 0.017715793266102599 0 -0.0060223955521993373 0.019648318748270655 0 -0.0043382606271140335 0.019677933989000116 0 -0.0031720559795295486 0.018818561194206128 0 -0.0030605283444189763 0.017901921972768974 0 -0.0037731798410568025 0.021940190351332104 0 -0.0030949361003592322 0.020950751650399162 0 -0.0037574729642887409 0.020722308114428906 0 -0.0030997496205421738 0.021524892984657335 0 -0.0030037487689241601 0.021163053531524499 0 -0.0030441824721491283 0.022398012462479924 0 -0.0033305852872087035 0.022383558665885341 0 -0.0030120744275334548 0.02222917507276299 0 -0.0030441824721491283 0.022398012462479924 0 -0.0028434311682096103 0.0223186636360777 0 -0.0030120744275334548 0.02222917507276299 0 -0.0025798345898555373 0.022140794212983064 0 -0.0028434311682096103 0.0223186636360777 0 -0.0030120744275334548 0.02222917507276299 0 -0.0030441824721491283 0.022398012462479924 0 -0.0027689232190964649 0.022495199385951785 0 -0.0028434311682096103 0.0223186636360777 0 -0.0027689232190964649 0.022495199385951785 0 -0.0026144125963424897 0.022329170919916073 0 -0.0028434311682096103 0.0223186636360777 0 -0.0026144125963424897 0.022329170919916073 0 -0.0025798345898555373 0.022140794212983064 0 -0.0028434311682096103 0.0223186636360777 0 -0.0030949361003592322 0.020950751650399162 0 -0.0033152401324506859 0.020175697858070777 0 -0.0027184681733965132 0.019619691135422404 0 -0.0025798345898555373 0.022140794212983064 0 -0.0030120744275334548 0.02222917507276299 0 -0.0030966723338538486 0.021400719463720838 0 -0.0030037487689241601 0.021163053531524499 0 -0.002810820948901005 0.020420067063037794 0 -0.0030949361003592322 0.020950751650399162 0 -0.0037574729642887409 0.020722308114428906 0 -0.0033152401324506859 0.020175697858070777 0 -0.0037574729642887409 0.020722308114428906 0 -0.0033152401324506859 0.020175697858070777 0 -0.0038154199583545437 0.019297513672106952 0 -0.0033152401324506859 0.020175697858070777 0 -0.0027184681733965132 0.019619691135422404 0 -0.0038154199583545437 0.019297513672106952 0 -0.0030605283444189763 0.017901921972768974 0 -0.0028521406624392657 0.015986813043397056 0 -0.0027184681733965132 0.019619691135422404 0 -0.0030628284299776399 0.018617769886079629 0 -0.0021446634073225977 0.017997587017856285 0 -0.002810820948901005 0.020420067063037794 0 -0.0026685106734818465 0.019890348832265068 0 -0.0027184681733965132 0.019619691135422404 0 -0.0030628284299776399 0.018617769886079629 0 -0.0038154199583545437 0.019297513672106952 0 -0.0017095336951786684 0.013347133594917014 0 -0.0051336577483707662 0.013003107525805756 0 -0.0031709623847323665 0.01114722829063669 0 -0.0017095336951786684 0.013347133594917014 0 -0.0037234719540283909 0.015636127331568894 0 -0.0051336577483707662 0.013003107525805756 0 -0.0037234719540283909 0.015636127331568894 0 -0.0054776514775319593 0.015948927429573115 0 -0.0051336577483707662 0.013003107525805756 0 -0.0024705371587254031 0.017747588690509016 0 -0.0017095336951786684 0.013347133594917014 0 -0.0037234719540283909 0.015636127331568894 0 -0.0072535159437739534 0.015437875840113842 0 -0.0054776514775319593 0.015948927429573115 0 -0.0051336577483707662 0.013003107525805756 0 -0.0072535159437739534 0.015437875840113842 0 -0.0079969313007395241 0.01342724745248673 0 -0.0051336577483707662 0.013003107525805756 0 -0.0079969313007395241 0.01342724745248673 0 -0.0051336577483707662 0.013003107525805756 0 -0.0050810955674777895 0.0099537319323877126 0 -0.0029077713982580931 0.008435947451251315 0 -0.0027384322466101466 0.0080287078191161303 0 -0.00033106419933740401 0.002824495204715091 0 -0.0014971940108955595 0.005225842433224946 0 -0.00045425342398512902 0.0046028434132624569 0 -0.0014971940108955595 0.005225842433224946 0 -0.00066081378571628219 0.0058185922153743746 0 -0.00045425342398512902 0.0046028434132624569 0 -0.0014971940108955595 0.005225842433224946 0 -0.00066081378571628219 0.0058185922153743746 0 -0.0011464148466045318 0.0067409447596457929 0 -0.00066081378571628219 0.0058185922153743746 0 -0.0011464148466045318 0.0067409447596457929 0 -0.00046257244279427636 0.0066735871987488211 0 -0.0027384322466101466 0.0080287078191161303 0 -0.0025909444152413517 0.0078411669219296664 0 -0.0014971940108955595 0.005225842433224946 0 -0.0011464148466045318 0.0067409447596457929 0 -0.0020212366314705187 0.0074561443763447293 0 -0.0050810955674777895 0.0099537319323877126 0 -0.0013109698192452473 0.0087306573225376244 0 -0.0020212366314705187 0.0074561443763447293 0 -0.0051336577483707662 0.013003107525805756 0 -0.0050810955674777895 0.0099537319323877126 0 -0.0031709623847323665 0.01114722829063669 0 -0.0050810955674777895 0.0099537319323877126 0 -0.0031709623847323665 0.01114722829063669 0 -0.0013109698192452473 0.0087306573225376244 0 -0.0028521406624392657 0.015986813043397056 0 -0.0026498017407486176 0.01394370399979371 0 -0.0017095336951786684 0.013347133594917014 0 -0.0031709623847323665 0.01114722829063669 0 -0.0013109698192452473 0.0087306573225376244 0 -0.0030628284299776399 0.018617769886079629 0 -0.0038154199583545437 0.019297513672106952 0 -0.0038640725165153393 0.017277207843111649 0 -0.0030628284299776399 0.018617769886079629 0 -0.0038640725165153393 0.017277207843111649 0 -0.0021446634073225977 0.017997587017856285 0 -0.0024105621052591514 0.015867383016346118 0 -0.0038640725165153393 0.017277207843111649 0 -0.0021446634073225977 0.017997587017856285 0 -0.0013109698192452473 0.0087306573225376244 0 -0.0019904574730158762 0.0073889476363682548 0 -0.0020212366314705187 0.0074561443763447293 0 -0.0024105621052591514 0.015867383016346118 0 -0.0038640725165153393 0.017277207843111649 0 -0.0034309842236595941 0.014297567690678732 0 -0.0019904574730158762 0.0073889476363682548 0 -0.0020212366314705187 0.0074561443763447293 0 -0.0014430645286014736 0.007487131376660309 0 -0.0026498017407486176 0.01394370399979371 0 -0.0024941193745731251 0.012488429148264547 0 -0.0024105621052591514 0.015867383016346118 0 -0.0034309842236595941 0.014297567690678732 0 -0.0018633767480486297 0.013538949196931639 0 -0.0024105621052591514 0.015867383016346118 0 -0.0018633767480486297 0.013538949196931639 0 -0.0011405665048068285 0.014325935082953345 0 -0.0034309842236595941 0.014297567690678732 0 -0.0018633767480486297 0.013538949196931639 0 -0.0015699576994696249 0.010709391542968355 0 -0.0018633767480486297 0.013538949196931639 0 -0.0011405665048068285 0.014325935082953345 0 -0.00091017461341399639 0.01263029631392177 0 -0.0024941193745731251 0.012488429148264547 0 -0.0024073491256203245 0.011998208936303906 0 -0.0019904574730158762 0.0073889476363682548 0 -0.0012297569926021253 0.0088892367264607735 0 -0.00095032949297120962 0.0081275405939591032 0 -0.0019904574730158762 0.0073889476363682548 0 -0.0012297569926021253 0.0088892367264607735 0 -0.0015699576994696249 0.010709391542968355 0 -0.0012297569926021253 0.0088892367264607735 0 -0.00095032949297120962 0.0081275405939591032 0 -0.00054004729275980369 0.0088196741299053551 0 -0.00095032949297120962 0.0081275405939591032 0 -0.00023342888460637965 0.0080581031811001059 0 -0.00075173994426578207 0.0075000566094313714 0 -0.00095032949297120962 0.0081275405939591032 0 -0.00023342888460637965 0.0080581031811001059 0 -0.00054004729275980369 0.0088196741299053551 0 -0.00023342888460637965 0.0080581031811001059 0 -0.00075173994426578207 0.0075000566094313714 0 -0.00022735646829623137 0.0073442843704762091 0 -0.00075173994426578207 0.0075000566094313714 0 -0.00022735646829623137 0.0073442843704762091 0 -0.00046257244279427636 0.0066735871987488211 0 -0.0011464148466045318 0.0067409447596457929 0 -0.00075173994426578207 0.0075000566094313714 0 -0.00046257244279427636 0.0066735871987488211 0 -0.0011464148466045318 0.0067409447596457929 0 -0.00075173994426578207 0.0075000566094313714 0 -0.0014430645286014736 0.007487131376660309 0 -0.0019904574730158762 0.0073889476363682548 0 -0.00095032949297120962 0.0081275405939591032 0 -0.0014430645286014736 0.007487131376660309 0 -0.0011464148466045318 0.0067409447596457929 0 -0.0020212366314705187 0.0074561443763447293 0 -0.0014430645286014736 0.007487131376660309 0 -0.00095032949297120962 0.0081275405939591032 0 -0.00075173994426578207 0.0075000566094313714 0 -0.0014430645286014736 0.007487131376660309 0 0.0031371823880980382 0.017473943022101413 0 0.001824602466888107 0.016173152829322045 0 0.0034259653396925337 0.015591877608937307 0 0.0047173696318705176 0.018727604172106144 0 0.0031371823880980382 0.017473943022101413 0 0.0034259653396925337 0.015591877608937307 0 0.0047173696318705176 0.018727604172106144 0 0.0031371823880980382 0.017473943022101413 0 0.0034899511322117917 0.018753241511143597 0 0.0039645805955052385 0.019927565094744325 0 0.0034899511322117917 0.018753241511143597 0 0.0029048947512329126 0.019373199441983766 0 0.0014782254344432684 0.01962469007876903 0 0.0029048947512329126 0.019373199441983766 0 0.0027588937517852925 0.018312425743109293 0 0.0034899511322117917 0.018753241511143597 0 0.0029048947512329126 0.019373199441983766 0 0.0027588937517852925 0.018312425743109293 0 0.0031371823880980382 0.017473943022101413 0 0.0034899511322117917 0.018753241511143597 0 0.0027588937517852925 0.018312425743109293 0 0.0031371823880980382 0.017473943022101413 0 0.0027588937517852925 0.018312425743109293 0 0.001691783327985464 0.017819842570732245 0 0.0014782254344432684 0.01962469007876903 0 0.0027588937517852925 0.018312425743109293 0 0.001691783327985464 0.017819842570732245 0 0.0014782254344432684 0.01962469007876903 0 0.001691783327985464 0.017819842570732245 0 0.00015912571129117248 0.01827687062018106 0 0.001691783327985464 0.017819842570732245 0 0.00082211218631366399 0.016843209091488041 0 0.00015912571129117248 0.01827687062018106 0 0.001691783327985464 0.017819842570732245 0 0.00082211218631366399 0.016843209091488041 0 0.001824602466888107 0.016173152829322045 0 0.0031371823880980382 0.017473943022101413 0 0.001691783327985464 0.017819842570732245 0 0.001824602466888107 0.016173152829322045 0 0.00082211218631366399 0.016843209091488041 0 0.001824602466888107 0.016173152829322045 0 0.00055231799590551504 0.015359485627395621 0 -0.0003505950670139708 0.016874810182271532 0 -0.0011808724298512944 0.015902501984762622 0 0.00055231799590551504 0.015359485627395621 0 0.00082211218631366399 0.016843209091488041 0 -0.0003505950670139708 0.016874810182271532 0 0.00055231799590551504 0.015359485627395621 0 0.00082211218631366399 0.016843209091488041 0 -0.0003505950670139708 0.016874810182271532 0 0.00015912571129117248 0.01827687062018106 0 -0.00032462419929230865 0.019932948362988135 0 0.0014782254344432684 0.01962469007876903 0 0.00015912571129117248 0.01827687062018106 0 -0.00032462419929230865 0.019932948362988135 0 0.00015912571129117248 0.01827687062018106 0 -0.0021446634073225977 0.017997587017856285 0 -0.0003505950670139708 0.016874810182271532 0 0.00015912571129117248 0.01827687062018106 0 -0.0021446634073225977 0.017997587017856285 0 -0.0003505950670139708 0.016874810182271532 0 -0.0021446634073225977 0.017997587017856285 0 -0.0011808724298512944 0.015902501984762622 0 -0.0024105621052591514 0.015867383016346118 0 -0.0021446634073225977 0.017997587017856285 0 -0.0011808724298512944 0.015902501984762622 0 -0.0011808724298512944 0.015902501984762622 0 -0.0011405665048068285 0.014325935082953345 0 -7.6351970339888912e-05 0.013989189830675585 0 -0.0024105621052591514 0.015867383016346118 0 -0.0011808724298512944 0.015902501984762622 0 -0.0011405665048068285 0.014325935082953345 0 -0.0011405665048068285 0.014325935082953345 0 -7.6351970339888912e-05 0.013989189830675585 0 -0.00091017461341399639 0.01263029631392177 0 -7.6351970339888912e-05 0.013989189830675585 0 -2.3386790769788923e-06 0.012655669132034386 0 -0.00091017461341399639 0.01263029631392177 0 -7.6351970339888912e-05 0.013989189830675585 0 0.00079363042659930582 0.013556699049595463 0 -2.3386790769788923e-06 0.012655669132034386 0 -7.6351970339888912e-05 0.013989189830675585 0 0.00055231799590551504 0.015359485627395621 0 0.00079363042659930582 0.013556699049595463 0 -0.0011808724298512944 0.015902501984762622 0 -7.6351970339888912e-05 0.013989189830675585 0 0.00055231799590551504 0.015359485627395621 0 0.00055231799590551504 0.015359485627395621 0 0.0016709705230574794 0.014706531846775915 0 0.00079363042659930582 0.013556699049595463 0 0.001824602466888107 0.016173152829322045 0 0.00055231799590551504 0.015359485627395621 0 0.0016709705230574794 0.014706531846775915 0 0.00079363042659930582 0.013556699049595463 0 0.0018817140726389695 0.013059888830756693 0 0.00051437250982420057 0.012557174049949474 0 0.0016709705230574794 0.014706531846775915 0 0.00079363042659930582 0.013556699049595463 0 0.0018817140726389695 0.013059888830756693 0 0.00087003019883637406 0.014184820132389574 0 0.0019597771758894387 0.014513819039395547 0 0.0021112222176833078 0.01627185016255368 0 0.0017423913646615965 0.014730108214549452 0 0.0025379696045542688 0.016254193192829162 0 0.0016709705230574794 0.014706531846775915 0 0.0018817140726389695 0.013059888830756693 0 0.0034259653396925337 0.015591877608937307 0 0.0027776267141386523 0.015610447782716043 0 0.0019597771758894387 0.014513819039395547 0 0.0021112222176833078 0.01627185016255368 0 0.001824602466888107 0.016173152829322045 0 0.0016709705230574794 0.014706531846775915 0 0.0034259653396925337 0.015591877608937307 0 0.00042630914342096395 0.018687147605270762 0 -0.00027659564918634073 0.018480820014731107 0 0.00017469626539291038 0.017126219696373759 0 0.00023477599281718101 0.018601391289717467 0 0.00013753394302860305 0.017871244425554603 0 0.00013318865655248009 0.018185356438407053 0 1.5694222481214447e-05 0.01665259243388207 0 0.00042630914342096395 0.018687147605270762 0 -1.9003897933423868e-05 0.020335071938064043 0 -0.00027659564918634073 0.018480820014731107 0 0.00087003019883637406 0.014184820132389574 0 0.0019597771758894387 0.014513819039395547 0 0.00070651566285577234 0.013407534501891067 0 0.00044560694163042563 0.02059375201024382 0 0.00013318865655248009 0.018185356438407053 0 0.0017423913646615965 0.014730108214549452 0 0.0012013728338838917 0.013897672378919517 0 0.0018817140726389695 0.013059888830756693 0 0.00051437250982420057 0.012557174049949474 0 8.5511232526502679e-05 0.012007834861457541 0 0.00087003019883637406 0.014184820132389574 0 0.00070651566285577234 0.013407534501891067 0 3.8821341222415611e-05 0.013229612635497112 0 0.00051437250982420057 0.012557174049949474 0 8.5511232526502679e-05 0.012007834861457541 0 3.272725362242774e-05 0.012129204431035417 0 0.00070651566285577234 0.013407534501891067 0 3.8821341222415611e-05 0.013229612635497112 0 -0.00026755148449342258 0.013476026473021669 0 8.5511232526502679e-05 0.012007834861457541 0 3.272725362242774e-05 0.012129204431035417 0 8.0418091048755654e-05 0.012570798792237233 0 3.272725362242774e-05 0.012129204431035417 0 -0.00016317741472260196 0.012068366308590053 0 8.0418091048755654e-05 0.012570798792237233 0 0.00051437250982420057 0.012557174049949474 0 3.272725362242774e-05 0.012129204431035417 0 -2.3386790769788923e-06 0.012655669132034386 0 0.00079363042659930582 0.013556699049595463 0 0.00051437250982420057 0.012557174049949474 0 -2.3386790769788923e-06 0.012655669132034386 0 3.272725362242774e-05 0.012129204431035417 0 -2.3386790769788923e-06 0.012655669132034386 0 -0.00049766384462413004 0.011987487978417255 0 -2.3386790769788923e-06 0.012655669132034386 0 -0.00091017461341399639 0.01263029631392177 0 -0.00049766384462413004 0.011987487978417255 0 3.272725362242774e-05 0.012129204431035417 0 -0.00049766384462413004 0.011987487978417255 0 -0.00016317741472260196 0.012068366308590053 0 -0.00049766384462413004 0.011987487978417255 0 -0.00016317741472260196 0.012068366308590053 0 -0.0015699576994696249 0.010709391542968355 0 -0.00016317741472260196 0.012068366308590053 0 -2.1139166282962187e-05 0.012891807773423051 0 -0.0003495994241264079 0.011570837908736866 0 -0.00016317741472260196 0.012068366308590053 0 -2.1139166282962187e-05 0.012891807773423051 0 8.0418091048755654e-05 0.012570798792237233 0 -2.1139166282962187e-05 0.012891807773423051 0 7.8147717769458391e-07 0.01360932531366447 0 -0.0003495994241264079 0.011570837908736866 0 -2.1139166282962187e-05 0.012891807773423051 0 7.8147717769458391e-07 0.01360932531366447 0 -7.8168586569542152e-06 0.01420850808157326 0 7.8147717769458391e-07 0.01360932531366447 0 -7.8168586569542152e-06 0.01420850808157326 0 -2.2909251068316455e-06 0.015501018110975396 0 -2.1139166282962187e-05 0.012891807773423051 0 -7.8168586569542152e-06 0.01420850808157326 0 8.0418091048755654e-05 0.012570798792237233 0 8.5511232526502679e-05 0.012007834861457541 0 -7.8168586569542152e-06 0.01420850808157326 0 8.0418091048755654e-05 0.012570798792237233 0 0.0012013728338838917 0.013897672378919517 0 0.0010586021872671298 0.013800071579718036 0 3.8821341222415611e-05 0.013229612635497112 0 -7.8168586569542152e-06 0.01420850808157326 0 -0.00026755148449342258 0.013476026473021669 0 -0.00027096574577506043 0.01702078328931687 0 -1.3963288646057581e-06 0.015510904183871093 0 1.1749538932281194e-06 0.016740212205310578 0 -7.8168586569542152e-06 0.01420850808157326 0 -0.00026755148449342258 0.013476026473021669 0 -2.2909251068316455e-06 0.015501018110975396 0 1.5694222481214447e-05 0.01665259243388207 0 -6.06264526376783e-07 0.015508213967281805 0 6.891890274615283e-08 0.016747581079226071 0 0.00013753394302860305 0.017871244425554603 0 6.7992217205902267e-05 0.019253663101930153 0 -2.4119633265382307e-06 0.016748354656209444 0 -0.00060346046989428982 0.019581429434297862 0 -0.00027096574577506043 0.01702078328931687 0 1.1749538932281194e-06 0.016740212205310578 0 0.00017469626539291038 0.017126219696373759 0 -0.00027659564918634073 0.018480820014731107 0 -0.00027096574577506043 0.01702078328931687 0 0.00017469626539291038 0.017126219696373759 0 -0.00030818547776881219 0.0094212529914274555 0 -0.0015699576994696249 0.010709391542968355 0 -0.00031039222281756642 0.010388483518240567 0 -0.00030818547776881219 0.0094212529914274555 0 1.1991347584177353e-05 0.0086707347320603128 0 1.0224688495360842e-05 0.008415010758926365 0 -0.00030818547776881219 0.0094212529914274555 0 -0.00054004729275980369 0.0088196741299053551 0 1.0224688495360842e-05 0.008415010758926365 0 -0.00023342888460637965 0.0080581031811001059 0 -0.00054004729275980369 0.0088196741299053551 0 1.0224688495360842e-05 0.008415010758926365 0 -0.00030818547776881219 0.0094212529914274555 0 -0.00054004729275980369 0.0088196741299053551 0 -0.0015699576994696249 0.010709391542968355 0 -0.0012297569926021253 0.0088892367264607735 0 -0.00054004729275980369 0.0088196741299053551 0 -0.0015699576994696249 0.010709391542968355 0 -0.0018633767480486297 0.013538949196931639 0 -0.00091017461341399639 0.01263029631392177 0 -0.0015699576994696249 0.010709391542968355 0 -0.00091017461341399639 0.01263029631392177 0 -0.00049766384462413004 0.011987487978417255 0 -0.0015699576994696249 0.010709391542968355 0 -0.00016317741472260196 0.012068366308590053 0 -0.0015699576994696249 0.010709391542968355 0 -0.0003495994241264079 0.011570837908736866 0 -0.0015699576994696249 0.010709391542968355 0 -0.0003495994241264079 0.011570837908736866 0 -0.00031039222281756642 0.010388483518240567 0 7.8147717769458391e-07 0.01360932531366447 0 -0.0003495994241264079 0.011570837908736866 0 -5.7757203265467639e-07 0.011712648752256357 0 -0.0003495994241264079 0.011570837908736866 0 -5.7757203265467639e-07 0.011712648752256357 0 -0.00031039222281756642 0.010388483518240567 0 -5.7757203265467639e-07 0.011712648752256357 0 -0.00031039222281756642 0.010388483518240567 0 -7.5060555296328362e-08 0.0098169973864864774 0 -0.00030818547776881219 0.0094212529914274555 0 -0.00031039222281756642 0.010388483518240567 0 1.1991347584177353e-05 0.0086707347320603128 0 -7.5060555296328362e-08 0.0098169973864864774 0 2.0350763725262464e-07 0.0079207730654385251 0 1.1991347584177353e-05 0.0086707347320603128 0 -0.00031039222281756642 0.010388483518240567 0 -7.5060555296328362e-08 0.0098169973864864774 0 1.1991347584177353e-05 0.0086707347320603128 0 2.0350763725262464e-07 0.0079207730654385251 0 0.00015635085243060191 0.0072105715059969508 0 1.1991347584177353e-05 0.0086707347320603128 0 2.0350763725262464e-07 0.0079207730654385251 0 0.00015635085243060191 0.0072105715059969508 0 4.6114677583981652e-07 0.006024933270176348 0 0.00015635085243060191 0.0072105715059969508 0 0.00041902440007489194 0.006672180448004464 0 4.7515092080258289e-05 0.0076651504844240251 0 0.00015635085243060191 0.0072105715059969508 0 1.1991347584177353e-05 0.0086707347320603128 0 4.7515092080258289e-05 0.0076651504844240251 0 4.6114677583981652e-07 0.006024933270176348 0 0.00028472811633837279 0.005773542442260019 0 6.1094528015840425e-07 0.0041284396091279532 0 0.00015635085243060191 0.0072105715059969508 0 4.6114677583981652e-07 0.006024933270176348 0 0.00028472811633837279 0.005773542442260019 0 0.00015635085243060191 0.0072105715059969508 0 0.00028472811633837279 0.005773542442260019 0 0.00041902440007489194 0.006672180448004464 0 0.00028472811633837279 0.005773542442260019 0 0.00038128023685982939 0.0062766527201961906 0 0.00041902440007489194 0.006672180448004464 0 0.00062314323578161867 0.0036417057715449138 0 0.00064326588918897632 0.0037665254601237843 0 0.00038128023685982939 0.0062766527201961906 0 0.00041902440007489194 0.006672180448004464 0 0.00083229292659962742 0.0054968366901231996 0 0.00041902440007489194 0.006672180448004464 0 0.00083229292659962742 0.0054968366901231996 0 4.7515092080258289e-05 0.0076651504844240251 0 0.00083229292659962742 0.0054968366901231996 0 4.7515092080258289e-05 0.0076651504844240251 0 0.00044505343574217129 0.0051071282708719367 0 0.00083229292659962742 0.0054968366901231996 0 0.00044505343574217129 0.0051071282708719367 0 0.00093181590034454209 0.0049489435787049901 0 0.00083229292659962742 0.0054968366901231996 0 0.00093181590034454209 0.0049489435787049901 0 0.0010009134521111636 0.0047138598973342659 0 0.0012000752273925465 0.0039976616836293038 0 0.00083229292659962742 0.0054968366901231996 0 0.0010009134521111636 0.0047138598973342659 0 1.1991347584177353e-05 0.0086707347320603128 0 4.7515092080258289e-05 0.0076651504844240251 0 1.0224688495360842e-05 0.008415010758926365 0 0.00070512149463373768 0.0061436333479733254 0 0.00081297560180620542 0.0059357389687668049 0 4.7515092080258289e-05 0.0076651504844240251 0 0.00022943656729346645 0.0080003835028317309 0 0.00051323007027561621 0.0078660355279955036 0 4.7515092080258289e-05 0.0076651504844240251 0 0.00051323007027561621 0.0078660355279955036 0 0.00085347846688827421 0.0079446163256231862 0 -0.00023342888460637965 0.0080581031811001059 0 1.0224688495360842e-05 0.008415010758926365 0 0.00022943656729346645 0.0080003835028317309 0 4.7515092080258289e-05 0.0076651504844240251 0 1.0224688495360842e-05 0.008415010758926365 0 0.00022943656729346645 0.0080003835028317309 0 -0.00023342888460637965 0.0080581031811001059 0 0.00022943656729346645 0.0080003835028317309 0 0.00017375021565840552 0.0075813549605014572 0 -0.00023342888460637965 0.0080581031811001059 0 0.00017375021565840552 0.0075813549605014572 0 -0.00022735646829623137 0.0073442843704762091 0 0.00017375021565840552 0.0075813549605014572 0 -0.00022735646829623137 0.0073442843704762091 0 0.0001516285561098047 0.0068428384088600478 0 -0.00022735646829623137 0.0073442843704762091 0 0.0001516285561098047 0.0068428384088600478 0 -0.00046257244279427636 0.0066735871987488211 0 0.0001516285561098047 0.0068428384088600478 0 0.00063960505135094163 0.0071399417117200261 0 0.00063102078891203416 0.0061361304111242319 0 0.00063960505135094163 0.0071399417117200261 0 0.0011794931730415281 0.0067264509642052774 0 0.00063102078891203416 0.0061361304111242319 0 0.00017375021565840552 0.0075813549605014572 0 0.0001516285561098047 0.0068428384088600478 0 0.00063960505135094163 0.0071399417117200261 0 0.00063960505135094163 0.0071399417117200261 0 0.00051323007027561621 0.0078660355279955036 0 0.0010532148476271985 0.0072999809385538225 0 0.00017375021565840552 0.0075813549605014572 0 0.00063960505135094163 0.0071399417117200261 0 0.00051323007027561621 0.0078660355279955036 0 0.00022943656729346645 0.0080003835028317309 0 0.00017375021565840552 0.0075813549605014572 0 0.00051323007027561621 0.0078660355279955036 0 0.00085347846688827421 0.0079446163256231862 0 0.0010532148476271985 0.0072999809385538225 0 0.0021568521126815229 0.0068050705071931727 0 0.00081297560180620542 0.0059357389687668049 0 0.000963293467545244 0.0055581049512489289 0 0.00051323007027561621 0.0078660355279955036 0 0.00085347846688827421 0.0079446163256231862 0 0.0010532148476271985 0.0072999809385538225 0 0.00093181590034454209 0.0049489435787049901 0 0.00092510200172624092 0.0045842646729375817 0 0.00098293189436675105 0.0048505521042540925 0 0.00044505343574217129 0.0051071282708719367 0 0.00093181590034454209 0.0049489435787049901 0 0.00092510200172624092 0.0045842646729375817 0 0.0010532148476271985 0.0072999809385538225 0 0.0021568521126815229 0.0068050705071931727 0 0.0011794931730415281 0.0067264509642052774 0 0.0021568521126815229 0.0068050705071931727 0 0.0011794931730415281 0.0067264509642052774 0 0.0015418262506022777 0.0060175417603754028 0 0.00063960505135094163 0.0071399417117200261 0 0.0010532148476271985 0.0072999809385538225 0 0.0011794931730415281 0.0067264509642052774 0 0.0011794931730415281 0.0067264509642052774 0 0.0015418262506022777 0.0060175417603754028 0 0.00063102078891203416 0.0061361304111242319 0 0.0015418262506022777 0.0060175417603754028 0 0.0007138452527568807 0.0049252009516663449 0 0.00063102078891203416 0.0061361304111242319 0 0.00094088230479046 0.0054965147820170744 0 0.00089339449829626356 0.0054369883459502921 0 0.0014085081129365901 0.0052207657822285246 0 0.0013942633406976088 0.0048888675488533741 0 0.0015742465740349759 0.004815943222927865 0 0.000963293467545244 0.0055581049512489289 0 0.0010409190920529201 0.0054550589091025229 0 0.000963293467545244 0.0055581049512489289 0 0.00094088230479046 0.0054965147820170744 0 0.0014085081129365901 0.0052207657822285246 0 0.001070507481623332 0.004993467274595877 0 0.0013942633406976088 0.0048888675488533741 0 0.001070507481623332 0.004993467274595877 0 0.0013942633406976088 0.0048888675488533741 0 0.0012717071278776364 0.0045750767623021745 0 0.0013942633406976088 0.0048888675488533741 0 0.0018892363199900586 0.0046204432444846956 0 0.0015742465740349759 0.004815943222927865 0 0.0013942633406976088 0.0048888675488533741 0 0.0012717071278776364 0.0045750767623021745 0 0.0018892363199900586 0.0046204432444846956 0 0.0012717071278776364 0.0045750767623021745 0 0.0014811723420471768 0.0039489108736638573 0 0.0010375522402316937 0.0040849448390408395 0 0.0020620933248945831 0.0036725709282926732 0 0.0014811723420471768 0.0039489108736638573 0 0.0018892363199900586 0.0046204432444846956 0 0.0012717071278776364 0.0045750767623021745 0 0.0014811723420471768 0.0039489108736638573 0 0.0018892363199900586 0.0046204432444846956 0 0.001070507481623332 0.004993467274595877 0 0.00092795372952007317 0.0045987586072135369 0 0.0007138452527568807 0.0049252009516663449 0 0.001070507481623332 0.004993467274595877 0 0.0012717071278776364 0.0045750767623021745 0 0.00092795372952007317 0.0045987586072135369 0 0.0004744305774690882 0.0040010667440748323 0 0.00092795372952007317 0.0045987586072135369 0 0.0007138452527568807 0.0049252009516663449 0 0.0012717071278776364 0.0045750767623021745 0 0.00092795372952007317 0.0045987586072135369 0 0.0010375522402316937 0.0040849448390408395 0 0.0004744305774690882 0.0040010667440748323 0 0.00092795372952007317 0.0045987586072135369 0 0.0010375522402316937 0.0040849448390408395 0 0.00097532227164559126 0.0030127160243491424 0 0.00058553383973017998 0.0032347441123137585 0 0.0004744305774690882 0.0040010667440748323 0 0.0007138452527568807 0.0049252009516663449 0 0.00014661578799897616 0.0051799183948597616 0 0.0004744305774690882 0.0040010667440748323 0 0.00014661578799897616 0.0051799183948597616 0 -0.00045425342398512902 0.0046028434132624569 0 -0.00066081378571628219 0.0058185922153743746 0 0.00014661578799897616 0.0051799183948597616 0 -0.00045425342398512902 0.0046028434132624569 0 -0.00066081378571628219 0.0058185922153743746 0 0.00014661578799897616 0.0051799183948597616 0 -3.9814944627943543e-05 0.006068168206761794 0 -0.00066081378571628219 0.0058185922153743746 0 -0.00046257244279427636 0.0066735871987488211 0 -3.9814944627943543e-05 0.006068168206761794 0 0.0001516285561098047 0.0068428384088600478 0 -0.00046257244279427636 0.0066735871987488211 0 -3.9814944627943543e-05 0.006068168206761794 0 0.0001516285561098047 0.0068428384088600478 0 -3.9814944627943543e-05 0.006068168206761794 0 0.00063102078891203416 0.0061361304111242319 0 0.0007138452527568807 0.0049252009516663449 0 0.00014661578799897616 0.0051799183948597616 0 0.00063102078891203416 0.0061361304111242319 0 0.00014661578799897616 0.0051799183948597616 0 -3.9814944627943543e-05 0.006068168206761794 0 0.00063102078891203416 0.0061361304111242319 0 0.00059451652857096121 0.0050133878461877798 0 0.00052454049623350306 0.004735894768322934 0 0.00023337135892534253 0.0049415447247948266 0 0.00059451652857096121 0.0050133878461877798 0 0.00052454049623350306 0.004735894768322934 0 0.0007986929827092428 0.0048204601304164211 0 0.00052454049623350306 0.004735894768322934 0 0.0007986929827092428 0.0048204601304164211 0 0.00084271091873927052 0.0046444869572613515 0 0.00052454049623350306 0.004735894768322934 0 0.00023337135892534253 0.0049415447247948266 0 0.00021210501596882373 0.0046710409700415163 0 -3.2579447493613577e-05 0.0048300383683628602 0 0.00023337135892534253 0.0049415447247948266 0 0.00021210501596882373 0.0046710409700415163 0 -3.2579447493613577e-05 0.0048300383683628602 0 -6.5064160171288924e-05 0.0045978743654144184 0 -0.00027641550155656865 0.0047361533723778663 0 -3.2579447493613577e-05 0.0048300383683628602 0 -6.5064160171288924e-05 0.0045978743654144184 0 0.00021210501596882373 0.0046710409700415163 0 -3.2579447493613577e-05 0.0048300383683628602 0 -4.3454078978272057e-05 0.0050901898293567987 0 -0.00025024522962884492 0.0049663662170452236 0 -3.2579447493613577e-05 0.0048300383683628602 0 0.00023337135892534253 0.0049415447247948266 0 -4.3454078978272057e-05 0.0050901898293567987 0 0.0028123031119586641 0.00054927263744076527 0 0.0025493475135592888 -0.00034876374193145256 0 0.00019863659544568617 0.0054035373024013981 0 -4.3454078978272057e-05 0.0050901898293567987 0 -0.00034108308858062992 0.0052656711259714307 0 0.00023337135892534253 0.0049415447247948266 0 0.00019863659544568617 0.0054035373024013981 0 -4.3454078978272057e-05 0.0050901898293567987 0 0.00059451652857096121 0.0050133878461877798 0 0.00019863659544568617 0.0054035373024013981 0 0.00094837033572714132 0.0053108758237374503 0 0.0028123031119586641 0.00054927263744076527 0 0.002458769905589716 0.0013246835129949017 0 0.0038594281375987911 0.0035761015001637472 0 0.0064559352555694999 0.0042281479285797494 0 0.0042282452305134948 0.0044400919211304759 0 0.00059451652857096121 0.0050133878461877798 0 0.00023337135892534253 0.0049415447247948266 0 0.00019863659544568617 0.0054035373024013981 0 0.0038594281375987911 0.0035761015001637472 0 0.0042282452305134948 0.0044400919211304759 0 0.0018892363199900586 0.0046204432444846956 0 0.00059451652857096121 0.0050133878461877798 0 0.00094837033572714132 0.0053108758237374503 0 0.00092973962801197235 0.0049672223065112568 0 0.00094837033572714132 0.0053108758237374503 0 0.0012517562801429138 0.004942975169970827 0 0.00092973962801197235 0.0049672223065112568 0 0.0012517562801429138 0.004942975169970827 0 0.0018892363199900586 0.0046204432444846956 0 0.001468330475126262 0.0048113435216867503 0 0.0020620933248945831 0.0036725709282926732 0 0.0038594281375987911 0.0035761015001637472 0 0.0018892363199900586 0.0046204432444846956 0 0.00094837033572714132 0.0053108758237374503 0 0.0012517562801429138 0.004942975169970827 0 0.0018892363199900586 0.0046204432444846956 0 0.002458769905589716 0.0013246835129949017 0 0.0022621224988629215 0.0015713268136169744 0 0.0018892363199900586 0.0046204432444846956 0 0.0015742465740349759 0.004815943222927865 0 0.001468330475126262 0.0048113435216867503 0 0.0016425615709692949 0.0045279383955717208 0 0.0015742465740349759 0.004815943222927865 0 0.0012312976485019729 0.0045823044136628606 0 0.0015742465740349759 0.004815943222927865 0 0.001468330475126262 0.0048113435216867503 0 0.0011620236747082906 0.0047943600683466115 0 0.0015742465740349759 0.004815943222927865 0 0.0011620236747082906 0.0047943600683466115 0 0.0012312976485019729 0.0045823044136628606 0 0.00092973962801197235 0.0049672223065112568 0 0.0007986929827092428 0.0048204601304164211 0 0.0011620236747082906 0.0047943600683466115 0 0.00059451652857096121 0.0050133878461877798 0 0.00092973962801197235 0.0049672223065112568 0 0.0007986929827092428 0.0048204601304164211 0 0.0012517562801429138 0.004942975169970827 0 0.00092973962801197235 0.0049672223065112568 0 0.0011620236747082906 0.0047943600683466115 0 0.0012517562801429138 0.004942975169970827 0 0.001468330475126262 0.0048113435216867503 0 0.0011620236747082906 0.0047943600683466115 0 0.0011620236747082906 0.0047943600683466115 0 0.00084271091873927052 0.0046444869572613515 0 0.0012312976485019729 0.0045823044136628606 0 0.0007986929827092428 0.0048204601304164211 0 0.0011620236747082906 0.0047943600683466115 0 0.00084271091873927052 0.0046444869572613515 0 0.00084271091873927052 0.0046444869572613515 0 0.00091227357602673847 0.0044577007621834962 0 0.00046986428289385739 0.0044969686978260162 0 0.00091227357602673847 0.0044577007621834962 0 0.00063934891709749211 0.0043075538381618841 0 0.00046986428289385739 0.0044969686978260162 0 0.00084271091873927052 0.0046444869572613515 0 0.00091227357602673847 0.0044577007621834962 0 0.0012312976485019729 0.0045823044136628606 0 0.0016425615709692949 0.0045279383955717208 0 0.0012312976485019729 0.0045823044136628606 0 0.0011823383256931847 0.0042665334542794208 0 0.00091227357602673847 0.0044577007621834962 0 0.0012312976485019729 0.0045823044136628606 0 0.0011823383256931847 0.0042665334542794208 0 0.000963293467545244 0.0055581049512489289 0 0.00087592765594536311 0.005308691204175685 0 0.00093181590034454209 0.0049489435787049901 0 0.00098293189436675105 0.0048505521042540925 0 0.0010009134521111636 0.0047138598973342659 0 0.00091227357602673847 0.0044577007621834962 0 0.0011823383256931847 0.0042665334542794208 0 0.00063934891709749211 0.0043075538381618841 0 0.0011823383256931847 0.0042665334542794208 0 0.00063934891709749211 0.0043075538381618841 0 0.00066421781091427566 0.0042415575251116564 0 0.00087592765594536311 0.005308691204175685 0 0.00083849720468686718 0.0052224928474229665 0 0.00063934891709749211 0.0043075538381618841 0 0.00037702511134349835 0.0041748021782999781 0 0.00066421781091427566 0.0042415575251116564 0 0.00063934891709749211 0.0043075538381618841 0 0.00046986428289385739 0.0044969686978260162 0 0.00016879464008837781 0.0043044297970008787 0 0.00037702511134349835 0.0041748021782999781 0 0.00016879464008837781 0.0043044297970008787 0 0.00010451011845610895 0.0039368434004977935 0 0.00063934891709749211 0.0043075538381618841 0 0.00037702511134349835 0.0041748021782999781 0 0.00016879464008837781 0.0043044297970008787 0 0.00046986428289385739 0.0044969686978260162 0 0.00012522727028536145 0.0044837845877982417 0 0.00016879464008837781 0.0043044297970008787 0 0.00046986428289385739 0.0044969686978260162 0 0.00021210501596882373 0.0046710409700415163 0 0.00012522727028536145 0.0044837845877982417 0 0.00052454049623350306 0.004735894768322934 0 0.00046986428289385739 0.0044969686978260162 0 0.00021210501596882373 0.0046710409700415163 0 0.00052454049623350306 0.004735894768322934 0 0.00084271091873927052 0.0046444869572613515 0 0.00046986428289385739 0.0044969686978260162 0 -6.5064160171288924e-05 0.0045978743654144184 0 0.00021210501596882373 0.0046710409700415163 0 0.00012522727028536145 0.0044837845877982417 0 0.00012522727028536145 0.0044837845877982417 0 -0.00015667441141645045 0.0043575432448201678 0 0.00016879464008837781 0.0043044297970008787 0 -6.5064160171288924e-05 0.0045978743654144184 0 0.00012522727028536145 0.0044837845877982417 0 -0.00015667441141645045 0.0043575432448201678 0 -0.00015667441141645045 0.0043575432448201678 0 0.00016879464008837781 0.0043044297970008787 0 -0.00032015677291737462 0.0040335714518385237 0 0.00016879464008837781 0.0043044297970008787 0 0.00010451011845610895 0.0039368434004977935 0 -0.00032015677291737462 0.0040335714518385237 0 -0.00025647933431090171 0.0037507779229865746 0 0.00010451011845610895 0.0039368434004977935 0 -0.00032015677291737462 0.0040335714518385237 0 -0.00025647933431090171 0.0037507779229865746 0 0.00010451011845610895 0.0039368434004977935 0 9.0432145076316646e-05 0.0036007113451271369 0 0.00037702511134349835 0.0041748021782999781 0 0.00037200778343555129 0.0038868357537095231 0 0.00010451011845610895 0.0039368434004977935 0 0.00037702511134349835 0.0041748021782999781 0 0.00037200778343555129 0.0038868357537095231 0 0.00066421781091427566 0.0042415575251116564 0 0.00037200778343555129 0.0038868357537095231 0 0.00010451011845610895 0.0039368434004977935 0 9.0432145076316646e-05 0.0036007113451271369 0 0.00037200778343555129 0.0038868357537095231 0 9.0432145076316646e-05 0.0036007113451271369 0 0.0002885232749811623 0.0033904080242009938 0 9.0432145076316646e-05 0.0036007113451271369 0 0.0002885232749811623 0.0033904080242009938 0 -2.0112540186342573e-05 0.0030833540144563285 0 9.0432145076316646e-05 0.0036007113451271369 0 -0.0002486081260115065 0.0034151262551287598 0 -2.0112540186342573e-05 0.0030833540144563285 0 -0.0002486081260115065 0.0034151262551287598 0 -0.00036291055083418483 0.0030295343979584123 0 -0.00059505929672810064 0.0036433817309388878 0 -0.0002486081260115065 0.0034151262551287598 0 -0.00036291055083418483 0.0030295343979584123 0 -2.0112540186342573e-05 0.0030833540144563285 0 -0.00025647933431090171 0.0037507779229865746 0 -0.0002486081260115065 0.0034151262551287598 0 -0.00059505929672810064 0.0036433817309388878 0 -0.00025647933431090171 0.0037507779229865746 0 9.0432145076316646e-05 0.0036007113451271369 0 -0.0002486081260115065 0.0034151262551287598 0 0.00098293189436675105 0.0048505521042540925 0 0.0010009134521111636 0.0047138598973342659 0 0.00066421781091427566 0.0042415575251116564 0 0.0010009134521111636 0.0047138598973342659 0 0.00066421781091427566 0.0042415575251116564 0 0.0006893016763206178 0.0037893875442555919 0 0.00037200778343555129 0.0038868357537095231 0 0.00066421781091427566 0.0042415575251116564 0 0.0006893016763206178 0.0037893875442555919 0 0.00037200778343555129 0.0038868357537095231 0 0.0002885232749811623 0.0033904080242009938 0 0.0006893016763206178 0.0037893875442555919 0 0.0002885232749811623 0.0033904080242009938 0 0.0006893016763206178 0.0037893875442555919 0 0.00044581101899428423 0.0029605754715885178 0 0.0012000752273925465 0.0039976616836293038 0 0.0010009134521111636 0.0047138598973342659 0 0.0006893016763206178 0.0037893875442555919 0 0.00028472811633837279 0.005773542442260019 0 0.00038128023685982939 0.0062766527201961906 0 -0.00028032039525551953 0.0049141908841877644 0 0.0012000752273925465 0.0039976616836293038 0 0.0006893016763206178 0.0037893875442555919 0 0.00083335313947481126 0.0028584825066968046 0 0.00062314323578161867 0.0036417057715449138 0 0.00046240041905122391 0.0031730688914115286 0 0.0006893016763206178 0.0037893875442555919 0 0.00083335313947481126 0.0028584825066968046 0 0.00044581101899428423 0.0029605754715885178 0 0.00046240041905122391 0.0031730688914115286 0 8.6223446383773195e-07 0.0022343665276473692 0 -0.00028032039525551953 0.0049141908841877644 0 -1.768122471932205e-06 0.0022342530101347752 0 6.1094528015840425e-07 0.0041284396091279532 0 0.00083335313947481126 0.0028584825066968046 0 0.00044581101899428423 0.0029605754715885178 0 3.0198197932144001e-06 0.0022284157408004185 0 0.00028472811633837279 0.005773542442260019 0 -0.00028032039525551953 0.0049141908841877644 0 6.1094528015840425e-07 0.0041284396091279532 0 -0.00062978652217384802 0.0026478113117391834 0 -0.00036291055083418483 0.0030295343979584123 0 -0.00059505929672810064 0.0036433817309388878 0 -8.1636444573218776e-05 0.0025851910136272869 0 -0.00051380189762386351 0.0026405725270644939 0 -0.00036291055083418483 0.0030295343979584123 0 -0.00051380189762386351 0.0026405725270644939 0 -0.00089577527126590451 0.0025725841345641933 0 6.184446368653112e-05 0.0018851004995814413 0 -8.1636444573218776e-05 0.0025851910136272869 0 -0.00051380189762386351 0.0026405725270644939 0 6.184446368653112e-05 0.0018851004995814413 0 -0.00051380189762386351 0.0026405725270644939 0 -0.00062978652217384802 0.0026478113117391834 0 -0.00036291055083418483 0.0030295343979584123 0 0.00036466481069441444 -0.00052035111179213691 0 0.00036848078186328844 -0.00052716864445337766 0 -8.1636444573218776e-05 0.0025851910136272869 0 -0.00036291055083418483 0.0030295343979584123 0 -2.0112540186342573e-05 0.0030833540144563285 0 0.0002885232749811623 0.0033904080242009938 0 -2.0112540186342573e-05 0.0030833540144563285 0 0.0001905550476342999 0.0025951063261455088 0 0.0002885232749811623 0.0033904080242009938 0 0.00044581101899428423 0.0029605754715885178 0 0.0001905550476342999 0.0025951063261455088 0 -8.1636444573218776e-05 0.0025851910136272869 0 -2.0112540186342573e-05 0.0030833540144563285 0 0.0001905550476342999 0.0025951063261455088 0 -8.1636444573218776e-05 0.0025851910136272869 0 0.0001905550476342999 0.0025951063261455088 0 6.184446368653112e-05 0.0018851004995814413 0 3.0198197932144001e-06 0.0022284157408004185 0 -2.6960576995690578e-06 0.00067612213534246253 0 6.184446368653112e-05 0.0018851004995814413 0 0.00044581101899428423 0.0029605754715885178 0 3.0198197932144001e-06 0.0022284157408004185 0 0.0001905550476342999 0.0025951063261455088 0 3.0198197932144001e-06 0.0022284157408004185 0 0.0001905550476342999 0.0025951063261455088 0 6.184446368653112e-05 0.0018851004995814413 0 -0.00089577527126590451 0.0025725841345641933 0 -2.6960576995690578e-06 0.00067612213534246253 0 6.184446368653112e-05 0.0018851004995814413 0 0.00036848078186328844 -0.00052716864445337766 0 5.6613551441795236e-07 0.00066906598250460127 0 -2.9702055521646448e-05 -0.00052492442712919407 0 -8.7041423755308789e-07 0.00066897089107908494 0 6.1860225766280754e-07 -0.0010870202389519762 0 -2.9702055521646448e-05 -0.00052492442712919407 0 6.1860225766280754e-07 -0.0010870202389519762 0 4.4872201424060448e-05 -0.0015455707150484319 0 0.00036848078186328844 -0.00052716864445337766 0 0.00076730295745212115 -0.0015075371811595275 0 0.002790274956616769 -0.0049554412243594855 0 0.0019390243108822515 -0.0045300563753402573 0 0.0024325769243007649 -0.0040310666615641531 0 0.002790274956616769 -0.0049554412243594855 0 0.0019390243108822515 -0.0045300563753402573 0 0.001837739794711484 -0.0051553651188090896 0 0.0019390243108822515 -0.0045300563753402573 0 0.001837739794711484 -0.0051553651188090896 0 0.0013048838217554718 -0.0046673330191718257 0 6.1860225766280754e-07 -0.0010870202389519762 0 4.4872201424060448e-05 -0.0015455707150484319 0 -8.7459867630332496e-08 -0.0028468069333733178 0 0.001837739794711484 -0.0051553651188090896 0 0.00089178192644850658 -0.005356649554999468 0 0.00095262523236859086 -0.0049274858250919892 0 0.00076730295745212115 -0.0015075371811595275 0 0.00079389953075474325 -0.0021816655193435436 0 4.4872201424060448e-05 -0.0015455707150484319 0 -8.7459867630332496e-08 -0.0028468069333733178 0 -2.4790675155795696e-05 -0.0034065472426560981 0 -8.7459867630332496e-08 -0.0028468069333733178 0 -2.4790675155795696e-05 -0.0034065472426560981 0 -5.4433076246929559e-08 -0.0046067302505188312 0 0.00089178192644850658 -0.005356649554999468 0 0.00054376492744307142 -0.0050620469921251335 0 0.00095262523236859086 -0.0049274858250919892 0 0.00095262523236859086 -0.0049274858250919892 0 0.00059904314782596897 -0.004586807983610516 0 0.0013048838217554718 -0.0046673330191718257 0 0.0002597135091879248 -0.0042721734781010984 0 0.00041551528498829374 -0.0043063131877090427 0 0.00054376492744307142 -0.0050620469921251335 0 0.00095262523236859086 -0.0049274858250919892 0 0.00059904314782596897 -0.004586807983610516 0 0.001837739794711484 -0.0051553651188090896 0 0.00095262523236859086 -0.0049274858250919892 0 0.0013048838217554718 -0.0046673330191718257 0 0.0019390243108822515 -0.0045300563753402573 0 0.0013048838217554718 -0.0046673330191718257 0 0.0013246936603866545 -0.0038323989421335572 0 0.00057341803183810129 -0.004569111728006974 0 0.0013048838217554718 -0.0046673330191718257 0 0.0013246936603866545 -0.0038323989421335572 0 0.0002597135091879248 -0.0042721734781010984 0 0.00085148332544038882 -0.0017229887884715068 0 -0.0018004545429166996 0.0027557222254388884 0 -0.0016452036779411746 0.0036997582571083555 0 -0.0011676127953752953 0.003398094483070204 0 -0.0016452036779411746 0.0036997582571083555 0 -0.0011676127953752953 0.003398094483070204 0 -0.0012681621100984954 0.0041748192794211743 0 0.0019390243108822515 -0.0045300563753402573 0 0.0013246936603866545 -0.0038323989421335572 0 0.0024325769243007649 -0.0040310666615641531 0 0.00085148332544038882 -0.0017229887884715068 0 0.0013426248110037101 0.00022199002535933061 0 0.0013246936603866545 -0.0038323989421335572 0 0.0024325769243007649 -0.0040310666615641531 0 0.0020701840234308272 -0.003097235787261328 0 0.00088142837141225281 -0.00021189193524674959 0 0.0013426248110037101 0.00022199002535933061 0 -0.00025647933431090171 0.0037507779229865746 0 -0.00032015677291737462 0.0040335714518385237 0 -0.00059505929672810064 0.0036433817309388878 0 -0.00032015677291737462 0.0040335714518385237 0 -0.00059505929672810064 0.0036433817309388878 0 -0.00061497163903208849 0.004213994612589464 0 0.00036848078186328844 -0.00052716864445337766 0 0.00088142837141225281 -0.00021189193524674959 0 0.00031473935729739265 -0.0084883396393181636 0 0.00029377022974054376 -0.0084084796838781138 0 0.00026173603801961777 -0.0084410869359082125 0 0.00029377022974054376 -0.0084084796838781138 0 0.00026173603801961777 -0.0084410869359082125 0 0.00020250225206477093 -0.0081761690976925559 0 0.00026173603801961777 -0.0084410869359082125 0 0.00018135441384513177 -0.0081723562662280244 0 0.00020250225206477093 -0.0081761690976925559 0 9.7418196727272179e-07 -0.0078550121788511004 0 0.00018135441384513177 -0.0081723562662280244 0 5.2942019089077123e-07 -0.0093452430610307495 0 0.00026173603801961777 -0.0084410869359082125 0 0.00018135441384513177 -0.0081723562662280244 0 5.2942019089077123e-07 -0.0093452430610307495 0 9.7418196727272179e-07 -0.0078550121788511004 0 0.00018135441384513177 -0.0081723562662280244 0 0.00010110673353185019 -0.007553125106416308 0 0.00018135441384513177 -0.0081723562662280244 0 0.00010110673353185019 -0.007553125106416308 0 0.00020250225206477093 -0.0081761690976925559 0 9.7418196727272179e-07 -0.0078550121788511004 0 0.00010110673353185019 -0.007553125106416308 0 -1.7403582755272274e-06 -0.0063687301993155645 0 -0.00026483987874426816 -0.0081859899873951477 0 -0.00041212938939903912 -0.0084698577455851048 0 9.5636007346405091e-05 -0.0085361867087381509 0 0.00010110673353185019 -0.007553125106416308 0 0.00020250225206477093 -0.0081761690976925559 0 -0.00026483987874426816 -0.0081859899873951477 0 0.00029377022974054376 -0.0084084796838781138 0 0.00020250225206477093 -0.0081761690976925559 0 9.5636007346405091e-05 -0.0085361867087381509 0 0.00020250225206477093 -0.0081761690976925559 0 -0.00026483987874426816 -0.0081859899873951477 0 9.5636007346405091e-05 -0.0085361867087381509 0 0.00010110673353185019 -0.007553125106416308 0 -0.00026483987874426816 -0.0081859899873951477 0 -0.0012519924361860328 -0.007647034151436004 0 -0.00026483987874426816 -0.0081859899873951477 0 -0.0012519924361860328 -0.007647034151436004 0 -0.00057679983205801701 -0.0087803088321156773 0 -0.00078507967987750732 -0.0041413004322765762 0 -0.00071860328505311778 -0.0039383685814961718 0 -7.9801804374443612e-08 -0.0063647873630159743 0 6.6306480617124287e-06 -0.0055842472623044452 0 -5.4433076246929559e-08 -0.0046067302505188312 0 0.00010110673353185019 -0.007553125106416308 0 -1.7403582755272274e-06 -0.0063687301993155645 0 -0.0012519924361860328 -0.007647034151436004 0 -8.8510870872572569e-07 -0.006363075355654094 0 3.3914031807999311e-06 -0.0054647872772490497 0 -7.9801804374443612e-08 -0.0063647873630159743 0 6.6306480617124287e-06 -0.0055842472623044452 0 6.8272620300280568e-05 -0.005114588198269307 0 0.00079389953075474325 -0.0021816655193435436 0 0.00073143260204582266 -0.0024506391823080199 0 0.00054376492744307142 -0.0050620469921251335 0 6.6306480617124287e-06 -0.0055842472623044452 0 6.8272620300280568e-05 -0.005114588198269307 0 0.00089178192644850658 -0.005356649554999468 0 0.00054376492744307142 -0.0050620469921251335 0 6.6306480617124287e-06 -0.0055842472623044452 0 -2.4790675155795696e-05 -0.0034065472426560981 0 6.6306480617124287e-06 -0.0055842472623044452 0 -5.4433076246929559e-08 -0.0046067302505188312 0 0.0002597135091879248 -0.0042721734781010984 0 3.3914031807999311e-06 -0.0054647872772490497 0 -0.0021851883617567177 -0.008556268281443874 0 -0.0012519924361860328 -0.007647034151436004 0 -0.00057679983205801701 -0.0087803088321156773 0 0.00054376492744307142 -0.0050620469921251335 0 0.00059904314782596897 -0.004586807983610516 0 6.8272620300280568e-05 -0.005114588198269307 0 0.0002597135091879248 -0.0042721734781010984 0 -0.00071860328505311778 -0.0039383685814961718 0 -0.0018004545429166996 0.0027557222254388884 0 -0.0022102792649884126 0.003605491866093186 0 -0.0025936387497788212 0.0028550403341688359 0 -0.0018004545429166996 0.0027557222254388884 0 -0.0016452036779411746 0.0036997582571083555 0 -0.0022102792649884126 0.003605491866093186 0 0.00081942249079524319 -0.0086053815261179778 0 0.00071278028777885531 -0.0087116725397698332 0 0.00068796116678912294 -0.0086444778788406385 0 0.00081942249079524319 -0.0086053815261179778 0 0.00068796116678912294 -0.0086444778788406385 0 0.00068669422246248448 -0.0085367198979137433 0 5.1037009352129069e-05 -0.0032620440791189869 0 -0.00071860328505311778 -0.0039383685814961718 0 0.00071278028777885531 -0.0087116725397698332 0 0.00060872014501437419 -0.0086671549244279247 0 0.00068796116678912294 -0.0086444778788406385 0 -0.00071860328505311778 -0.0039383685814961718 0 -0.00026643590136316789 -0.0044360337664269729 0 0.00060872014501437419 -0.0086671549244279247 0 0.00068796116678912294 -0.0086444778788406385 0 0.00063289178408953571 -0.0086669700207160968 0 0.00068796116678912294 -0.0086444778788406385 0 0.00063289178408953571 -0.0086669700207160968 0 0.00068669422246248448 -0.0085367198979137433 0 0.00063289178408953571 -0.0086669700207160968 0 0.0006272152667589271 -0.0093390487773808602 0 0.00053595318674659132 -0.0090299119199222008 0 0.00063289178408953571 -0.0086669700207160968 0 0.00053725173050056855 -0.0085719898708979322 0 0.00049949952090382695 -0.0088102096623805873 0 0.00063289178408953571 -0.0086669700207160968 0 0.00053595318674659132 -0.0090299119199222008 0 0.00049949952090382695 -0.0088102096623805873 0 0.00063289178408953571 -0.0086669700207160968 0 0.00040088403585261407 -0.0085357981872944289 0 0.0003429743517910902 -0.0084805241737718334 0 -0.00026643590136316789 -0.0044360337664269729 0 -0.00012483482282900238 -0.0045963364422173768 0 0.00060872014501437419 -0.0086671549244279247 0 0.00063289178408953571 -0.0086669700207160968 0 0.00040088403585261407 -0.0085357981872944289 0 0.00050434450095668878 -0.0096722692083740566 0 0.00045294608681855633 -0.0097966038994418414 0 0.00029377022974054376 -0.0084084796838781138 0 9.5636007346405091e-05 -0.0085361867087381509 0 0.00040088403585261407 -0.0085357981872944289 0 0.00031473935729739265 -0.0084883396393181636 0 0.00040088403585261407 -0.0085357981872944289 0 0.0003429743517910902 -0.0084805241737718334 0 0.00031473935729739265 -0.0084883396393181636 0 0.00029377022974054376 -0.0084084796838781138 0 0.00040088403585261407 -0.0085357981872944289 0 0.00063289178408953571 -0.0086669700207160968 0 0.00053725173050056855 -0.0085719898708979322 0 0.00068669422246248448 -0.0085367198979137433 0 0.00053644148482465061 -0.0083667943003138644 0 0.00053725173050056855 -0.0085719898708979322 0 0.00068669422246248448 -0.0085367198979137433 0 0.00051074484993696319 -0.0062417756963137512 0 0.00072401026463416427 -0.0053680760124088216 0 0.00053644148482465061 -0.0083667943003138644 0 0.00068669422246248448 -0.0085367198979137433 0 0.00070393434541873325 -0.0083526499358637981 0 0.00068669422246248448 -0.0085367198979137433 0 0.00080205710592579462 -0.008453668664912992 0 0.00070393434541873325 -0.0083526499358637981 0 0.00080205710592579462 -0.008453668664912992 0 0.00086101743676812758 -0.0083064397142658172 0 0.00070393434541873325 -0.0083526499358637981 0 0.00081942249079524319 -0.0086053815261179778 0 0.00068669422246248448 -0.0085367198979137433 0 0.00080205710592579462 -0.008453668664912992 0 5.1037009352129069e-05 -0.0032620440791189869 0 0.00085587183720361949 -0.0029398858398809609 0 -0.0016452036779411746 0.0036997582571083555 0 -0.0022102792649884126 0.003605491866093186 0 -0.0018160258730668577 0.0043443247461531637 0 0.00081942249079524319 -0.0086053815261179778 0 0.00080205710592579462 -0.008453668664912992 0 0.00093753660323619092 -0.0084423853514711562 0 0.00080205710592579462 -0.008453668664912992 0 0.00086101743676812758 -0.0083064397142658172 0 0.00093753660323619092 -0.0084423853514711562 0 0.001543355871454198 -0.0038158536585189517 0 0.0022147639573906783 -0.0028847472742717793 0 0.0017748775466502789 -0.0023144257808470755 0 0.001543355871454198 -0.0038158536585189517 0 0.00083479534303422087 -0.0030372484226941494 0 0.0017748775466502789 -0.0023144257808470755 0 0.001543355871454198 -0.0038158536585189517 0 0.00083479534303422087 -0.0030372484226941494 0 0.00047003395745922764 -0.0044277359987919184 0 0.0011534983571292873 -0.0042990000423745794 0 0.00072401026463416427 -0.0053680760124088216 0 0.00047003395745922764 -0.0044277359987919184 0 9.7879859305528754e-05 -0.0039913480782394579 0 -0.00014849403360435692 -0.0044395243334193315 0 0.00083479534303422087 -0.0030372484226941494 0 0.00047003395745922764 -0.0044277359987919184 0 9.7879859305528754e-05 -0.0039913480782394579 0 0.00083479534303422087 -0.0030372484226941494 0 9.7879859305528754e-05 -0.0039913480782394579 0 0.00015459581777254902 -0.0033358195566493072 0 9.7879859305528754e-05 -0.0039913480782394579 0 0.00015459581777254902 -0.0033358195566493072 0 -0.00033812394512442546 -0.0039647069945748419 0 9.7879859305528754e-05 -0.0039913480782394579 0 -0.00033812394512442546 -0.0039647069945748419 0 -0.00028907809065003399 -0.0046775339115306394 0 9.7879859305528754e-05 -0.0039913480782394579 0 -0.00014849403360435692 -0.0044395243334193315 0 -0.00028907809065003399 -0.0046775339115306394 0 -0.0001622112354098474 -0.004512077791223406 0 -0.00014849403360435692 -0.0044395243334193315 0 0.00011572043280880305 -0.0046497157848760682 0 -0.0001622112354098474 -0.004512077791223406 0 0.00047003395745922764 -0.0044277359987919184 0 -0.00014849403360435692 -0.0044395243334193315 0 -0.00066633698193168441 0.0043349925451814124 0 -0.00086089906231026322 0.0044862540256232764 0 -0.00060039798926800369 0.0045116168154034188 0 -0.00066633698193168441 0.0043349925451814124 0 -0.00060039798926800369 0.0045116168154034188 0 -0.00054028539659885591 0.0043820321944452491 0 -0.00066633698193168441 0.0043349925451814124 0 -0.00054028539659885591 0.0043820321944452491 0 -0.00053102138841678312 0.0042720314486901561 0 -0.00066633698193168441 0.0043349925451814124 0 -0.00086089906231026322 0.0044862540256232764 0 -0.00090309778521278862 0.0040897619184858932 0 -0.00086089906231026322 0.0044862540256232764 0 -0.00064522709035551892 0.00471919038089427 0 -0.00088536440084460407 0.004842231651544412 0 -0.00086089906231026322 0.0044862540256232764 0 -0.00060039798926800369 0.0045116168154034188 0 -0.00064522709035551892 0.00471919038089427 0 -0.00060039798926800369 0.0045116168154034188 0 -0.00046253336865594382 0.004650227068819201 0 -0.00064522709035551892 0.00471919038089427 0 -0.00046253336865594382 0.004650227068819201 0 -0.000300522927154007 0.0045310776547047077 0 -0.00045607240416507448 0.0044873783898033825 0 -0.00060039798926800369 0.0045116168154034188 0 -0.00046253336865594382 0.004650227068819201 0 -0.00045607240416507448 0.0044873783898033825 0 -6.5064160171288924e-05 0.0045978743654144184 0 -0.000300522927154007 0.0045310776547047077 0 -0.00027641550155656865 0.0047361533723778663 0 -0.00046253336865594382 0.004650227068819201 0 -0.000300522927154007 0.0045310776547047077 0 -0.00027641550155656865 0.0047361533723778663 0 -6.5064160171288924e-05 0.0045978743654144184 0 -0.00015667441141645045 0.0043575432448201678 0 -0.000300522927154007 0.0045310776547047077 0 -0.00015667441141645045 0.0043575432448201678 0 -0.000300522927154007 0.0045310776547047077 0 -0.00039111226167757424 0.0043643480594782024 0 -0.00060039798926800369 0.0045116168154034188 0 -0.00045607240416507448 0.0044873783898033825 0 -0.00054028539659885591 0.0043820321944452491 0 -0.000300522927154007 0.0045310776547047077 0 -0.00045607240416507448 0.0044873783898033825 0 -0.00039111226167757424 0.0043643480594782024 0 -0.00045607240416507448 0.0044873783898033825 0 -0.00039111226167757424 0.0043643480594782024 0 -0.00054028539659885591 0.0043820321944452491 0 -0.00053102138841678312 0.0042720314486901561 0 -0.00040441793403296037 0.0042277867760593009 0 -0.00061497163903208849 0.004213994612589464 0 -0.00032015677291737462 0.0040335714518385237 0 -0.00040441793403296037 0.0042277867760593009 0 -0.00061497163903208849 0.004213994612589464 0 -0.00039111226167757424 0.0043643480594782024 0 -0.00054028539659885591 0.0043820321944452491 0 -0.00053102138841678312 0.0042720314486901561 0 -0.00015667441141645045 0.0043575432448201678 0 -0.00032015677291737462 0.0040335714518385237 0 -0.00040441793403296037 0.0042277867760593009 0 -0.00039111226167757424 0.0043643480594782024 0 -0.00053102138841678312 0.0042720314486901561 0 -0.00040441793403296037 0.0042277867760593009 0 -0.00015667441141645045 0.0043575432448201678 0 -0.00039111226167757424 0.0043643480594782024 0 -0.00040441793403296037 0.0042277867760593009 0 -0.0011676127953752953 0.003398094483070204 0 -0.0005456898652225965 0.0040429342042818802 0 -0.00090309778521278862 0.0040897619184858932 0 -0.00066633698193168441 0.0043349925451814124 0 -0.0005456898652225965 0.0040429342042818802 0 -0.00090309778521278862 0.0040897619184858932 0 -0.00066633698193168441 0.0043349925451814124 0 -0.00053102138841678312 0.0042720314486901561 0 -0.0005934599521568968 0.0042085077790503574 0 0.0012658028159936909 0.00040670419442004639 0 0.0013426248110037101 0.00022199002535933061 0 0.0013462701728527311 0.00024536795698785194 0 0.0013426248110037101 0.00022199002535933061 0 -0.0011676127953752953 0.003398094483070204 0 -0.00090309778521278862 0.0040897619184858932 0 -0.0012681621100984954 0.0041748192794211743 0 -0.00086089906231026322 0.0044862540256232764 0 -0.00090309778521278862 0.0040897619184858932 0 -0.0012681621100984954 0.0041748192794211743 0 -0.0016452036779411746 0.0036997582571083555 0 -0.0012681621100984954 0.0041748192794211743 0 -0.0018160258730668577 0.0043443247461531637 0 -0.0018160258730668577 0.0043443247461531637 0 -0.0014081616897405648 0.004548028893573355 0 -0.0014283204916238151 0.0050279004666437498 0 -0.0012681621100984954 0.0041748192794211743 0 -0.0018160258730668577 0.0043443247461531637 0 -0.0014081616897405648 0.004548028893573355 0 -0.00086089906231026322 0.0044862540256232764 0 -0.0012681621100984954 0.0041748192794211743 0 -0.0011182894977255951 0.0046362962179185285 0 -0.0012681621100984954 0.0041748192794211743 0 -0.0014081616897405648 0.004548028893573355 0 -0.0011182894977255951 0.0046362962179185285 0 -0.00086089906231026322 0.0044862540256232764 0 -0.0011182894977255951 0.0046362962179185285 0 -0.00088536440084460407 0.004842231651544412 0 -0.0014081616897405648 0.004548028893573355 0 -0.0011182894977255951 0.0046362962179185285 0 -0.0014283204916238151 0.0050279004666437498 0 -0.0011182894977255951 0.0046362962179185285 0 -0.0014283204916238151 0.0050279004666437498 0 -0.00088536440084460407 0.004842231651544412 0 0.0018516019967996921 -0.0028990584876086114 0 0.0021609525945818567 -0.0014769861465500534 0 -0.0014283204916238151 0.0050279004666437498 0 -0.0008643821231640159 0.0051486423001299705 0 -0.00088536440084460407 0.004842231651544412 0 0.001543355871454198 -0.0038158536585189517 0 0.0026284406648847619 -0.0031899624151203797 0 0.0022147639573906783 -0.0028847472742717793 0 0.00085587183720361949 -0.0029398858398809609 0 0.0018516019967996921 -0.0028990584876086114 0 0.0011534983571292873 -0.0042990000423745794 0 0.0018516019967996921 -0.0028990584876086114 0 0.00086101743676812758 -0.0083064397142658172 0 0.00093753660323619092 -0.0084423853514711562 0 0.001040319635514948 -0.0082517756723443202 0 0.0018516019967996921 -0.0028990584876086114 0 0.0018556083767456385 -0.002897583293488389 0 0.0022147639573906783 -0.0028847472742717793 0 0.0024970315380901179 -0.0022610806373156845 0 0.0017748775466502789 -0.0023144257808470755 0 0.0022147639573906783 -0.0028847472742717793 0 0.0024970315380901179 -0.0022610806373156845 0 0.0027334987899657014 -0.0028932578152583064 0 0.0026284406648847619 -0.0031899624151203797 0 0.0022147639573906783 -0.0028847472742717793 0 0.0027334987899657014 -0.0028932578152583064 0 0.0025726972727951438 -0.0032112311084714754 0 0.0027334987899657014 -0.0028932578152583064 0 0.0038844649799557149 -0.002817520793243382 0 0.0032536773479949106 -0.002463505472742752 0 0.0027334987899657014 -0.0028932578152583064 0 0.0038844649799557149 -0.002817520793243382 0 0.0024970315380901179 -0.0022610806373156845 0 0.0032536773479949106 -0.002463505472742752 0 0.0027334987899657014 -0.0028932578152583064 0 0.0024970315380901179 -0.0022610806373156845 0 0.0032536773479949106 -0.002463505472742752 0 0.002960323524123132 -0.0016690111462500489 0 0.0021609525945818567 -0.0014769861465500534 0 0.0025493475135592888 -0.00034876374193145256 0 0.0032536773479949106 -0.002463505472742752 0 0.004920968870172843 -0.0019037743247782167 0 0.002960323524123132 -0.0016690111462500489 0 0.0032536773479949106 -0.002463505472742752 0 0.0038844649799557149 -0.002817520793243382 0 0.004920968870172843 -0.0019037743247782167 0 0.0038844649799557149 -0.002817520793243382 0 0.004920968870172843 -0.0019037743247782167 0 0.005354317947776588 -0.0024330900727361536 0 -0.0008643821231640159 0.0051486423001299705 0 -0.00050788868836458166 0.0049380191907667679 0 -0.00034108308858062992 0.0052656711259714307 0 -0.0008643821231640159 0.0051486423001299705 0 -0.00088536440084460407 0.004842231651544412 0 -0.00050788868836458166 0.0049380191907667679 0 -0.00064522709035551892 0.00471919038089427 0 -0.00088536440084460407 0.004842231651544412 0 -0.00050788868836458166 0.0049380191907667679 0 -0.00046253336865594382 0.004650227068819201 0 -0.00064522709035551892 0.00471919038089427 0 -0.00050788868836458166 0.0049380191907667679 0 -3.2579447493613577e-05 0.0048300383683628602 0 -0.00027641550155656865 0.0047361533723778663 0 -0.00025024522962884492 0.0049663662170452236 0 -0.00046253336865594382 0.004650227068819201 0 -0.00027641550155656865 0.0047361533723778663 0 -0.00050788868836458166 0.0049380191907667679 0 -0.00027641550155656865 0.0047361533723778663 0 -0.00050788868836458166 0.0049380191907667679 0 -0.00025024522962884492 0.0049663662170452236 0 -0.00050788868836458166 0.0049380191907667679 0 -0.00025024522962884492 0.0049663662170452236 0 -0.00034108308858062992 0.0052656711259714307 0 -4.3454078978272057e-05 0.0050901898293567987 0 -0.00025024522962884492 0.0049663662170452236 0 -0.00034108308858062992 0.0052656711259714307 0 0.0028123031119586641 0.00054927263744076527 0 0.0031485767829408421 0.0001459003798134146 0 0.0067636063431744109 -0.0020747762146062854 0 0.004920968870172843 -0.0019037743247782167 0 0.005354317947776588 -0.0024330900727361536 0 0.0031036350506683423 -0.00046290249335424375 0 0.0030732182519257411 -0.00013920230886092373 0 0.0030744937076455036 -0.00043669696144962215 0 0.003042812294137295 0.00026112341079423444 0 0.0031036350506683423 -0.00046290249335424375 0 0.0030732182519257411 -0.00013920230886092373 0 0.0030732182519257411 -0.00013920230886092373 0 0.0030639664493052015 -0.00016508221890231686 0 0.0030744937076455036 -0.00043669696144962215 0 0.0031485767829408421 0.0001459003798134146 0 0.0030730437219585343 1.5573058251647139e-05 0 0.0031036350506683423 -0.00046290249335424375 0 0.0030484331591757422 -0.00085395428383710538 0 0.0030744937076455036 -0.00043669696144962215 0 0.0031036350506683423 -0.00046290249335424375 0 0.0030484331591757422 -0.00085395428383710538 0 0.002960323524123132 -0.0016690111462500489 0 0.002966892634961749 -0.00055430918856668062 0 0.0030744937076455036 -0.00043669696144962215 0 0.0030159234321093381 -0.00028061170769191077 0 0.0030484331591757422 -0.00085395428383710538 0 0.002966892634961749 -0.00055430918856668062 0 0.0030744937076455036 -0.00043669696144962215 0 0.0030484331591757422 -0.00085395428383710538 0 0.002966892634961749 -0.00055430918856668062 0 0.002850291593952847 -0.0010866416303492209 0 0.0030236565071870519 -3.3972970084059908e-05 0 0.0030639664493052015 -0.00016508221890231686 0 0.0030159234321093381 -0.00028061170769191077 0 0.0030639664493052015 -0.00016508221890231686 0 0.0030744937076455036 -0.00043669696144962215 0 0.0030159234321093381 -0.00028061170769191077 0 0.0030236565071870519 -3.3972970084059908e-05 0 0.0030159234321093381 -0.00028061170769191077 0 0.0028931913347374954 -0.00025532184275325176 0 0.0030236565071870519 -3.3972970084059908e-05 0 0.0029492463732361468 -0.00017531338893028587 0 0.0028931913347374954 -0.00025532184275325176 0 0.002966892634961749 -0.00055430918856668062 0 0.0030159234321093381 -0.00028061170769191077 0 0.0028931913347374954 -0.00025532184275325176 0 0.002966892634961749 -0.00055430918856668062 0 0.0028931913347374954 -0.00025532184275325176 0 0.0026751387682688102 -0.00047933732020686188 0 0.0014480032124657945 -0.002266272290802316 0 -0.0002943863650851405 -0.0037448616197035224 0 0.00011776812442106389 -0.0021605905837407792 0 0.0014224788767800099 -0.001622506310621801 0 0.00097741341041142479 -0.0019775878729887389 0 0.0027027612046622448 -0.00021573035983140829 0 0.0026751387682688102 -0.00047933732020686188 0 0.0021226323181994878 -0.00034363030365504706 0 0.0028931913347374954 -0.00025532184275325176 0 0.0027027612046622448 -0.00021573035983140829 0 0.0026751387682688102 -0.00047933732020686188 0 0.0026751387682688102 -0.00047933732020686188 0 0.0021620697050397666 -0.0008310860035949841 0 0.0025775555951661113 -0.00093547670421620919 0 0.0026751387682688102 -0.00047933732020686188 0 0.0021620697050397666 -0.0008310860035949841 0 0.0021226323181994878 -0.00034363030365504706 0 0.0025775555951661113 -0.00093547670421620919 0 0.0024014347647092283 -0.0016142575636618934 0 0.0019238221958539727 -0.0014555599450028225 0 0.0021620697050397666 -0.0008310860035949841 0 0.0025775555951661113 -0.00093547670421620919 0 0.0019238221958539727 -0.0014555599450028225 0 0.0025775555951661113 -0.00093547670421620919 0 0.002850291593952847 -0.0010866416303492209 0 0.0024014347647092283 -0.0016142575636618934 0 0.002966892634961749 -0.00055430918856668062 0 0.0026751387682688102 -0.00047933732020686188 0 0.0025775555951661113 -0.00093547670421620919 0 0.002966892634961749 -0.00055430918856668062 0 0.0025775555951661113 -0.00093547670421620919 0 0.002850291593952847 -0.0010866416303492209 0 0.0030484331591757422 -0.00085395428383710538 0 0.002850291593952847 -0.0010866416303492209 0 0.002960323524123132 -0.0016690111462500489 0 0.002850291593952847 -0.0010866416303492209 0 0.002960323524123132 -0.0016690111462500489 0 0.0024014347647092283 -0.0016142575636618934 0 0.0024970315380901179 -0.0022610806373156845 0 0.0024014347647092283 -0.0016142575636618934 0 0.0017748775466502789 -0.0023144257808470755 0 0.0024970315380901179 -0.0022610806373156845 0 0.002960323524123132 -0.0016690111462500489 0 0.0024014347647092283 -0.0016142575636618934 0 0.0024014347647092283 -0.0016142575636618934 0 0.0017748775466502789 -0.0023144257808470755 0 0.0019238221958539727 -0.0014555599450028225 0 0.0017748775466502789 -0.0023144257808470755 0 0.0011862653512003767 -0.0020372373185040447 0 0.0019238221958539727 -0.0014555599450028225 0 0.00083479534303422087 -0.0030372484226941494 0 0.0017748775466502789 -0.0023144257808470755 0 0.0011862653512003767 -0.0020372373185040447 0 0.00083479534303422087 -0.0030372484226941494 0 0.0011862653512003767 -0.0020372373185040447 0 0.00016890595267536 -0.0022973292647667414 0 0.00052472193049390677 -0.0023429626781649622 0 0.0001985703472483453 -0.0026478307350381409 0 0.0011862653512003767 -0.0020372373185040447 0 0.0011452847773205353 -0.0010426833668198763 0 0.00016890595267536 -0.0022973292647667414 0 0.0021620697050397666 -0.0008310860035949841 0 0.0011452847773205353 -0.0010426833668198763 0 0.0019238221958539727 -0.0014555599450028225 0 0.0011862653512003767 -0.0020372373185040447 0 0.0011452847773205353 -0.0010426833668198763 0 0.0019238221958539727 -0.0014555599450028225 0 -0.00033812394512442546 -0.0039647069945748419 0 -0.0005091627308860552 -0.003378139662869332 0 -0.00052764840422663093 -0.0033706216573672425 0 0.00015459581777254902 -0.0033358195566493072 0 -0.00033812394512442546 -0.0039647069945748419 0 0.00016890595267536 -0.0022973292647667414 0 5.6476334808683266e-05 -0.0028041923317357223 0 0.0001985703472483453 -0.0026478307350381409 0 0.00083479534303422087 -0.0030372484226941494 0 0.00015459581777254902 -0.0033358195566493072 0 0.00016890595267536 -0.0022973292647667414 0 -0.0011300055520385376 -0.0037515984256025398 0 -0.00052764840422663093 -0.0033706216573672425 0 -0.00077405799320559175 -0.0037137784448959864 0 -0.00052764840422663093 -0.0033706216573672425 0 -0.00048575710787069227 -0.0035123970213430632 0 -0.00077405799320559175 -0.0037137784448959864 0 -0.00016744747613994159 -0.0050987798642960257 0 -0.00015278468015851064 -0.0053733909535228688 0 -0.0005091627308860552 -0.003378139662869332 0 -0.00048575710787069227 -0.0035123970213430632 0 -0.00020740279154324496 -0.0037346530501478872 0 -0.0005091627308860552 -0.003378139662869332 0 -0.00052764840422663093 -0.0033706216573672425 0 -0.00048575710787069227 -0.0035123970213430632 0 -0.00048575710787069227 -0.0035123970213430632 0 -0.00020740279154324496 -0.0037346530501478872 0 -0.00077405799320559175 -0.0037137784448959864 0 -0.00020740279154324496 -0.0037346530501478872 0 -0.00077405799320559175 -0.0037137784448959864 0 -0.00074257885586424398 -0.0041824411396315713 0 -0.00077405799320559175 -0.0037137784448959864 0 -0.00074257885586424398 -0.0041824411396315713 0 -0.0013092906709264861 -0.0036692594577120157 0 -0.00020740279154324496 -0.0037346530501478872 0 -0.00074257885586424398 -0.0041824411396315713 0 3.0421406142206789e-05 -0.0046684436773870913 0 -0.00015278468015851064 -0.0053733909535228688 0 -0.00014175075075460836 -0.0056543747445799977 0 -0.0011300055520385376 -0.0037515984256025398 0 -0.0002943863650851405 -0.0037448616197035224 0 -0.0013092906709264861 -0.0036692594577120157 0 0.00052472193049390677 -0.0023429626781649622 0 0.00097741341041142479 -0.0019775878729887389 0 0.0021620697050397666 -0.0008310860035949841 0 0.0011452847773205353 -0.0010426833668198763 0 0.0021226323181994878 -0.00034363030365504706 0 -0.0011300055520385376 -0.0037515984256025398 0 -0.00077405799320559175 -0.0037137784448959864 0 -0.0013092906709264861 -0.0036692594577120157 0 -0.00074257885586424398 -0.0041824411396315713 0 -0.0013092906709264861 -0.0036692594577120157 0 -0.0012508903838714248 -0.0045106574934130521 0 -0.001598023865213515 -0.0039727451583340297 0 -0.0016270497174535254 -0.0040657805377859128 0 -0.0013092906709264861 -0.0036692594577120157 0 -0.002062749263882494 -0.0050607034239706222 0 -0.0012508903838714248 -0.0045106574934130521 0 -0.0002943863650851405 -0.0037448616197035224 0 -0.0013092906709264861 -0.0036692594577120157 0 0.00011776812442106389 -0.0021605905837407792 0 -0.0013092906709264861 -0.0036692594577120157 0 -0.00099548210496407412 -0.0015428208079165183 0 0.00011776812442106389 -0.0021605905837407792 0 -0.00099548210496407412 -0.0015428208079165183 0 0.00011776812442106389 -0.0021605905837407792 0 0.0002162695154509826 -0.00075509919799709579 0 -0.0012508903838714248 -0.0045106574934130521 0 -0.0013541049459533019 -0.0055110679452339629 0 -0.00079953502500965795 -0.0050174625949395545 0 -0.002062749263882494 -0.0050607034239706222 0 -0.0012508903838714248 -0.0045106574934130521 0 -0.0013541049459533019 -0.0055110679452339629 0 -0.0013541049459533019 -0.0055110679452339629 0 -0.0019347772358257478 -0.0059060945506886281 0 -0.001413383383926291 -0.0064273389115270625 0 -0.002062749263882494 -0.0050607034239706222 0 -0.0013541049459533019 -0.0055110679452339629 0 -0.0019347772358257478 -0.0059060945506886281 0 -0.00099548210496407412 -0.0015428208079165183 0 -0.0003958779883960989 0.0001229227822496898 0 0.0002162695154509826 -0.00075509919799709579 0 -0.0016270497174535254 -0.0040657805377859128 0 -0.0017340015777851259 -0.0045131611054224658 0 -0.002062749263882494 -0.0050607034239706222 0 -0.0019347772358257478 -0.0059060945506886281 0 -0.0024123588718154418 -0.0063304478658530484 0 -0.0019347772358257478 -0.0059060945506886281 0 -0.0024020283635465076 -0.0063081431326162752 0 -0.0019593915922728133 -0.0063738921859066988 0 -0.0017830219658345656 -0.0045768383002023948 0 -0.0017340015777851259 -0.0045131611054224658 0 -0.0003958779883960989 0.0001229227822496898 0 0.00064871442384485385 0.0001043044435619159 0 0.0002162695154509826 -0.00075509919799709579 0 -0.00074257885586424398 -0.0041824411396315713 0 3.0421406142206789e-05 -0.0046684436773870913 0 -0.00079953502500965795 -0.0050174625949395545 0 3.0421406142206789e-05 -0.0046684436773870913 0 -0.00079953502500965795 -0.0050174625949395545 0 -0.00070954470283611829 -0.0058984112168939907 0 -0.00074257885586424398 -0.0041824411396315713 0 -0.0012508903838714248 -0.0045106574934130521 0 -0.00079953502500965795 -0.0050174625949395545 0 -0.00070954470283611829 -0.0058984112168939907 0 -7.2010712999330472e-05 -0.0064160751802787869 0 -0.00066384413759197755 -0.0067127540506842411 0 -0.0013541049459533019 -0.0055110679452339629 0 -0.00070954470283611829 -0.0058984112168939907 0 -0.001413383383926291 -0.0064273389115270625 0 -0.0013541049459533019 -0.0055110679452339629 0 -0.00079953502500965795 -0.0050174625949395545 0 -0.00070954470283611829 -0.0058984112168939907 0 -0.00014175075075460836 -0.0056543747445799977 0 -0.00014464079967930129 -0.0058188042316764006 0 3.0421406142206789e-05 -0.0046684436773870913 0 -0.00070954470283611829 -0.0058984112168939907 0 -7.2010712999330472e-05 -0.0064160751802787869 0 2.9342635680139333e-05 -0.0066354976417158425 0 -7.2010712999330472e-05 -0.0064160751802787869 0 -1.5990474359714016e-05 -0.0065435983745165431 0 -7.2010712999330472e-05 -0.0064160751802787869 0 -8.3652833322399215e-06 -0.006869725975937639 0 -1.5990474359714016e-05 -0.0065435983745165431 0 -7.2010712999330472e-05 -0.0064160751802787869 0 -8.3652833322399215e-06 -0.006869725975937639 0 -0.00066384413759197755 -0.0067127540506842411 0 -8.3652833322399215e-06 -0.006869725975937639 0 -0.00066384413759197755 -0.0067127540506842411 0 -0.00044242620500151701 -0.0072456628580116946 0 -0.00070954470283611829 -0.0058984112168939907 0 -0.00066384413759197755 -0.0067127540506842411 0 -0.001413383383926291 -0.0064273389115270625 0 -0.00066384413759197755 -0.0067127540506842411 0 -0.001413383383926291 -0.0064273389115270625 0 -0.0013020957978440719 -0.007164574010844903 0 -0.00096701721777966044 -0.0073944398755485625 0 -0.00044242620500151701 -0.0072456628580116946 0 -0.00011330761915872177 -0.0080901109506862287 0 -0.00066384413759197755 -0.0067127540506842411 0 -0.00096701721777966044 -0.0073944398755485625 0 -0.0013020957978440719 -0.007164574010844903 0 -0.00096701721777966044 -0.0073944398755485625 0 -0.0014261851552616895 -0.0076395918911273293 0 -0.0011227227138561184 -0.0081709745340414301 0 -0.00096701721777966044 -0.0073944398755485625 0 -0.0013020957978440719 -0.007164574010844903 0 -0.0014261851552616895 -0.0076395918911273293 0 -0.00066384413759197755 -0.0067127540506842411 0 -0.00096701721777966044 -0.0073944398755485625 0 -0.00044242620500151701 -0.0072456628580116946 0 -8.3652833322399215e-06 -0.006869725975937639 0 -2.1379605261384909e-05 -0.006921297560081802 0 -3.1128353140708059e-05 -0.0069253297288079663 0 -0.00072194840512960774 -0.0085935604725345897 0 -0.00086558751934362617 -0.0090900265572944044 0 -8.3652833322399215e-06 -0.006869725975937639 0 -0.00044242620500151701 -0.0072456628580116946 0 -0.00011330761915872177 -0.0080901109506862287 0 -0.0024419316336102706 -0.0051574125849816474 0 -0.0027860100099153708 -0.0067007682626346867 0 -0.0037087547236645474 -0.0063243806019750099 0 -0.0017340015777851259 -0.0045131611054224658 0 -0.0021951870839317217 -0.0061194437742033043 0 -0.0020922061873823428 -0.006845169553288467 0 -0.0024020283635465076 -0.0063081431326162752 0 -0.0026972110559462755 -0.0073835145524627282 0 -0.0020922061873823428 -0.006845169553288467 0 -0.0024020283635465076 -0.0063081431326162752 0 -0.0019593915922728133 -0.0063738921859066988 0 -0.0020922061873823428 -0.006845169553288467 0 -0.0019593915922728133 -0.0063738921859066988 0 -0.001413383383926291 -0.0064273389115270625 0 -0.0020922061873823428 -0.006845169553288467 0 -0.001413383383926291 -0.0064273389115270625 0 -0.0020504279235549721 -0.0076988848269823884 0 -0.0019347772358257478 -0.0059060945506886281 0 -0.0019593915922728133 -0.0063738921859066988 0 -0.001413383383926291 -0.0064273389115270625 0 -0.001413383383926291 -0.0064273389115270625 0 -0.0013020957978440719 -0.007164574010844903 0 -0.0020967770603165432 -0.0076792351159281572 0 -0.0021119498411737562 -0.007713664127447597 0 -0.002291041119179116 -0.0080937300200877894 0 -0.0013020957978440719 -0.007164574010844903 0 -0.0014261851552616895 -0.0076395918911273293 0 -0.0020967770603165432 -0.0076792351159281572 0 -0.0014261851552616895 -0.0076395918911273293 0 -0.0020967770603165432 -0.0076792351159281572 0 -0.0016449162240421539 -0.0080001125121555265 0 -0.0020922061873823428 -0.006845169553288467 0 -0.0020504279235549721 -0.0076988848269823884 0 -0.0026972110559462755 -0.0073835145524627282 0 -0.0027860100099153708 -0.0067007682626346867 0 -0.0037087547236645474 -0.0063243806019750099 0 -0.0037464880156342409 -0.0073846347819808535 0 -0.0037087547236645474 -0.0063243806019750099 0 -0.0037464880156342409 -0.0073846347819808535 0 -0.0049623779628153401 -0.0074904209281793765 0 -0.0003958779883960989 0.0001229227822496898 0 0.00091726972614904071 0.00086895491021678022 0 0.00064871442384485385 0.0001043044435619159 0 -0.0017340015777851259 -0.0045131611054224658 0 -0.0015399539815313151 -0.0040565361226258404 0 0.00091726972614904071 0.00086895491021678022 0 0.00064871442384485385 0.0001043044435619159 0 0.0013931290325792838 0.00036428117277732895 0 0.00064871442384485385 0.0001043044435619159 0 0.0013931290325792838 0.00036428117277732895 0 0.0010022449519837585 -0.00025761800916732221 0 0.00091726972614904071 0.00086895491021678022 0 0.0013931290325792838 0.00036428117277732895 0 0.0017257888934947361 0.00073720537862791982 0 0.0013931290325792838 0.00036428117277732895 0 0.0021482878111847262 0.00035446090027086384 0 0.001958364711359063 -0.00012666158486282844 0 0.0013931290325792838 0.00036428117277732895 0 0.0017257888934947361 0.00073720537862791982 0 0.0021482878111847262 0.00035446090027086384 0 0.0013931290325792838 0.00036428117277732895 0 0.0010022449519837585 -0.00025761800916732221 0 0.001958364711359063 -0.00012666158486282844 0 0.0017257888934947361 0.00073720537862791982 0 0.0022917215382376893 0.00077573072689555533 0 0.0017615173037353311 0.0012672477714467667 0 -0.0015399539815313151 -0.0040565361226258404 0 -0.001627025174343807 -0.0040276007481481434 0 0.00091726972614904071 0.00086895491021678022 0 0.0017257888934947361 0.00073720537862791982 0 0.0017615173037353311 0.0012672477714467667 0 0.0022917215382376893 0.00077573072689555533 0 0.0017615173037353311 0.0012672477714467667 0 0.0022927376176614198 0.0011677553780237476 0 0.0022917215382376893 0.00077573072689555533 0 0.002692273233857951 0.00084896246159609932 0 0.0022927376176614198 0.0011677553780237476 0 0.0017257888934947361 0.00073720537862791982 0 0.0022917215382376893 0.00077573072689555533 0 0.0021482878111847262 0.00035446090027086384 0 0.0028650040450300292 0.00084250126521122001 0 0.002692273233857951 0.00084896246159609932 0 0.0027884132762473497 0.0011934010384372878 0 0.0028650040450300292 0.00084250126521122001 0 0.002692273233857951 0.00084896246159609932 0 0.0028972102563204981 0.00057634636614479638 0 0.0030702961134188959 0.00083122586136107751 0 0.0028650040450300292 0.00084250126521122001 0 0.0028972102563204981 0.00057634636614479638 0 0.0022917215382376893 0.00077573072689555533 0 0.002692273233857951 0.00084896246159609932 0 0.0026969620135678775 0.00050916726614066207 0 0.0022917215382376893 0.00077573072689555533 0 0.0026969620135678775 0.00050916726614066207 0 0.0026094841653337229 0.00031991383847221214 0 0.002692273233857951 0.00084896246159609932 0 0.0026969620135678775 0.00050916726614066207 0 0.0028972102563204981 0.00057634636614479638 0 0.0026969620135678775 0.00050916726614066207 0 0.0028972102563204981 0.00057634636614479638 0 0.0028608121544971042 0.00013996718878452597 0 0.0026969620135678775 0.00050916726614066207 0 0.0026094841653337229 0.00031991383847221214 0 0.0028608121544971042 0.00013996718878452597 0 0.0026094841653337229 0.00031991383847221214 0 0.0028608121544971042 0.00013996718878452597 0 0.0026836224344706635 -6.603561008235993e-05 0 0.0021482878111847262 0.00035446090027086384 0 0.0026836224344706635 -6.603561008235993e-05 0 0.001958364711359063 -0.00012666158486282844 0 0.0022917215382376893 0.00077573072689555533 0 0.0026094841653337229 0.00031991383847221214 0 0.0021482878111847262 0.00035446090027086384 0 0.0026094841653337229 0.00031991383847221214 0 0.0021482878111847262 0.00035446090027086384 0 0.0026836224344706635 -6.603561008235993e-05 0 0.0026836224344706635 -6.603561008235993e-05 0 0.0026333923586883651 -0.00043854131438087569 0 0.001958364711359063 -0.00012666158486282844 0 0.0029492463732361468 -0.00017531338893028587 0 0.0026836224344706635 -6.603561008235993e-05 0 0.0026333923586883651 -0.00043854131438087569 0 0.0029492463732361468 -0.00017531338893028587 0 0.0028608121544971042 0.00013996718878452597 0 0.0026836224344706635 -6.603561008235993e-05 0 0.0029492463732361468 -0.00017531338893028587 0 0.0028931913347374954 -0.00025532184275325176 0 0.0026333923586883651 -0.00043854131438087569 0 0.0028931913347374954 -0.00025532184275325176 0 0.0027027612046622448 -0.00021573035983140829 0 0.0026333923586883651 -0.00043854131438087569 0 0.0014480032124657945 -0.002266272290802316 0 0.0026333923586883651 -0.00043854131438087569 0 0.0012757881920028892 -0.00094165819956548594 0 0.0014224788767800099 -0.001622506310621801 0 0.001627970092860992 -0.0014500080721414287 0 0.0014480032124657945 -0.002266272290802316 0 0.0012757881920028892 -0.00094165819956548594 0 0.00011776812442106389 -0.0021605905837407792 0 0.0012757881920028892 -0.00094165819956548594 0 0.00011776812442106389 -0.0021605905837407792 0 0.0002162695154509826 -0.00075509919799709579 0 0.0012757881920028892 -0.00094165819956548594 0 0.0002162695154509826 -0.00075509919799709579 0 0.0010022449519837585 -0.00025761800916732221 0 0.00064871442384485385 0.0001043044435619159 0 0.0002162695154509826 -0.00075509919799709579 0 0.0010022449519837585 -0.00025761800916732221 0 0.0012757881920028892 -0.00094165819956548594 0 0.0010022449519837585 -0.00025761800916732221 0 0.001958364711359063 -0.00012666158486282844 0 0.0026333923586883651 -0.00043854131438087569 0 0.0012757881920028892 -0.00094165819956548594 0 0.001958364711359063 -0.00012666158486282844 0 0.0030645280326645468 -0.0061373278278849235 0 0.0047828064655573866 -0.0055872275513822213 0 0.0045004506751529713 -0.007272521087806327 0 0.0030645280326645468 -0.0061373278278849235 0 0.0045004506751529713 -0.007272521087806327 0 0.0031943587003127501 -0.00735426776132237 0 0.0030645280326645468 -0.0061373278278849235 0 0.0031943587003127501 -0.00735426776132237 0 0.0021846643554133344 -0.0071706944145463192 0 -2.0838929465867407e-05 -0.0066656234866648472 0 -4.090050318091173e-05 -0.0067052320319374225 0 1.4962533006798723e-05 -0.0066903552065391524 0 0.0022980819401418723 -0.0095705931026600546 0 0.0029737025424763342 -0.011004185809718865 0 -4.090050318091173e-05 -0.0067052320319374225 0 -8.5347895324887289e-05 -0.0067050813652476064 0 -6.7252161614672179e-05 -0.0067331664049265867 0 -2.0838929465867407e-05 -0.0066656234866648472 0 -4.090050318091173e-05 -0.0067052320319374225 0 -8.5347895324887289e-05 -0.0067050813652476064 0 0.0032756481138669497 -0.010348884593845658 0 0.0035034637652787423 -0.010212681606831427 0 0.0035287804792966861 -0.01034231348827094 0 0.0047828064655573866 -0.0055872275513822213 0 0.0054576818339067265 -0.0061257081806523192 0 0.0063983600484718382 -0.0050520944947473724 0 0.0029737025424763342 -0.011004185809718865 0 0.003013936413734597 -0.013836911875535875 0 0.0039426998099799018 -0.01145784880838383 0 0.003013936413734597 -0.013836911875535875 0 0.0032756481138669497 -0.010348884593845658 0 0.0035287804792966861 -0.01034231348827094 0 0.0035798417740625231 -0.01051046467687158 0 0.0032756481138669497 -0.010348884593845658 0 0.0032989230907927349 -0.010604564906096481 0 0.0035798417740625231 -0.01051046467687158 0 0.0047828064655573866 -0.0055872275513822213 0 0.0054576818339067265 -0.0061257081806523192 0 0.0045004506751529713 -0.007272521087806327 0 0.0032756481138669497 -0.010348884593845658 0 0.0032989230907927349 -0.010604564906096481 0 0.0029325532729505628 -0.010576173884829267 0 0.0039426998099799018 -0.01145784880838383 0 0.0038608713662881024 -0.010689584324878397 0 0.0032345410621750985 -0.010815533645793156 0 0.0032989230907927349 -0.010604564906096481 0 0.0029325532729505628 -0.010576173884829267 0 0.0032345410621750985 -0.010815533645793156 0 0.0029960162476199361 -0.010954122235816684 0 0.0029325532729505628 -0.010576173884829267 0 0.0032989230907927349 -0.010604564906096481 0 0.0035798417740625231 -0.01051046467687158 0 0.0035627393985497454 -0.010841755329527438 0 0.0032345410621750985 -0.010815533645793156 0 0.0032989230907927349 -0.010604564906096481 0 0.0035627393985497454 -0.010841755329527438 0 0.0032345410621750985 -0.010815533645793156 0 0.0033905618887792072 -0.011133829266361216 0 0.0035627393985497454 -0.010841755329527438 0 0.0033905618887792072 -0.011133829266361216 0 0.0029960162476199361 -0.010954122235816684 0 0.0031141272972985226 -0.011213081120167502 0 0.0032345410621750985 -0.010815533645793156 0 0.0033905618887792072 -0.011133829266361216 0 0.0029960162476199361 -0.010954122235816684 0 0.0029960162476199361 -0.010954122235816684 0 0.0029325532729505628 -0.010576173884829267 0 0.0025036058700022841 -0.010838421418516944 0 0.0029960162476199361 -0.010954122235816684 0 0.0025036058700022841 -0.010838421418516944 0 0.0027855517469068526 -0.011276258210781478 0 0.0038608713662881024 -0.010689584324878397 0 0.0034014467415555199 -0.010671921745456288 0 0.0045004506751529713 -0.007272521087806327 0 0.0031943587003127501 -0.00735426776132237 0 0.0035192596653743843 -0.0085026144846283985 0 0.0031943587003127501 -0.00735426776132237 0 0.0035192596653743843 -0.0085026144846283985 0 0.0022190996190690764 -0.0080332405245017412 0 0.0035192596653743843 -0.0085026144846283985 0 0.0022190996190690764 -0.0080332405245017412 0 0.0024896436878724779 -0.009863977111757613 0 0.0022190996190690764 -0.0080332405245017412 0 0.0010515562897236463 -0.0087731667766712124 0 0.0024896436878724779 -0.009863977111757613 0 0.0022190996190690764 -0.0080332405245017412 0 0.0010515562897236463 -0.0087731667766712124 0 0.0011555627576215475 -0.0076162302948963876 0 0.0010515562897236463 -0.0087731667766712124 0 0.0011555627576215475 -0.0076162302948963876 0 0.00031901128435692924 -0.0081112441861487476 0 0.0011555627576215475 -0.0076162302948963876 0 0.0021846643554133344 -0.0071706944145463192 0 0.0011464037611712804 -0.006774351238750506 0 0.0011555627576215475 -0.0076162302948963876 0 0.00055115564615878263 -0.0068337748241914424 0 0.0011464037611712804 -0.006774351238750506 0 0.0022190996190690764 -0.0080332405245017412 0 0.0011555627576215475 -0.0076162302948963876 0 0.0021846643554133344 -0.0071706944145463192 0 0.0031943587003127501 -0.00735426776132237 0 0.0022190996190690764 -0.0080332405245017412 0 0.0021846643554133344 -0.0071706944145463192 0 -0.0010423134043493435 -0.0082768400096395623 0 -0.0022720022506995145 -0.0096004188891054658 0 -0.00032913306770676002 -0.0091725347091503925 0 -0.0003976134178646364 -0.0084212416063798954 0 -0.00086558751934362617 -0.0090900265572944044 0 0.0010515562897236463 -0.0087731667766712124 0 0.00031901128435692924 -0.0081112441861487476 0 -0.00032913306770676002 -0.0091725347091503925 0 -0.0010423134043493435 -0.0082768400096395623 0 0.00031901128435692924 -0.0081112441861487476 0 -0.00032913306770676002 -0.0091725347091503925 0 0.0011555627576215475 -0.0076162302948963876 0 0.00031901128435692924 -0.0081112441861487476 0 0.00055115564615878263 -0.0068337748241914424 0 0.001255713361324182 -0.0087839734208049244 0 0.0015795894759442508 -0.0089465295306155497 0 -2.1379605261384909e-05 -0.006921297560081802 0 0.00055115564615878263 -0.0068337748241914424 0 2.8112550068124901e-05 -0.0067594369288394886 0 0.00055115564615878263 -0.0068337748241914424 0 2.8112550068124901e-05 -0.0067594369288394886 0 0.0011464037611712804 -0.006774351238750506 0 -0.0010423134043493435 -0.0082768400096395623 0 0.00031901128435692924 -0.0081112441861487476 0 0.00055115564615878263 -0.0068337748241914424 0 -0.0003976134178646364 -0.0084212416063798954 0 -0.00016046978293746017 -0.0081276729472028013 0 -8.3652833322399215e-06 -0.006869725975937639 0 2.8112550068124901e-05 -0.0067594369288394886 0 -1.5990474359714016e-05 -0.0065435983745165431 0 -8.3652833322399215e-06 -0.006869725975937639 0 -2.1379605261384909e-05 -0.006921297560081802 0 2.8112550068124901e-05 -0.0067594369288394886 0 2.8112550068124901e-05 -0.0067594369288394886 0 -1.5990474359714016e-05 -0.0065435983745165431 0 1.9674122904827627e-05 -0.0066403373449122841 0 -1.5990474359714016e-05 -0.0065435983745165431 0 1.9674122904827627e-05 -0.0066403373449122841 0 -7.19901893749095e-06 -0.006615680205283715 0 1.9674122904827627e-05 -0.0066403373449122841 0 -7.19901893749095e-06 -0.006615680205283715 0 1.6454793450779596e-05 -0.0066463805593570098 0 2.8112550068124901e-05 -0.0067594369288394886 0 1.9674122904827627e-05 -0.0066403373449122841 0 3.4247805123740239e-05 -0.006640813559305239 0 -4.9343238240270427e-06 -0.006653546401551442 0 -7.19901893749095e-06 -0.006615680205283715 0 1.6454793450779596e-05 -0.0066463805593570098 0 -4.9343238240270427e-06 -0.006653546401551442 0 1.6454793450779596e-05 -0.0066463805593570098 0 -6.1491987033339923e-06 -0.0066707320025704902 0 -4.9343238240270427e-06 -0.006653546401551442 0 -7.19901893749095e-06 -0.006615680205283715 0 -3.9020414711014706e-06 -0.0066783309173204146 0 2.9342635680139333e-05 -0.0066354976417158425 0 -1.5990474359714016e-05 -0.0065435983745165431 0 -7.19901893749095e-06 -0.006615680205283715 0 2.9342635680139333e-05 -0.0066354976417158425 0 -7.19901893749095e-06 -0.006615680205283715 0 -3.9020414711014706e-06 -0.0066783309173204146 0 0.0030645280326645468 -0.0061373278278849235 0 0.0021846643554133344 -0.0071706944145463192 0 0.0011464037611712804 -0.006774351238750506 0 0.0022980819401418723 -0.0095705931026600546 0 0.0015795894759442508 -0.0089465295306155497 0 -2.0838929465867407e-05 -0.0066656234866648472 0 3.4247805123740239e-05 -0.006640813559305239 0 1.8677327916259228e-05 -0.0066619531299252971 0 1.9674122904827627e-05 -0.0066403373449122841 0 3.4247805123740239e-05 -0.006640813559305239 0 1.6454793450779596e-05 -0.0066463805593570098 0 3.4247805123740239e-05 -0.006640813559305239 0 1.6454793450779596e-05 -0.0066463805593570098 0 1.8677327916259228e-05 -0.0066619531299252971 0 1.6454793450779596e-05 -0.0066463805593570098 0 -2.9643477558096706e-05 -0.0066719858616676652 0 -6.1491987033339923e-06 -0.0066707320025704902 0 1.6454793450779596e-05 -0.0066463805593570098 0 1.4962533006798723e-05 -0.0066903552065391524 0 1.8677327916259228e-05 -0.0066619531299252971 0 -2.2352506417425453e-05 -0.0066988888626697768 0 -2.8341411930156549e-05 -0.0067042277321510994 0 -2.0838929465867407e-05 -0.0066656234866648472 0 1.4962533006798723e-05 -0.0066903552065391524 0 1.8677327916259228e-05 -0.0066619531299252971 0 -2.9643477558096706e-05 -0.0066719858616676652 0 -1.5668664485749024e-05 -0.0067053421024110349 0 -3.7183317553044217e-05 -0.0067247026334489755 0 -2.8341411930156549e-05 -0.0067042277321510994 0 -4.2115190840765688e-05 -0.0067160543304253277 0 -6.1491987033339923e-06 -0.0066707320025704902 0 -1.5668664485749024e-05 -0.0067053421024110349 0 -8.2318114184432983e-06 -0.0066856174444752401 0 -2.9643477558096706e-05 -0.0066719858616676652 0 -6.1491987033339923e-06 -0.0066707320025704902 0 -1.5668664485749024e-05 -0.0067053421024110349 0 -1.5668664485749024e-05 -0.0067053421024110349 0 -1.078895771797371e-05 -0.0067226162440670381 0 -1.267218159021693e-05 -0.006731715855627104 0 -1.5668664485749024e-05 -0.0067053421024110349 0 -1.267218159021693e-05 -0.006731715855627104 0 -3.7183317553044217e-05 -0.0067247026334489755 0 -8.7733889747969341e-06 -0.0067268677336798383 0 2.9342635680139333e-05 -0.0066354976417158425 0 -3.9020414711014706e-06 -0.0066783309173204146 0 -4.9343238240270427e-06 -0.006653546401551442 0 -3.9020414711014706e-06 -0.0066783309173204146 0 -8.2318114184432983e-06 -0.0066856174444752401 0 -4.9343238240270427e-06 -0.006653546401551442 0 -6.1491987033339923e-06 -0.0066707320025704902 0 -8.2318114184432983e-06 -0.0066856174444752401 0 -1.5668664485749024e-05 -0.0067053421024110349 0 -8.2318114184432983e-06 -0.0066856174444752401 0 -1.078895771797371e-05 -0.0067226162440670381 0 -3.9020414711014706e-06 -0.0066783309173204146 0 -8.2318114184432983e-06 -0.0066856174444752401 0 -1.078895771797371e-05 -0.0067226162440670381 0 -8.7733889747969341e-06 -0.0067268677336798383 0 -3.9020414711014706e-06 -0.0066783309173204146 0 -1.078895771797371e-05 -0.0067226162440670381 0 -0.0002092746875737035 -0.0067802309219264162 0 -8.7733889747969341e-06 -0.0067268677336798383 0 -2.887422546268135e-05 -0.0067261515309440115 0 -8.7733889747969341e-06 -0.0067268677336798383 0 -1.078895771797371e-05 -0.0067226162440670381 0 -2.887422546268135e-05 -0.0067261515309440115 0 -1.078895771797371e-05 -0.0067226162440670381 0 -2.887422546268135e-05 -0.0067261515309440115 0 1.456318319977807e-05 -0.0067204531229310719 0 -2.887422546268135e-05 -0.0067261515309440115 0 -1.7692040710940257e-05 -0.0065411490757342665 0 1.456318319977807e-05 -0.0067204531229310719 0 0.0004443325390681222 -0.0089065588649366104 0 0.00049826647407969914 -0.0091386205140044641 0 -1.7692040710940257e-05 -0.0065411490757342665 0 0.0016179144968125453 -0.0064193159376259743 0 0.00076511364127987847 -0.0058806891292285043 0 -1.7692040710940257e-05 -0.0065411490757342665 0 3.5967561913164913e-05 -0.0056663844070203506 0 0.00076511364127987847 -0.0058806891292285043 0 -0.0002092746875737035 -0.0067802309219264162 0 -1.7692040710940257e-05 -0.0065411490757342665 0 3.5967561913164913e-05 -0.0056663844070203506 0 -0.0002092746875737035 -0.0067802309219264162 0 -2.887422546268135e-05 -0.0067261515309440115 0 -1.7692040710940257e-05 -0.0065411490757342665 0 -1.267218159021693e-05 -0.006731715855627104 0 -2.7226192856217768e-05 -0.0067725971522724559 0 -4.9682737351402026e-05 -0.0067614764390454621 0 -1.267218159021693e-05 -0.006731715855627104 0 -4.9682737351402026e-05 -0.0067614764390454621 0 -3.7183317553044217e-05 -0.0067247026334489755 0 -1.078895771797371e-05 -0.0067226162440670381 0 -1.267218159021693e-05 -0.006731715855627104 0 1.456318319977807e-05 -0.0067204531229310719 0 0.00049826647407969914 -0.0091386205140044641 0 0.00035465654152198135 -0.009897390966025545 0 -1.267218159021693e-05 -0.006731715855627104 0 1.456318319977807e-05 -0.0067204531229310719 0 -2.7226192856217768e-05 -0.0067725971522724559 0 0.0016179144968125453 -0.0064193159376259743 0 0.0013860887145688266 -0.0062698999635398935 0 0.0016019783245290666 -0.0066257228417695817 0 0.0013860887145688266 -0.0062698999635398935 0 -0.00037999451126454912 -0.0064934692259422796 0 0.00013869443486448342 -0.0070058250706649533 0 0.00035465654152198135 -0.009897390966025545 0 -0.00010318234701927072 -0.011343264527937262 0 -2.7226192856217768e-05 -0.0067725971522724559 0 -7.6029013240151651e-05 -0.0068106132792486156 0 -4.9682737351402026e-05 -0.0067614764390454621 0 -7.6029013240151651e-05 -0.0068106132792486156 0 -8.3734418543502626e-05 -0.0067808884856960178 0 -4.9682737351402026e-05 -0.0067614764390454621 0 -8.3734418543502626e-05 -0.0067808884856960178 0 -4.9682737351402026e-05 -0.0067614764390454621 0 -8.1298666517003895e-05 -0.0067332446508279568 0 -4.9682737351402026e-05 -0.0067614764390454621 0 -3.7183317553044217e-05 -0.0067247026334489755 0 -8.1298666517003895e-05 -0.0067332446508279568 0 -3.7183317553044217e-05 -0.0067247026334489755 0 -8.1298666517003895e-05 -0.0067332446508279568 0 -5.0895788367986866e-05 -0.0066983742789376568 0 -5.7368607568702953e-05 -0.0067286053059532579 0 -4.2115190840765688e-05 -0.0067160543304253277 0 -7.2832869216145658e-05 -0.0067684069030357888 0 -6.7252161614672179e-05 -0.0067331664049265867 0 -2.6899267258946119e-05 -0.0067357710613534577 0 -4.090050318091173e-05 -0.0067052320319374225 0 -6.7252161614672179e-05 -0.0067331664049265867 0 -2.6899267258946119e-05 -0.0067357710613534577 0 -2.9643477558096706e-05 -0.0066719858616676652 0 -3.7183317553044217e-05 -0.0067247026334489755 0 -5.0895788367986866e-05 -0.0066983742789376568 0 -4.090050318091173e-05 -0.0067052320319374225 0 1.4962533006798723e-05 -0.0066903552065391524 0 -2.6899267258946119e-05 -0.0067357710613534577 0 -0.0001048183721183143 -0.0067509934300855378 0 -0.00013415356715833346 -0.0067741675212334854 0 -0.00013952528885784445 -0.0067408716331749602 0 -8.5347895324887289e-05 -0.0067050813652476064 0 -0.0001048183721183143 -0.0067509934300855378 0 -0.00013952528885784445 -0.0067408716331749602 0 -8.5347895324887289e-05 -0.0067050813652476064 0 -6.7252161614672179e-05 -0.0067331664049265867 0 -0.0001048183721183143 -0.0067509934300855378 0 -7.2832869216145658e-05 -0.0067684069030357888 0 -6.7252161614672179e-05 -0.0067331664049265867 0 -0.0001048183721183143 -0.0067509934300855378 0 -7.2832869216145658e-05 -0.0067684069030357888 0 -0.0001048183721183143 -0.0067509934300855378 0 -0.0001129062822607226 -0.0067869592101593044 0 -5.7368607568702953e-05 -0.0067286053059532579 0 -6.5056097624619606e-05 -0.0067348141321489276 0 -0.0001048183721183143 -0.0067509934300855378 0 -0.00013415356715833346 -0.0067741675212334854 0 -0.0001129062822607226 -0.0067869592101593044 0 -0.00013415356715833346 -0.0067741675212334854 0 -0.0001129062822607226 -0.0067869592101593044 0 -0.00014811449093209917 -0.0068078719339959119 0 -0.0001129062822607226 -0.0067869592101593044 0 -0.00012796865302334591 -0.0068154333627092707 0 -0.00014811449093209917 -0.0068078719339959119 0 -0.0001129062822607226 -0.0067869592101593044 0 -0.00010440543264625201 -0.0068069316982982738 0 -0.00012796865302334591 -0.0068154333627092707 0 -8.3734418543502626e-05 -0.0067808884856960178 0 -0.0001129062822607226 -0.0067869592101593044 0 -0.00010440543264625201 -0.0068069316982982738 0 -8.3734418543502626e-05 -0.0067808884856960178 0 -8.1298666517003895e-05 -0.0067332446508279568 0 -0.0001129062822607226 -0.0067869592101593044 0 -7.6029013240151651e-05 -0.0068106132792486156 0 -8.3734418543502626e-05 -0.0067808884856960178 0 -0.00010440543264625201 -0.0068069316982982738 0 -0.00037999451126454912 -0.0064934692259422796 0 -0.0024083190485819032 -0.0067413281454702552 0 -0.0010830476088854735 -0.0067375090601593957 0 -0.00010318234701927072 -0.011343264527937262 0 -0.00069104838809431004 -0.013735330802857973 0 -7.6029013240151651e-05 -0.0068106132792486156 0 -0.00010440543264625201 -0.0068069316982982738 0 -0.00012546410402928409 -0.0068435127211502076 0 -0.00012796865302334591 -0.0068154333627092707 0 -0.00012546410402928409 -0.0068435127211502076 0 -0.00015029333216679916 -0.006835027183300312 0 -0.00010440543264625201 -0.0068069316982982738 0 -0.00012796865302334591 -0.0068154333627092707 0 -0.00012546410402928409 -0.0068435127211502076 0 -0.0024083190485819032 -0.0067413281454702552 0 -0.0020377156762377488 -0.0081885350999684504 0 -0.0032710141260525534 -0.0077397298776910308 0 -0.0018927639017182532 -0.0080295457458576802 0 -0.0026400724384945048 -0.0093741890292311329 0 -0.0017131075385380193 -0.009073935428651975 0 -0.00029760652593493201 -0.011510582839505722 0 -0.00071185523801139104 -0.013085690214723502 0 -0.0020377156762377488 -0.0081885350999684504 0 -0.0032710141260525534 -0.0077397298776910308 0 -0.0032470061944946393 -0.0084689365047360236 0 -0.0020377156762377488 -0.0081885350999684504 0 -0.0030767789933274867 -0.009636529502813863 0 -0.0032470061944946393 -0.0084689365047360236 0 -0.001076277258217521 -0.0088863143910799212 0 -0.0010497129622069467 -0.0080474257250642521 0 -0.00053563364674608733 -0.0087428426075646468 0 -0.001076277258217521 -0.0088863143910799212 0 -0.0010497129622069467 -0.0080474257250642521 0 -0.0017131075385380193 -0.009073935428651975 0 -0.0018927639017182532 -0.0080295457458576802 0 -0.0010497129622069467 -0.0080474257250642521 0 -0.0017131075385380193 -0.009073935428651975 0 -0.0024083190485819032 -0.0067413281454702552 0 -0.0020377156762377488 -0.0081885350999684504 0 -0.0010830476088854735 -0.0067375090601593957 0 -0.0010497129622069467 -0.0080474257250642521 0 -0.0010830476088854735 -0.0067375090601593957 0 -0.00055277271211656308 -0.0072081988080622602 0 -0.00029760652593493201 -0.011510582839505722 0 -0.00010645131953219644 -0.010923278680287316 0 -0.0018927639017182532 -0.0080295457458576802 0 -0.0010497129622069467 -0.0080474257250642521 0 -0.0010830476088854735 -0.0067375090601593957 0 -0.00037999451126454912 -0.0064934692259422796 0 -0.0010830476088854735 -0.0067375090601593957 0 -0.00055277271211656308 -0.0072081988080622602 0 -0.00037999451126454912 -0.0064934692259422796 0 0.00013869443486448342 -0.0070058250706649533 0 -0.00055277271211656308 -0.0072081988080622602 0 0.00013869443486448342 -0.0070058250706649533 0 0.00058141188890545011 -0.0074625138886759831 0 -0.00039609596085364568 -0.0077412278663349715 0 0.00013869443486448342 -0.0070058250706649533 0 -0.00055277271211656308 -0.0072081988080622602 0 -0.00039609596085364568 -0.0077412278663349715 0 -0.0010497129622069467 -0.0080474257250642521 0 -0.00055277271211656308 -0.0072081988080622602 0 -0.00039609596085364568 -0.0077412278663349715 0 0.0013860887145688266 -0.0062698999635398935 0 0.00013869443486448342 -0.0070058250706649533 0 0.00058141188890545011 -0.0074625138886759831 0 0.00058141188890545011 -0.0074625138886759831 0 0.00082336484538045058 -0.0085138589562391356 0 0.0012843553642734042 -0.0074919316471959837 0 0.00058141188890545011 -0.0074625138886759831 0 0.00026150092057643394 -0.0086164600277646858 0 -3.3820904450094888e-05 -0.0081491172402780483 0 0.00058141188890545011 -0.0074625138886759831 0 0.00026150092057643394 -0.0086164600277646858 0 0.00082336484538045058 -0.0085138589562391356 0 0.00058141188890545011 -0.0074625138886759831 0 -0.00039609596085364568 -0.0077412278663349715 0 -3.3820904450094888e-05 -0.0081491172402780483 0 -0.00039609596085364568 -0.0077412278663349715 0 -3.3820904450094888e-05 -0.0081491172402780483 0 -0.00053563364674608733 -0.0087428426075646468 0 -0.0010497129622069467 -0.0080474257250642521 0 -0.00039609596085364568 -0.0077412278663349715 0 -0.00053563364674608733 -0.0087428426075646468 0 0.00026150092057643394 -0.0086164600277646858 0 -3.3820904450094888e-05 -0.0081491172402780483 0 -0.00053563364674608733 -0.0087428426075646468 0 -0.00053563364674608733 -0.0087428426075646468 0 -0.00017396548473191204 -0.0097325057361078455 0 -0.0010134319095717506 -0.009702623109604111 0 0.00026150092057643394 -0.0086164600277646858 0 -0.00053563364674608733 -0.0087428426075646468 0 -0.00017396548473191204 -0.0097325057361078455 0 -0.00017396548473191204 -0.0097325057361078455 0 -0.00060756809447041538 -0.01024004864828831 0 -0.0010134319095717506 -0.009702623109604111 0 0.00082336484538045058 -0.0085138589562391356 0 0.00040732787002797964 -0.0094955225742293804 0 0.0010471011662227954 -0.0094172947102418025 0 0.00026150092057643394 -0.0086164600277646858 0 -0.00017396548473191204 -0.0097325057361078455 0 0.00040732787002797964 -0.0094955225742293804 0 0.00026150092057643394 -0.0086164600277646858 0 0.00082336484538045058 -0.0085138589562391356 0 0.00040732787002797964 -0.0094955225742293804 0 -0.00017396548473191204 -0.0097325057361078455 0 0.00040732787002797964 -0.0094955225742293804 0 0.00046688425844333486 -0.010523358197198601 0 0.00040732787002797964 -0.0094955225742293804 0 0.00073461484013359103 -0.0099687879511372833 0 0.00046688425844333486 -0.010523358197198601 0 0.00073461484013359103 -0.0099687879511372833 0 0.0010471011662227954 -0.0094172947102418025 0 0.001044489062191541 -0.010422095089347001 0 0.00040732787002797964 -0.0094955225742293804 0 0.00073461484013359103 -0.0099687879511372833 0 0.0010471011662227954 -0.0094172947102418025 0 0.00046688425844333486 -0.010523358197198601 0 0.00098149675777530095 -0.011405826267848708 0 0.00015802033590610898 -0.011765351060349174 0 0.00073461484013359103 -0.0099687879511372833 0 0.00046688425844333486 -0.010523358197198601 0 0.001044489062191541 -0.010422095089347001 0 0.00046688425844333486 -0.010523358197198601 0 0.001044489062191541 -0.010422095089347001 0 0.00098149675777530095 -0.011405826267848708 0 0.00046688425844333486 -0.010523358197198601 0 -0.0002563951883462439 -0.010762167533642581 0 0.00015802033590610898 -0.011765351060349174 0 -0.00017396548473191204 -0.0097325057361078455 0 -0.00060756809447041538 -0.01024004864828831 0 -0.0002563951883462439 -0.010762167533642581 0 -0.00060756809447041538 -0.01024004864828831 0 -0.0002563951883462439 -0.010762167533642581 0 -0.00096988496597127927 -0.010753139621526499 0 -0.00017396548473191204 -0.0097325057361078455 0 0.00046688425844333486 -0.010523358197198601 0 -0.0002563951883462439 -0.010762167533642581 0 -0.0002563951883462439 -0.010762167533642581 0 -0.00096988496597127927 -0.010753139621526499 0 -0.00047075146614867624 -0.011517514665773844 0 -0.00060756809447041538 -0.01024004864828831 0 -0.00096988496597127927 -0.010753139621526499 0 -0.0010134319095717506 -0.009702623109604111 0 -0.00096988496597127927 -0.010753139621526499 0 -0.0018081818824683606 -0.011108773731858538 0 -0.0017346130319527272 -0.010135901450961214 0 -0.00096988496597127927 -0.010753139621526499 0 -0.0017346130319527272 -0.010135901450961214 0 -0.0010134319095717506 -0.009702623109604111 0 -0.00096988496597127927 -0.010753139621526499 0 -0.0018081818824683606 -0.011108773731858538 0 -0.0010769980052334322 -0.011828650902474732 0 -0.0018081818824683606 -0.011108773731858538 0 -0.0024587858863553583 -0.010511425057315312 0 -0.0025975281466273769 -0.011303524921412364 0 -0.0018081818824683606 -0.011108773731858538 0 -0.0024587858863553583 -0.010511425057315312 0 -0.0017346130319527272 -0.010135901450961214 0 -0.0024587858863553583 -0.010511425057315312 0 -0.0017346130319527272 -0.010135901450961214 0 -0.0026400724384945048 -0.0093741890292311329 0 -0.0017346130319527272 -0.010135901450961214 0 -0.0026400724384945048 -0.0093741890292311329 0 -0.0017131075385380193 -0.009073935428651975 0 -0.001076277258217521 -0.0088863143910799212 0 -0.0017131075385380193 -0.009073935428651975 0 -0.0010134319095717506 -0.009702623109604111 0 -0.001076277258217521 -0.0088863143910799212 0 -0.00053563364674608733 -0.0087428426075646468 0 -0.0010134319095717506 -0.009702623109604111 0 -0.0017346130319527272 -0.010135901450961214 0 -0.0017131075385380193 -0.009073935428651975 0 -0.0010134319095717506 -0.009702623109604111 0 -0.00014849403360435692 -0.0044395243334193315 0 0.00011572043280880305 -0.0046497157848760682 0 -0.00028907809065003399 -0.0046775339115306394 0 0.00011572043280880305 -0.0046497157848760682 0 -0.00028907809065003399 -0.0046775339115306394 0 0.00046954554543691642 -0.0051738691096081995 0 -0.00028907809065003399 -0.0046775339115306394 0 3.5967561913164913e-05 -0.0056663844070203506 0 0.00046954554543691642 -0.0051738691096081995 0 -0.00033812394512442546 -0.0039647069945748419 0 -0.0005091627308860552 -0.003378139662869332 0 -0.00028907809065003399 -0.0046775339115306394 0 -0.0002092746875737035 -0.0067802309219264162 0 -0.00028907809065003399 -0.0046775339115306394 0 3.5967561913164913e-05 -0.0056663844070203506 0 -0.00016744747613994159 -0.0050987798642960257 0 -0.00016733174701939993 -0.0049455464230616598 0 3.5967561913164913e-05 -0.0056663844070203506 0 0.00046954554543691642 -0.0051738691096081995 0 0.00076511364127987847 -0.0058806891292285043 0 0.0016179144968125453 -0.0064193159376259743 0 0.00076511364127987847 -0.0058806891292285043 0 0.0012639493563382344 -0.005913920996375192 0 0.00046954554543691642 -0.0051738691096081995 0 0.00076511364127987847 -0.0058806891292285043 0 0.0012639493563382344 -0.005913920996375192 0 0.00011572043280880305 -0.0046497157848760682 0 0.00094148235693461413 -0.0051741950117886702 0 0.00048266124913649313 -0.0041263980412671727 0 0.00011572043280880305 -0.0046497157848760682 0 0.00046954554543691642 -0.0051738691096081995 0 0.00094148235693461413 -0.0051741950117886702 0 0.00046954554543691642 -0.0051738691096081995 0 0.0012639493563382344 -0.005913920996375192 0 0.00094148235693461413 -0.0051741950117886702 0 0.00094148235693461413 -0.0051741950117886702 0 0.0020322170514822588 -0.0064162783416720588 0 0.0020147638060618637 -0.0047961048498103018 0 0.00049704122788225629 -0.0076184344932786708 0 0.00044815918101331334 -0.007717536953140992 0 0.0012639493563382344 -0.005913920996375192 0 0.00094148235693461413 -0.0051741950117886702 0 0.0020322170514822588 -0.0064162783416720588 0 0.0020322170514822588 -0.0064162783416720588 0 0.0015669961659248678 -0.0083162253598510275 0 0.0026803668410507794 -0.0085474945784837757 0 0.0016179144968125453 -0.0064193159376259743 0 0.0012639493563382344 -0.005913920996375192 0 0.0020322170514822588 -0.0064162783416720588 0 0.0016179144968125453 -0.0064193159376259743 0 0.0020322170514822588 -0.0064162783416720588 0 0.0016019783245290666 -0.0066257228417695817 0 0.0020322170514822588 -0.0064162783416720588 0 0.0016019783245290666 -0.0066257228417695817 0 0.0012843553642734042 -0.0074919316471959837 0 0.00058141188890545011 -0.0074625138886759831 0 0.0016019783245290666 -0.0066257228417695817 0 0.0012843553642734042 -0.0074919316471959837 0 0.0013860887145688266 -0.0062698999635398935 0 0.00058141188890545011 -0.0074625138886759831 0 0.0016019783245290666 -0.0066257228417695817 0 0.0020322170514822588 -0.0064162783416720588 0 0.0012843553642734042 -0.0074919316471959837 0 0.0015669961659248678 -0.0083162253598510275 0 0.00082336484538045058 -0.0085138589562391356 0 0.0012843553642734042 -0.0074919316471959837 0 0.0015669961659248678 -0.0083162253598510275 0 0.00082336484538045058 -0.0085138589562391356 0 0.0015669961659248678 -0.0083162253598510275 0 0.0010471011662227954 -0.0094172947102418025 0 0.0015669961659248678 -0.0083162253598510275 0 0.0018169250742547439 -0.0093979036530859039 0 0.0010471011662227954 -0.0094172947102418025 0 0.0015669961659248678 -0.0083162253598510275 0 0.0018169250742547439 -0.0093979036530859039 0 0.0026803668410507794 -0.0085474945784837757 0 0.0018169250742547439 -0.0093979036530859039 0 0.0018121965837170149 -0.01049379879784018 0 0.0027590021670940083 -0.010255035368008744 0 0.0018169250742547439 -0.0093979036530859039 0 0.0014371457306777298 -0.010030146702188774 0 0.0018121965837170149 -0.01049379879784018 0 0.0018169250742547439 -0.0093979036530859039 0 0.0014371457306777298 -0.010030146702188774 0 0.0010471011662227954 -0.0094172947102418025 0 0.0014371457306777298 -0.010030146702188774 0 0.0010471011662227954 -0.0094172947102418025 0 0.001044489062191541 -0.010422095089347001 0 0.0013791162507493042 -0.010951379296550781 0 0.0018121965837170149 -0.01049379879784018 0 0.001731687593969504 -0.012103665225330951 0 0.0014371457306777298 -0.010030146702188774 0 0.001044489062191541 -0.010422095089347001 0 0.0013791162507493042 -0.010951379296550781 0 0.001044489062191541 -0.010422095089347001 0 0.0013791162507493042 -0.010951379296550781 0 0.00098149675777530095 -0.011405826267848708 0 0.0014371457306777298 -0.010030146702188774 0 0.0013791162507493042 -0.010951379296550781 0 0.0018121965837170149 -0.01049379879784018 0 0.0018121965837170149 -0.01049379879784018 0 0.0022468817009612492 -0.010389700022778668 0 0.001731687593969504 -0.012103665225330951 0 -0.00036802125520660667 -0.0084360649479338339 0 -2.6976653326172391e-05 -0.0086639943399312407 0 -0.00039236751613376097 -0.0090314065905028433 0 0.0002895306782378034 -0.0080311123039947321 0 0.00025495049713858203 -0.0095132424054623875 0 0.00033322888316269562 -0.008045569876876945 0 0.0002895306782378034 -0.0080311123039947321 0 0.001949074978178089 -0.0037838366835006364 0 0.0020147638060618637 -0.0047961048498103018 0 0.00048266124913649313 -0.0041263980412671727 0 0.0018169250742547439 -0.0093979036530859039 0 0.0027590021670940083 -0.010255035368008744 0 0.0026803668410507794 -0.0085474945784837757 0 0.0002895306782378034 -0.0080311123039947321 0 0.00044815918101331334 -0.007717536953140992 0 0.0002895306782378034 -0.0080311123039947321 0 0.00043418017462297325 -0.0070666127733728283 0 0.00094148235693461413 -0.0051741950117886702 0 0.0020147638060618637 -0.0047961048498103018 0 0.00048266124913649313 -0.0041263980412671727 0 0.00017296696690751855 -0.0083643560225707472 0 -2.6976653326172391e-05 -0.0086639943399312407 0 0.00030575941439592888 -0.0087313971397849355 0 -0.00036802125520660667 -0.0084360649479338339 0 0.00017296696690751855 -0.0083643560225707472 0 -2.6976653326172391e-05 -0.0086639943399312407 0 0.00053725173050056855 -0.0085719898708979322 0 0.00017296696690751855 -0.0083643560225707472 0 0.00030575941439592888 -0.0087313971397849355 0 0.00053725173050056855 -0.0085719898708979322 0 0.00049949952090382695 -0.0088102096623805873 0 0.00030575941439592888 -0.0087313971397849355 0 0.00053644148482465061 -0.0083667943003138644 0 0.00053725173050056855 -0.0085719898708979322 0 0.00017296696690751855 -0.0083643560225707472 0 -0.0001622112354098474 -0.004512077791223406 0 0.00011572043280880305 -0.0046497157848760682 0 0.00048266124913649313 -0.0041263980412671727 0 0.00051074484993696319 -0.0062417756963137512 0 0.00043418017462297325 -0.0070666127733728283 0 0.0006272152667589271 -0.0093390487773808602 0 0.00036786241986674494 -0.0094395662720642322 0 0.00047155072233635484 -0.0092423598042282989 0 0.00036786241986674494 -0.0094395662720642322 0 0.00047155072233635484 -0.0092423598042282989 0 0.00036568704951199608 -0.0090856392923897335 0 0.00036786241986674494 -0.0094395662720642322 0 0.00036568704951199608 -0.0090856392923897335 0 9.548382980186636e-05 -0.0093960461283081106 0 0.0006272152667589271 -0.0093390487773808602 0 0.00047155072233635484 -0.0092423598042282989 0 0.00053595318674659132 -0.0090299119199222008 0 0.00047155072233635484 -0.0092423598042282989 0 0.00053595318674659132 -0.0090299119199222008 0 0.00036568704951199608 -0.0090856392923897335 0 0.00053595318674659132 -0.0090299119199222008 0 0.00049949952090382695 -0.0088102096623805873 0 0.00036568704951199608 -0.0090856392923897335 0 0.00049949952090382695 -0.0088102096623805873 0 0.00030575941439592888 -0.0087313971397849355 0 0.00036568704951199608 -0.0090856392923897335 0 0.00030575941439592888 -0.0087313971397849355 0 0.00036568704951199608 -0.0090856392923897335 0 8.0287396879861561e-05 -0.0089694376290310514 0 -2.6976653326172391e-05 -0.0086639943399312407 0 8.0287396879861561e-05 -0.0089694376290310514 0 -0.00039236751613376097 -0.0090314065905028433 0 8.0287396879861561e-05 -0.0089694376290310514 0 9.548382980186636e-05 -0.0093960461283081106 0 -0.00039236751613376097 -0.0090314065905028433 0 -2.6976653326172391e-05 -0.0086639943399312407 0 0.00030575941439592888 -0.0087313971397849355 0 8.0287396879861561e-05 -0.0089694376290310514 0 0.00036568704951199608 -0.0090856392923897335 0 8.0287396879861561e-05 -0.0089694376290310514 0 9.548382980186636e-05 -0.0093960461283081106 0 9.548382980186636e-05 -0.0093960461283081106 0 -0.00039236751613376097 -0.0090314065905028433 0 -0.00036366601242956688 -0.0099019271311930578 0 0.001731687593969504 -0.012103665225330951 0 0.00080606220361270436 -0.012875124070035054 0 0.00066129740385656324 -0.012927575582567926 0 0.00025495049713858203 -0.0095132424054623875 0 0.0001374786432489311 -0.010517044745723812 0 0.0013791162507493042 -0.010951379296550781 0 0.001731687593969504 -0.012103665225330951 0 0.00098149675777530095 -0.011405826267848708 0 0.001731687593969504 -0.012103665225330951 0 0.00098149675777530095 -0.011405826267848708 0 0.00066409516131595188 -0.012429802790162026 0 0.001731687593969504 -0.012103665225330951 0 0.00080606220361270436 -0.012875124070035054 0 0.00066409516131595188 -0.012429802790162026 0 0.00080606220361270436 -0.012875124070035054 0 0.0005378896781949627 -0.012848481609502048 0 0.00066129740385656324 -0.012927575582567926 0 0.00080606220361270436 -0.012875124070035054 0 0.0005378896781949627 -0.012848481609502048 0 0.00039951058481954045 -0.013481610775834185 0 0.0005378896781949627 -0.012848481609502048 0 1.6345363256255513e-08 -0.011293701537550766 0 1.0557941229529034e-06 -0.013341057033065512 0 -2.3444116363284347e-06 -0.011284736572142932 0 -0.00036366601242956688 -0.0099019271311930578 0 2.1229984390751528e-06 -0.010839706095673227 0 0.0005378896781949627 -0.012848481609502048 0 1.6345363256255513e-08 -0.011293701537550766 0 0.00066129740385656324 -0.012927575582567926 0 5.6138640903006096e-07 -0.011288984613306987 0 0.0001374786432489311 -0.010517044745723812 0 9.548382980186636e-05 -0.0093960461283081106 0 -0.00036366601242956688 -0.0099019271311930578 0 0.00036461101122254035 -0.010078703596608849 0 0.00036786241986674494 -0.0094395662720642322 0 9.548382980186636e-05 -0.0093960461283081106 0 0.00036461101122254035 -0.010078703596608849 0 5.0413790023191362e-07 -0.010832558871623875 0 0.00030714117165263403 -0.010160537066710032 0 -1.0287580769941092e-06 -0.010831950171430084 0 5.2942019089077123e-07 -0.0093452430610307495 0 -4.4530020374978792e-05 -0.0088118278301871425 0 -0.00036366601242956688 -0.0099019271311930578 0 2.1229984390751528e-06 -0.010839706095673227 0 0.00036461101122254035 -0.010078703596608849 0 0.00026173603801961777 -0.0084410869359082125 0 5.2942019089077123e-07 -0.0093452430610307495 0 -4.4530020374978792e-05 -0.0088118278301871425 0 0.00045294608681855633 -0.0097966038994418414 0 0.00030714117165263403 -0.010160537066710032 0 0.0006272152667589271 -0.0093390487773808602 0 0.00036786241986674494 -0.0094395662720642322 0 0.00036461101122254035 -0.010078703596608849 0 0.00031473935729739265 -0.0084883396393181636 0 0.00026173603801961777 -0.0084410869359082125 0 -4.4530020374978792e-05 -0.0088118278301871425 0 0.00031473935729739265 -0.0084883396393181636 0 0.0003429743517910902 -0.0084805241737718334 0 -4.4530020374978792e-05 -0.0088118278301871425 0 -0.00088371886761541227 -0.013045431412808161 0 -0.00043822714029917263 -0.012292705241776359 0 7.0428749024790675e-05 -0.012945753259496786 0 -0.00088371886761541227 -0.013045431412808161 0 7.0428749024790675e-05 -0.012945753259496786 0 -0.00017491490139181216 -0.01449662630973729 0 -0.00088371886761541227 -0.013045431412808161 0 -0.0018907811995081676 -0.01217942818478168 0 -0.0021639767103808502 -0.014306914899255178 0 -0.00088371886761541227 -0.013045431412808161 0 -0.0018907811995081676 -0.01217942818478168 0 -0.0010769980052334322 -0.011828650902474732 0 -0.0018081818824683606 -0.011108773731858538 0 -0.0018907811995081676 -0.01217942818478168 0 -0.0025975281466273769 -0.011303524921412364 0 -0.0018081818824683606 -0.011108773731858538 0 -0.0018907811995081676 -0.01217942818478168 0 -0.0010769980052334322 -0.011828650902474732 0 -0.00088371886761541227 -0.013045431412808161 0 -0.0010769980052334322 -0.011828650902474732 0 -0.00043822714029917263 -0.012292705241776359 0 -0.0010769980052334322 -0.011828650902474732 0 -0.00043822714029917263 -0.012292705241776359 0 -0.00047075146614867624 -0.011517514665773844 0 -0.00096988496597127927 -0.010753139621526499 0 -0.0010769980052334322 -0.011828650902474732 0 -0.00047075146614867624 -0.011517514665773844 0 -0.00043822714029917263 -0.012292705241776359 0 0.00015802033590610898 -0.011765351060349174 0 7.0428749024790675e-05 -0.012945753259496786 0 -0.0002563951883462439 -0.010762167533642581 0 -0.00047075146614867624 -0.011517514665773844 0 0.00015802033590610898 -0.011765351060349174 0 -0.00043822714029917263 -0.012292705241776359 0 -0.00047075146614867624 -0.011517514665773844 0 0.00015802033590610898 -0.011765351060349174 0 0.00098149675777530095 -0.011405826267848708 0 0.00015802033590610898 -0.011765351060349174 0 0.00066409516131595188 -0.012429802790162026 0 0.00080606220361270436 -0.012875124070035054 0 0.00066409516131595188 -0.012429802790162026 0 0.00039951058481954045 -0.013481610775834185 0 0.00015802033590610898 -0.011765351060349174 0 0.00066409516131595188 -0.012429802790162026 0 7.0428749024790675e-05 -0.012945753259496786 0 0.00066409516131595188 -0.012429802790162026 0 7.0428749024790675e-05 -0.012945753259496786 0 0.00039951058481954045 -0.013481610775834185 0 7.0428749024790675e-05 -0.012945753259496786 0 0.00039951058481954045 -0.013481610775834185 0 -0.00017491490139181216 -0.01449662630973729 0 0.0005378896781949627 -0.012848481609502048 0 0.00039951058481954045 -0.013481610775834185 0 1.0557941229529034e-06 -0.013341057033065512 0 0.00039951058481954045 -0.013481610775834185 0 1.0557941229529034e-06 -0.013341057033065512 0 1.2676814074723455e-06 -0.015393248984174145 0 0.00039951058481954045 -0.013481610775834185 0 1.2676814074723455e-06 -0.015393248984174145 0 -0.00017491490139181216 -0.01449662630973729 0 1.2676814074723455e-06 -0.015393248984174145 0 -0.00017491490139181216 -0.01449662630973729 0 -5.0368595068071685e-06 -0.017440149993339479 0 -0.00088371886761541227 -0.013045431412808161 0 -0.00017491490139181216 -0.01449662630973729 0 -0.0021639767103808502 -0.014306914899255178 0 -0.00017491490139181216 -0.01449662630973729 0 -5.0368595068071685e-06 -0.017440149993339479 0 -0.0021639767103808502 -0.014306914899255178 0 -2.1963045728396723e-06 -0.017447314726759679 0 -7.5104673100629343e-05 -0.018612187666391434 0 7.4521483737150803e-07 -0.019019320161176387 0 -2.1963045728396723e-06 -0.017447314726759679 0 -7.5104673100629343e-05 -0.018612187666391434 0 -0.00067488355078590726 -0.02047735652341998 0 -1.8956889940969815e-06 -0.01744407438285266 0 -0.00058031824300144776 -0.017180279142721688 0 -7.5104673100629343e-05 -0.018612187666391434 0 4.1088365796609471e-05 -0.019852261042984851 0 -0.0001391649551609799 -0.019761183569381981 0 -7.5104673100629343e-05 -0.018612187666391434 0 7.4521483737150803e-07 -0.019019320161176387 0 4.1088365796609471e-05 -0.019852261042984851 0 7.4521483737150803e-07 -0.019019320161176387 0 4.1088365796609471e-05 -0.019852261042984851 0 0.00012275045299769388 -0.020196540112101279 0 4.1088365796609471e-05 -0.019852261042984851 0 0.00018038263923786347 -0.020638448300885449 0 0.00012275045299769388 -0.020196540112101279 0 4.1088365796609471e-05 -0.019852261042984851 0 -0.00011566723463447721 -0.020181284183778996 0 -0.0001391649551609799 -0.019761183569381981 0 4.1088365796609471e-05 -0.019852261042984851 0 -0.00011566723463447721 -0.020181284183778996 0 5.7316262930519362e-05 -0.020489301862083371 0 -0.00011566723463447721 -0.020181284183778996 0 5.7316262930519362e-05 -0.020489301862083371 0 -0.00013401764096228377 -0.020684540429522839 0 4.1088365796609471e-05 -0.019852261042984851 0 5.7316262930519362e-05 -0.020489301862083371 0 0.00018038263923786347 -0.020638448300885449 0 -0.00077599229015410645 -0.018525921796992258 0 -0.00082992836315665813 -0.018298346062529589 0 -7.5104673100629343e-05 -0.018612187666391434 0 -0.00067488355078590726 -0.02047735652341998 0 -0.00038452321442561084 -0.020896651296817535 0 -7.5104673100629343e-05 -0.018612187666391434 0 -0.0001391649551609799 -0.019761183569381981 0 -0.00054485682892432548 -0.020468464882493917 0 -0.00011566723463447721 -0.020181284183778996 0 -0.0001391649551609799 -0.019761183569381981 0 -0.00054485682892432548 -0.020468464882493917 0 -0.00011566723463447721 -0.020181284183778996 0 -0.00054485682892432548 -0.020468464882493917 0 -0.00013401764096228377 -0.020684540429522839 0 -0.00054485682892432548 -0.020468464882493917 0 -0.00013401764096228377 -0.020684540429522839 0 -0.00036343989951147286 -0.021130320216716514 0 -0.0018907811995081676 -0.01217942818478168 0 -0.0021639767103808502 -0.014306914899255178 0 -0.0031930267382160819 -0.012118792480282425 0 -0.00058031824300144776 -0.017180279142721688 0 -0.0010345510959960075 -0.016893223583447196 0 -0.00082992836315665813 -0.018298346062529589 0 -0.0010345510959960075 -0.016893223583447196 0 -0.00067488355078590726 -0.02047735652341998 0 -0.00038452321442561084 -0.020896651296817535 0 -0.00026960504527287488 -0.022991987168850866 0 5.7316262930519362e-05 -0.020489301862083371 0 0.00020549600917141197 -0.0209377112125212 0 0.00018038263923786347 -0.020638448300885449 0 5.7316262930519362e-05 -0.020489301862083371 0 -0.00013401764096228377 -0.020684540429522839 0 0.00020549600917141197 -0.0209377112125212 0 -0.00013401764096228377 -0.020684540429522839 0 -0.00036343989951147286 -0.021130320216716514 0 0.00020549600917141197 -0.0209377112125212 0 -0.0015892320029545447 -0.017160389827405777 0 -0.0013183877150342413 -0.016143136766150281 0 0.00020549600917141197 -0.0209377112125212 0 0.00031526676048196118 -0.020814761084667385 0 0.00021526538919693205 -0.020845655819498279 0 -0.00036343989951147286 -0.021130320216716514 0 0.00020549600917141197 -0.0209377112125212 0 -0.00026285908435276083 -0.021580944500708642 0 -0.0010345510959960075 -0.016893223583447196 0 -0.0012637579102871713 -0.015637682789428595 0 -0.0018907811995081676 -0.01217942818478168 0 -0.0031930267382160819 -0.012118792480282425 0 -0.0025975281466273769 -0.011303524921412364 0 -0.0031930267382160819 -0.012118792480282425 0 -0.0034442971752215125 -0.010664592808773726 0 -0.0025975281466273769 -0.011303524921412364 0 -0.0010345510959960075 -0.016893223583447196 0 -0.0013183877150342413 -0.016143136766150281 0 0.00011600042463978295 -0.020929719606698167 0 2.7004415809347716e-05 -0.020897996736843175 0 8.4307640527636754e-05 -0.020822189168355137 0 0.00011600042463978295 -0.020929719606698167 0 0.00015902251651840531 -0.020868417663915579 0 8.4307640527636754e-05 -0.020822189168355137 0 0.00015902251651840531 -0.020868417663915579 0 0.00020549600917141197 -0.0209377112125212 0 0.00021526538919693205 -0.020845655819498279 0 0.00011600042463978295 -0.020929719606698167 0 0.00015902251651840531 -0.020868417663915579 0 0.00020549600917141197 -0.0209377112125212 0 0.00020549600917141197 -0.0209377112125212 0 0.00016724263217012564 -0.021082005259680014 0 0.00018038263923786347 -0.020638448300885449 0 0.00011600042463978295 -0.020929719606698167 0 0.00020549600917141197 -0.0209377112125212 0 0.00016724263217012564 -0.021082005259680014 0 0.00023200675971360768 -0.021889500640895846 0 0.00019488778075256783 -0.021914914039260228 0 0.00011600042463978295 -0.020929719606698167 0 0.00016724263217012564 -0.021082005259680014 0 -9.201284908397949e-06 -0.021013914514355712 0 0.00016724263217012564 -0.021082005259680014 0 0.00013938676290458577 -0.021286092202102511 0 5.9140240940107932e-05 -0.021952689152929094 0 0.00016724263217012564 -0.021082005259680014 0 0.00013938676290458577 -0.021286092202102511 0 0.00018038263923786347 -0.020638448300885449 0 0.00013938676290458577 -0.021286092202102511 0 0.00018038263923786347 -0.020638448300885449 0 0.00012275045299769388 -0.020196540112101279 0 0.00013938676290458577 -0.021286092202102511 0 3.3416604631261428e-07 -0.020595763908464387 0 0.00012275045299769388 -0.020196540112101279 0 7.4521483737150803e-07 -0.019019320161176387 0 3.3416604631261428e-07 -0.020595763908464387 0 0.00012275045299769388 -0.020196540112101279 0 0.00013938676290458577 -0.021286092202102511 0 3.3416604631261428e-07 -0.020595763908464387 0 9.4527259446914061e-08 -0.022167013111399764 0 0.00013938676290458577 -0.021286092202102511 0 9.4527259446914061e-08 -0.022167013111399764 0 1.8598136448824235e-05 -0.021896336963996666 0 6.3449860731346291e-07 -0.022171437997839879 0 0.00020390688296129122 -0.022564542042494657 0 9.4527259446914061e-08 -0.022167013111399764 0 1.8598136448824235e-05 -0.021896336963996666 0 9.4890728951995345e-05 -0.021974773112285007 0 -3.3160316895720656e-07 -0.022170818993523932 0 -4.4848598256793798e-08 -0.024048725326496937 0 -5.4459119912011745e-05 -0.024102024939378644 0 1.8598136448824235e-05 -0.021896336963996666 0 9.4890728951995345e-05 -0.021974773112285007 0 0.00011767029353746197 -0.022126397621434715 0 1.8598136448824235e-05 -0.021896336963996666 0 0.00011767029353746197 -0.022126397621434715 0 7.846575048102051e-05 -0.021917306940842984 0 0.00011767029353746197 -0.022126397621434715 0 0.00021547135090214147 -0.022357746290541266 0 7.846575048102051e-05 -0.021917306940842984 0 0.00013938676290458577 -0.021286092202102511 0 1.8598136448824235e-05 -0.021896336963996666 0 7.846575048102051e-05 -0.021917306940842984 0 0.00013938676290458577 -0.021286092202102511 0 7.846575048102051e-05 -0.021917306940842984 0 5.9140240940107932e-05 -0.021952689152929094 0 1.8174118452557845e-06 -0.025926437939144637 0 0.00016394283791270492 -0.025376645596196134 0 0.00038610999510722707 -0.02521103045913034 0 -4.4848598256793798e-08 -0.024048725326496937 0 -5.4459119912011745e-05 -0.024102024939378644 0 0.00038610999510722707 -0.02521103045913034 0 9.4890728951995345e-05 -0.021974773112285007 0 0.00011767029353746197 -0.022126397621434715 0 0.0004384821087369723 -0.022760428704296187 0 -4.4848598256793798e-08 -0.024048725326496937 0 1.8174118452557845e-06 -0.025926437939144637 0 0.00038610999510722707 -0.02521103045913034 0 0.00020390688296129122 -0.022564542042494657 0 9.0171814956103064e-05 -0.02275265766902182 0 0.00011767029353746197 -0.022126397621434715 0 0.00021547135090214147 -0.022357746290541266 0 0.0004384821087369723 -0.022760428704296187 0 0.00021547135090214147 -0.022357746290541266 0 0.0004384821087369723 -0.022760428704296187 0 0.0004061457299254667 -0.02285992499076708 0 9.0171814956103064e-05 -0.02275265766902182 0 -4.2136661295166817e-05 -0.022788223180130109 0 0.0004384821087369723 -0.022760428704296187 0 0.00029997810639085154 -0.023450071574186451 0 6.69391168618866e-05 -0.024261192464908158 0 0.00016394283791270492 -0.025376645596196134 0 0.00038610999510722707 -0.02521103045913034 0 6.69391168618866e-05 -0.024261192464908158 0 0.0004384821087369723 -0.022760428704296187 0 0.00029997810639085154 -0.023450071574186451 0 0.0004061457299254667 -0.02285992499076708 0 0.00027881202024736018 -0.022945081938221108 0 0.0004061457299254667 -0.02285992499076708 0 0.00036608377775529372 -0.02280125981757293 0 0.00027881202024736018 -0.022945081938221108 0 0.00029997810639085154 -0.023450071574186451 0 0.0004061457299254667 -0.02285992499076708 0 0.00021547135090214147 -0.022357746290541266 0 0.0004061457299254667 -0.02285992499076708 0 0.0002767726175196443 -0.022628975422956499 0 -0.00018523022040975402 -0.020883259539604807 0 -0.00027669495431451453 -0.020911298760771198 0 -0.00014322441289404909 -0.020959711941152061 0 -2.3836084537000447e-05 -0.022034960513218144 0 0.00010374074207726558 -0.021969333323420801 0 0.0004061457299254667 -0.02285992499076708 0 0.00036608377775529372 -0.02280125981757293 0 0.0002767726175196443 -0.022628975422956499 0 0.00014671019327316647 -0.022400457214394751 0 0.00012614113766514127 -0.022376302163401165 0 3.4654800241001784e-05 -0.022407570166349138 0 0.00033405516430422104 -0.023194897511018636 0 0.00075978589263226109 -0.022635837128228864 0 -2.1233435416071615e-05 -0.022790857561192646 0 -2.3836084537000447e-05 -0.022034960513218144 0 1.0829685638679505e-05 -0.022059150659394768 0 0.00075978589263226109 -0.022635837128228864 0 3.4654800241001784e-05 -0.022407570166349138 0 -2.1233435416071615e-05 -0.022790857561192646 0 -9.1128536055439945e-05 -0.022256964074510239 0 -2.3836084537000447e-05 -0.022034960513218144 0 0.00021547135090214147 -0.022357746290541266 0 5.9140240940107932e-05 -0.021952689152929094 0 0.0002767726175196443 -0.022628975422956499 0 0.00019488778075256783 -0.021914914039260228 0 0.00010374074207726558 -0.021969333323420801 0 0.00021547135090214147 -0.022357746290541266 0 7.846575048102051e-05 -0.021917306940842984 0 5.9140240940107932e-05 -0.021952689152929094 0 -0.00018523022040975402 -0.020883259539604807 0 -0.00014322441289404909 -0.020959711941152061 0 -0.00010562440281696799 -0.020856590334074707 0 -0.00014322441289404909 -0.020959711941152061 0 -4.6444141287341057e-05 -0.020915906461513201 0 -0.00010562440281696799 -0.020856590334074707 0 -9.201284908397949e-06 -0.021013914514355712 0 -0.00014322441289404909 -0.020959711941152061 0 -4.6444141287341057e-05 -0.020915906461513201 0 -9.201284908397949e-06 -0.021013914514355712 0 -4.6444141287341057e-05 -0.020915906461513201 0 2.7004415809347716e-05 -0.020897996736843175 0 -4.6444141287341057e-05 -0.020915906461513201 0 2.7004415809347716e-05 -0.020897996736843175 0 -1.3144478228680594e-05 -0.020821481440707171 0 0.00011600042463978295 -0.020929719606698167 0 -9.201284908397949e-06 -0.021013914514355712 0 2.7004415809347716e-05 -0.020897996736843175 0 2.7004415809347716e-05 -0.020897996736843175 0 -1.3144478228680594e-05 -0.020821481440707171 0 8.4307640527636754e-05 -0.020822189168355137 0 -1.3144478228680594e-05 -0.020821481440707171 0 3.094237476096908e-05 -0.020750920367099902 0 -2.0202484606114e-05 -0.020740368764495396 0 -1.3144478228680594e-05 -0.020821481440707171 0 3.094237476096908e-05 -0.020750920367099902 0 8.4307640527636754e-05 -0.020822189168355137 0 -1.3144478228680594e-05 -0.020821481440707171 0 -6.850098370411831e-05 -0.020760251192116528 0 -2.0202484606114e-05 -0.020740368764495396 0 -4.6444141287341057e-05 -0.020915906461513201 0 -1.3144478228680594e-05 -0.020821481440707171 0 -0.00010562440281696799 -0.020856590334074707 0 -0.00010562440281696799 -0.020856590334074707 0 -6.850098370411831e-05 -0.020760251192116528 0 -0.00017104704828315871 -0.020789351481673324 0 -0.00018523022040975402 -0.020883259539604807 0 -0.00010562440281696799 -0.020856590334074707 0 -0.00017104704828315871 -0.020789351481673324 0 -1.3144478228680594e-05 -0.020821481440707171 0 -0.00010562440281696799 -0.020856590334074707 0 -6.850098370411831e-05 -0.020760251192116528 0 8.0862659296543736e-05 -0.022445623171106967 0 0.00011553586150995339 -0.022387534109386875 0 0.00011513748128692286 -0.022434670862420705 0 -6.850098370411831e-05 -0.020760251192116528 0 -6.512275393785364e-05 -0.020671654093397659 0 -0.00017104704828315871 -0.020789351481673324 0 -0.00054076936613641836 -0.022510683976699416 0 -0.00018420397740409968 -0.022131738651478421 0 -6.850098370411831e-05 -0.020760251192116528 0 -6.512275393785364e-05 -0.020671654093397659 0 -3.600695329118472e-05 -0.020682887282113361 0 -0.00054076936613641836 -0.022510683976699416 0 -0.0005408695710506031 -0.022504759425657456 0 -6.313019468747148e-05 -0.02067326442849246 0 -3.600695329118472e-05 -0.020682887282113361 0 -2.7612854364625264e-06 -0.020669460739457076 0 -3.600695329118472e-05 -0.020682887282113361 0 3.2822878955574944e-06 -0.020706614465496209 0 -2.0202484606114e-05 -0.020740368764495396 0 -3.600695329118472e-05 -0.020682887282113361 0 3.2822878955574944e-06 -0.020706614465496209 0 -2.7612854364625264e-06 -0.020669460739457076 0 3.2822878955574944e-06 -0.020706614465496209 0 3.094237476096908e-05 -0.020750920367099902 0 4.4355883412744492e-05 -0.020690113710401477 0 3.2822878955574944e-06 -0.020706614465496209 0 -2.7612854364625264e-06 -0.020669460739457076 0 4.4355883412744492e-05 -0.020690113710401477 0 3.2822878955574944e-06 -0.020706614465496209 0 3.094237476096908e-05 -0.020750920367099902 0 -2.0202484606114e-05 -0.020740368764495396 0 -6.850098370411831e-05 -0.020760251192116528 0 -3.600695329118472e-05 -0.020682887282113361 0 -2.0202484606114e-05 -0.020740368764495396 0 0.00014671019327316647 -0.022400457214394751 0 0.00012614113766514127 -0.022376302163401165 0 0.00013493899307087318 -0.02237466506927193 0 0.00014959579055391262 -0.022340246810603006 0 0.00012614113766514127 -0.022376302163401165 0 3.4654800241001784e-05 -0.022407570166349138 0 0.00014959579055391262 -0.022340246810603006 0 0.00012614113766514127 -0.022376302163401165 0 0.00013493899307087318 -0.02237466506927193 0 -2.3836084537000447e-05 -0.022034960513218144 0 -0.00018420397740409968 -0.022131738651478421 0 -0.00018523022040975402 -0.020883259539604807 0 -0.00027669495431451453 -0.020911298760771198 0 -0.00017104704828315871 -0.020789351481673324 0 0.00014671019327316647 -0.022400457214394751 0 0.00013493899307087318 -0.02237466506927193 0 0.00011553586150995339 -0.022387534109386875 0 0.00013493899307087318 -0.02237466506927193 0 0.00011553586150995339 -0.022387534109386875 0 0.00013105256372734038 -0.022450388435597306 0 0.00011553586150995339 -0.022387534109386875 0 0.00011513748128692286 -0.022434670862420705 0 0.00013105256372734038 -0.022450388435597306 0 0.00011513748128692286 -0.022434670862420705 0 0.00013105256372734038 -0.022450388435597306 0 0.00012247103617756574 -0.022445433058547633 0 0.00014959579055391262 -0.022340246810603006 0 0.00013493899307087318 -0.02237466506927193 0 0.00013105256372734038 -0.022450388435597306 0 7.3108104170620648e-05 -0.022588105183575156 0 0.00013105256372734038 -0.022450388435597306 0 6.601001715249519e-05 -0.022465682828536542 0 0.00079623868655108801 -0.024754716285651308 0 0.00085925880343267359 -0.024547578861931062 0 5.9069030807985828e-05 -0.022420316720433573 0 0.00011775984795004435 -0.022409716332556767 0 1.322334104396702e-06 -0.022369549784968967 0 0.00013105256372734038 -0.022450388435597306 0 6.601001715249519e-05 -0.022465682828536542 0 0.00010859973245197438 -0.022419969205444513 0 6.601001715249519e-05 -0.022465682828536542 0 5.9069030807985828e-05 -0.022420316720433573 0 0.00010859973245197438 -0.022419969205444513 0 2.2480106356847403e-05 -0.023963368475852637 0 8.5061774926886201e-06 -0.023987999302501062 0 -0.00043815326461295529 -0.023030354341628347 0 -0.00048527615151717373 -0.023011065375595351 0 -0.00051146615420515388 -0.023040088133533584 0 8.5061774926886201e-06 -0.023987999302501062 0 -0.00048665815897426274 -0.023432437722291422 0 8.5061774926886201e-06 -0.023987999302501062 0 -0.00027487900521053313 -0.023226172720386209 0 0.00013105256372734038 -0.022450388435597306 0 0.00010859973245197438 -0.022419969205444513 0 0.00012247103617756574 -0.022445433058547633 0 -6.1064881674777088e-05 -0.035247876878249797 0 0.00039005370848783059 -0.035177126820554933 0 0.00015881453635779904 -0.034900715429847289 0 8.5061774926886201e-06 -0.023987999302501062 0 0.00084085401797296419 -0.025870941403984746 0 -6.1064881674777088e-05 -0.035247876878249797 0 -0.00041747789472605581 -0.035109224916014418 0 -0.00026095006254975859 -0.034838005646552532 0 -6.1064881674777088e-05 -0.035247876878249797 0 -0.00026095006254975859 -0.034838005646552532 0 0.00015881453635779904 -0.034900715429847289 0 -6.313019468747148e-05 -0.02067326442849246 0 -2.7612854364625264e-06 -0.020669460739457076 0 4.0512925430691295e-05 -0.020624444997954388 0 -0.00053166372753353215 -0.022992753207426546 0 -0.00051146615420515388 -0.023040088133533584 0 -0.00058297393088065411 -0.023050102437432482 0 -0.00054076936613641836 -0.022510683976699416 0 -0.00076212360394766799 -0.021889746407639611 0 -6.313019468747148e-05 -0.02067326442849246 0 4.5331459813063828e-05 -0.020549035286861663 0 4.0512925430691295e-05 -0.020624444997954388 0 -2.7612854364625264e-06 -0.020669460739457076 0 4.0512925430691295e-05 -0.020624444997954388 0 4.4355883412744492e-05 -0.020690113710401477 0 -0.00053166372753353215 -0.022992753207426546 0 -0.00048527615151717373 -0.023011065375595351 0 -0.00051146615420515388 -0.023040088133533584 0 -0.00054076936613641836 -0.022510683976699416 0 -0.00027487900521053313 -0.023226172720386209 0 8.0862659296543736e-05 -0.022445623171106967 0 0.00011513748128692286 -0.022434670862420705 0 0.00012247103617756574 -0.022445433058547633 0 0.00039005370848783059 -0.035177126820554933 0 0.00055592793042848914 -0.034809903660762476 0 0.00015881453635779904 -0.034900715429847289 0 0.00039005370848783059 -0.035177126820554933 0 0.00085995127817599631 -0.035092972686527987 0 0.00055592793042848914 -0.034809903660762476 0 -0.00048665815897426274 -0.023432437722291422 0 -0.00076212360394766799 -0.021889746407639611 0 -0.000852967230648519 -0.020519687109346006 0 -3.6105318249860263e-05 -0.020378971350755309 0 -0.00027045985449732275 -0.019848690510545244 0 -0.00076212360394766799 -0.021889746407639611 0 -0.00055660833150162389 -0.020026082321463311 0 -0.00076212360394766799 -0.021889746407639611 0 -0.00062907872674155488 -0.022263025320228447 0 4.5331459813063828e-05 -0.020549035286861663 0 0.0001527617297734473 -0.020608703693836255 0 0.0001498725251983554 -0.020529730223443551 0 4.0512925430691295e-05 -0.020624444997954388 0 0.00010316870761292884 -0.020668859097237306 0 0.0001527617297734473 -0.020608703693836255 0 4.5331459813063828e-05 -0.020549035286861663 0 4.0512925430691295e-05 -0.020624444997954388 0 0.0001527617297734473 -0.020608703693836255 0 4.0512925430691295e-05 -0.020624444997954388 0 0.00010316870761292884 -0.020668859097237306 0 4.4355883412744492e-05 -0.020690113710401477 0 0.0001527617297734473 -0.020608703693836255 0 0.00028754706099692109 -0.02066324337673698 0 0.0001754591460458054 -0.020704160546602162 0 0.00010316870761292884 -0.020668859097237306 0 0.0001527617297734473 -0.020608703693836255 0 0.0001754591460458054 -0.020704160546602162 0 -0.00055660833150162389 -0.020026082321463311 0 -0.00053168697575104677 -0.01815089488284112 0 0.0001527617297734473 -0.020608703693836255 0 0.0001498725251983554 -0.020529730223443551 0 0.00025406703815042977 -0.020509783837152795 0 -3.6105318249860263e-05 -0.020378971350755309 0 0.00040519462546301623 -0.020169014312119565 0 0.00077682405414587286 -0.020236626209104071 0 9.9513875799018994e-05 -0.020042106545246279 0 -3.6105318249860263e-05 -0.020378971350755309 0 -0.00027045985449732275 -0.019848690510545244 0 9.9513875799018994e-05 -0.020042106545246279 0 -3.6105318249860263e-05 -0.020378971350755309 0 0.00040519462546301623 -0.020169014312119565 0 0.00040519462546301623 -0.020169014312119565 0 0.00077682405414587286 -0.020236626209104071 0 0.0007556032426029877 -0.020141298401666605 0 -0.00056401492780435228 -0.019095270440953754 0 0.00056362890714159192 -0.019010873929842562 0 -0.00071782714380170967 -0.018399181965353537 0 0.00040519462546301623 -0.020169014312119565 0 0.0007581952483181393 -0.020142620018961489 0 0.00071029019592774314 -0.019926517952833657 0 -0.0051772792570016924 -0.0071378974845829578 0 -0.0044485893699314416 -0.0077906300772900543 0 -0.0047183995023550723 -0.0084840424787419582 0 -0.00053168697575104677 -0.01815089488284112 0 -0.0012910625545801376 -0.015869525250435008 0 -0.00045289247864210548 -0.018163486741005423 0 -0.00047776589904181799 -0.01815052920223121 0 -0.00047776589904181799 -0.01815052920223121 0 -0.0003980130430187419 -0.018910732051940226 0 -0.0051772792570016924 -0.0071378974845829578 0 -0.0052127607144941256 -0.0069759465745299447 0 -0.0046161328031481992 -0.0069298090474438035 0 -0.00053168697575104677 -0.01815089488284112 0 -0.00047776589904181799 -0.01815052920223121 0 -0.0051772792570016924 -0.0071378974845829578 0 -0.0045093339247326072 -0.0070547634396482426 0 -0.0043129686550775785 -0.0074009999242962378 0 -0.0051772792570016924 -0.0071378974845829578 0 -0.0046161328031481992 -0.0069298090474438035 0 -0.0045093339247326072 -0.0070547634396482426 0 -0.00047776589904181799 -0.01815052920223121 0 -0.0011215437190537397 -0.017508916573075947 0 -0.0011215437190537397 -0.017508916573075947 0 -0.0011341032936917506 -0.017490616194517517 0 -0.0051772792570016924 -0.0071378974845829578 0 -0.0044485893699314416 -0.0077906300772900543 0 -0.0043129686550775785 -0.0074009999242962378 0 -0.0024083190485819032 -0.0067413281454702552 0 -0.0046162732742640834 -0.0069300932817216764 0 -0.0038657125308184537 -0.0072566558887311944 0 -0.00069104838809431004 -0.013735330802857973 0 -0.0011215437190537397 -0.017508916573075947 0 -0.0024083190485819032 -0.0067413281454702552 0 -0.0038657125308184537 -0.0072566558887311944 0 -0.0032710141260525534 -0.0077397298776910308 0 -0.0045093339247326072 -0.0070547634396482426 0 -0.0038657125308184537 -0.0072566558887311944 0 -0.0043129686550775785 -0.0074009999242962378 0 -0.0046162732742640834 -0.0069300932817216764 0 -0.0045093339247326072 -0.0070547634396482426 0 -0.0038657125308184537 -0.0072566558887311944 0 -0.0038657125308184537 -0.0072566558887311944 0 -0.0040766317645909477 -0.007674885164254559 0 -0.0043129686550775785 -0.0074009999242962378 0 -0.0044485893699314416 -0.0077906300772900543 0 -0.0040766317645909477 -0.007674885164254559 0 -0.0043129686550775785 -0.0074009999242962378 0 -0.0044485893699314416 -0.0077906300772900543 0 -0.0041572390025692253 -0.0079335569028334222 0 -0.0042705496732200294 -0.0082067878617028724 0 -0.0044485893699314416 -0.0077906300772900543 0 -0.0040766317645909477 -0.007674885164254559 0 -0.0041572390025692253 -0.0079335569028334222 0 -0.0040766317645909477 -0.007674885164254559 0 -0.0041572390025692253 -0.0079335569028334222 0 -0.0038352062821177669 -0.0080612765895980605 0 -0.0040766317645909477 -0.007674885164254559 0 -0.0032710141260525534 -0.0077397298776910308 0 -0.0038352062821177669 -0.0080612765895980605 0 -0.0038657125308184537 -0.0072566558887311944 0 -0.0040766317645909477 -0.007674885164254559 0 -0.0032710141260525534 -0.0077397298776910308 0 -0.0040756801869490777 -0.0090225177321093322 0 -0.0043996362231815489 -0.0085436518425859205 0 -0.0042705900201761779 -0.0098462085578501727 0 -0.0017649415641820983 -0.013921588808406072 0 -0.0016196622907756664 -0.014633596226359008 0 -0.0032710141260525534 -0.0077397298776910308 0 -0.0032470061944946393 -0.0084689365047360236 0 -0.0038352062821177669 -0.0080612765895980605 0 -0.0032470061944946393 -0.0084689365047360236 0 -0.0039284300063821354 -0.0085299226420856196 0 -0.0038352062821177669 -0.0080612765895980605 0 -0.0039284300063821354 -0.0085299226420856196 0 -0.0038352062821177669 -0.0080612765895980605 0 -0.0042705496732200294 -0.0082067878617028724 0 -0.0041572390025692253 -0.0079335569028334222 0 -0.0038352062821177669 -0.0080612765895980605 0 -0.0042705496732200294 -0.0082067878617028724 0 -0.0039284300063821354 -0.0085299226420856196 0 -0.0042705496732200294 -0.0082067878617028724 0 -0.0043996362231815489 -0.0085436518425859205 0 -0.0039284300063821354 -0.0085299226420856196 0 -0.0040756801869490777 -0.0090225177321093322 0 -0.0043996362231815489 -0.0085436518425859205 0 -0.0040756801869490777 -0.0090225177321093322 0 -0.0036825664006329369 -0.0089717932319449273 0 -0.0038426703301987783 -0.0095669382055603071 0 -0.0039284300063821354 -0.0085299226420856196 0 -0.0040756801869490777 -0.0090225177321093322 0 -0.0036825664006329369 -0.0089717932319449273 0 -0.0032470061944946393 -0.0084689365047360236 0 -0.0039284300063821354 -0.0085299226420856196 0 -0.0036825664006329369 -0.0089717932319449273 0 -0.0030767789933274867 -0.009636529502813863 0 -0.0032470061944946393 -0.0084689365047360236 0 -0.0036825664006329369 -0.0089717932319449273 0 -0.00098878408036392313 -0.01638593024016104 0 -0.001000884507464737 -0.016809703250990658 0 -0.0012771449625064743 -0.015982858675197695 0 -0.0006927653968909869 -0.017631026233787674 0 -0.00098878408036392313 -0.01638593024016104 0 -0.001000884507464737 -0.016809703250990658 0 -0.0043996362231815489 -0.0085436518425859205 0 -0.0047183995023550723 -0.0084840424787419582 0 -0.0042529458145170156 -0.010022626504460936 0 -0.00053168697575104677 -0.01815089488284112 0 -0.00081549633948965348 -0.017543226661942427 0 -0.0012910625545801376 -0.015869525250435008 0 -0.0016196622907756664 -0.014633596226359008 0 0.0001527617297734473 -0.020608703693836255 0 0.00025406703815042977 -0.020509783837152795 0 0.00028754706099692109 -0.02066324337673698 0 -0.0044485893699314416 -0.0077906300772900543 0 -0.0042705496732200294 -0.0082067878617028724 0 -0.0047183995023550723 -0.0084840424787419582 0 -0.0042705496732200294 -0.0082067878617028724 0 -0.0043996362231815489 -0.0085436518425859205 0 -0.0047183995023550723 -0.0084840424787419582 0 -0.00098878408036392313 -0.01638593024016104 0 -0.0012771449625064743 -0.015982858675197695 0 -0.0012803854291181943 -0.015140602822001402 0 -0.00081549633948965348 -0.017543226661942427 0 -0.0013183877150342413 -0.016143136766150281 0 0.00028754706099692109 -0.02066324337673698 0 0.0002296624113830453 -0.020763155328943742 0 0.0001754591460458054 -0.020704160546602162 0 0.00028754706099692109 -0.02066324337673698 0 0.0002296624113830453 -0.020763155328943742 0 0.00031526676048196118 -0.020814761084667385 0 -0.0030767789933274867 -0.009636529502813863 0 -0.004105020184838843 -0.010365767393750646 0 -0.0041397525512814979 -0.011067140623497711 0 -0.00071185523801139104 -0.013085690214723502 0 -0.0012637579102871713 -0.015637682789428595 0 -0.0030767789933274867 -0.009636529502813863 0 -0.0036825664006329369 -0.0089717932319449273 0 -0.0038426703301987783 -0.0095669382055603071 0 -0.0030767789933274867 -0.009636529502813863 0 -0.0038426703301987783 -0.0095669382055603071 0 -0.004105020184838843 -0.010365767393750646 0 -0.0040756801869490777 -0.0090225177321093322 0 -0.0038426703301987783 -0.0095669382055603071 0 -0.0042705900201761779 -0.0098462085578501727 0 -0.00426914254615216 -0.0098510794033285706 0 -0.004105020184838843 -0.010365767393750646 0 -0.0041397525512814979 -0.011067140623497711 0 -0.0038426703301987783 -0.0095669382055603071 0 -0.0042705900201761779 -0.0098462085578501727 0 -0.004105020184838843 -0.010365767393750646 0 -0.0016196622907756664 -0.014633596226359008 0 -0.0012637579102871713 -0.015637682789428595 0 -0.0016196622907756664 -0.014633596226359008 0 -0.0016586680657677054 -0.01453091105557036 0 -0.0024587858863553583 -0.010511425057315312 0 -0.0026400724384945048 -0.0093741890292311329 0 -0.0034442971752215125 -0.010664592808773726 0 -0.0013317344260065955 -0.016388681643198681 0 -0.001307182086355806 -0.016602881587039611 0 -0.0012879388509887478 -0.016577397165575432 0 -0.0012771449625064743 -0.015982858675197695 0 -0.0013628775224291687 -0.015251298573029192 0 -0.0012803854291181943 -0.015140602822001402 0 -0.0012637579102871713 -0.015637682789428595 0 -0.0013183877150342413 -0.016143136766150281 0 -0.0024587858863553583 -0.010511425057315312 0 -0.0034442971752215125 -0.010664592808773726 0 -0.0025975281466273769 -0.011303524921412364 0 0.0002296624113830453 -0.020763155328943742 0 0.00031526676048196118 -0.020814761084667385 0 0.00021526538919693205 -0.020845655819498279 0 0.0002296624113830453 -0.020763155328943742 0 0.00021526538919693205 -0.020845655819498279 0 0.00015577079234347385 -0.020785516804169103 0 0.00015902251651840531 -0.020868417663915579 0 0.00021526538919693205 -0.020845655819498279 0 0.00015577079234347385 -0.020785516804169103 0 0.00015902251651840531 -0.020868417663915579 0 0.00015577079234347385 -0.020785516804169103 0 8.4307640527636754e-05 -0.020822189168355137 0 3.094237476096908e-05 -0.020750920367099902 0 8.4307640527636754e-05 -0.020822189168355137 0 9.9386677322635546e-05 -0.020736954982794698 0 0.00015577079234347385 -0.020785516804169103 0 8.4307640527636754e-05 -0.020822189168355137 0 9.9386677322635546e-05 -0.020736954982794698 0 3.094237476096908e-05 -0.020750920367099902 0 9.9386677322635546e-05 -0.020736954982794698 0 4.4355883412744492e-05 -0.020690113710401477 0 0.00010316870761292884 -0.020668859097237306 0 9.9386677322635546e-05 -0.020736954982794698 0 4.4355883412744492e-05 -0.020690113710401477 0 0.00010316870761292884 -0.020668859097237306 0 9.9386677322635546e-05 -0.020736954982794698 0 0.0001754591460458054 -0.020704160546602162 0 0.0002296624113830453 -0.020763155328943742 0 0.00015577079234347385 -0.020785516804169103 0 0.0001754591460458054 -0.020704160546602162 0 0.00015577079234347385 -0.020785516804169103 0 9.9386677322635546e-05 -0.020736954982794698 0 0.0001754591460458054 -0.020704160546602162 0 1.4573435758926459e-06 -0.034996034274255405 0 0.00017990808450401696 -0.034210277141544461 0 9.2275718439671232e-05 -0.034778408524963743 0 1.4573435758926459e-06 -0.034996034274255405 0 -4.5459135208851714e-07 -0.035000615930816735 0 9.2275718439671232e-05 -0.034778408524963743 0 0.00017990808450401696 -0.034210277141544461 0 -2.2807198438599435e-05 -0.034547726934961304 0 9.2275718439671232e-05 -0.034778408524963743 0 -0.00018096345892373039 -0.034702258009881803 0 -8.2958481152095611e-05 -0.034847785287805445 0 1.4573435758926459e-06 -0.034996034274255405 0 0.00017990808450401696 -0.034210277141544461 0 -2.2203749604435646e-06 -0.0312567777657465 0 0.00017990808450401696 -0.034210277141544461 0 -0.00027246337540940682 -0.03332327386593114 0 -0.00038443533317401889 -0.034084639117563618 0 0.00017990808450401696 -0.034210277141544461 0 -2.2203749604435646e-06 -0.0312567777657465 0 -0.00027246337540940682 -0.03332327386593114 0 -9.1613110554801441e-07 -0.031247822854340933 0 -0.00019563104768190943 -0.030661192263956163 0 -2.2203749604435646e-06 -0.0312567777657465 0 -0.00027246337540940682 -0.03332327386593114 0 -0.0011961236801354969 -0.033424414455149452 0 -0.00027246337540940682 -0.03332327386593114 0 -0.00038443533317401889 -0.034084639117563618 0 -0.0011961236801354969 -0.033424414455149452 0 -0.00038443533317401889 -0.034084639117563618 0 -0.00051716056733048632 -0.034471443818623562 0 -0.0008672512026817815 -0.034183006463218653 0 -0.000238824500590756 -0.034627631605566388 0 -0.00018096345892373039 -0.034702258009881803 0 0.00017990808450401696 -0.034210277141544461 0 -0.00038443533317401889 -0.034084639117563618 0 -2.2807198438599435e-05 -0.034547726934961304 0 -0.00018752002886608812 -0.034455395688120075 0 -0.00051716056733048632 -0.034471443818623562 0 -0.00025417834519151863 -0.034732700947413521 0 -0.00038443533317401889 -0.034084639117563618 0 -0.00018752002886608812 -0.034455395688120075 0 -0.00051716056733048632 -0.034471443818623562 0 -0.00051716056733048632 -0.034471443818623562 0 -0.0010127760078866288 -0.034411167892164446 0 -0.0008672512026817815 -0.034183006463218653 0 -0.00051716056733048632 -0.034471443818623562 0 -0.0010127760078866288 -0.034411167892164446 0 -0.00055852199069852081 -0.03479183800273266 0 -0.0010127760078866288 -0.034411167892164446 0 -0.0011713913210379366 -0.034205570790795947 0 -0.0008672512026817815 -0.034183006463218653 0 -0.00023410902651591363 -0.02978611402651243 0 0.00034500189625629227 -0.027775203871449147 0 -0.0010127760078866288 -0.034411167892164446 0 -0.0011713913210379366 -0.034205570790795947 0 -0.0011415138259182906 -0.034470920886480093 0 3.9525708073562923e-05 -0.029385220881833447 0 4.1989594449362416e-05 -0.02939027514155897 0 4.7197898007242076e-05 -0.029384097893864182 0 3.9525708073562923e-05 -0.029385220881833447 0 4.1989594449362416e-05 -0.02939027514155897 0 7.0557671055883532e-05 -0.029374578625932044 0 -0.00038443533317401889 -0.034084639117563618 0 -0.0008672512026817815 -0.034183006463218653 0 -0.0011961236801354969 -0.033424414455149452 0 -0.0011713913210379366 -0.034205570790795947 0 -0.0008672512026817815 -0.034183006463218653 0 -0.0011961236801354969 -0.033424414455149452 0 -0.00023410902651591363 -0.02978611402651243 0 -0.00019563104768190943 -0.030661192263956163 0 -1.1129268633413906e-06 -0.031246906568518196 0 4.7197898007242076e-05 -0.029384097893864182 0 1.0986031106153891e-06 -0.029527207891582096 0 1.0986031106153891e-06 -0.029527207891582096 0 0.00012365057573687218 -0.029105253089281597 0 -1.0780836163822609e-06 -0.027807297788420494 0 4.7197898007242076e-05 -0.029384097893864182 0 1.0986031106153891e-06 -0.029527207891582096 0 0.00012365057573687218 -0.029105253089281597 0 4.1989594449362416e-05 -0.02939027514155897 0 4.7197898007242076e-05 -0.029384097893864182 0 0.00012365057573687218 -0.029105253089281597 0 4.1989594449362416e-05 -0.02939027514155897 0 0.00012365057573687218 -0.029105253089281597 0 -0.00023890818960773687 -0.029229849059139241 0 -0.0012748231583998961 -0.024703838429937917 0 -0.00011111495684379144 -0.025043116621819583 0 -0.00049613510007227044 -0.023925168586599769 0 -0.0012748231583998961 -0.024703838429937917 0 -3.2794060137008033e-06 -0.027801663070150126 0 -4.9115316914254218e-05 -0.026032064022400984 0 0.00012365057573687218 -0.029105253089281597 0 -0.00023890818960773687 -0.029229849059139241 0 -1.0780836163822609e-06 -0.027807297788420494 0 2.1312836180830071e-05 -0.027142426158251545 0 6.8243770204881148e-08 -0.027803358936288734 0 1.8174118452557845e-06 -0.025926437939144637 0 -3.2794060137008033e-06 -0.027801663070150126 0 -4.9115316914254218e-05 -0.026032064022400984 0 1.8174118452557845e-06 -0.025926437939144637 0 0.00016394283791270492 -0.025376645596196134 0 -4.9115316914254218e-05 -0.026032064022400984 0 0.00016394283791270492 -0.025376645596196134 0 -0.00011111495684379144 -0.025043116621819583 0 6.69391168618866e-05 -0.024261192464908158 0 0.00016394283791270492 -0.025376645596196134 0 -4.9115316914254218e-05 -0.026032064022400984 0 -0.00011111495684379144 -0.025043116621819583 0 -0.0012748231583998961 -0.024703838429937917 0 -4.9115316914254218e-05 -0.026032064022400984 0 -0.00011111495684379144 -0.025043116621819583 0 -0.00011111495684379144 -0.025043116621819583 0 6.69391168618866e-05 -0.024261192464908158 0 -0.00049613510007227044 -0.023925168586599769 0 -0.0001049491779858125 -0.023916165098097169 0 6.69391168618866e-05 -0.024261192464908158 0 -0.00049613510007227044 -0.023925168586599769 0 0.00029997810639085154 -0.023450071574186451 0 -0.0001049491779858125 -0.023916165098097169 0 6.69391168618866e-05 -0.024261192464908158 0 0.00027881202024736018 -0.022945081938221108 0 0.00029997810639085154 -0.023450071574186451 0 -0.0001049491779858125 -0.023916165098097169 0 -9.1128536055439945e-05 -0.022256964074510239 0 -0.00013399230601703502 -0.022357890220349577 0 0.00033405516430422104 -0.023194897511018636 0 -0.00030299289413780349 -0.023178334262143833 0 -2.1233435416071615e-05 -0.022790857561192646 0 0.00033405516430422104 -0.023194897511018636 0 -0.0001049491779858125 -0.023916165098097169 0 -0.00030299289413780349 -0.023178334262143833 0 -0.0001049491779858125 -0.023916165098097169 0 -0.00030299289413780349 -0.023178334262143833 0 -0.00049613510007227044 -0.023925168586599769 0 4.1989594449362416e-05 -0.02939027514155897 0 -0.00023890818960773687 -0.029229849059139241 0 -0.00016439024284995736 -0.029589184727422099 0 2.1312836180830071e-05 -0.027142426158251545 0 0.00013887025156696738 -0.026672688928495912 0 -0.0012748231583998961 -0.024703838429937917 0 -0.00049613510007227044 -0.023925168586599769 0 -0.0011221825245973194 -0.022972905398539523 0 1.0121513971936346e-05 -0.026881731037998215 0 0.00013887025156696738 -0.026672688928495912 0 -0.00030299289413780349 -0.023178334262143833 0 -0.00049613510007227044 -0.023925168586599769 0 -0.0011221825245973194 -0.022972905398539523 0 3.9525708073562923e-05 -0.029385220881833447 0 7.0557671055883532e-05 -0.029374578625932044 0 7.172316922784428e-05 -0.029336688437582244 0 0.00013887025156696738 -0.026672688928495912 0 0.00034500189625629227 -0.027775203871449147 0 -0.00016196530580419577 -0.022861150727668873 0 -3.0367457787536553e-05 -0.022724618226797434 0 -0.00016650295365716519 -0.022692963697361183 0 0.00013887025156696738 -0.026672688928495912 0 0.00058076479448233896 -0.025419475025889017 0 -0.00030299289413780349 -0.023178334262143833 0 -0.00018250393837852117 -0.022381707102258227 0 -2.1233435416071615e-05 -0.022790857561192646 0 -0.00030299289413780349 -0.023178334262143833 0 -0.0011221825245973194 -0.022972905398539523 0 -0.00018250393837852117 -0.022381707102258227 0 -0.00018250393837852117 -0.022381707102258227 0 3.4654800241001784e-05 -0.022407570166349138 0 -2.1233435416071615e-05 -0.022790857561192646 0 -3.1281510254802767e-05 -0.022626844359049405 0 -0.00016650295365716519 -0.022692963697361183 0 -1.1824046213332168e-05 -0.022506509199701059 0 7.3108104170620648e-05 -0.022588105183575156 0 -3.0367457787536553e-05 -0.022724618226797434 0 -3.1281510254802767e-05 -0.022626844359049405 0 0.00014959579055391262 -0.022340246810603006 0 -0.00018250393837852117 -0.022381707102258227 0 3.4654800241001784e-05 -0.022407570166349138 0 0.00079623868655108801 -0.024754716285651308 0 0.00058076479448233896 -0.025419475025889017 0 -3.0367457787536553e-05 -0.022724618226797434 0 -3.1281510254802767e-05 -0.022626844359049405 0 -0.00016650295365716519 -0.022692963697361183 0 0.00034500189625629227 -0.027775203871449147 0 0.000830771508565184 -0.026536294225404031 0 0.00034500189625629227 -0.027775203871449147 0 0.00092023575667699292 -0.027866860411823274 0 -0.00010963318089855231 -0.022667189729140037 0 -0.00011194921158197268 -0.022483370874821058 0 -1.1824046213332168e-05 -0.022506509199701059 0 7.3108104170620648e-05 -0.022588105183575156 0 -3.1281510254802767e-05 -0.022626844359049405 0 -1.1824046213332168e-05 -0.022506509199701059 0 7.3108104170620648e-05 -0.022588105183575156 0 6.601001715249519e-05 -0.022465682828536542 0 -1.1824046213332168e-05 -0.022506509199701059 0 6.601001715249519e-05 -0.022465682828536542 0 5.9069030807985828e-05 -0.022420316720433573 0 -1.2275726300426191e-05 -0.022436260299520928 0 -0.00011194921158197268 -0.022483370874821058 0 -1.1824046213332168e-05 -0.022506509199701059 0 -1.2275726300426191e-05 -0.022436260299520928 0 6.601001715249519e-05 -0.022465682828536542 0 -1.1824046213332168e-05 -0.022506509199701059 0 -1.2275726300426191e-05 -0.022436260299520928 0 5.9069030807985828e-05 -0.022420316720433573 0 -1.2275726300426191e-05 -0.022436260299520928 0 1.322334104396702e-06 -0.022369549784968967 0 -1.2275726300426191e-05 -0.022436260299520928 0 1.322334104396702e-06 -0.022369549784968967 0 -0.00010978511817963015 -0.022332483974049841 0 0.00084085401797296419 -0.025870941403984746 0 0.0017863792152307478 -0.02737780582866535 0 -0.00041747789472605581 -0.035109224916014418 0 -0.00073817825078863241 -0.03496294015602814 0 -0.00062114877805866716 -0.034837893009994778 0 0.0017863792152307478 -0.02737780582866535 0 0.0017817791103180089 -0.027398470050329544 0 -0.00074193692513407124 -0.034954773578951236 0 -0.00074259856775777083 -0.034914957139739543 0 -0.00082037919015532528 -0.034902494384374309 0 0.0017863792152307478 -0.02737780582866535 0 0.0017848938705152719 -0.027409611980817244 0 -0.00011194921158197268 -0.022483370874821058 0 -1.2275726300426191e-05 -0.022436260299520928 0 -0.00010978511817963015 -0.022332483974049841 0 0.00092023575667699292 -0.027866860411823274 0 0.0017863792152307478 -0.02737780582866535 0 -0.0010192422811715212 -0.034694022589681558 0 -0.00082492866977389092 -0.034847464102989424 0 -0.00082115327885316682 -0.034707647901290453 0 -0.0010192422811715212 -0.034694022589681558 0 -0.00086658415312379402 -0.034887408854440916 0 -0.00082492866977389092 -0.034847464102989424 0 -0.00082492866977389092 -0.034847464102989424 0 -0.00077836444432593382 -0.034900073699898095 0 -0.00080072091488335982 -0.034880030620020548 0 -0.00082492866977389092 -0.034847464102989424 0 -0.00082037919015532528 -0.034902494384374309 0 -0.00080072091488335982 -0.034880030620020548 0 -0.00086658415312379402 -0.034887408854440916 0 -0.00082492866977389092 -0.034847464102989424 0 -0.00082037919015532528 -0.034902494384374309 0 -0.00082492866977389092 -0.034847464102989424 0 -0.00071201397767623408 -0.034841256532666412 0 -0.00077836444432593382 -0.034900073699898095 0 -0.00082492866977389092 -0.034847464102989424 0 -0.00082115327885316682 -0.034707647901290453 0 -0.00071201397767623408 -0.034841256532666412 0 -0.00082115327885316682 -0.034707647901290453 0 -0.00095265087875413292 -0.034560787330388816 0 -0.00070692198048989859 -0.034514772678104808 0 -0.0011415138259182906 -0.034470920886480093 0 -0.0010192422811715212 -0.034694022589681558 0 -0.00095265087875413292 -0.034560787330388816 0 -0.0010192422811715212 -0.034694022589681558 0 -0.00082115327885316682 -0.034707647901290453 0 -0.00095265087875413292 -0.034560787330388816 0 -0.0010127760078866288 -0.034411167892164446 0 -0.0011415138259182906 -0.034470920886480093 0 -0.00095265087875413292 -0.034560787330388816 0 -0.00063854868701729035 -0.034618090814850948 0 -0.00056442674922899745 -0.034669990873040318 0 -0.0010127760078866288 -0.034411167892164446 0 -0.00095265087875413292 -0.034560787330388816 0 -0.00070692198048989859 -0.034514772678104808 0 -0.00051716056733048632 -0.034471443818623562 0 -0.00055852199069852081 -0.03479183800273266 0 -0.00025417834519151863 -0.034732700947413521 0 -0.00055852199069852081 -0.03479183800273266 0 -0.00025417834519151863 -0.034732700947413521 0 -0.00020441640983966084 -0.034956429763348056 0 -0.00056442674922899745 -0.034669990873040318 0 -0.00044642834926004413 -0.034750659316673413 0 -0.00070692198048989859 -0.034514772678104808 0 -0.00044852688834248289 -0.034643265583099603 0 -0.00064405073312230458 -0.034715793229382931 0 -0.00082115327885316682 -0.034707647901290453 0 -0.00070692198048989859 -0.034514772678104808 0 -0.00064405073312230458 -0.034715793229382931 0 -0.00082115327885316682 -0.034707647901290453 0 -0.00064405073312230458 -0.034715793229382931 0 -0.00071201397767623408 -0.034841256532666412 0 -0.00064405073312230458 -0.034715793229382931 0 -0.00071201397767623408 -0.034841256532666412 0 -0.00049020007152808694 -0.03487975021286728 0 -0.00071201397767623408 -0.034841256532666412 0 -0.00061439111659863043 -0.034943430614685168 0 -0.00077836444432593382 -0.034900073699898095 0 -0.00071201397767623408 -0.034841256532666412 0 -0.00049020007152808694 -0.03487975021286728 0 -0.00061439111659863043 -0.034943430614685168 0 -0.00049020007152808694 -0.03487975021286728 0 -0.00031519136345169846 -0.03508476173941559 0 -0.00061439111659863043 -0.034943430614685168 0 -0.00044852688834248289 -0.034643265583099603 0 -0.00064405073312230458 -0.034715793229382931 0 -0.00049020007152808694 -0.03487975021286728 0 -0.00044642834926004413 -0.034750659316673413 0 -0.00038625799143647994 -0.034792324543956248 0 -0.00044852688834248289 -0.034643265583099603 0 -0.00049020007152808694 -0.03487975021286728 0 -0.00011535359817467405 -0.034934241818785003 0 -0.00049020007152808694 -0.03487975021286728 0 -0.00011535359817467405 -0.034934241818785003 0 -0.00031519136345169846 -0.03508476173941559 0 -3.09116980075953e-08 -0.035000219194086073 0 -0.00011535359817467405 -0.034934241818785003 0 -0.00031519136345169846 -0.03508476173941559 0 -3.09116980075953e-08 -0.035000219194086073 0 -1.3811361291638063e-07 -0.03499989404404992 0 -0.00011535359817467405 -0.034934241818785003 0 -1.3811361291638063e-07 -0.03499989404404992 0 -0.00011535359817467405 -0.034934241818785003 0 9.7435558401841732e-08 -0.034999648559665288 0 -0.00020441640983966084 -0.034956429763348056 0 9.7435558401841732e-08 -0.034999648559665288 0 -6.3428042644895038e-05 -0.034770146405433938 0 -0.00020441640983966084 -0.034956429763348056 0 -0.00011535359817467405 -0.034934241818785003 0 9.7435558401841732e-08 -0.034999648559665288 0 -0.00025417834519151863 -0.034732700947413521 0 -0.00020441640983966084 -0.034956429763348056 0 -6.3428042644895038e-05 -0.034770146405433938 0 -0.00018752002886608812 -0.034455395688120075 0 -0.00025417834519151863 -0.034732700947413521 0 -6.3428042644895038e-05 -0.034770146405433938 0 -5.7904991382007566e-08 -0.034999625922749571 0 -8.2958481152095611e-05 -0.034847785287805445 0 -1.401072893980662e-09 -0.034999987815611415 0 -1.958502610854181e-06 -0.034991099307138403 0 -1.6092765480848322e-07 -0.034989393007726098 0 -1.958502610854181e-06 -0.034991099307138403 0 -4.930193595815705e-07 -0.034979510447225699 0 -1.6092765480848322e-07 -0.034989393007726098 0 -1.401072893980662e-09 -0.034999987815611415 0 -1.958502610854181e-06 -0.034991099307138403 0 -2.9702810505585303e-09 -0.034999992264507784 0 6.8570299145549584e-10 -0.034999998606651574 0 -2.9702810505585303e-09 -0.034999992264507784 0 -1.5371733814046846e-06 -0.034995807593308781 0 -4.580387596605716e-07 -0.034999150827919857 0 -0.00017012959996903269 -0.034740703229522572 0 -1.958502610854181e-06 -0.034991099307138403 0 -2.9702810505585303e-09 -0.034999992264507784 0 -1.5371733814046846e-06 -0.034995807593308781 0 -1.958502610854181e-06 -0.034991099307138403 0 -1.5371733814046846e-06 -0.034995807593308781 0 -7.0116703885859159e-07 -0.034990413852370887 0 -0.00017012959996903269 -0.034740703229522572 0 -0.0003181055582103273 -0.034417413544646065 0 -0.00031519136345169846 -0.03508476173941559 0 -0.00061439111659863043 -0.034943430614685168 0 -0.00066183570692841776 -0.035013071237960512 0 -0.00061439111659863043 -0.034943430614685168 0 -0.00066183570692841776 -0.035013071237960512 0 -0.00077836444432593382 -0.034900073699898095 0 -7.0116703885859159e-07 -0.034990413852370887 0 -1.0861429851512378e-06 -0.034982905325579031 0 4.2692489195850387e-06 -0.034992645977513177 0 -1.958502610854181e-06 -0.034991099307138403 0 -7.0116703885859159e-07 -0.034990413852370887 0 -1.0861429851512378e-06 -0.034982905325579031 0 -1.958502610854181e-06 -0.034991099307138403 0 -1.0861429851512378e-06 -0.034982905325579031 0 -4.930193595815705e-07 -0.034979510447225699 0 -1.0861429851512378e-06 -0.034982905325579031 0 -4.930193595815705e-07 -0.034979510447225699 0 3.7070329069017885e-06 -0.034963655142500646 0 -4.930193595815705e-07 -0.034979510447225699 0 3.7070329069017885e-06 -0.034963655142500646 0 4.3684390937899139e-06 -0.034963069008455215 0 3.7070329069017885e-06 -0.034963655142500646 0 1.5292892358471962e-05 -0.034940181502131511 0 1.8090703483860074e-05 -0.03492543474819413 0 1.5292892358471962e-05 -0.034940181502131511 0 4.2692489195850387e-06 -0.034992645977513177 0 4.8259639695043003e-05 -0.035010586428974047 0 -0.00041514290857432967 -0.033962962536808937 0 -0.00043037339288478309 -0.033296128769605436 0 -1.0861429851512378e-06 -0.034982905325579031 0 3.7070329069017885e-06 -0.034963655142500646 0 4.2692489195850387e-06 -0.034992645977513177 0 3.7070329069017885e-06 -0.034963655142500646 0 1.5292892358471962e-05 -0.034940181502131511 0 4.2692489195850387e-06 -0.034992645977513177 0 -0.00066183570692841776 -0.035013071237960512 0 -0.00081958215410627702 -0.034779030664259171 0 -0.00077836444432593382 -0.034900073699898095 0 -0.0003181055582103273 -0.034417413544646065 0 -0.00041514290857432967 -0.033962962536808937 0 -0.00077836444432593382 -0.034900073699898095 0 -0.00080072091488335982 -0.034880030620020548 0 -0.00077604995874235114 -0.034812305398957626 0 -0.00077818886731268388 -0.034865918269384476 0 -0.00080072091488335982 -0.034880030620020548 0 -0.00077604995874235114 -0.034812305398957626 0 -0.00082037919015532528 -0.034902494384374309 0 -0.00077818886731268388 -0.034865918269384476 0 -0.00080072091488335982 -0.034880030620020548 0 -0.00074259856775777083 -0.034914957139739543 0 -0.00082037919015532528 -0.034902494384374309 0 -0.00077818886731268388 -0.034865918269384476 0 -0.00077818886731268388 -0.034865918269384476 0 -0.00077604995874235114 -0.034812305398957626 0 -0.00073010905916434448 -0.034855374087864398 0 -0.00081958215410627702 -0.034779030664259171 0 -0.00077604995874235114 -0.034812305398957626 0 -0.00066884571056887452 -0.034666908300251424 0 -0.00081958215410627702 -0.034779030664259171 0 -0.00077836444432593382 -0.034900073699898095 0 -0.00077604995874235114 -0.034812305398957626 0 -0.00081958215410627702 -0.034779030664259171 0 -0.00066884571056887452 -0.034666908300251424 0 -0.00064434683038930242 -0.034415424547532658 0 -0.00066884571056887452 -0.034666908300251424 0 -0.00050202176991124951 -0.034637952662523959 0 -0.00064434683038930242 -0.034415424547532658 0 -0.00066884571056887452 -0.034666908300251424 0 -0.00062114877805866716 -0.034837893009994778 0 -0.00050202176991124951 -0.034637952662523959 0 -0.00077604995874235114 -0.034812305398957626 0 -0.00062114877805866716 -0.034837893009994778 0 -0.00073010905916434448 -0.034855374087864398 0 -0.00077604995874235114 -0.034812305398957626 0 -0.00066884571056887452 -0.034666908300251424 0 -0.00062114877805866716 -0.034837893009994778 0 -0.00074259856775777083 -0.034914957139739543 0 -0.00062114877805866716 -0.034837893009994778 0 -0.00073010905916434448 -0.034855374087864398 0 -0.00073817825078863241 -0.03496294015602814 0 -0.00074259856775777083 -0.034914957139739543 0 -0.00062114877805866716 -0.034837893009994778 0 -0.00074259856775777083 -0.034914957139739543 0 -0.00077818886731268388 -0.034865918269384476 0 -0.00073010905916434448 -0.034855374087864398 0 -0.00041747789472605581 -0.035109224916014418 0 -0.00062114877805866716 -0.034837893009994778 0 -0.00026095006254975859 -0.034838005646552532 0 -0.00062114877805866716 -0.034837893009994778 0 -0.00050202176991124951 -0.034637952662523959 0 -0.00026095006254975859 -0.034838005646552532 0 -0.00050202176991124951 -0.034637952662523959 0 -0.00064434683038930242 -0.034415424547532658 0 -0.00025580339007475963 -0.034449801342698698 0 -0.00050202176991124951 -0.034637952662523959 0 -0.00026095006254975859 -0.034838005646552532 0 -0.00025580339007475963 -0.034449801342698698 0 -0.00043037339288478309 -0.033296128769605436 0 -0.00033900360769364995 -0.032299535017990981 0 -0.00064434683038930242 -0.034415424547532658 0 -0.00025580339007475963 -0.034449801342698698 0 -0.00024240474886139785 -0.034087878501391916 0 1.5292892358471962e-05 -0.034940181502131511 0 4.8259639695043003e-05 -0.035010586428974047 0 4.5897757121122264e-05 -0.034834274773215081 0 4.8259639695043003e-05 -0.035010586428974047 0 4.5897757121122264e-05 -0.034834274773215081 0 0.00025661929248139992 -0.035008428103945714 0 4.5897757121122264e-05 -0.034834274773215081 0 0.00025661929248139992 -0.035008428103945714 0 0.00028667556139764502 -0.034747893861050871 0 4.5897757121122264e-05 -0.034834274773215081 0 0.00020431783666158672 -0.034414552844338732 0 0.00028667556139764502 -0.034747893861050871 0 1.5292892358471962e-05 -0.034940181502131511 0 4.5897757121122264e-05 -0.034834274773215081 0 1.8090703483860074e-05 -0.03492543474819413 0 4.5897757121122264e-05 -0.034834274773215081 0 3.2224335252372103e-05 -0.034896835699567849 0 1.8090703483860074e-05 -0.03492543474819413 0 3.2224335252372103e-05 -0.034896835699567849 0 2.0633721229568988e-05 -0.034924124444847437 0 2.3738334351934555e-05 -0.03492193390618796 0 3.2224335252372103e-05 -0.034896835699567849 0 -8.6361096774580251e-06 -0.034897349638632433 0 1.0546555578011221e-05 -0.034915029090856892 0 4.5897757121122264e-05 -0.034834274773215081 0 3.2224335252372103e-05 -0.034896835699567849 0 -8.6361096774580251e-06 -0.034897349638632433 0 -5.3306726161500459e-05 -0.033579929133229686 0 3.3258118207635933e-05 -0.033381693817136099 0 -8.6361096774580251e-06 -0.034897349638632433 0 -2.6831494086203456e-06 -0.034919753837634696 0 1.0546555578011221e-05 -0.034915029090856892 0 -2.6831494086203456e-06 -0.034919753837634696 0 1.0546555578011221e-05 -0.034915029090856892 0 8.9932512737615314e-06 -0.034928006499641097 0 -2.6831494086203456e-06 -0.034919753837634696 0 8.9932512737615314e-06 -0.034928006499641097 0 -4.5382925529355301e-07 -0.034932083770592051 0 8.9932512737615314e-06 -0.034928006499641097 0 -4.5382925529355301e-07 -0.034932083770592051 0 9.2880455243654628e-06 -0.034940284440079968 0 -4.5382925529355301e-07 -0.034932083770592051 0 9.2880455243654628e-06 -0.034940284440079968 0 3.6218706483119046e-08 -0.034945042439022397 0 1.4332217253725727e-05 -0.034945381874299811 0 1.6735078376530887e-05 -0.034936449136729296 0 1.7357935592959937e-05 -0.034946525301995504 0 9.2880455243654628e-06 -0.034940284440079968 0 1.4332217253725727e-05 -0.034945381874299811 0 1.1937610258246217e-05 -0.034947916245492081 0 9.2880455243654628e-06 -0.034940284440079968 0 1.4332217253725727e-05 -0.034945381874299811 0 1.6735078376530887e-05 -0.034936449136729296 0 8.9932512737615314e-06 -0.034928006499641097 0 9.2880455243654628e-06 -0.034940284440079968 0 1.6735078376530887e-05 -0.034936449136729296 0 1.6735078376530887e-05 -0.034936449136729296 0 2.0633721229568988e-05 -0.034924124444847437 0 2.0351957285191148e-05 -0.03493474706565558 0 8.9932512737615314e-06 -0.034928006499641097 0 1.6735078376530887e-05 -0.034936449136729296 0 2.0633721229568988e-05 -0.034924124444847437 0 3.2224335252372103e-05 -0.034896835699567849 0 1.0546555578011221e-05 -0.034915029090856892 0 2.0633721229568988e-05 -0.034924124444847437 0 1.0546555578011221e-05 -0.034915029090856892 0 8.9932512737615314e-06 -0.034928006499641097 0 2.0633721229568988e-05 -0.034924124444847437 0 2.0633721229568988e-05 -0.034924124444847437 0 2.0351957285191148e-05 -0.03493474706565558 0 2.3738334351934555e-05 -0.03492193390618796 0 2.0351957285191148e-05 -0.03493474706565558 0 1.7357935592959937e-05 -0.034946525301995504 0 1.7792739641692601e-05 -0.034942861911232068 0 2.0351957285191148e-05 -0.03493474706565558 0 1.7792739641692601e-05 -0.034942861911232068 0 2.3738334351934555e-05 -0.03492193390618796 0 1.6735078376530887e-05 -0.034936449136729296 0 2.0351957285191148e-05 -0.03493474706565558 0 1.7357935592959937e-05 -0.034946525301995504 0 1.4332217253725727e-05 -0.034945381874299811 0 1.7357935592959937e-05 -0.034946525301995504 0 1.5202013499786922e-05 -0.034949655573910263 0 1.7357935592959937e-05 -0.034946525301995504 0 1.5027228713816004e-05 -0.034956419299821906 0 1.5531050581130654e-05 -0.034953880066221917 0 1.7357935592959937e-05 -0.034946525301995504 0 1.5027228713816004e-05 -0.034956419299821906 0 1.7792739641692601e-05 -0.034942861911232068 0 1.5027228713816004e-05 -0.034956419299821906 0 1.7792739641692601e-05 -0.034942861911232068 0 1.0965895106009844e-05 -0.034962980755153299 0 1.7792739641692601e-05 -0.034942861911232068 0 1.8090703483860074e-05 -0.03492543474819413 0 1.0718200294977637e-05 -0.0349558209193125 0 1.8090703483860074e-05 -0.03492543474819413 0 4.3684390937899139e-06 -0.034963069008455215 0 1.0718200294977637e-05 -0.0349558209193125 0 3.2224335252372103e-05 -0.034896835699567849 0 2.3738334351934555e-05 -0.03492193390618796 0 1.8090703483860074e-05 -0.03492543474819413 0 1.7792739641692601e-05 -0.034942861911232068 0 2.3738334351934555e-05 -0.03492193390618796 0 1.8090703483860074e-05 -0.03492543474819413 0 3.7070329069017885e-06 -0.034963655142500646 0 1.8090703483860074e-05 -0.03492543474819413 0 4.3684390937899139e-06 -0.034963069008455215 0 -4.930193595815705e-07 -0.034979510447225699 0 4.3684390937899139e-06 -0.034963069008455215 0 3.5417231731547533e-06 -0.034975893516291219 0 4.3684390937899139e-06 -0.034963069008455215 0 3.5417231731547533e-06 -0.034975893516291219 0 1.0718200294977637e-05 -0.0349558209193125 0 1.7792739641692601e-05 -0.034942861911232068 0 1.0718200294977637e-05 -0.0349558209193125 0 1.0965895106009844e-05 -0.034962980755153299 0 3.5417231731547533e-06 -0.034975893516291219 0 1.0718200294977637e-05 -0.0349558209193125 0 1.0965895106009844e-05 -0.034962980755153299 0 1.5027228713816004e-05 -0.034956419299821906 0 1.0965895106009844e-05 -0.034962980755153299 0 1.0354461639248901e-05 -0.034969263030705147 0 1.0965895106009844e-05 -0.034962980755153299 0 6.1773901517355447e-06 -0.034977830068242413 0 1.0354461639248901e-05 -0.034969263030705147 0 3.5417231731547533e-06 -0.034975893516291219 0 1.0965895106009844e-05 -0.034962980755153299 0 6.1773901517355447e-06 -0.034977830068242413 0 3.5417231731547533e-06 -0.034975893516291219 0 6.1773901517355447e-06 -0.034977830068242413 0 2.8715109941927693e-06 -0.034987018958004878 0 6.1773901517355447e-06 -0.034977830068242413 0 2.8715109941927693e-06 -0.034987018958004878 0 2.7211131487684024e-06 -0.034990017026326488 0 6.1773901517355447e-06 -0.034977830068242413 0 2.7211131487684024e-06 -0.034990017026326488 0 4.2890863040564645e-06 -0.034984425336983989 0 2.7211131487684024e-06 -0.034990017026326488 0 2.9708900054162288e-09 -0.034999981871987718 0 2.4522019671457175e-09 -0.034999982430474988 0 2.8715109941927693e-06 -0.034987018958004878 0 2.7211131487684024e-06 -0.034990017026326488 0 2.9708900054162288e-09 -0.034999981871987718 0 2.8715109941927693e-06 -0.034987018958004878 0 2.9708900054162288e-09 -0.034999981871987718 0 -7.7811202105044081e-10 -0.034999983100422134 0 3.5417231731547533e-06 -0.034975893516291219 0 2.8715109941927693e-06 -0.034987018958004878 0 -7.7811202105044081e-10 -0.034999983100422134 0 3.5417231731547533e-06 -0.034975893516291219 0 -7.7811202105044081e-10 -0.034999983100422134 0 -1.6092765480848322e-07 -0.034989393007726098 0 -4.930193595815705e-07 -0.034979510447225699 0 3.5417231731547533e-06 -0.034975893516291219 0 -1.6092765480848322e-07 -0.034989393007726098 0 -1.401072893980662e-09 -0.034999987815611415 0 -7.7811202105044081e-10 -0.034999983100422134 0 -1.6092765480848322e-07 -0.034989393007726098 0 -0.0008517684331005071 -0.03248805875582305 0 7.7537335466808602e-05 -0.032512872085822354 0 -0.0010810070352198023 -0.031062172086528724 0 -0.0008517684331005071 -0.03248805875582305 0 -0.0010384965510824439 -0.032937133564510633 0 -0.001484579304012644 -0.031062898231794384 0 0.00063113220643094706 -0.020140411011960783 0 0.00029903748909086849 -0.020288211080087878 0 0.00063113220643094706 -0.020140411011960783 0 0.00040871886990214551 -0.020391468339354256 0 -0.0008517684331005071 -0.03248805875582305 0 -0.0010384965510824439 -0.032937133564510633 0 -0.00035053228088714451 -0.03264031700816674 0 -0.0007726264668555476 -0.032817687598317442 0 -0.00035053228088714451 -0.03264031700816674 0 -0.00031938990765716606 -0.033091592446248846 0 0.00099704150304949545 -0.034148606728494041 0 0.0010274897705349179 -0.034399725862264245 0 0.000771706674478263 -0.034355521930418423 0 7.7537335466808602e-05 -0.032512872085822354 0 -0.00035053228088714451 -0.03264031700816674 0 3.667965439701173e-05 -0.033050088221779531 0 -0.0008517684331005071 -0.03248805875582305 0 7.7537335466808602e-05 -0.032512872085822354 0 -0.00035053228088714451 -0.03264031700816674 0 -0.00031938990765716606 -0.033091592446248846 0 3.667965439701173e-05 -0.033050088221779531 0 6.8183296504115891e-05 -0.033365364439610475 0 3.667965439701173e-05 -0.033050088221779531 0 6.8183296504115891e-05 -0.033365364439610475 0 0.00060848415126352965 -0.033713329012775947 0 7.7537335466808602e-05 -0.032512872085822354 0 3.667965439701173e-05 -0.033050088221779531 0 0.00060848415126352965 -0.033713329012775947 0 -0.00035053228088714451 -0.03264031700816674 0 -0.00031938990765716606 -0.033091592446248846 0 3.667965439701173e-05 -0.033050088221779531 0 6.8183296504115891e-05 -0.033365364439610475 0 -0.00056490193606632605 -0.033552282026458567 0 3.3266096611921523e-05 -0.033704160007303086 0 -0.00031938990765716606 -0.033091592446248846 0 6.8183296504115891e-05 -0.033365364439610475 0 -0.00056490193606632605 -0.033552282026458567 0 0.0037811785495487919 -0.010171289512044093 0 0.0037348930821351372 -0.01025576411374979 0 0.0038132885658093804 -0.0102923083346579 0 -0.0007726264668555476 -0.032817687598317442 0 -0.00031938990765716606 -0.033091592446248846 0 -0.00056490193606632605 -0.033552282026458567 0 0.00063113220643094706 -0.020140411011960783 0 0.0014053271247150437 -0.022219641703460614 0 0.00063113220643094706 -0.020140411011960783 0 0.0020214151409417395 -0.016773616366197938 0 0.0037811785495487919 -0.010171289512044093 0 0.0037348930821351372 -0.01025576411374979 0 0.0036531317384369002 -0.010199452472864235 0 0.0037348930821351372 -0.01025576411374979 0 0.0036531317384369002 -0.010199452472864235 0 0.0036892632973605731 -0.0103177206766824 0 0.0036531317384369002 -0.010199452472864235 0 0.0036041904591544785 -0.010282537111228842 0 0.0036892632973605731 -0.0103177206766824 0 0.0020214151409417395 -0.016773616366197938 0 0.003013936413734597 -0.013836911875535875 0 0.0036531317384369002 -0.010199452472864235 0 0.0035034637652787423 -0.010212681606831427 0 0.0036041904591544785 -0.010282537111228842 0 0.00096170451016593529 -0.016963496638039251 0 0.0019273478546820788 -0.016614535206020499 0 0.0010953774862138171 -0.017572941645373232 0 0.003013936413734597 -0.013836911875535875 0 0.0018993288887812659 -0.016363662030988015 0 -0.00013415356715833346 -0.0067741675212334854 0 -0.00016928854212679536 -0.0067819910072738675 0 -0.00014811449093209917 -0.0068078719339959119 0 -0.00013415356715833346 -0.0067741675212334854 0 -0.00013952528885784445 -0.0067408716331749602 0 -0.00016928854212679536 -0.0067819910072738675 0 1.4642177792144178e-06 -0.017310744595879949 0 0.00096170451016593529 -0.016963496638039251 0 0.0010953774862138171 -0.017572941645373232 0 0.0018993288887812659 -0.016363662030988015 0 0.00029903748909086849 -0.020288211080087878 0 1.4642177792144178e-06 -0.017310744595879949 0 0.0010953774862138171 -0.017572941645373232 0 0.00026841540447789344 -0.018525501990327393 0 -0.00016928854212679536 -0.0067819910072738675 0 -0.00017642713600319988 -0.0068174525216150497 0 -0.00020213738269234105 -0.0068266315056788179 0 -0.00017642713600319988 -0.0068174525216150497 0 -0.0001976616590575898 -0.0068496293800043772 0 -0.00020213738269234105 -0.0068266315056788179 0 -0.00036012358474741223 -0.019431091416296595 0 0.00029903748909086849 -0.020288211080087878 0 -0.00016928854212679536 -0.0067819910072738675 0 -0.00017642713600319988 -0.0068174525216150497 0 -0.00014811449093209917 -0.0068078719339959119 0 -0.00017642713600319988 -0.0068174525216150497 0 -0.00014811449093209917 -0.0068078719339959119 0 -0.00017264209965741468 -0.0068411209337672953 0 -0.00012546410402928409 -0.0068435127211502076 0 -0.00017782382380318059 -0.0068698948953024941 0 -0.00015029333216679916 -0.006835027183300312 0 -0.00012796865302334591 -0.0068154333627092707 0 -0.00014811449093209917 -0.0068078719339959119 0 -0.00015029333216679916 -0.006835027183300312 0 -0.00014811449093209917 -0.0068078719339959119 0 -0.00015029333216679916 -0.006835027183300312 0 -0.00017264209965741468 -0.0068411209337672953 0 -0.00017782382380318059 -0.0068698948953024941 0 -0.00015029333216679916 -0.006835027183300312 0 -0.00017264209965741468 -0.0068411209337672953 0 -0.0002744225925545333 -0.020107112783725387 0 -0.00015231595412855815 -0.020250681674920615 0 -3.8070803065521099e-06 -0.021312962140862816 0 -0.00050193324299085843 -0.019089839378601918 0 -0.00055986114299043366 -0.019021058464223337 0 -0.00042171964125831856 -0.019462434745948439 0 -0.00036012358474741223 -0.019431091416296595 0 -0.00024273373350102543 -0.019842793545094949 0 -0.00017642713600319988 -0.0068174525216150497 0 -0.0001976616590575898 -0.0068496293800043772 0 -0.00017264209965741468 -0.0068411209337672953 0 -0.00017782382380318059 -0.0068698948953024941 0 -0.0001976616590575898 -0.0068496293800043772 0 -0.00017264209965741468 -0.0068411209337672953 0 -0.00036012358474741223 -0.019431091416296595 0 -0.0003980130430187419 -0.018910732051940226 0 0.00056362890714159192 -0.019010873929842562 0 -0.00098633784082253909 -0.017183574944428636 0 -0.00071782714380170967 -0.018399181965353537 0 -0.0011215437190537397 -0.017508916573075947 0 -0.00036012358474741223 -0.019431091416296595 0 -0.00024273373350102543 -0.019842793545094949 0 -0.0003980130430187419 -0.018910732051940226 0 0.00040519462546301623 -0.020169014312119565 0 0.00071029019592774314 -0.019926517952833657 0 0.00029880971395027464 -0.019771442773171659 0 0.0013344061091447141 -0.034545234606964792 0 0.0010032121996789395 -0.034549614037371043 0 0.0010981587019375158 -0.034822204463198517 0 0.00056811353514686495 -0.019480179809327106 0 0.00071029019592774314 -0.019926517952833657 0 0.00029880971395027464 -0.019771442773171659 0 9.9513875799018994e-05 -0.020042106545246279 0 0.00040519462546301623 -0.020169014312119565 0 0.00029880971395027464 -0.019771442773171659 0 9.9513875799018994e-05 -0.020042106545246279 0 0.00029880971395027464 -0.019771442773171659 0 -0.00027045985449732275 -0.019848690510545244 0 0.00029880971395027464 -0.019771442773171659 0 0.00031218386599404536 -0.019179007704690745 0 -0.00027045985449732275 -0.019848690510545244 0 1.1568846367223725e-05 -0.021476344453556003 0 -0.00062907872674155488 -0.022263025320228447 0 0.00056811353514686495 -0.019480179809327106 0 0.00029880971395027464 -0.019771442773171659 0 0.00031218386599404536 -0.019179007704690745 0 -0.00024273373350102543 -0.019842793545094949 0 1.1568846367223725e-05 -0.021476344453556003 0 -0.00024273373350102543 -0.019842793545094949 0 0.00012681309691650884 -0.020849770607386079 0 0.00046969815169374307 -0.022625838228014512 0 0.00012681309691650884 -0.020849770607386079 0 -0.0008517684331005071 -0.03248805875582305 0 -0.0013628045950464191 -0.030920957059144768 0 -0.001484579304012644 -0.031062898231794384 0 -0.00015231595412855815 -0.020250681674920615 0 0.00013721788670408578 -0.02114976775440883 0 -3.8070803065521099e-06 -0.021312962140862816 0 0.0020496398372335293 -0.026499407844524994 0 1.1568846367223725e-05 -0.021476344453556003 0 0.00015776309515291417 -0.021399087604556163 0 0.0003136189781521032 -0.021882083041770937 0 0.00044194389752274567 -0.021733527486677447 0 -0.0008517684331005071 -0.03248805875582305 0 -0.0012443165404304043 -0.031249437387118283 0 -0.0010810070352198023 -0.031062172086528724 0 0.00012681309691650884 -0.020849770607386079 0 1.1568846367223725e-05 -0.021476344453556003 0 0.00012681309691650884 -0.020849770607386079 0 0.00029903748909086849 -0.020288211080087878 0 0.0010032121996789395 -0.034549614037371043 0 0.00081408497762862461 -0.034697715664766905 0 0.000771706674478263 -0.034355521930418423 0 0.0013344061091447141 -0.034545234606964792 0 0.0010274897705349179 -0.034399725862264245 0 0.0010032121996789395 -0.034549614037371043 0 0.00099704150304949545 -0.034148606728494041 0 0.0013344061091447141 -0.034545234606964792 0 0.0010274897705349179 -0.034399725862264245 0 0.0010274897705349179 -0.034399725862264245 0 0.0010032121996789395 -0.034549614037371043 0 0.000771706674478263 -0.034355521930418423 0 0.00085995127817599631 -0.035092972686527987 0 0.0010981587019375158 -0.034822204463198517 0 0.00081408497762862461 -0.034697715664766905 0 0.0010032121996789395 -0.034549614037371043 0 0.0010981587019375158 -0.034822204463198517 0 0.00081408497762862461 -0.034697715664766905 0 0.00085995127817599631 -0.035092972686527987 0 0.00081408497762862461 -0.034697715664766905 0 0.00055592793042848914 -0.034809903660762476 0 0.00081408497762862461 -0.034697715664766905 0 0.00055592793042848914 -0.034809903660762476 0 0.00059805912191532675 -0.034550263262685676 0 0.00055592793042848914 -0.034809903660762476 0 0.0003091426530033628 -0.034583005236173088 0 0.00059805912191532675 -0.034550263262685676 0 0.00055592793042848914 -0.034809903660762476 0 0.0003091426530033628 -0.034583005236173088 0 0.00015881453635779904 -0.034900715429847289 0 0.0003091426530033628 -0.034583005236173088 0 0.00013949482097396396 -0.03426933577095518 0 0.00047700923974126138 -0.034279637504719247 0 0.0003091426530033628 -0.034583005236173088 0 0.00059805912191532675 -0.034550263262685676 0 0.00047700923974126138 -0.034279637504719247 0 0.000771706674478263 -0.034355521930418423 0 0.00059805912191532675 -0.034550263262685676 0 0.00047700923974126138 -0.034279637504719247 0 0.00081408497762862461 -0.034697715664766905 0 0.000771706674478263 -0.034355521930418423 0 0.00059805912191532675 -0.034550263262685676 0 -0.00026095006254975859 -0.034838005646552532 0 0.00015881453635779904 -0.034900715429847289 0 3.7863236971458853e-06 -0.034630245231203685 0 0.0003091426530033628 -0.034583005236173088 0 0.00015881453635779904 -0.034900715429847289 0 3.7863236971458853e-06 -0.034630245231203685 0 0.0003091426530033628 -0.034583005236173088 0 3.7863236971458853e-06 -0.034630245231203685 0 0.00013949482097396396 -0.03426933577095518 0 3.7863236971458853e-06 -0.034630245231203685 0 -0.00025580339007475963 -0.034449801342698698 0 0.00013949482097396396 -0.03426933577095518 0 -0.00026095006254975859 -0.034838005646552532 0 3.7863236971458853e-06 -0.034630245231203685 0 -0.00025580339007475963 -0.034449801342698698 0 -0.00025580339007475963 -0.034449801342698698 0 0.00013949482097396396 -0.03426933577095518 0 -0.00024240474886139785 -0.034087878501391916 0 0.00074511339221478695 -0.034919183749990881 0 0.00025661929248139992 -0.035008428103945714 0 0.00049887552906046273 -0.034784172592661818 0 -9.7080251326007815e-05 -0.030779278136221853 0 -0.00033900360769364995 -0.032299535017990981 0 0.00013949482097396396 -0.03426933577095518 0 0.00025701281226205865 -0.033799034873668449 0 -0.00024240474886139785 -0.034087878501391916 0 0.00025661929248139992 -0.035008428103945714 0 0.00028667556139764502 -0.034747893861050871 0 0.00049887552906046273 -0.034784172592661818 0 0.000771706674478263 -0.034355521930418423 0 0.00065397753089396445 -0.034084458884429306 0 0.00047700923974126138 -0.034279637504719247 0 0.00099704150304949545 -0.034148606728494041 0 0.000771706674478263 -0.034355521930418423 0 0.00065397753089396445 -0.034084458884429306 0 0.00013949482097396396 -0.03426933577095518 0 0.00047700923974126138 -0.034279637504719247 0 0.00043132144911526313 -0.03400658321845252 0 0.00065397753089396445 -0.034084458884429306 0 0.00047700923974126138 -0.034279637504719247 0 0.00043132144911526313 -0.03400658321845252 0 0.00025701281226205865 -0.033799034873668449 0 0.00043132144911526313 -0.03400658321845252 0 0.00060848415126352965 -0.033713329012775947 0 0.00013949482097396396 -0.03426933577095518 0 0.00025701281226205865 -0.033799034873668449 0 0.00043132144911526313 -0.03400658321845252 0 0.00065397753089396445 -0.034084458884429306 0 0.00043132144911526313 -0.03400658321845252 0 0.00060848415126352965 -0.033713329012775947 0 0.0020496398372335293 -0.026499407844524994 0 0.0025239379173392132 -0.027885697951731011 0 6.8183296504115891e-05 -0.033365364439610475 0 0.00060848415126352965 -0.033713329012775947 0 0.00034600409288822019 -0.033630492694801381 0 0.00099704150304949545 -0.034148606728494041 0 0.00065397753089396445 -0.034084458884429306 0 0.00060848415126352965 -0.033713329012775947 0 0.00060848415126352965 -0.033713329012775947 0 0.00060643398064644455 -0.033734702252554566 0 0.00034600409288822019 -0.033630492694801381 0 0.00060643398064644455 -0.033734702252554566 0 0.00034600409288822019 -0.033630492694801381 0 3.3266096611921523e-05 -0.033704160007303086 0 0.00074511339221478695 -0.034919183749990881 0 0.0012673417345021225 -0.034696230425892122 0 0.00074793022352374872 -0.034702419224399282 0 0.0012673417345021225 -0.034696230425892122 0 0.0012573431460943365 -0.034530702962722516 0 0.00074793022352374872 -0.034702419224399282 0 0.00025701281226205865 -0.033799034873668449 0 0.00060848415126352965 -0.033713329012775947 0 0.00060643398064644455 -0.033734702252554566 0 0.0014338874092107582 -0.026646817541224391 0 0.0010852818427483848 -0.027351670048930101 0 -9.7080251326007815e-05 -0.030779278136221853 0 0.00048897993265310043 -0.028382507227724518 0 0.0029343650976270258 -0.034365615040640257 0 0.0018294448254382164 -0.034041676594587199 0 0.00074793022352374872 -0.034702419224399282 0 0.0018294448254382164 -0.034041676594587199 0 0.001139087377396607 -0.034164596285803428 0 0.00074793022352374872 -0.034702419224399282 0 0.0018294448254382164 -0.034041676594587199 0 0.001139087377396607 -0.034164596285803428 0 0.0010564733798318314 -0.033534319217510572 0 0.001139087377396607 -0.034164596285803428 0 0.0010564733798318314 -0.033534319217510572 0 0.0007548499534878111 -0.034427840046530975 0 0.0018294448254382164 -0.034041676594587199 0 0.0010564733798318314 -0.033534319217510572 0 0.0015763846525349797 -0.032760557406281955 0 0.0018294448254382164 -0.034041676594587199 0 0.0026026424647449136 -0.033445966043660111 0 0.0015763846525349797 -0.032760557406281955 0 0.0026026424647449136 -0.033445966043660111 0 0.0033450245247052977 -0.033682274334664676 0 0.0037752192512608583 -0.032868543292843333 0 0.0029343650976270258 -0.034365615040640257 0 0.0033450245247052977 -0.033682274334664676 0 0.0026756987483617357 -0.033884647179201047 0 0.0018294448254382164 -0.034041676594587199 0 0.0026026424647449136 -0.033445966043660111 0 0.0026756987483617357 -0.033884647179201047 0 0.0029343650976270258 -0.034365615040640257 0 0.0018294448254382164 -0.034041676594587199 0 0.0026756987483617357 -0.033884647179201047 0 0.0026026424647449136 -0.033445966043660111 0 0.0033450245247052977 -0.033682274334664676 0 0.0026756987483617357 -0.033884647179201047 0 0.00028667556139764502 -0.034747893861050871 0 0.00046816132412940716 -0.034614512656584433 0 0.00049887552906046273 -0.034784172592661818 0 0.00028667556139764502 -0.034747893861050871 0 0.00046816132412940716 -0.034614512656584433 0 0.00036240469643463222 -0.034528182064536526 0 0.00058456764276244009 -0.034600887769261068 0 0.00049887552906046273 -0.034784172592661818 0 0.00074793022352374872 -0.034702419224399282 0 0.00058456764276244009 -0.034600887769261068 0 0.0007548499534878111 -0.034427840046530975 0 0.00054841278296400078 -0.034449415037331468 0 0.00046816132412940716 -0.034614512656584433 0 0.00058456764276244009 -0.034600887769261068 0 0.00049887552906046273 -0.034784172592661818 0 0.00046816132412940716 -0.034614512656584433 0 0.00058456764276244009 -0.034600887769261068 0 0.00054841278296400078 -0.034449415037331468 0 0.00074511339221478695 -0.034919183749990881 0 0.00049887552906046273 -0.034784172592661818 0 0.00074793022352374872 -0.034702419224399282 0 0.00058456764276244009 -0.034600887769261068 0 0.00074793022352374872 -0.034702419224399282 0 0.0007548499534878111 -0.034427840046530975 0 0.001139087377396607 -0.034164596285803428 0 0.00074793022352374872 -0.034702419224399282 0 0.0007548499534878111 -0.034427840046530975 0 0.0007548499534878111 -0.034427840046530975 0 0.00054841278296400078 -0.034449415037331468 0 0.00052519593272946398 -0.034303370446828255 0 0.0010564733798318314 -0.033534319217510572 0 0.0007548499534878111 -0.034427840046530975 0 -0.00020018059145488783 -0.032907196167798025 0 0.0010564733798318314 -0.033534319217510572 0 -0.00020018059145488783 -0.032907196167798025 0 0.0015763846525349797 -0.032760557406281955 0 0.0003706515312642643 -0.032581944111678196 0 0.00023562057632812492 -0.03229965401363686 0 0.00054841278296400078 -0.034449415037331468 0 0.00047961256255973477 -0.034374158573209669 0 0.00052519593272946398 -0.034303370446828255 0 0.00022192131936045375 -0.032332118183720636 0 0.00023562057632812492 -0.03229965401363686 0 0.00020431783666158672 -0.034414552844338732 0 0.00028667556139764502 -0.034747893861050871 0 0.00036240469643463222 -0.034528182064536526 0 0.00020431783666158672 -0.034414552844338732 0 0.00047961256255973477 -0.034374158573209669 0 0.00043433778350321047 -0.03407681953358134 0 0.00046489305689498804 -0.034481066709921133 0 0.00047961256255973477 -0.034374158573209669 0 0.00036240469643463222 -0.034528182064536526 0 0.00046816132412940716 -0.034614512656584433 0 0.00046489305689498804 -0.034481066709921133 0 0.00036240469643463222 -0.034528182064536526 0 0.00046816132412940716 -0.034614512656584433 0 0.00054841278296400078 -0.034449415037331468 0 0.00046489305689498804 -0.034481066709921133 0 0.00054841278296400078 -0.034449415037331468 0 0.00046489305689498804 -0.034481066709921133 0 0.00047961256255973477 -0.034374158573209669 0 0.00020431783666158672 -0.034414552844338732 0 0.00047961256255973477 -0.034374158573209669 0 0.00036240469643463222 -0.034528182064536526 0 3.3258118207635933e-05 -0.033381693817136099 0 0.00032632459270395413 -0.032738554415238867 0 -8.6361096774580251e-06 -0.034897349638632433 0 -2.6831494086203456e-06 -0.034919753837634696 0 -2.04354341688825e-05 -0.034924171765990712 0 0.00047961256255973477 -0.034374158573209669 0 0.00043433778350321047 -0.03407681953358134 0 0.00055479363813462862 -0.034273420781482822 0 -2.6831494086203456e-06 -0.034919753837634696 0 -4.5382925529355301e-07 -0.034932083770592051 0 -2.04354341688825e-05 -0.034924171765990712 0 0.00032632459270395413 -0.032738554415238867 0 0.00023562057632812492 -0.03229965401363686 0 0.00023562057632812492 -0.03229965401363686 0 0.00072012431557349772 -0.030198382994982315 0 0.00053134397867062467 -0.031016362564226279 0 0.00040090799694125811 -0.030805769016619623 0 0.00010702812543008707 -0.031197873675784971 0 -0.00020018059145488783 -0.032907196167798025 0 0.0015763846525349797 -0.032760557406281955 0 0.0011309230959470657 -0.031104796905585114 0 0.00032632459270395413 -0.032738554415238867 0 0.00047391213281319913 -0.03228609160042558 0 0.00053134397867062467 -0.031016362564226279 0 0.00025939260061293894 -0.031391679104713077 0 0.00010702812543008707 -0.031197873675784971 0 0.00060646947137956255 -0.030929443139648034 0 0.00029117502187529131 -0.031358619419432875 0 0.00058396365513047976 -0.031482453636756377 0 -4.5382925529355301e-07 -0.034932083770592051 0 -2.04354341688825e-05 -0.034924171765990712 0 3.6218706483119046e-08 -0.034945042439022397 0 0.00060646947137956255 -0.030929443139648034 0 0.00058396365513047976 -0.031482453636756377 0 0.00088822736905961881 -0.031379040545231919 0 0.00032632459270395413 -0.032738554415238867 0 0.00039174951628381772 -0.033112187097662067 0 0.0026026424647449136 -0.033445966043660111 0 0.0029366448435639617 -0.03155578555514392 0 0.0015763846525349797 -0.032760557406281955 0 0.0026026424647449136 -0.033445966043660111 0 0.0029366448435639617 -0.03155578555514392 0 0.0037752192512608583 -0.032868543292843333 0 0.0029366448435639617 -0.03155578555514392 0 0.0015763846525349797 -0.032760557406281955 0 0.0011309230959470657 -0.031104796905585114 0 0.00072012431557349772 -0.030198382994982315 0 0.0014916189447331601 -0.027578147170989744 0 0.0029366448435639617 -0.03155578555514392 0 0.0011309230959470657 -0.031104796905585114 0 0.0024632149478696643 -0.029296984077692448 0 0.00025939260061293894 -0.031391679104713077 0 0.00010702812543008707 -0.031197873675784971 0 -0.0001951603971836252 -0.031602150477000358 0 0.0029366448435639617 -0.03155578555514392 0 0.0042745186413548925 -0.029629918266178844 0 0.0024632149478696643 -0.029296984077692448 0 0.0026111056297155096 -0.023084989850406249 0 0.0029045742909210789 -0.02261762907060973 0 0.0043219353443704452 -0.011153605345822741 0 0.0045481251175268859 -0.01084423032344509 0 0.0046749714667224523 -0.011345201958827185 0 0.0029366448435639617 -0.03155578555514392 0 0.0047347126543962684 -0.031764498676512536 0 0.0042745186413548925 -0.029629918266178844 0 0.0043219353443704452 -0.011153605345822741 0 0.0041961224819281051 -0.010906052738594947 0 0.0045481251175268859 -0.01084423032344509 0 0.0043219353443704452 -0.011153605345822741 0 0.0041961224819281051 -0.010906052738594947 0 0.0040737328318033511 -0.011190794968448152 0 0.0041961224819281051 -0.010906052738594947 0 0.004244777567907118 -0.010646033165313111 0 0.0045481251175268859 -0.01084423032344509 0 0.004244777567907118 -0.010646033165313111 0 0.0045481251175268859 -0.01084423032344509 0 0.0044296385585571594 -0.010360219736690962 0 0.0041961224819281051 -0.010906052738594947 0 0.004244777567907118 -0.010646033165313111 0 0.0040215376585272088 -0.01073290300318749 0 0.0029366448435639617 -0.03155578555514392 0 0.0047347126543962684 -0.031764498676512536 0 0.0037752192512608583 -0.032868543292843333 0 0.0047347126543962684 -0.031764498676512536 0 0.0037752192512608583 -0.032868543292843333 0 0.0052030495883489888 -0.033891748379674687 0 0.0026111056297155096 -0.023084989850406249 0 0.0021465129629990583 -0.024488868060402715 0 0.0014338874092107582 -0.026646817541224391 0 0.0021465129629990583 -0.024488868060402715 0 0.0033450245247052977 -0.033682274334664676 0 0.0037752192512608583 -0.032868543292843333 0 0.0052030495883489888 -0.033891748379674687 0 0.0029343650976270258 -0.034365615040640257 0 0.0033450245247052977 -0.033682274334664676 0 0.0052030495883489888 -0.033891748379674687 0 0.0012573431460943365 -0.034530702962722516 0 0.0018539343647580825 -0.034368018389326536 0 0.0018669470579269994 -0.034428023230336322 0 0.004244777567907118 -0.010646033165313111 0 0.0041879090125293708 -0.010401681559373852 0 0.0044296385585571594 -0.010360219736690962 0 0.004244777567907118 -0.010646033165313111 0 0.0041879090125293708 -0.010401681559373852 0 0.0040218817752631008 -0.01042879583739032 0 0.0028262905323607418 -0.023680784342476825 0 0.002177572631495049 -0.024385529881480895 0 0.0037613918165537163 -0.010455912320930277 0 0.0038437384737449566 -0.010424278991702731 0 0.0037597048451642107 -0.010355436470916458 0 0.0024175113660407973 -0.024038024833808038 0 0.0020599470914358007 -0.02411129161917747 0 0.0020766668748540989 -0.024186889963359683 0 0.0028262905323607418 -0.023680784342476825 0 0.0021465129629990583 -0.024488868060402715 0 0.0021465129629990583 -0.024488868060402715 0 0.002177572631495049 -0.024385529881480895 0 0.002177572631495049 -0.024385529881480895 0 0.0014053271247150437 -0.022219641703460614 0 0.0038437384737449566 -0.010424278991702731 0 0.0037597048451642107 -0.010355436470916458 0 0.0038132885658093804 -0.0102923083346579 0 -0.00037596630632628838 -0.034227490181068812 0 -0.00056490193606632605 -0.033552282026458567 0 3.3266096611921523e-05 -0.033704160007303086 0 0.0037348930821351372 -0.01025576411374979 0 0.0037597048451642107 -0.010355436470916458 0 0.0038132885658093804 -0.0102923083346579 0 0.00060643398064644455 -0.033734702252554566 0 -0.00037596630632628838 -0.034227490181068812 0 3.3266096611921523e-05 -0.033704160007303086 0 0.0012673417345021225 -0.034696230425892122 0 0.0012573431460943365 -0.034530702962722516 0 0.0018669470579269994 -0.034428023230336322 0 0.00048897993265310043 -0.028382507227724518 0 0.002177572631495049 -0.024385529881480895 0 6.8183296504115891e-05 -0.033365364439610475 0 0.00034600409288822019 -0.033630492694801381 0 3.3266096611921523e-05 -0.033704160007303086 0 0.0036354262745858252 -0.010385515826285673 0 0.0035287804792966861 -0.01034231348827094 0 0.0036041904591544785 -0.010282537111228842 0 0.0035034637652787423 -0.010212681606831427 0 0.0035287804792966861 -0.01034231348827094 0 0.0036041904591544785 -0.010282537111228842 0 0.0036354262745858252 -0.010385515826285673 0 0.0036041904591544785 -0.010282537111228842 0 0.0036892632973605731 -0.0103177206766824 0 0.0037348930821351372 -0.01025576411374979 0 0.0037597048451642107 -0.010355436470916458 0 0.0036892632973605731 -0.0103177206766824 0 0.0037613918165537163 -0.010455912320930277 0 0.0037597048451642107 -0.010355436470916458 0 0.0037103790869236 -0.010395591165769068 0 0.0037597048451642107 -0.010355436470916458 0 0.0036892632973605731 -0.0103177206766824 0 0.0037103790869236 -0.010395591165769068 0 0.0036354262745858252 -0.010385515826285673 0 0.0036892632973605731 -0.0103177206766824 0 0.0037103790869236 -0.010395591165769068 0 0.0036354262745858252 -0.010385515826285673 0 0.0037103790869236 -0.010395591165769068 0 0.003706032087044852 -0.010464816032507866 0 0.0028262905323607418 -0.023680784342476825 0 0.003250252253623338 -0.022989634730173882 0 0.0037613918165537163 -0.010455912320930277 0 0.0037103790869236 -0.010395591165769068 0 0.003706032087044852 -0.010464816032507866 0 0.003250252253623338 -0.022989634730173882 0 0.0036419715043065266 -0.022293875400342882 0 0.0036354262745858252 -0.010385515826285673 0 0.003706032087044852 -0.010464816032507866 0 0.0035798417740625231 -0.01051046467687158 0 0.0036354262745858252 -0.010385515826285673 0 0.0035287804792966861 -0.01034231348827094 0 0.0035798417740625231 -0.01051046467687158 0 0.0040218817752631008 -0.01042879583739032 0 0.0035798417740625231 -0.01051046467687158 0 0.003761392238510419 -0.010749531372454364 0 0.0035798417740625231 -0.01051046467687158 0 0.003761392238510419 -0.010749531372454364 0 0.0035627393985497454 -0.010841755329527438 0 0.003761392238510419 -0.010749531372454364 0 0.0035627393985497454 -0.010841755329527438 0 0.0038711769877127159 -0.010934929949313778 0 0.0041961224819281051 -0.010906052738594947 0 0.0040215376585272088 -0.01073290300318749 0 0.0038711769877127159 -0.010934929949313778 0 0.0040218817752631008 -0.01042879583739032 0 0.003761392238510419 -0.010749531372454364 0 0.0040215376585272088 -0.01073290300318749 0 0.004244777567907118 -0.010646033165313111 0 0.0040218817752631008 -0.01042879583739032 0 0.0040215376585272088 -0.01073290300318749 0 0.003761392238510419 -0.010749531372454364 0 0.0040215376585272088 -0.01073290300318749 0 0.0038711769877127159 -0.010934929949313778 0 0.0041961224819281051 -0.010906052738594947 0 0.0038711769877127159 -0.010934929949313778 0 0.0040737328318033511 -0.011190794968448152 0 0.0038711769877127159 -0.010934929949313778 0 0.0040737328318033511 -0.011190794968448152 0 0.0037470379556018086 -0.011250118857897694 0 0.0033905618887792072 -0.011133829266361216 0 0.0035627393985497454 -0.010841755329527438 0 0.0037470379556018086 -0.011250118857897694 0 0.0035627393985497454 -0.010841755329527438 0 0.0038711769877127159 -0.010934929949313778 0 0.0037470379556018086 -0.011250118857897694 0 0.0033905618887792072 -0.011133829266361216 0 0.0037470379556018086 -0.011250118857897694 0 0.003556994015330868 -0.01149620241551824 0 0.0037470379556018086 -0.011250118857897694 0 0.0038212449075655163 -0.011650741651421076 0 0.003556994015330868 -0.01149620241551824 0 0.0037470379556018086 -0.011250118857897694 0 0.0040392930424167414 -0.01148381123079506 0 0.0038212449075655163 -0.011650741651421076 0 0.0040737328318033511 -0.011190794968448152 0 0.0037470379556018086 -0.011250118857897694 0 0.0040392930424167414 -0.01148381123079506 0 0.0040737328318033511 -0.011190794968448152 0 0.0040392930424167414 -0.01148381123079506 0 0.004282549782958645 -0.011414584431817133 0 0.0040748122714666709 -0.011711552862202214 0 0.0038544321273808889 -0.011876950634036973 0 0.0042749407336136452 -0.011882485297452314 0 0.0040392930424167414 -0.01148381123079506 0 0.0040748122714666709 -0.011711552862202214 0 0.0038212449075655163 -0.011650741651421076 0 0.0040748122714666709 -0.011711552862202214 0 0.0038212449075655163 -0.011650741651421076 0 0.0038544321273808889 -0.011876950634036973 0 0.0038212449075655163 -0.011650741651421076 0 0.0036285784201775645 -0.011720463307295759 0 0.003556994015330868 -0.01149620241551824 0 0.0038212449075655163 -0.011650741651421076 0 0.0036285784201775645 -0.011720463307295759 0 0.0038544321273808889 -0.011876950634036973 0 0.0037428264850356456 -0.012117062504382235 0 0.0039793195632478783 -0.011975820619519975 0 0.0039486848605610643 -0.012387752554348258 0 0.003920834765190272 -0.019273799838757582 0 0.0038914759249074728 -0.018842438435557947 0 0.0036285784201775645 -0.011720463307295759 0 0.0038544321273808889 -0.011876950634036973 0 0.0034400436704992497 -0.01190310983812571 0 0.0037428264850356456 -0.012117062504382235 0 0.0039793195632478783 -0.011975820619519975 0 0.0035409405003651588 -0.011954115065689278 0 0.0039793195632478783 -0.011975820619519975 0 0.0035409405003651588 -0.011954115065689278 0 0.0034400436704992497 -0.01190310983812571 0 0.0037428264850356456 -0.012117062504382235 0 0.0039486848605610643 -0.012387752554348258 0 0.0034211456353462999 -0.012109935812545256 0 0.002980833208477121 -0.018353159949043928 0 0.0023153870836739865 -0.016287556911858264 0 0.003920834765190272 -0.019273799838757582 0 0.0038379786270100122 -0.020625893508354962 0 0.0039793195632478783 -0.011975820619519975 0 0.0043457761343122332 -0.012165496882124019 0 0.004486462383388394 -0.011996622727458904 0 0.0039793195632478783 -0.011975820619519975 0 0.0043457761343122332 -0.012165496882124019 0 0.0042712079716309397 -0.012335373539415707 0 0.0039793195632478783 -0.011975820619519975 0 0.0042712079716309397 -0.012335373539415707 0 0.0039486848605610643 -0.012387752554348258 0 0.002980833208477121 -0.018353159949043928 0 0.0040137001783836865 -0.021059726996771701 0 0.0027644808874292721 -0.017783608083294811 0 0.0029661221814088084 -0.017881832385044014 0 0.0027922384466979662 -0.017916736231284494 0 0.0042712079716309397 -0.012335373539415707 0 0.0039486848605610643 -0.012387752554348258 0 0.0044287224619070018 -0.012632770438655645 0 0.0027644808874292721 -0.017783608083294811 0 0.0025598548759404142 -0.017684434240668512 0 0.0026298824580272169 -0.017835677166867167 0 0.0027644808874292721 -0.017783608083294811 0 0.0027072038073479676 -0.017890502052310173 0 0.0027922384466979662 -0.017916736231284494 0 0.0027644808874292721 -0.017783608083294811 0 0.0027072038073479676 -0.017890502052310173 0 0.0026298824580272169 -0.017835677166867167 0 0.0027072038073479676 -0.017890502052310173 0 0.0026298824580272169 -0.017835677166867167 0 0.0026323320739994787 -0.017918377857522056 0 0.0051731066104485817 -0.02664863687783273 0 0.0059417975283378001 -0.027031082331885451 0 0.0054498207345957681 -0.027267917474223045 0 0.0051731066104485817 -0.02664863687783273 0 0.0054498207345957681 -0.027267917474223045 0 0.0049878199998201313 -0.027322325908263185 0 0.0051731066104485817 -0.02664863687783273 0 0.0059417975283378001 -0.027031082331885451 0 0.005955575258774169 -0.026231723788529289 0 0.0059417975283378001 -0.027031082331885451 0 0.005955575258774169 -0.026231723788529289 0 0.0064937814401827207 -0.026624968289944099 0 0.0059417975283378001 -0.027031082331885451 0 0.0058241407121955883 -0.02762439439103077 0 0.0067498441065374478 -0.027786013469465565 0 0.0059417975283378001 -0.027031082331885451 0 0.0058241407121955883 -0.02762439439103077 0 0.0054498207345957681 -0.027267917474223045 0 0.0058241407121955883 -0.02762439439103077 0 0.0054498207345957681 -0.027267917474223045 0 0.0053415877242139415 -0.027785307377556329 0 0.0054498207345957681 -0.027267917474223045 0 0.0050330779698270888 -0.027544952189586379 0 0.0049878199998201313 -0.027322325908263185 0 0.0053415877242139415 -0.027785307377556329 0 0.0050330779698270888 -0.027544952189586379 0 0.0049431026058393722 -0.027841302416207251 0 0.0054498207345957681 -0.027267917474223045 0 0.0053415877242139415 -0.027785307377556329 0 0.0050330779698270888 -0.027544952189586379 0 0.0040480288634435532 -0.021922735189454066 0 0.0042858733908649862 -0.021541678965031379 0 0.0051731066104485817 -0.02664863687783273 0 0.0049878199998201313 -0.027322325908263185 0 0.0042929332846185202 -0.02782752553537866 0 0.0050330779698270888 -0.027544952189586379 0 0.0049878199998201313 -0.027322325908263185 0 0.0042929332846185202 -0.02782752553537866 0 0.0050330779698270888 -0.027544952189586379 0 0.0042929332846185202 -0.02782752553537866 0 0.0049431026058393722 -0.027841302416207251 0 0.0040137001783836865 -0.021059726996771701 0 0.0042296965512963556 -0.020641756976334261 0 0.0044287224619070018 -0.012632770438655645 0 0.0044311903700225566 -0.012431286524771526 0 0.0045836881208927236 -0.012427138844181783 0 0.004417178151898348 -0.012663237359089054 0 0.0045836881208927236 -0.012427138844181783 0 0.0044730133054710838 -0.012688151934607067 0 0.0040137001783836865 -0.021059726996771701 0 0.0042858733908649862 -0.021541678965031379 0 0.0042712079716309397 -0.012335373539415707 0 0.0044287224619070018 -0.012632770438655645 0 0.0044311903700225566 -0.012431286524771526 0 0.0044400880328762573 -0.01232938815613435 0 0.0045836881208927236 -0.012427138844181783 0 0.0045444779194074659 -0.01223183815776565 0 0.0044311903700225566 -0.012431286524771526 0 0.0044400880328762573 -0.01232938815613435 0 0.0045836881208927236 -0.012427138844181783 0 0.0042712079716309397 -0.012335373539415707 0 0.0044311903700225566 -0.012431286524771526 0 0.0044400880328762573 -0.01232938815613435 0 0.0047331506777405297 -0.012314132473315642 0 0.0045836881208927236 -0.012427138844181783 0 0.0044730133054710838 -0.012688151934607067 0 0.0047331506777405297 -0.012314132473315642 0 0.0045836881208927236 -0.012427138844181783 0 0.0045444779194074659 -0.01223183815776565 0 0.0047331506777405297 -0.012314132473315642 0 0.0045444779194074659 -0.01223183815776565 0 0.0046398761342592576 -0.012168003175628028 0 0.0045444779194074659 -0.01223183815776565 0 0.0046398761342592576 -0.012168003175628028 0 0.004486462383388394 -0.011996622727458904 0 0.0047331506777405297 -0.012314132473315642 0 0.0046398761342592576 -0.012168003175628028 0 0.0047319198111464723 -0.012098592454495977 0 0.0043457761343122332 -0.012165496882124019 0 0.0045444779194074659 -0.01223183815776565 0 0.004486462383388394 -0.011996622727458904 0 0.0043457761343122332 -0.012165496882124019 0 0.0044400880328762573 -0.01232938815613435 0 0.0045444779194074659 -0.01223183815776565 0 0.0043457761343122332 -0.012165496882124019 0 0.0042712079716309397 -0.012335373539415707 0 0.0044400880328762573 -0.01232938815613435 0 0.0046398761342592576 -0.012168003175628028 0 0.004486462383388394 -0.011996622727458904 0 0.0047319198111464723 -0.012098592454495977 0 0.0038379786270100122 -0.020625893508354962 0 0.0033136891720509003 -0.023077128479727115 0 0.004486462383388394 -0.011996622727458904 0 0.0047319198111464723 -0.012098592454495977 0 0.0049723607270749032 -0.011995930648401857 0 0.0047331506777405297 -0.012314132473315642 0 0.0047319198111464723 -0.012098592454495977 0 0.0049723607270749032 -0.011995930648401857 0 0.0040480288634435532 -0.021922735189454066 0 0.0033136891720509003 -0.023077128479727115 0 0.005955575258774169 -0.026231723788529289 0 0.0062335710327420532 -0.025463009182409103 0 0.0064937814401827207 -0.026624968289944099 0 0.0051731066104485817 -0.02664863687783273 0 0.005955575258774169 -0.026231723788529289 0 0.0060432980654515139 -0.025471535608387549 0 0.005955575258774169 -0.026231723788529289 0 0.0060432980654515139 -0.025471535608387549 0 0.0062335710327420532 -0.025463009182409103 0 0.0033136891720509003 -0.023077128479727115 0 0.0031445527018495963 -0.023467084497804405 0 0.00094946615675638559 -0.023864345086765635 0 0.0026482158516938628 -0.023789336478538002 0 0.002265481126587838 -0.02213005947799743 0 0.003150112313008541 -0.023371311967400884 0 0.0029045742909210789 -0.02261762907060973 0 0.0047062713917774687 -0.011886526878285125 0 0.0047430820047645265 -0.011839406200602068 0 0.0043913654081660933 -0.011661198894012887 0 0.003150112313008541 -0.023371311967400884 0 0.0024746155645900079 -0.021503227180645131 0 0.0047978229695189662 -0.011883878085007991 0 0.0044032333466329657 -0.011689145324270182 0 0.0046749714667224523 -0.011345201958827185 0 0.0031445527018495963 -0.023467084497804405 0 0.003150112313008541 -0.023371311967400884 0 0.0033136891720509003 -0.023077128479727115 0 0.003150112313008541 -0.023371311967400884 0 0.0022643917696750335 -0.020902947004509214 0 0.0024746155645900079 -0.021503227180645131 0 0.0040748122714666709 -0.011711552862202214 0 0.0042749407336136452 -0.011882485297452314 0 0.0043913654081660933 -0.011661198894012887 0 0.0040392930424167414 -0.01148381123079506 0 0.0040748122714666709 -0.011711552862202214 0 0.0043913654081660933 -0.011661198894012887 0 0.0042749407336136452 -0.011882485297452314 0 0.0047062713917774687 -0.011886526878285125 0 0.0043913654081660933 -0.011661198894012887 0 0.0040392930424167414 -0.01148381123079506 0 0.0044032333466329657 -0.011689145324270182 0 0.004282549782958645 -0.011414584431817133 0 0.0043219353443704452 -0.011153605345822741 0 0.004282549782958645 -0.011414584431817133 0 0.0046749714667224523 -0.011345201958827185 0 0.0044032333466329657 -0.011689145324270182 0 0.004282549782958645 -0.011414584431817133 0 0.0046749714667224523 -0.011345201958827185 0 0.0043219353443704452 -0.011153605345822741 0 0.0040737328318033511 -0.011190794968448152 0 0.004282549782958645 -0.011414584431817133 0 0.0038081042771602679 -0.027482730633620962 0 0.0042745186413548925 -0.029629918266178844 0 0.0024632149478696643 -0.029296984077692448 0 0.00047391213281319913 -0.03228609160042558 0 0.00047528683369435243 -0.032204415567879972 0 0.00025939260061293894 -0.031391679104713077 0 -0.0001951603971836252 -0.031602150477000358 0 -1.8477934641665053e-05 -0.031782427509671106 0 -0.0001951603971836252 -0.031602150477000358 0 -1.8477934641665053e-05 -0.031782427509671106 0 -0.000224946125765624 -0.031921843508124791 0 -1.8477934641665053e-05 -0.031782427509671106 0 0.00015159175860049768 -0.031992298532655707 0 0.00025606935650143925 -0.031850372507288435 0 -1.8477934641665053e-05 -0.031782427509671106 0 0.00015159175860049768 -0.031992298532655707 0 -2.0880051702496961e-06 -0.032019064429241594 0 0.00015159175860049768 -0.031992298532655707 0 -2.0880051702496961e-06 -0.032019064429241594 0 0.00019169727748312516 -0.032158862441513718 0 -2.0880051702496961e-06 -0.032019064429241594 0 -0.000224946125765624 -0.031921843508124791 0 -0.00022350839063978753 -0.032057539173190513 0 -1.8477934641665053e-05 -0.031782427509671106 0 -2.0880051702496961e-06 -0.032019064429241594 0 -0.000224946125765624 -0.031921843508124791 0 -0.00050205312165050176 -0.032012773973054395 0 -0.0001951603971836252 -0.031602150477000358 0 -0.000224946125765624 -0.031921843508124791 0 0.003150112313008541 -0.023371311967400884 0 0.0014916189447331601 -0.027578147170989744 0 -0.000224946125765624 -0.031921843508124791 0 -0.00040472304145716025 -0.032059235072005102 0 -0.00022350839063978753 -0.032057539173190513 0 -0.00050205312165050176 -0.032012773973054395 0 -0.000224946125765624 -0.031921843508124791 0 -0.00040472304145716025 -0.032059235072005102 0 0.003150112313008541 -0.023371311967400884 0 0.0029812807641808547 -0.023783307891953889 0 0.00078306563991898412 -0.03167583625665444 0 0.00058396365513047976 -0.031482453636756377 0 0.00088822736905961881 -0.031379040545231919 0 0.00078306563991898412 -0.03167583625665444 0 0.00058396365513047976 -0.031482453636756377 0 0.00051601035872294828 -0.031795491525394362 0 0.00029117502187529131 -0.031358619419432875 0 -1.8477934641665053e-05 -0.031782427509671106 0 0.00032424514243106024 -0.031654015507867478 0 0.00058396365513047976 -0.031482453636756377 0 0.00032424514243106024 -0.031654015507867478 0 0.00051601035872294828 -0.031795491525394362 0 0.00029117502187529131 -0.031358619419432875 0 0.00058396365513047976 -0.031482453636756377 0 0.00032424514243106024 -0.031654015507867478 0 -1.8477934641665053e-05 -0.031782427509671106 0 0.00032424514243106024 -0.031654015507867478 0 0.00025606935650143925 -0.031850372507288435 0 0.00015159175860049768 -0.031992298532655707 0 0.00036179248721564863 -0.032027873508489089 0 0.00019169727748312516 -0.032158862441513718 0 0.00015159175860049768 -0.031992298532655707 0 0.00025606935650143925 -0.031850372507288435 0 0.00036179248721564863 -0.032027873508489089 0 0.00036179248721564863 -0.032027873508489089 0 0.00060329376948747035 -0.031975281471331066 0 0.0005462189197318083 -0.032140825949013817 0 0.00036179248721564863 -0.032027873508489089 0 0.00051601035872294828 -0.031795491525394362 0 0.00060329376948747035 -0.031975281471331066 0 0.00025606935650143925 -0.031850372507288435 0 0.00036179248721564863 -0.032027873508489089 0 0.00051601035872294828 -0.031795491525394362 0 0.00032424514243106024 -0.031654015507867478 0 0.00025606935650143925 -0.031850372507288435 0 0.00051601035872294828 -0.031795491525394362 0 0.00051601035872294828 -0.031795491525394362 0 0.00060329376948747035 -0.031975281471331066 0 0.00077750818165164967 -0.031897274466702104 0 0.00060329376948747035 -0.031975281471331066 0 0.00077750818165164967 -0.031897274466702104 0 0.00078958775696144883 -0.032134625942634158 0 0.00077750818165164967 -0.031897274466702104 0 0.00078958775696144883 -0.032134625942634158 0 0.00099924861026583515 -0.032017504465989007 0 0.00078306563991898412 -0.03167583625665444 0 0.00077750818165164967 -0.031897274466702104 0 0.00089275293501777471 -0.031828733720213609 0 0.00078306563991898412 -0.03167583625665444 0 0.00051601035872294828 -0.031795491525394362 0 0.00077750818165164967 -0.031897274466702104 0 0.00078958775696144883 -0.032134625942634158 0 0.00065219340534252541 -0.032359521048251343 0 0.00089172047675143936 -0.032392890938942119 0 0.00060329376948747035 -0.031975281471331066 0 0.00078958775696144883 -0.032134625942634158 0 0.0005462189197318083 -0.032140825949013817 0 0.0005462189197318083 -0.032140825949013817 0 0.00065219340534252541 -0.032359521048251343 0 0.00037396441878553507 -0.032253263741143429 0 0.00078958775696144883 -0.032134625942634158 0 0.0005462189197318083 -0.032140825949013817 0 0.00065219340534252541 -0.032359521048251343 0 0.0023276802398422987 -0.028106352685205734 0 0.0023210160802739793 -0.026834714406518172 0 0.00037396441878553507 -0.032253263741143429 0 0.00045374769619597316 -0.032525887265148636 0 3.4042208781368547e-05 -0.032315040042614408 0 0.00065219340534252541 -0.032359521048251343 0 0.00037396441878553507 -0.032253263741143429 0 0.00045374769619597316 -0.032525887265148636 0 0.00036179248721564863 -0.032027873508489089 0 0.0005462189197318083 -0.032140825949013817 0 0.00037396441878553507 -0.032253263741143429 0 0.00037396441878553507 -0.032253263741143429 0 0.00019169727748312516 -0.032158862441513718 0 3.4042208781368547e-05 -0.032315040042614408 0 0.00036179248721564863 -0.032027873508489089 0 0.00037396441878553507 -0.032253263741143429 0 0.00019169727748312516 -0.032158862441513718 0 0.00090073695213722894 -0.032929422642306819 0 0.0010020894255418171 -0.032908586174233027 0 0.00084417741767787524 -0.032831980551308058 0 0.00090073695213722894 -0.032929422642306819 0 0.00095737396143436178 -0.033010185774946743 0 0.00083436661999746831 -0.033009571063705535 0 0.00090073695213722894 -0.032929422642306819 0 0.00095737396143436178 -0.033010185774946743 0 0.0010020894255418171 -0.032908586174233027 0 0.00065219340534252541 -0.032359521048251343 0 0.00089172047675143936 -0.032392890938942119 0 0.00087437929853817779 -0.032750373876838879 0 0.00095737396143436178 -0.033010185774946743 0 0.0010020894255418171 -0.032908586174233027 0 0.0011563457290101067 -0.032967690885908375 0 0.0023276802398422987 -0.028106352685205734 0 0.0023621073244021575 -0.028834389630596615 0 0.00065219340534252541 -0.032359521048251343 0 0.00045374769619597316 -0.032525887265148636 0 0.00087437929853817779 -0.032750373876838879 0 0.0029812807641808547 -0.023783307891953889 0 0.0023210160802739793 -0.026834714406518172 0 0.0039669113867764833 -0.02630477710478292 0 0.0031637056912737407 -0.02594642449906864 0 0.0040021884650094765 -0.025767560767036787 0 -0.00040512698882595906 -0.032058359348804258 0 -0.00022350839063978753 -0.032057539173190513 0 5.1646576610227698e-05 -0.032285223105012459 0 0.0031445527018495963 -0.023467084497804405 0 0.0029847702324092167 -0.025814228633553704 0 0.0041200408812670361 -0.026297441408525166 0 0.0039669113867764833 -0.02630477710478292 0 0.0040021884650094765 -0.025767560767036787 0 0.0031445527018495963 -0.023467084497804405 0 0.0029812807641808547 -0.023783307891953889 0 0.0032461337255544468 -0.024012826353053227 0 0.0032563490923695469 -0.024056917048757464 0 0.0031669935962227399 -0.024016529624100155 0 0.0029812807641808547 -0.023783307891953889 0 0.0028467421724788435 -0.023868142789662511 0 -2.0880051702496961e-06 -0.032019064429241594 0 -0.00022350839063978753 -0.032057539173190513 0 5.1646576610227698e-05 -0.032285223105012459 0 -2.0880051702496961e-06 -0.032019064429241594 0 0.00019169727748312516 -0.032158862441513718 0 5.1646576610227698e-05 -0.032285223105012459 0 0.0021726923838685632 -0.027017536088313827 0 0.0023210160802739793 -0.026834714406518172 0 0.00090073695213722894 -0.032929422642306819 0 0.00084417741767787524 -0.032831980551308058 0 0.00083436661999746831 -0.033009571063705535 0 0.0023210160802739793 -0.026834714406518172 0 0.0026620542143017522 -0.027988959215682271 0 0.00084417741767787524 -0.032831980551308058 0 0.00083436661999746831 -0.033009571063705535 0 0.00066281004914726992 -0.033013402031298156 0 0.0031637056912737407 -0.02594642449906864 0 0.0040021884650094765 -0.025767560767036787 0 0.0038840654255509789 -0.025237243364656173 0 0.0029847702324092167 -0.025814228633553704 0 0.0026620542143017522 -0.027988959215682271 0 0.0059417975283378001 -0.027031082331885451 0 0.0064937814401827207 -0.026624968289944099 0 0.0067498441065374478 -0.027786013469465565 0 0.00066281004914726992 -0.033013402031298156 0 0.00077284151667906349 -0.033103926845186094 0 0.00071995221984071155 -0.03322434248124042 0 0.0007044438144461671 -0.033129541827623801 0 0.00067730693742101074 -0.033219367227508609 0 0.00071995221984071155 -0.03322434248124042 0 0.0026620542143017522 -0.027988959215682271 0 0.002696515755803932 -0.028853490904338416 0 0.00083436661999746831 -0.033009571063705535 0 0.00066281004914726992 -0.033013402031298156 0 0.00077284151667906349 -0.033103926845186094 0 0.00086254599375639276 -0.033162240370090731 0 0.00077284151667906349 -0.033103926845186094 0 0.00071995221984071155 -0.03322434248124042 0 0.00095737396143436178 -0.033010185774946743 0 0.00083436661999746831 -0.033009571063705535 0 0.00086254599375639276 -0.033162240370090731 0 0.00083436661999746831 -0.033009571063705535 0 0.00086254599375639276 -0.033162240370090731 0 0.00077284151667906349 -0.033103926845186094 0 0.00086254599375639276 -0.033162240370090731 0 0.00087552055745311326 -0.033305299019496373 0 0.00075458698310001938 -0.033311291978261361 0 0.00086254599375639276 -0.033162240370090731 0 0.00071995221984071155 -0.03322434248124042 0 0.00075458698310001938 -0.033311291978261361 0 0.00071995221984071155 -0.03322434248124042 0 0.00075458698310001938 -0.033311291978261361 0 0.00066979118401623539 -0.033293572593636744 0 0.00067730693742101074 -0.033219367227508609 0 0.00071995221984071155 -0.03322434248124042 0 0.00066979118401623539 -0.033293572593636744 0 0.00095737396143436178 -0.033010185774946743 0 0.0010061765144599567 -0.033106873007828712 0 0.0011563457290101067 -0.032967690885908375 0 0.0010061765144599567 -0.033106873007828712 0 0.001097555286880162 -0.033155504868752399 0 0.0011563457290101067 -0.032967690885908375 0 0.001097555286880162 -0.033155504868752399 0 0.0011563457290101067 -0.032967690885908375 0 0.0011975779679400864 -0.033117925526947291 0 0.00095737396143436178 -0.033010185774946743 0 0.00086254599375639276 -0.033162240370090731 0 0.0010061765144599567 -0.033106873007828712 0 0.00086254599375639276 -0.033162240370090731 0 0.0010061765144599567 -0.033106873007828712 0 0.00097746411641329929 -0.033231334512155486 0 0.00086254599375639276 -0.033162240370090731 0 0.00097746411641329929 -0.033231334512155486 0 0.00087552055745311326 -0.033305299019496373 0 0.0010061765144599567 -0.033106873007828712 0 0.00097746411641329929 -0.033231334512155486 0 0.001097555286880162 -0.033155504868752399 0 0.00097746411641329929 -0.033231334512155486 0 0.0010910278064484916 -0.033276351467466603 0 0.001097555286880162 -0.033155504868752399 0 0.0010910278064484916 -0.033276351467466603 0 0.001097555286880162 -0.033155504868752399 0 0.001174435786753161 -0.033219158363155317 0 0.001088152811511691 -0.033378787501726376 0 0.00098087629781580272 -0.033401031554816822 0 0.0011337629464108229 -0.033470340361046541 0 0.00097746411641329929 -0.033231334512155486 0 0.0010910278064484916 -0.033276351467466603 0 0.00098087629781580272 -0.033401031554816822 0 0.001088152811511691 -0.033378787501726376 0 0.0011337629464108229 -0.033470340361046541 0 0.0012063363717604409 -0.033340734253626554 0 0.0010910278064484916 -0.033276351467466603 0 0.001088152811511691 -0.033378787501726376 0 0.0012063363717604409 -0.033340734253626554 0 0.0010910278064484916 -0.033276351467466603 0 0.001088152811511691 -0.033378787501726376 0 0.00098087629781580272 -0.033401031554816822 0 0.00087552055745311326 -0.033305299019496373 0 0.00098087629781580272 -0.033401031554816822 0 0.0008143201414710663 -0.033403807264712086 0 0.00097746411641329929 -0.033231334512155486 0 0.00087552055745311326 -0.033305299019496373 0 0.00098087629781580272 -0.033401031554816822 0 0.00089450683560316879 -0.03346721978193002 0 0.001041617155849005 -0.033534892508765297 0 0.00093053469991128605 -0.033566972704380776 0 0.00098087629781580272 -0.033401031554816822 0 0.00089450683560316879 -0.03346721978193002 0 0.0008143201414710663 -0.033403807264712086 0 0.00098087629781580272 -0.033401031554816822 0 0.00089450683560316879 -0.03346721978193002 0 0.001041617155849005 -0.033534892508765297 0 0.00089450683560316879 -0.03346721978193002 0 0.00078849608719414553 -0.033491162645105259 0 0.00093053469991128605 -0.033566972704380776 0 0.00098087629781580272 -0.033401031554816822 0 0.001041617155849005 -0.033534892508765297 0 0.0011337629464108229 -0.033470340361046541 0 0.001041617155849005 -0.033534892508765297 0 0.0011337629464108229 -0.033470340361046541 0 0.0012339236717964861 -0.033554812834468102 0 0.00068149400986196556 -0.033371143672301047 0 0.00075458698310001938 -0.033311291978261361 0 0.00066979118401623539 -0.033293572593636744 0 0.00072391424851961871 -0.033392565506533647 0 0.00068149400986196556 -0.033371143672301047 0 0.00067341473521602337 -0.03343255205073694 0 0.00072391424851961871 -0.033392565506533647 0 0.00068149400986196556 -0.033371143672301047 0 0.00075458698310001938 -0.033311291978261361 0 0.00087552055745311326 -0.033305299019496373 0 0.00075458698310001938 -0.033311291978261361 0 0.0008143201414710663 -0.033403807264712086 0 0.00072391424851961871 -0.033392565506533647 0 0.00075458698310001938 -0.033311291978261361 0 0.0008143201414710663 -0.033403807264712086 0 0.00072391424851961871 -0.033392565506533647 0 0.0008143201414710663 -0.033403807264712086 0 0.00071938897966287714 -0.033470721322034012 0 0.0008143201414710663 -0.033403807264712086 0 0.00078849608719414553 -0.033491162645105259 0 0.00071938897966287714 -0.033470721322034012 0 0.00089450683560316879 -0.03346721978193002 0 0.0008143201414710663 -0.033403807264712086 0 0.00078849608719414553 -0.033491162645105259 0 0.00078849608719414553 -0.033491162645105259 0 0.00071938897966287714 -0.033470721322034012 0 0.000731297128878312 -0.033513871272314401 0 0.00072391424851961871 -0.033392565506533647 0 0.00071938897966287714 -0.033470721322034012 0 0.00067341473521602337 -0.03343255205073694 0 0.00071938897966287714 -0.033470721322034012 0 0.00066457730999388632 -0.033493315300712596 0 0.00069362062810348452 -0.03352061532594245 0 0.00071938897966287714 -0.033470721322034012 0 0.00067341473521602337 -0.03343255205073694 0 0.00066457730999388632 -0.033493315300712596 0 0.00066457730999388632 -0.033493315300712596 0 0.00062717055138051874 -0.033467550300619993 0 0.00062811466529678732 -0.033521341751335518 0 0.00062717055138051874 -0.033467550300619993 0 0.00060781036359227984 -0.03351287254608986 0 0.00062811466529678732 -0.033521341751335518 0 0.00067341473521602337 -0.03343255205073694 0 0.00066457730999388632 -0.033493315300712596 0 0.00062717055138051874 -0.033467550300619993 0 0.00067341473521602337 -0.03343255205073694 0 0.00062717055138051874 -0.033467550300619993 0 0.00063969276798188195 -0.033386986573515499 0 0.00068149400986196556 -0.033371143672301047 0 0.00067341473521602337 -0.03343255205073694 0 0.00063969276798188195 -0.033386986573515499 0 0.00063969276798188195 -0.033386986573515499 0 0.00061407366741799015 -0.033345860354099512 0 0.00060463757664656111 -0.033418551359085238 0 0.00062717055138051874 -0.033467550300619993 0 0.00063969276798188195 -0.033386986573515499 0 0.00060463757664656111 -0.033418551359085238 0 0.00063969276798188195 -0.033386986573515499 0 0.00061407366741799015 -0.033345860354099512 0 0.00066979118401623539 -0.033293572593636744 0 0.00068149400986196556 -0.033371143672301047 0 0.00063969276798188195 -0.033386986573515499 0 0.00066979118401623539 -0.033293572593636744 0 0.00061407366741799015 -0.033345860354099512 0 0.00054708393386569156 -0.033378924350038544 0 0.00060463757664656111 -0.033418551359085238 0 0.00054708393386569156 -0.033378924350038544 0 0.00060463757664656111 -0.033418551359085238 0 0.00058424967405088716 -0.033463101716028537 0 0.00062717055138051874 -0.033467550300619993 0 0.00060463757664656111 -0.033418551359085238 0 0.00058424967405088716 -0.033463101716028537 0 0.00062717055138051874 -0.033467550300619993 0 0.00058424967405088716 -0.033463101716028537 0 0.00060781036359227984 -0.03351287254608986 0 0.00058424967405088716 -0.033463101716028537 0 0.00059270821861262481 -0.033527923781689783 0 0.00060781036359227984 -0.03351287254608986 0 0.00054708393386569156 -0.033378924350038544 0 0.00058424967405088716 -0.033463101716028537 0 0.00055834026413963329 -0.033504739712895561 0 0.00057053550160412775 -0.033797904566603441 0 0.00060142520833090022 -0.033725339456166181 0 0.00062698844386285476 -0.033748772803108409 0 0.00058424967405088716 -0.033463101716028537 0 0.00055834026413963329 -0.033504739712895561 0 0.00059270821861262481 -0.033527923781689783 0 0.00060142520833090022 -0.033725339456166181 0 0.00062698844386285476 -0.033748772803108409 0 0.00072217664250840785 -0.033679295085649583 0 0.0028457288289154403 -0.031692127552954058 0 0.0020386642394158638 -0.031984504205189328 0 0.0017805810027723495 -0.032721410801063541 0 0.0015042591307570902 -0.031839154431122334 0 0.0012366306181251893 -0.032265867022593195 0 0.0028457288289154403 -0.031692127552954058 0 0.0020386642394158638 -0.031984504205189328 0 0.0023701672884122757 -0.031238296184148789 0 0.0020386642394158638 -0.031984504205189328 0 0.00172970321352884 -0.031245013439107308 0 0.0023701672884122757 -0.031238296184148789 0 0.0026182157533343443 -0.024533447061616923 0 0.0031365714957927687 -0.02307285241466419 0 0.00172970321352884 -0.031245013439107308 0 0.0026132223426635908 -0.030602074464011315 0 0.0029146294709593659 -0.029508221854484169 0 0.002646630125648107 -0.018326491564483509 0 0.0028032038757825795 -0.01809796785401778 0 0.0026513418441875274 -0.018154003693446916 0 0.00172970321352884 -0.031245013439107308 0 0.0023701672884122757 -0.031238296184148789 0 0.0026132223426635908 -0.030602074464011315 0 0.0028457288289154403 -0.031692127552954058 0 0.0023701672884122757 -0.031238296184148789 0 0.0026132223426635908 -0.030602074464011315 0 0.0039914249864282346 -0.030548889408537207 0 0.0028457288289154403 -0.031692127552954058 0 0.0026132223426635908 -0.030602074464011315 0 0.0039914249864282346 -0.030548889408537207 0 0.0026132223426635908 -0.030602074464011315 0 0.0030926671225283168 -0.030108996522752878 0 0.0018611104513700117 -0.031192322328124012 0 0.0013271572773873965 -0.032248960979274405 0 0.0018611104513700117 -0.031192322328124012 0 0.0015042591307570902 -0.031839154431122334 0 0.0039914249864282346 -0.030548889408537207 0 0.003461240314368464 -0.029776059953888032 0 0.0040704415321037284 -0.029479055875480779 0 0.0039914249864282346 -0.030548889408537207 0 0.003461240314368464 -0.029776059953888032 0 0.0030926671225283168 -0.030108996522752878 0 0.003461240314368464 -0.029776059953888032 0 0.0030926671225283168 -0.030108996522752878 0 0.0029146294709593659 -0.029508221854484169 0 0.0026132223426635908 -0.030602074464011315 0 0.0030926671225283168 -0.030108996522752878 0 0.0029146294709593659 -0.029508221854484169 0 0.003461240314368464 -0.029776059953888032 0 0.0029146294709593659 -0.029508221854484169 0 0.0033738222990885775 -0.029224136561150547 0 0.003461240314368464 -0.029776059953888032 0 0.0033738222990885775 -0.029224136561150547 0 0.0040704415321037284 -0.029479055875480779 0 0.0033738222990885775 -0.029224136561150547 0 0.0039512110615036646 -0.029094156119620046 0 0.0040704415321037284 -0.029479055875480779 0 0.0028032038757825795 -0.01809796785401778 0 0.0026513418441875274 -0.018154003693446916 0 0.0027221577972091639 -0.018057285819764794 0 0.0028032038757825795 -0.01809796785401778 0 0.0027221577972091639 -0.018057285819764794 0 0.0027968159901836437 -0.017996476495840519 0 0.0026513418441875274 -0.018154003693446916 0 0.0027221577972091639 -0.018057285819764794 0 0.0026454073656131567 -0.018056922523669885 0 0.0027055713094560536 -0.017990313392238524 0 0.0025946740041857519 -0.017993066218398926 0 0.0026323320739994787 -0.017918377857522056 0 0.0026454073656131567 -0.018056922523669885 0 0.0027055713094560536 -0.017990313392238524 0 0.0025946740041857519 -0.017993066218398926 0 0.0027221577972091639 -0.018057285819764794 0 0.0026454073656131567 -0.018056922523669885 0 0.0027055713094560536 -0.017990313392238524 0 0.0027221577972091639 -0.018057285819764794 0 0.0027055713094560536 -0.017990313392238524 0 0.0027968159901836437 -0.017996476495840519 0 0.0027055713094560536 -0.017990313392238524 0 0.0027968159901836437 -0.017996476495840519 0 0.0027922384466979662 -0.017916736231284494 0 0.0027055713094560536 -0.017990313392238524 0 0.0027072038073479676 -0.017890502052310173 0 0.0027922384466979662 -0.017916736231284494 0 0.0027055713094560536 -0.017990313392238524 0 0.0027072038073479676 -0.017890502052310173 0 0.0026323320739994787 -0.017918377857522056 0 0.0029661221814088084 -0.017881832385044014 0 0.0027968159901836437 -0.017996476495840519 0 0.0027922384466979662 -0.017916736231284494 0 0.0040137001783836865 -0.021059726996771701 0 0.0031365714957927687 -0.02307285241466419 0 0.0029661221814088084 -0.017881832385044014 0 0.0028032038757825795 -0.01809796785401778 0 0.0027968159901836437 -0.017996476495840519 0 0.0033738222990885775 -0.029224136561150547 0 0.0043574075833029951 -0.027875873930672118 0 0.0040909160391314828 -0.028720607228416795 0 0.0042705197418384799 -0.027638773555141279 0 0.0029146294709593659 -0.029508221854484169 0 0.0033738222990885775 -0.029224136561150547 0 0.003673340892911207 -0.022759267244786101 0 0.0042858733908649862 -0.021541678965031379 0 0.0033738222990885775 -0.029224136561150547 0 0.0039512110615036646 -0.029094156119620046 0 0.0040909160391314828 -0.028720607228416795 0 0.0043574075833029951 -0.027875873930672118 0 0.0044613507399887207 -0.028373574681572929 0 0.0040909160391314828 -0.028720607228416795 0 0.0042705197418384799 -0.027638773555141279 0 0.0033738222990885775 -0.029224136561150547 0 0.0044536917231872367 -0.027722791187120555 0 0.0043574075833029951 -0.027875873930672118 0 0.0044613507399887207 -0.028373574681572929 0 0.0046660579079614833 -0.028198424022237947 0 0.0042700673041341057 -0.028953771477618694 0 0.0049431773325548049 -0.028520012072531794 0 0.0040704415321037284 -0.029479055875480779 0 0.0044613507399887207 -0.028373574681572929 0 0.0040909160391314828 -0.028720607228416795 0 0.004468944051585092 -0.028667055501280736 0 0.0040909160391314828 -0.028720607228416795 0 0.004468944051585092 -0.028667055501280736 0 0.0042700673041341057 -0.028953771477618694 0 0.0039512110615036646 -0.029094156119620046 0 0.0040909160391314828 -0.028720607228416795 0 0.0042700673041341057 -0.028953771477618694 0 0.004468944051585092 -0.028667055501280736 0 0.0042700673041341057 -0.028953771477618694 0 0.0049431773325548049 -0.028520012072531794 0 0.004468944051585092 -0.028667055501280736 0 0.0046474387347098401 -0.028490124076353176 0 0.0049431773325548049 -0.028520012072531794 0 0.0044613507399887207 -0.028373574681572929 0 0.004468944051585092 -0.028667055501280736 0 0.0046474387347098401 -0.028490124076353176 0 0.0046474387347098401 -0.028490124076353176 0 0.0049431773325548049 -0.028520012072531794 0 0.0047441157932195908 -0.028336067458239352 0 0.0042929332846185202 -0.02782752553537866 0 0.0049431026058393722 -0.027841302416207251 0 0.0051027023602910762 -0.028207311076585834 0 0.0043574075833029951 -0.027875873930672118 0 0.0046660579079614833 -0.028198424022237947 0 0.0051027023602910762 -0.028207311076585834 0 0.0047441157932195908 -0.028336067458239352 0 0.0046660579079614833 -0.028198424022237947 0 0.0051027023602910762 -0.028207311076585834 0 0.0049431773325548049 -0.028520012072531794 0 0.0047441157932195908 -0.028336067458239352 0 0.0051027023602910762 -0.028207311076585834 0 0.0042858733908649862 -0.021541678965031379 0 0.0044266657111298674 -0.021703844246208984 0 0.0044613507399887207 -0.028373574681572929 0 0.0047441157932195908 -0.028336067458239352 0 0.0046660579079614833 -0.028198424022237947 0 0.0044613507399887207 -0.028373574681572929 0 0.0046474387347098401 -0.028490124076353176 0 0.0047441157932195908 -0.028336067458239352 0 0.0067498441065374478 -0.027786013469465565 0 0.0056842513845992643 -0.028243360828719137 0 0.0053307853357919249 -0.029206989914746316 0 0.0053415877242139415 -0.027785307377556329 0 0.0049431026058393722 -0.027841302416207251 0 0.0051027023602910762 -0.028207311076585834 0 0.0058241407121955883 -0.02762439439103077 0 0.0053415877242139415 -0.027785307377556329 0 0.0056842513845992643 -0.028243360828719137 0 0.0007044438144461671 -0.033129541827623801 0 0.00067730693742101074 -0.033219367227508609 0 0.00061253721192920771 -0.033240905890177565 0 0.0053415877242139415 -0.027785307377556329 0 0.0056842513845992643 -0.028243360828719137 0 0.0051027023602910762 -0.028207311076585834 0 0.0026620542143017522 -0.027988959215682271 0 0.0022313027298468745 -0.029802586759515023 0 0.0049431773325548049 -0.028520012072531794 0 0.0051027023602910762 -0.028207311076585834 0 0.005264482353001281 -0.028543530020836354 0 0.0056842513845992643 -0.028243360828719137 0 0.0051027023602910762 -0.028207311076585834 0 0.005264482353001281 -0.028543530020836354 0 0.0058241407121955883 -0.02762439439103077 0 0.0067498441065374478 -0.027786013469465565 0 0.0056842513845992643 -0.028243360828719137 0 0.0056842513845992643 -0.028243360828719137 0 0.005264482353001281 -0.028543530020836354 0 0.0053307853357919249 -0.029206989914746316 0 0.0049431773325548049 -0.028520012072531794 0 0.005264482353001281 -0.028543530020836354 0 0.0053307853357919249 -0.029206989914746316 0 0.00067730693742101074 -0.033219367227508609 0 0.00061253721192920771 -0.033240905890177565 0 0.00066979118401623539 -0.033293572593636744 0 0.00061407366741799015 -0.033345860354099512 0 0.00061253721192920771 -0.033240905890177565 0 0.00066979118401623539 -0.033293572593636744 0 0.0038740907606450953 -0.03063704308226425 0 0.0049431773325548049 -0.028520012072531794 0 0.0053307853357919249 -0.029206989914746316 0 0.0018611104513700117 -0.031192322328124012 0 0.0022313027298468745 -0.029802586759515023 0 0.00061407366741799015 -0.033345860354099512 0 0.00054708393386569156 -0.033378924350038544 0 0.00061253721192920771 -0.033240905890177565 0 0.0018611104513700117 -0.031192322328124012 0 0.0024593026722722288 -0.030352553409109913 0 0.0039914249864282346 -0.030548889408537207 0 0.0049431773325548049 -0.028520012072531794 0 0.0040704415321037284 -0.029479055875480779 0 0.0039512110615036646 -0.029094156119620046 0 0.0042700673041341057 -0.028953771477618694 0 0.0040704415321037284 -0.029479055875480779 0 3.4917109732889947e-09 -0.034999994164612074 0 1.4552009630972032e-06 -0.034998181574163074 0 9.3568940906833672e-10 -0.034999998250433678 0 1.1169466766694829e-06 -0.034998732943027105 0 1.4552009630972032e-06 -0.034998181574163074 0 9.3568940906833672e-10 -0.034999998250433678 0 1.1169466766694829e-06 -0.034998732943027105 0 2.3747840206384335e-06 -0.034997188418851979 0 3.0207451508822964e-06 -0.034997178681497626 0 1.1169466766694829e-06 -0.034998732943027105 0 2.3747840206384335e-06 -0.034997188418851979 0 1.4552009630972032e-06 -0.034998181574163074 0 2.3556769695500911e-06 -0.034995064177356615 0 1.4552009630972032e-06 -0.034998181574163074 0 1.6267040685814538e-06 -0.034993881297266181 0 2.3747840206384335e-06 -0.034997188418851979 0 2.3556769695500911e-06 -0.034995064177356615 0 1.4552009630972032e-06 -0.034998181574163074 0 3.4917109732889947e-09 -0.034999994164612074 0 1.4552009630972032e-06 -0.034998181574163074 0 1.6267040685814538e-06 -0.034993881297266181 0 3.4917109732889947e-09 -0.034999994164612074 0 2.2144456393990016e-06 -0.034992979588387721 0 2.4522019671457175e-09 -0.034999982430474988 0 3.4917109732889947e-09 -0.034999994164612074 0 2.2144456393990016e-06 -0.034992979588387721 0 1.6267040685814538e-06 -0.034993881297266181 0 2.7211131487684024e-06 -0.034990017026326488 0 2.2144456393990016e-06 -0.034992979588387721 0 2.4522019671457175e-09 -0.034999982430474988 0 2.7211131487684024e-06 -0.034990017026326488 0 2.2144456393990016e-06 -0.034992979588387721 0 4.2890863040564645e-06 -0.034984425336983989 0 4.2890863040564645e-06 -0.034984425336983989 0 1.6267040685814538e-06 -0.034993881297266181 0 7.3602158457132136e-06 -0.034975234742399872 0 2.3556769695500911e-06 -0.034995064177356615 0 1.6267040685814538e-06 -0.034993881297266181 0 5.6858360928981326e-06 -0.034996578707414364 0 2.2144456393990016e-06 -0.034992979588387721 0 4.2890863040564645e-06 -0.034984425336983989 0 1.6267040685814538e-06 -0.034993881297266181 0 5.0310879418464588e-05 -0.034860571029344277 0 5.8319682750476369e-05 -0.034851676589851853 0 2.3556769695500911e-06 -0.034995064177356615 0 5.6858360928981326e-06 -0.034996578707414364 0 1.1471264451826466e-05 -0.034992945442764128 0 6.1773901517355447e-06 -0.034977830068242413 0 4.2890863040564645e-06 -0.034984425336983989 0 7.0840972608178242e-06 -0.034976725327548981 0 7.3602158457132136e-06 -0.034975234742399872 0 7.0840972608178242e-06 -0.034976725327548981 0 1.0354461639248901e-05 -0.034969263030705147 0 6.1773901517355447e-06 -0.034977830068242413 0 7.0840972608178242e-06 -0.034976725327548981 0 1.0354461639248901e-05 -0.034969263030705147 0 4.2890863040564645e-06 -0.034984425336983989 0 7.3602158457132136e-06 -0.034975234742399872 0 7.0840972608178242e-06 -0.034976725327548981 0 1.0354461639248901e-05 -0.034969263030705147 0 1.3640313129663571e-05 -0.03496198230034861 0 1.4286657141093523e-05 -0.03495990652755606 0 1.5027228713816004e-05 -0.034956419299821906 0 1.0354461639248901e-05 -0.034969263030705147 0 1.4286657141093523e-05 -0.03495990652755606 0 5.8319682750476369e-05 -0.034851676589851853 0 8.5878814859808271e-05 -0.034824759920052566 0 1.1471264451826466e-05 -0.034992945442764128 0 1.9309725940579128e-05 -0.034989381529277393 0 1.6841516578582238e-05 -0.034997040773567405 0 5.6858360928981326e-06 -0.034996578707414364 0 1.1471264451826466e-05 -0.034992945442764128 0 1.6841516578582238e-05 -0.034997040773567405 0 7.3602158457132136e-06 -0.034975234742399872 0 1.0354461639248901e-05 -0.034969263030705147 0 1.3640313129663571e-05 -0.03496198230034861 0 1.2501260572238043e-05 -0.034985834496201539 0 1.1471264451826466e-05 -0.034992945442764128 0 1.9309725940579128e-05 -0.034989381529277393 0 -1.1906614913179599e-05 -0.034618305785483125 0 3.8534028884552072e-05 -0.034550385118244507 0 2.3556769695500911e-06 -0.034995064177356615 0 1.2501260572238043e-05 -0.034985834496201539 0 1.1471264451826466e-05 -0.034992945442764128 0 2.3747840206384335e-06 -0.034997188418851979 0 2.3556769695500911e-06 -0.034995064177356615 0 4.5325503756481374e-06 -0.034997642654963822 0 2.3747840206384335e-06 -0.034997188418851979 0 4.5325503756481374e-06 -0.034997642654963822 0 3.0207451508822964e-06 -0.034997178681497626 0 4.5325503756481374e-06 -0.034997642654963822 0 7.7273892445692606e-06 -0.034995251513401646 0 5.9800654060419525e-06 -0.034995767072647996 0 4.5325503756481374e-06 -0.034997642654963822 0 4.543204617408552e-06 -0.034996452626243783 0 5.9800654060419525e-06 -0.034995767072647996 0 4.5325503756481374e-06 -0.034997642654963822 0 3.0207451508822964e-06 -0.034997178681497626 0 4.543204617408552e-06 -0.034996452626243783 0 1.2501260572238043e-05 -0.034985834496201539 0 2.5826668749428064e-05 -0.034977740727452258 0 2.1184514798441986e-05 -0.034985311231415468 0 3.8534028884552072e-05 -0.034550385118244507 0 0.0002494689968888289 -0.034307168408072609 0 4.5325503756481374e-06 -0.034997642654963822 0 9.5672004346348522e-06 -0.034995773519926249 0 7.7273892445692606e-06 -0.034995251513401646 0 2.5826668749428064e-05 -0.034977740727452258 0 2.7132255530773645e-05 -0.034988280550506304 0 2.1184514798441986e-05 -0.034985311231415468 0 0.00038763653237597399 -0.034108178064163601 0 0.00043824934269517517 -0.033778913637493926 0 0.0002494689968888289 -0.034307168408072609 0 0.00019678156954425677 -0.034610670991392894 0 3.0691994514866653e-06 -0.034920038359959236 0 7.3264463070604335e-06 -0.034917909543736643 0 4.8274109637840253e-06 -0.034936507239113408 0 7.3264463070604335e-06 -0.034917909543736643 0 4.8274109637840253e-06 -0.034936507239113408 0 1.5177201363661059e-05 -0.034935527716021063 0 0.0002494689968888289 -0.034307168408072609 0 0.00038763653237597399 -0.034108178064163601 0 4.8274109637840253e-06 -0.034936507239113408 0 1.1782532794190587e-05 -0.034943982769213899 0 1.5177201363661059e-05 -0.034935527716021063 0 2.7132255530773645e-05 -0.034988280550506304 0 2.1184514798441986e-05 -0.034985311231415468 0 1.9309725940579128e-05 -0.034989381529277393 0 2.7132255530773645e-05 -0.034988280550506304 0 1.9309725940579128e-05 -0.034989381529277393 0 2.3060350270899656e-05 -0.034992716594489284 0 1.2501260572238043e-05 -0.034985834496201539 0 2.1184514798441986e-05 -0.034985311231415468 0 1.9309725940579128e-05 -0.034989381529277393 0 1.9309725940579128e-05 -0.034989381529277393 0 2.3060350270899656e-05 -0.034992716594489284 0 1.6841516578582238e-05 -0.034997040773567405 0 1.3640313129663571e-05 -0.03496198230034861 0 1.4718668106979554e-05 -0.034956924948136479 0 1.4500321393260543e-05 -0.034954178348335703 0 8.5878814859808271e-05 -0.034824759920052566 0 0.00014616929478451822 -0.034777956633214611 0 2.3060350270899656e-05 -0.034992716594489284 0 1.6841516578582238e-05 -0.034997040773567405 0 2.86024009554948e-05 -0.034997920674957869 0 1.3640313129663571e-05 -0.03496198230034861 0 1.4286657141093523e-05 -0.03495990652755606 0 1.4718668106979554e-05 -0.034956924948136479 0 1.4286657141093523e-05 -0.03495990652755606 0 1.4718668106979554e-05 -0.034956924948136479 0 1.5531050581130654e-05 -0.034953880066221917 0 1.5027228713816004e-05 -0.034956419299821906 0 1.4286657141093523e-05 -0.03495990652755606 0 1.5531050581130654e-05 -0.034953880066221917 0 1.7357935592959937e-05 -0.034946525301995504 0 1.5531050581130654e-05 -0.034953880066221917 0 1.5202013499786922e-05 -0.034949655573910263 0 1.5531050581130654e-05 -0.034953880066221917 0 1.5202013499786922e-05 -0.034949655573910263 0 1.424796328867707e-05 -0.034952141104533367 0 1.4718668106979554e-05 -0.034956924948136479 0 1.424796328867707e-05 -0.034952141104533367 0 1.4500321393260543e-05 -0.034954178348335703 0 1.4718668106979554e-05 -0.034956924948136479 0 1.5531050581130654e-05 -0.034953880066221917 0 1.424796328867707e-05 -0.034952141104533367 0 1.5202013499786922e-05 -0.034949655573910263 0 1.424796328867707e-05 -0.034952141104533367 0 1.3676299161842635e-05 -0.034949062809205296 0 0.00019678156954425677 -0.034610670991392894 0 0.00014616929478451822 -0.034777956633214611 0 1.424796328867707e-05 -0.034952141104533367 0 1.3895306071234455e-05 -0.034951436092467668 0 1.2846837306674099e-05 -0.034949777306060525 0 7.3051543440742597e-06 -0.034949425289167967 0 1.1782532794190587e-05 -0.034943982769213899 0 1.2846837306674099e-05 -0.034949777306060525 0 0.00014616929478451822 -0.034777956633214611 0 0.00014160186646595423 -0.034779309271090866 0 4.8274109637840253e-06 -0.034936507239113408 0 7.3051543440742597e-06 -0.034949425289167967 0 1.1782532794190587e-05 -0.034943982769213899 0 2.7132255530773645e-05 -0.034988280550506304 0 2.3060350270899656e-05 -0.034992716594489284 0 2.86024009554948e-05 -0.034997920674957869 0 0.00014588714073910264 -0.034780770391947859 0 0.00014616929478451822 -0.034777956633214611 0 1.1782532794190587e-05 -0.034943982769213899 0 1.4055619431728265e-05 -0.034949344252886018 0 1.5177201363661059e-05 -0.034935527716021063 0 1.1782532794190587e-05 -0.034943982769213899 0 1.2846837306674099e-05 -0.034949777306060525 0 1.4055619431728265e-05 -0.034949344252886018 0 0.00043212892205528791 -0.033450255278656277 0 0.00043824934269517517 -0.033778913637493926 0 1.2846837306674099e-05 -0.034949777306060525 0 1.1937610258246217e-05 -0.034947916245492081 0 1.3676299161842635e-05 -0.034949062809205296 0 1.424796328867707e-05 -0.034952141104533367 0 1.2846837306674099e-05 -0.034949777306060525 0 1.3676299161842635e-05 -0.034949062809205296 0 1.2846837306674099e-05 -0.034949777306060525 0 1.1937610258246217e-05 -0.034947916245492081 0 1.4055619431728265e-05 -0.034949344252886018 0 1.4332217253725727e-05 -0.034945381874299811 0 1.5202013499786922e-05 -0.034949655573910263 0 1.3676299161842635e-05 -0.034949062809205296 0 1.4332217253725727e-05 -0.034945381874299811 0 1.1937610258246217e-05 -0.034947916245492081 0 1.3676299161842635e-05 -0.034949062809205296 0 0.00039174951628381772 -0.033112187097662067 0 0.00043212892205528791 -0.033450255278656277 0 1.1937610258246217e-05 -0.034947916245492081 0 3.6218706483119046e-08 -0.034945042439022397 0 1.4055619431728265e-05 -0.034949344252886018 0 0.00088822736905961881 -0.031379040545231919 0 0.001012143011482084 -0.031725798783275749 0 0.0011843906893209877 -0.031854472918877004 0 9.2880455243654628e-06 -0.034940284440079968 0 1.1937610258246217e-05 -0.034947916245492081 0 3.6218706483119046e-08 -0.034945042439022397 0 0.00078306563991898412 -0.03167583625665444 0 0.00088822736905961881 -0.031379040545231919 0 0.001012143011482084 -0.031725798783275749 0 0.001012143011482084 -0.031725798783275749 0 0.00089275293501777471 -0.031828733720213609 0 0.00099924861026583515 -0.032017504465989007 0 0.001012143011482084 -0.031725798783275749 0 0.00099924861026583515 -0.032017504465989007 0 0.0013155832048988654 -0.032301031872257739 0 0.001012143011482084 -0.031725798783275749 0 0.0011843906893209877 -0.031854472918877004 0 0.0012962273921879204 -0.032343865686286451 0 0.00078306563991898412 -0.03167583625665444 0 0.001012143011482084 -0.031725798783275749 0 0.00089275293501777471 -0.031828733720213609 0 0.00049467500700165889 -0.032944527371786166 0 0.00052781491682713671 -0.03323983497921331 0 0.00077750818165164967 -0.031897274466702104 0 0.00089275293501777471 -0.031828733720213609 0 0.00099924861026583515 -0.032017504465989007 0 0.00078958775696144883 -0.032134625942634158 0 0.00099924861026583515 -0.032017504465989007 0 0.0010251214901014674 -0.032265560350515213 0 0.00078958775696144883 -0.032134625942634158 0 0.0010251214901014674 -0.032265560350515213 0 0.00089172047675143936 -0.032392890938942119 0 0.0010251214901014674 -0.032265560350515213 0 0.00089172047675143936 -0.032392890938942119 0 0.0011344664545160465 -0.032482808513697906 0 0.0010251214901014674 -0.032265560350515213 0 0.0013155832048988654 -0.032301031872257739 0 0.0011344664545160465 -0.032482808513697906 0 0.00099924861026583515 -0.032017504465989007 0 0.0010251214901014674 -0.032265560350515213 0 0.0013155832048988654 -0.032301031872257739 0 0.0011843906893209877 -0.031854472918877004 0 0.0014847252126833387 -0.032361202427024276 0 0.0012962273921879204 -0.032343865686286451 0 0.00052781491682713671 -0.03323983497921331 0 0.00054493048903484734 -0.034002792756393486 0 0.0013155832048988654 -0.032301031872257739 0 0.0014798219946099954 -0.032736634974841326 0 0.0011344664545160465 -0.032482808513697906 0 0.0017949233624811418 -0.032875073639303191 0 0.0012962273921879204 -0.032343865686286451 0 0.0015968452142993614 -0.032975261385142167 0 0.0014798219946099954 -0.032736634974841326 0 0.0011715558744223213 -0.032714627507411283 0 0.0011344664545160465 -0.032482808513697906 0 0.0013155832048988654 -0.032301031872257739 0 0.0014798219946099954 -0.032736634974841326 0 0.0016340529771661449 -0.032945572233783464 0 0.0017949233624811418 -0.032875073639303191 0 0.0014847252126833387 -0.032361202427024276 0 0.0012962273921879204 -0.032343865686286451 0 0.0014798219946099954 -0.032736634974841326 0 0.0013221413576257632 -0.032813936934289252 0 0.0011715558744223213 -0.032714627507411283 0 0.0014798219946099954 -0.032736634974841326 0 0.0013221413576257632 -0.032813936934289252 0 0.0015087879940139106 -0.03300879731699622 0 0.0013221413576257632 -0.032813936934289252 0 0.0011715558744223213 -0.032714627507411283 0 0.001331191223809487 -0.033003141366103279 0 0.0011715558744223213 -0.032714627507411283 0 0.00087437929853817779 -0.032750373876838879 0 0.001331191223809487 -0.033003141366103279 0 0.00089172047675143936 -0.032392890938942119 0 0.00087437929853817779 -0.032750373876838879 0 0.0011344664545160465 -0.032482808513697906 0 0.0011715558744223213 -0.032714627507411283 0 0.00087437929853817779 -0.032750373876838879 0 0.0011344664545160465 -0.032482808513697906 0 0.0011563457290101067 -0.032967690885908375 0 0.0012596933300377093 -0.033069390317917474 0 0.0011975779679400864 -0.033117925526947291 0 0.0023621073244021575 -0.028834389630596615 0 0.0023914883509236445 -0.029077250354992572 0 0.0011563457290101067 -0.032967690885908375 0 0.0012596933300377093 -0.033069390317917474 0 0.001331191223809487 -0.033003141366103279 0 0.0012596933300377093 -0.033069390317917474 0 0.0013503032536229609 -0.033063944374727483 0 0.0012837641973979721 -0.033204053257354052 0 0.0012596933300377093 -0.033069390317917474 0 0.0011975779679400864 -0.033117925526947291 0 0.0012837641973979721 -0.033204053257354052 0 0.0012596933300377093 -0.033069390317917474 0 0.001331191223809487 -0.033003141366103279 0 0.0013503032536229609 -0.033063944374727483 0 0.0014073808384923374 -0.03303534318637201 0 0.0013503032536229609 -0.033063944374727483 0 0.0014292443261646117 -0.033264897094270406 0 0.0013221413576257632 -0.032813936934289252 0 0.001331191223809487 -0.033003141366103279 0 0.0015087879940139106 -0.03300879731699622 0 0.001331191223809487 -0.033003141366103279 0 0.0015087879940139106 -0.03300879731699622 0 0.0013503032536229609 -0.033063944374727483 0 0.00055461438332761752 -0.034035380009490503 0 0.00057860405658281236 -0.034019946170801514 0 0.00056142010011567072 -0.033977159301256409 0 0.00055461438332761752 -0.034035380009490503 0 0.0014798219946099954 -0.032736634974841326 0 0.0016340529771661449 -0.032945572233783464 0 0.0015173218968807748 -0.033004818816527046 0 0.00054493048903484734 -0.034002792756393486 0 0.00055461438332761752 -0.034035380009490503 0 0.0013503032536229609 -0.033063944374727483 0 0.0014292443261646117 -0.033264897094270406 0 0.0012837641973979721 -0.033204053257354052 0 0.00055461438332761752 -0.034035380009490503 0 0.0005648914139383455 -0.034184706999429153 0 0.0014292443261646117 -0.033264897094270406 0 0.0012837641973979721 -0.033204053257354052 0 0.0013329148521533606 -0.03336576623919929 0 0.0011975779679400864 -0.033117925526947291 0 0.0012837641973979721 -0.033204053257354052 0 0.001174435786753161 -0.033219158363155317 0 0.001097555286880162 -0.033155504868752399 0 0.0011975779679400864 -0.033117925526947291 0 0.001174435786753161 -0.033219158363155317 0 0.0010910278064484916 -0.033276351467466603 0 0.001174435786753161 -0.033219158363155317 0 0.0012063363717604409 -0.033340734253626554 0 0.0012837641973979721 -0.033204053257354052 0 0.001174435786753161 -0.033219158363155317 0 0.0012063363717604409 -0.033340734253626554 0 0.0012837641973979721 -0.033204053257354052 0 0.0012063363717604409 -0.033340734253626554 0 0.0013329148521533606 -0.03336576623919929 0 0.0012063363717604409 -0.033340734253626554 0 0.0012424302881579293 -0.033451155937077412 0 0.0013329148521533606 -0.03336576623919929 0 0.0011337629464108229 -0.033470340361046541 0 0.0012063363717604409 -0.033340734253626554 0 0.0012424302881579293 -0.033451155937077412 0 0.0011337629464108229 -0.033470340361046541 0 0.0012424302881579293 -0.033451155937077412 0 0.0012339236717964861 -0.033554812834468102 0 0.0012424302881579293 -0.033451155937077412 0 0.0012339236717964861 -0.033554812834468102 0 0.0013425928191614686 -0.033469795760105267 0 0.0013534776917023584 -0.033552602508517569 0 0.0013425928191614686 -0.033469795760105267 0 0.0014507313973123096 -0.03348649380372299 0 0.0013534776917023584 -0.033552602508517569 0 0.0014507313973123096 -0.03348649380372299 0 0.0014620154540073928 -0.033565884702336471 0 0.0012339236717964861 -0.033554812834468102 0 0.0013534776917023584 -0.033552602508517569 0 0.0013425928191614686 -0.033469795760105267 0 0.0012424302881579293 -0.033451155937077412 0 0.0013425928191614686 -0.033469795760105267 0 0.0013329148521533606 -0.03336576623919929 0 0.0013425928191614686 -0.033469795760105267 0 0.0013329148521533606 -0.03336576623919929 0 0.0014551805364336947 -0.033487428773242789 0 0.00061123348146440099 -0.034368906122204106 0 0.0005602617346652704 -0.034380504314050396 0 0.0014292443261646117 -0.033264897094270406 0 0.0013329148521533606 -0.03336576623919929 0 0.0014551805364336947 -0.033487428773242789 0 0.0005648914139383455 -0.034184706999429153 0 0.0005602617346652704 -0.034380504314050396 0 -3.9270470994640704e-05 -0.034945513989977091 0 -1.5359995586769235e-05 -0.034955641161743461 0 -1.4467013373375114e-05 -0.034977227540735727 0 -3.9270470994640704e-05 -0.034945513989977091 0 -1.4467013373375114e-05 -0.034977227540735727 0 -2.5511095649401096e-05 -0.03499995260192789 0 -1.5359995586769235e-05 -0.034955641161743461 0 -3.5076930304720695e-06 -0.034965182544134672 0 -1.4467013373375114e-05 -0.034977227540735727 0 -3.5076930304720695e-06 -0.034965182544134672 0 1.5995965487819002e-05 -0.03493422114863199 0 -3.2515293760097472e-06 -0.034948383554753465 0 -1.5359995586769235e-05 -0.034955641161743461 0 -3.5076930304720695e-06 -0.034965182544134672 0 -3.2515293760097472e-06 -0.034948383554753465 0 -3.5076930304720695e-06 -0.034965182544134672 0 -1.4467013373375114e-05 -0.034977227540735727 0 6.5427599063047518e-06 -0.034988611095903323 0 -1.4467013373375114e-05 -0.034977227540735727 0 -2.5511095649401096e-05 -0.03499995260192789 0 1.11014544361783e-06 -0.034998790788522215 0 -1.4467013373375114e-05 -0.034977227540735727 0 1.11014544361783e-06 -0.034998790788522215 0 6.5427599063047518e-06 -0.034988611095903323 0 0.0005602617346652704 -0.034380504314050396 0 0.00039081737253270836 -0.034490711635772921 0 0.00018411961628374504 -0.034983511491559691 0 0.00022778089125357066 -0.034956521720248046 0 0.00020238156017858493 -0.034928536559191259 0 0.00039081737253270836 -0.034490711635772921 0 0.00055054817047403201 -0.034388201177723336 0 0.00048269058380174157 -0.034360213302803977 0 0.00073998688582929413 -0.034398068215893196 0 0.0005090675052057069 -0.034548743659464642 0 0.0005602617346652704 -0.034380504314050396 0 0.00055054817047403201 -0.034388201177723336 0 1.11014544361783e-06 -0.034998790788522215 0 6.5427599063047518e-06 -0.034988611095903323 0 9.3362103493144472e-06 -0.034990482499707834 0 0.00039081737253270836 -0.034490711635772921 0 0.00018926571627449692 -0.034695485611111541 0 0.00018411961628374504 -0.034983511491559691 0 8.5219798083101625e-05 -0.034968361455956477 0 0.00012859973203065657 -0.034923768610886134 0 0.00039081737253270836 -0.034490711635772921 0 0.00026773465927942543 -0.03459014571927356 0 1.1854998764295232e-05 -0.034988806169464218 0 9.3362103493144472e-06 -0.034990482499707834 0 8.0206752961488672e-06 -0.034989937640153887 0 -3.5076930304720695e-06 -0.034965182544134672 0 6.5427599063047518e-06 -0.034988611095903323 0 1.5995965487819002e-05 -0.03493422114863199 0 0.00031818365922255218 -0.034547753066957128 0 0.00032259694679235288 -0.034494989440885165 0 6.5427599063047518e-06 -0.034988611095903323 0 8.1439520416524901e-06 -0.034990795355074295 0 9.3362103493144472e-06 -0.034990482499707834 0 6.5427599063047518e-06 -0.034988611095903323 0 8.1439520416524901e-06 -0.034990795355074295 0 9.2930165468255373e-06 -0.034991500674065923 0 8.1439520416524901e-06 -0.034990795355074295 0 8.2256987656337682e-06 -0.034992005775928023 0 6.6449673631766227e-06 -0.034993589267070926 0 9.1076132111988321e-06 -0.034993150254157702 0 9.2930165468255373e-06 -0.034991500674065923 0 9.5836409326843889e-06 -0.034993666434629506 0 8.1439520416524901e-06 -0.034990795355074295 0 8.2256987656337682e-06 -0.034992005775928023 0 9.2930165468255373e-06 -0.034991500674065923 0 0.00032259694679235288 -0.034494989440885165 0 0.00033474870375439238 -0.034326687314042779 0 8.2282714745415379e-06 -0.03499279264317532 0 7.5166094470291763e-06 -0.034994191165844742 0 6.6449673631766227e-06 -0.034993589267070926 0 8.2256987656337682e-06 -0.034992005775928023 0 8.2282714745415379e-06 -0.03499279264317532 0 6.6449673631766227e-06 -0.034993589267070926 0 8.2282714745415379e-06 -0.03499279264317532 0 9.1076132111988321e-06 -0.034993150254157702 0 7.5166094470291763e-06 -0.034994191165844742 0 8.2282714745415379e-06 -0.03499279264317532 0 9.1076132111988321e-06 -0.034993150254157702 0 9.2930165468255373e-06 -0.034991500674065923 0 8.2256987656337682e-06 -0.034992005775928023 0 8.2282714745415379e-06 -0.03499279264317532 0 9.2930165468255373e-06 -0.034991500674065923 0 -3.2515293760097472e-06 -0.034948383554753465 0 -1.8592361174653452e-05 -0.034934356810303442 0 -1.7490044125208035e-05 -0.03491055849570944 0 -4.9378885600348379e-05 -0.034875863136387561 0 -3.9270470994640704e-05 -0.034945513989977091 0 -1.7490044125208035e-05 -0.03491055849570944 0 1.5995965487819002e-05 -0.03493422114863199 0 -3.2515293760097472e-06 -0.034948383554753465 0 -4.0883696138063841e-05 -0.034877117816251996 0 0.00054160520716615567 -0.034224259198583101 0 0.00054236246936796475 -0.034169585493504538 0 1.5995965487819002e-05 -0.03493422114863199 0 -4.0883696138063841e-05 -0.034877117816251996 0 6.0753823808786454e-06 -0.034846435835853187 0 -1.5359995586769235e-05 -0.034955641161743461 0 -3.2515293760097472e-06 -0.034948383554753465 0 -1.8592361174653452e-05 -0.034934356810303442 0 -3.9270470994640704e-05 -0.034945513989977091 0 -1.5359995586769235e-05 -0.034955641161743461 0 -1.8592361174653452e-05 -0.034934356810303442 0 -3.9270470994640704e-05 -0.034945513989977091 0 -1.8592361174653452e-05 -0.034934356810303442 0 -1.7490044125208035e-05 -0.03491055849570944 0 -4.0883696138063841e-05 -0.034877117816251996 0 6.0753823808786454e-06 -0.034846435835853187 0 -3.7181230465110654e-05 -0.034824652052023092 0 0.00054493048903484734 -0.034002792756393486 0 0.00054236246936796475 -0.034169585493504538 0 -3.6328006283154805e-05 -0.03486913373542725 0 -4.9378885600348379e-05 -0.034875863136387561 0 -1.7490044125208035e-05 -0.03491055849570944 0 -7.9260618545975477e-05 -0.034798479558182667 0 -4.0883696138063841e-05 -0.034877117816251996 0 -3.7181230465110654e-05 -0.034824652052023092 0 0.00038763653237597399 -0.034108178064163601 0 0.00054493048903484734 -0.034002792756393486 0 -3.4997274909754009e-05 -0.034776276753585772 0 -7.9260618545975477e-05 -0.034798479558182667 0 -3.7181230465110654e-05 -0.034824652052023092 0 0.00038763653237597399 -0.034108178064163601 0 0.00033474870375439238 -0.034326687314042779 0 0.0002494689968888289 -0.034307168408072609 0 0.00033474870375439238 -0.034326687314042779 0 -3.4997274909754009e-05 -0.034776276753585772 0 6.0753823808786454e-06 -0.034846435835853187 0 -3.7181230465110654e-05 -0.034824652052023092 0 0.00036975618056454845 -0.033808062802382043 0 0.00018318612340664068 -0.03390226843222157 0 0.00045484471073138134 -0.034344363738163047 0 9.5672004346348522e-06 -0.034995773519926249 0 9.3441875133933834e-06 -0.034993777964782549 0 7.7273892445692606e-06 -0.034995251513401646 0 7.7273892445692606e-06 -0.034995251513401646 0 7.5166094470291763e-06 -0.034994191165844742 0 5.9800654060419525e-06 -0.034995767072647996 0 7.7273892445692606e-06 -0.034995251513401646 0 7.5166094470291763e-06 -0.034994191165844742 0 8.4106948934833354e-06 -0.034994087916161154 0 9.1076132111988321e-06 -0.034993150254157702 0 7.5166094470291763e-06 -0.034994191165844742 0 8.4106948934833354e-06 -0.034994087916161154 0 9.3441875133933834e-06 -0.034993777964782549 0 7.7273892445692606e-06 -0.034995251513401646 0 8.4106948934833354e-06 -0.034994087916161154 0 9.1076132111988321e-06 -0.034993150254157702 0 9.3441875133933834e-06 -0.034993777964782549 0 8.4106948934833354e-06 -0.034994087916161154 0 0.00033581253563725585 -0.034332782394289246 0 0.00033474870375439238 -0.034326687314042779 0 5.6596589823468421e-06 -0.03499524697524193 0 3.9182872147990297e-06 -0.03499604377160255 0 6.6449673631766227e-06 -0.034993589267070926 0 7.5166094470291763e-06 -0.034994191165844742 0 5.6596589823468421e-06 -0.03499524697524193 0 5.9800654060419525e-06 -0.034995767072647996 0 7.5166094470291763e-06 -0.034994191165844742 0 5.6596589823468421e-06 -0.03499524697524193 0 6.6449673631766227e-06 -0.034993589267070926 0 4.543204617408552e-06 -0.034996452626243783 0 5.6596589823468421e-06 -0.03499524697524193 0 5.9800654060419525e-06 -0.034995767072647996 0 4.543204617408552e-06 -0.034996452626243783 0 5.6596589823468421e-06 -0.03499524697524193 0 3.9182872147990297e-06 -0.03499604377160255 0 3.0207451508822964e-06 -0.034997178681497626 0 4.543204617408552e-06 -0.034996452626243783 0 3.9182872147990297e-06 -0.03499604377160255 0 3.0207451508822964e-06 -0.034997178681497626 0 3.9182872147990297e-06 -0.03499604377160255 0 2.1818620967755954e-06 -0.034997611730992473 0 3.9182872147990297e-06 -0.03499604377160255 0 6.0940869589544758e-06 -0.034993679964579985 0 3.4815823623997098e-06 -0.03499571585742374 0 3.9182872147990297e-06 -0.03499604377160255 0 6.6449673631766227e-06 -0.034993589267070926 0 6.0940869589544758e-06 -0.034993679964579985 0 8.1439520416524901e-06 -0.034990795355074295 0 6.6449673631766227e-06 -0.034993589267070926 0 6.0940869589544758e-06 -0.034993679964579985 0 8.1439520416524901e-06 -0.034990795355074295 0 6.0940869589544758e-06 -0.034993679964579985 0 9.3362103493144472e-06 -0.034990482499707834 0 6.0940869589544758e-06 -0.034993679964579985 0 9.3362103493144472e-06 -0.034990482499707834 0 5.7214770659325641e-06 -0.034992829344839049 0 9.3362103493144472e-06 -0.034990482499707834 0 8.0206752961488672e-06 -0.034989937640153887 0 5.7214770659325641e-06 -0.034992829344839049 0 0.00018926571627449692 -0.034695485611111541 0 7.3574879976404865e-05 -0.034856751082536878 0 8.0206752961488672e-06 -0.034989937640153887 0 5.7214770659325641e-06 -0.034992829344839049 0 2.7244354834602538e-06 -0.034994405061712405 0 3.4815823623997098e-06 -0.03499571585742374 0 5.7214770659325641e-06 -0.034992829344839049 0 2.7244354834602538e-06 -0.034994405061712405 0 6.0940869589544758e-06 -0.034993679964579985 0 3.4815823623997098e-06 -0.03499571585742374 0 5.7214770659325641e-06 -0.034992829344839049 0 3.4815823623997098e-06 -0.03499571585742374 0 1.5395916055191175e-06 -0.034997834550692518 0 2.7244354834602538e-06 -0.034994405061712405 0 1.3743141408270698e-11 -0.034999997850039058 0 1.5395916055191175e-06 -0.034997834550692518 0 2.7244354834602538e-06 -0.034994405061712405 0 1.3743141408270698e-11 -0.034999997850039058 0 1.2530090592062641e-09 -0.034999993984473121 0 2.7244354834602538e-06 -0.034994405061712405 0 1.3743141408270698e-11 -0.034999997850039058 0 1.5395916055191175e-06 -0.034997834550692518 0 2.7167843923090194e-09 -0.034999994831727985 0 1.1653957722634186e-09 -0.034999998426355684 0 4.4892412530124929e-07 -0.034999742777638704 0 1.5395916055191175e-06 -0.034997834550692518 0 2.7167843923090194e-09 -0.034999994831727985 0 2.1818620967755954e-06 -0.034997611730992473 0 3.9182872147990297e-06 -0.03499604377160255 0 3.4815823623997098e-06 -0.03499571585742374 0 2.1818620967755954e-06 -0.034997611730992473 0 3.4815823623997098e-06 -0.03499571585742374 0 1.5395916055191175e-06 -0.034997834550692518 0 2.1818620967755954e-06 -0.034997611730992473 0 7.6318565259296139e-07 -0.03499973281082551 0 4.4892412530124929e-07 -0.034999742777638704 0 1.1169466766694829e-06 -0.034998732943027105 0 3.0207451508822964e-06 -0.034997178681497626 0 9.5216482268166686e-07 -0.034998957483318806 0 -6.7609543848642163e-11 -0.034999999287475388 0 9.5216482268166686e-07 -0.034998957483318806 0 9.3568940906833672e-10 -0.034999998250433678 0 1.1169466766694829e-06 -0.034998732943027105 0 9.5216482268166686e-07 -0.034998957483318806 0 9.3568940906833672e-10 -0.034999998250433678 0 1.838883095937996e-05 -0.034986221536623945 0 1.0531307751062257e-08 -0.034999965882330612 0 1.2252028648391275e-05 -0.03500007744121203 0 1.838883095937996e-05 -0.034986221536623945 0 3.8041560614205758e-05 -0.034996580254702155 0 1.2252028648391275e-05 -0.03500007744121203 0 1.838883095937996e-05 -0.034986221536623945 0 1.4516589111412445e-05 -0.034981125658426003 0 2.823942433172403e-05 -0.034966689172584747 0 1.838883095937996e-05 -0.034986221536623945 0 1.0531307751062257e-08 -0.034999965882330612 0 1.4516589111412445e-05 -0.034981125658426003 0 7.6789094892042764e-05 -0.034975115753874735 0 3.8041560614205758e-05 -0.034996580254702155 0 0.0001192507660439251 -0.035019325731901939 0 0.00017235767011184003 -0.03490876393962164 0 3.26424657190563e-05 -0.034932497455592182 0 3.8112374272311694e-05 -0.034946443515874538 0 1.838883095937996e-05 -0.034986221536623945 0 2.823942433172403e-05 -0.034966689172584747 0 3.8789839954863195e-05 -0.034974190870037961 0 2.823942433172403e-05 -0.034966689172584747 0 4.1523265612766464e-05 -0.03496020526831816 0 3.8112374272311694e-05 -0.034946443515874538 0 2.823942433172403e-05 -0.034966689172584747 0 4.1523265612766464e-05 -0.03496020526831816 0 3.8789839954863195e-05 -0.034974190870037961 0 4.1523265612766464e-05 -0.03496020526831816 0 6.7261646308192422e-05 -0.034955641800285014 0 3.8112374272311694e-05 -0.034946443515874538 0 4.1523265612766464e-05 -0.03496020526831816 0 6.7261646308192422e-05 -0.034955641800285014 0 3.8789839954863195e-05 -0.034974190870037961 0 6.7261646308192422e-05 -0.034955641800285014 0 7.6789094892042764e-05 -0.034975115753874735 0 3.8789839954863195e-05 -0.034974190870037961 0 7.6789094892042764e-05 -0.034975115753874735 0 3.8789839954863195e-05 -0.034974190870037961 0 3.8041560614205758e-05 -0.034996580254702155 0 1.838883095937996e-05 -0.034986221536623945 0 3.8789839954863195e-05 -0.034974190870037961 0 3.8041560614205758e-05 -0.034996580254702155 0 5.5020118192753888e-05 -0.034928946087460715 0 0.00010814849196092638 -0.034859465870187734 0 -5.8846670972130357e-06 -0.034899311728462834 0 3.1443577262593043e-05 -0.034868360224090497 0 2.9613292187927031e-05 -0.034802627035855488 0 3.8041560614205758e-05 -0.034996580254702155 0 1.2252028648391275e-05 -0.03500007744121203 0 2.2427227499676233e-05 -0.035022766188052272 0 3.8041560614205758e-05 -0.034996580254702155 0 2.2427227499676233e-05 -0.035022766188052272 0 0.0001192507660439251 -0.035019325731901939 0 9.8563545030784167e-09 -0.035000023522387499 0 1.2252028648391275e-05 -0.03500007744121203 0 2.2427227499676233e-05 -0.035022766188052272 0 1.0531307751062257e-08 -0.034999965882330612 0 9.8563545030784167e-09 -0.035000023522387499 0 1.2252028648391275e-05 -0.03500007744121203 0 -2.9725517911782163e-08 -0.034999913137723132 0 1.9834354787016013e-06 -0.034958820454213287 0 -5.8846670972130357e-06 -0.034899311728462834 0 9.8563545030784167e-09 -0.035000023522387499 0 3.9634601497263502e-10 -0.03500001580296988 0 2.2427227499676233e-05 -0.035022766188052272 0 9.036077069965747e-08 -0.034999829601064958 0 5.5020118192753888e-05 -0.034928946087460715 0 -2.9725517911782163e-08 -0.034999913137723132 0 -7.2859113520179821e-09 -0.035000003306879655 0 1.9834354787016013e-06 -0.034958820454213287 0 -7.2859113520179821e-09 -0.035000003306879655 0 1.9834354787016013e-06 -0.034958820454213287 0 1.3518114493619882e-05 -0.034962939695839988 0 1.4062697562101686e-07 -0.034999519530439477 0 7.3574879976404865e-05 -0.034856751082536878 0 1.9834354787016013e-06 -0.034958820454213287 0 1.3518114493619882e-05 -0.034962939695839988 0 3.6598779409408769e-05 -0.034915237911116823 0 -5.8846670972130357e-06 -0.034899311728462834 0 3.1443577262593043e-05 -0.034868360224090497 0 3.6598779409408769e-05 -0.034915237911116823 0 1.9834354787016013e-06 -0.034958820454213287 0 -5.8846670972130357e-06 -0.034899311728462834 0 3.6598779409408769e-05 -0.034915237911116823 0 3.1443577262593043e-05 -0.034868360224090497 0 3.6598779409408769e-05 -0.034915237911116823 0 7.2105377161208733e-05 -0.034852621972093309 0 8.5219798083101625e-05 -0.034968361455956477 0 1.3518114493619882e-05 -0.034962939695839988 0 3.6598779409408769e-05 -0.034915237911116823 0 8.5219798083101625e-05 -0.034968361455956477 0 9.8805749918404786e-05 -0.034894897215614132 0 0.00012859973203065657 -0.034923768610886134 0 8.5219798083101625e-05 -0.034968361455956477 0 3.6598779409408769e-05 -0.034915237911116823 0 9.8805749918404786e-05 -0.034894897215614132 0 3.6598779409408769e-05 -0.034915237911116823 0 9.8805749918404786e-05 -0.034894897215614132 0 7.2105377161208733e-05 -0.034852621972093309 0 9.8805749918404786e-05 -0.034894897215614132 0 0.00011329284594095051 -0.0348281545945466 0 0.00013706837400349759 -0.034852138036676979 0 9.8805749918404786e-05 -0.034894897215614132 0 7.2105377161208733e-05 -0.034852621972093309 0 0.00011329284594095051 -0.0348281545945466 0 7.2105377161208733e-05 -0.034852621972093309 0 0.00011329284594095051 -0.0348281545945466 0 8.7114298200572287e-05 -0.034790513244959971 0 7.2105377161208733e-05 -0.034852621972093309 0 8.7114298200572287e-05 -0.034790513244959971 0 2.9613292187927031e-05 -0.034802627035855488 0 0.00011329284594095051 -0.0348281545945466 0 8.7114298200572287e-05 -0.034790513244959971 0 0.00013078218888552229 -0.034759098119770029 0 3.1443577262593043e-05 -0.034868360224090497 0 7.2105377161208733e-05 -0.034852621972093309 0 2.9613292187927031e-05 -0.034802627035855488 0 0.00017235767011184003 -0.03490876393962164 0 0.00031326882095279561 -0.034890678441763752 0 0.00015872253650222728 -0.034798551448802492 0 4.3607914294362419e-05 -0.034961925171261253 0 1.7759453762768053e-05 -0.034955883430491767 0 6.7261646308192422e-05 -0.034955641800285014 0 0.00017235767011184003 -0.03490876393962164 0 3.8112374272311694e-05 -0.034946443515874538 0 0.0001192507660439251 -0.035019325731901939 0 0.00017235767011184003 -0.03490876393962164 0 0.00031326882095279561 -0.034890678441763752 0 7.6789094892042764e-05 -0.034975115753874735 0 0.0001192507660439251 -0.035019325731901939 0 0.00017235767011184003 -0.03490876393962164 0 6.7261646308192422e-05 -0.034955641800285014 0 7.6789094892042764e-05 -0.034975115753874735 0 0.00017235767011184003 -0.03490876393962164 0 0.00010814849196092638 -0.034859465870187734 0 0.00016233359922546752 -0.034785721478019539 0 8.7114298200572287e-05 -0.034790513244959971 0 2.9613292187927031e-05 -0.034802627035855488 0 9.2170896142309129e-05 -0.034704852696809466 0 8.7114298200572287e-05 -0.034790513244959971 0 9.2170896142309129e-05 -0.034704852696809466 0 0.00013078218888552229 -0.034759098119770029 0 0.00015414603682852582 -0.034693708818563158 0 0.00018371487435377154 -0.03472633214142868 0 0.00013078218888552229 -0.034759098119770029 0 9.2170896142309129e-05 -0.034704852696809466 0 0.00015414603682852582 -0.034693708818563158 0 0.00013078218888552229 -0.034759098119770029 0 0.00018371487435377154 -0.03472633214142868 0 0.00024700164027969016 -0.034688980304142622 0 0.0001962595442946459 -0.034660177923583217 0 0.00015414603682852582 -0.034693708818563158 0 0.00018371487435377154 -0.03472633214142868 0 0.0001962595442946459 -0.034660177923583217 0 0.00018371487435377154 -0.03472633214142868 0 0.0002203822081660822 -0.034781946302777034 0 0.00024700164027969016 -0.034688980304142622 0 0.00018371487435377154 -0.03472633214142868 0 0.0002203822081660822 -0.034781946302777034 0 0.00016332074503468789 -0.034802985169696557 0 0.0002203822081660822 -0.034781946302777034 0 0.00019390265892423234 -0.034822149153849347 0 0.00021422885698381796 -0.03484790900463957 0 0.0002203822081660822 -0.034781946302777034 0 0.00016332074503468789 -0.034802985169696557 0 0.00019390265892423234 -0.034822149153849347 0 0.00016332074503468789 -0.034802985169696557 0 0.00016769774468336637 -0.034843685327766064 0 0.00019390265892423234 -0.034822149153849347 0 0.00018371487435377154 -0.03472633214142868 0 0.00016332074503468789 -0.034802985169696557 0 0.00013078218888552229 -0.034759098119770029 0 0.00011329284594095051 -0.0348281545945466 0 0.00016332074503468789 -0.034802985169696557 0 0.00013078218888552229 -0.034759098119770029 0 0.00011329284594095051 -0.0348281545945466 0 0.00016332074503468789 -0.034802985169696557 0 0.00013706837400349759 -0.034852138036676979 0 0.00013706837400349759 -0.034852138036676979 0 0.00016769774468336637 -0.034843685327766064 0 0.0001458864610416829 -0.034884092144433929 0 0.00016332074503468789 -0.034802985169696557 0 0.00013706837400349759 -0.034852138036676979 0 0.00016769774468336637 -0.034843685327766064 0 0.0001458864610416829 -0.034884092144433929 0 0.00016414693984754714 -0.034904204472434308 0 0.0001831555224393425 -0.034873374538399664 0 0.00016769774468336637 -0.034843685327766064 0 0.0001458864610416829 -0.034884092144433929 0 0.0001831555224393425 -0.034873374538399664 0 9.8805749918404786e-05 -0.034894897215614132 0 0.00013706837400349759 -0.034852138036676979 0 0.0001458864610416829 -0.034884092144433929 0 0.0001458864610416829 -0.034884092144433929 0 0.00012859973203065657 -0.034923768610886134 0 0.00016414693984754714 -0.034904204472434308 0 0.00018411961628374504 -0.034983511491559691 0 0.00012859973203065657 -0.034923768610886134 0 0.00017471763742026792 -0.034931647939345854 0 9.8805749918404786e-05 -0.034894897215614132 0 0.0001458864610416829 -0.034884092144433929 0 0.00012859973203065657 -0.034923768610886134 0 0.00012859973203065657 -0.034923768610886134 0 0.00016414693984754714 -0.034904204472434308 0 0.00017471763742026792 -0.034931647939345854 0 0.00016414693984754714 -0.034904204472434308 0 0.00017471763742026792 -0.034931647939345854 0 0.00019003543852713387 -0.034906483129895423 0 0.00022778089125357066 -0.034956521720248046 0 0.00020238156017858493 -0.034928536559191259 0 0.00022114177510604719 -0.034894871309301904 0 0.00055054817047403201 -0.034388201177723336 0 0.00057546342849477559 -0.034414351979812505 0 0.00018411961628374504 -0.034983511491559691 0 0.00017471763742026792 -0.034931647939345854 0 0.00020238156017858493 -0.034928536559191259 0 0.00020238156017858493 -0.034928536559191259 0 0.00019003543852713387 -0.034906483129895423 0 0.00022114177510604719 -0.034894871309301904 0 0.00017471763742026792 -0.034931647939345854 0 0.00020238156017858493 -0.034928536559191259 0 0.00019003543852713387 -0.034906483129895423 0 0.00016414693984754714 -0.034904204472434308 0 0.00019003543852713387 -0.034906483129895423 0 0.0001831555224393425 -0.034873374538399664 0 0.00019003543852713387 -0.034906483129895423 0 0.00022114177510604719 -0.034894871309301904 0 0.00020117774138670932 -0.034881018494869721 0 0.00022114177510604719 -0.034894871309301904 0 0.00020117774138670932 -0.034881018494869721 0 0.00021422885698381796 -0.03484790900463957 0 0.00057546342849477559 -0.034414351979812505 0 0.0005730179766292524 -0.03443392287738653 0 0.00021822016764994838 -0.034891916592531158 0 0.00021422885698381796 -0.03484790900463957 0 0.0002578003905319781 -0.03486674298343953 0 0.00019003543852713387 -0.034906483129895423 0 0.00020117774138670932 -0.034881018494869721 0 0.0001831555224393425 -0.034873374538399664 0 0.00020117774138670932 -0.034881018494869721 0 0.0001831555224393425 -0.034873374538399664 0 0.00021422885698381796 -0.03484790900463957 0 0.0001831555224393425 -0.034873374538399664 0 0.00019390265892423234 -0.034822149153849347 0 0.00021422885698381796 -0.03484790900463957 0 0.00016769774468336637 -0.034843685327766064 0 0.0001831555224393425 -0.034873374538399664 0 0.00019390265892423234 -0.034822149153849347 0 0.0002203822081660822 -0.034781946302777034 0 0.00021422885698381796 -0.03484790900463957 0 0.00027559003448154786 -0.03482375921569901 0 0.00027559003448154786 -0.03482375921569901 0 0.0002578003905319781 -0.03486674298343953 0 0.00032746311916836984 -0.034906489936307725 0 0.00021422885698381796 -0.03484790900463957 0 0.00027559003448154786 -0.03482375921569901 0 0.0002578003905319781 -0.03486674298343953 0 0.00021822016764994838 -0.034891916592531158 0 0.0002578003905319781 -0.03486674298343953 0 0.00032746311916836984 -0.034906489936307725 0 0.00055054817047403201 -0.034388201177723336 0 0.00061232630668270327 -0.034395128603638941 0 0.00057546342849477559 -0.034414351979812505 0 0.00061232630668270327 -0.034395128603638941 0 0.00055445772992499659 -0.03440224631327167 0 0.00055308474652974516 -0.034392317227699705 0 0.00056786874184528314 -0.03439355318100222 0 0.0013534776917023584 -0.033552602508517569 0 0.0014620154540073928 -0.033565884702336471 0 0.0012762760462334401 -0.033687142304160284 0 0.0012339236717964861 -0.033554812834468102 0 0.0012762760462334401 -0.033687142304160284 0 0.0010440273192513241 -0.033666061811190563 0 0.00061232630668270327 -0.034395128603638941 0 0.00060353045107216195 -0.034290402279767741 0 0.0012339236717964861 -0.033554812834468102 0 0.0013534776917023584 -0.033552602508517569 0 0.0012762760462334401 -0.033687142304160284 0 0.00061232630668270327 -0.034395128603638941 0 0.00051993429190552525 -0.034485396968373848 0 0.00032746311916836984 -0.034906489936307725 0 0.00035165150176995824 -0.034790204773190239 0 0.00046045820630190336 -0.03483011131104146 0 0.00027559003448154786 -0.03482375921569901 0 0.00032746311916836984 -0.034906489936307725 0 0.00035165150176995824 -0.034790204773190239 0 0.00035165150176995824 -0.034790204773190239 0 0.00028273293018316173 -0.034755035209626139 0 0.00032813592090102613 -0.034691425102975265 0 0.00035165150176995824 -0.034790204773190239 0 0.00032813592090102613 -0.034691425102975265 0 0.00041267828541905626 -0.034702927499797906 0 0.00027559003448154786 -0.03482375921569901 0 0.00035165150176995824 -0.034790204773190239 0 0.00028273293018316173 -0.034755035209626139 0 0.0002203822081660822 -0.034781946302777034 0 0.00028273293018316173 -0.034755035209626139 0 0.00024700164027969016 -0.034688980304142622 0 0.0002203822081660822 -0.034781946302777034 0 0.00027559003448154786 -0.03482375921569901 0 0.00028273293018316173 -0.034755035209626139 0 0.00024700164027969016 -0.034688980304142622 0 0.00032813592090102613 -0.034691425102975265 0 0.0003065101609125956 -0.034599638252402205 0 0.00028273293018316173 -0.034755035209626139 0 0.00024700164027969016 -0.034688980304142622 0 0.00032813592090102613 -0.034691425102975265 0 0.00032813592090102613 -0.034691425102975265 0 0.00038015407310805477 -0.034593708108258826 0 0.0003065101609125956 -0.034599638252402205 0 0.00032813592090102613 -0.034691425102975265 0 0.00038015407310805477 -0.034593708108258826 0 0.00041267828541905626 -0.034702927499797906 0 0.00038015407310805477 -0.034593708108258826 0 0.00032239817864538321 -0.034486941898950942 0 0.00039919318688654302 -0.034427778544143174 0 0.00038015407310805477 -0.034593708108258826 0 0.0003065101609125956 -0.034599638252402205 0 0.00032239817864538321 -0.034486941898950942 0 0.0003065101609125956 -0.034599638252402205 0 0.00026940154542960752 -0.034521047249149853 0 0.00022743171461124122 -0.03455965302514824 0 0.00024700164027969016 -0.034688980304142622 0 0.0003065101609125956 -0.034599638252402205 0 0.00023827187304786246 -0.034620962871751898 0 0.00022149643010072506 -0.034713577229021242 0 0.00021026364500488517 -0.034715665207280713 0 0.00026940154542960752 -0.034521047249149853 0 0.00023188758822517333 -0.034510398912013358 0 0.00022743171461124122 -0.03455965302514824 0 0.0003065101609125956 -0.034599638252402205 0 0.00026940154542960752 -0.034521047249149853 0 0.00032239817864538321 -0.034486941898950942 0 0.00026940154542960752 -0.034521047249149853 0 0.00027172713916196384 -0.034454653748051171 0 0.00032239817864538321 -0.034486941898950942 0 0.00026940154542960752 -0.034521047249149853 0 0.00027172713916196384 -0.034454653748051171 0 0.00023188758822517333 -0.034510398912013358 0 0.00027172713916196384 -0.034454653748051171 0 0.00032239817864538321 -0.034486941898950942 0 0.00032625426607210646 -0.034393045452329123 0 0.00032239817864538321 -0.034486941898950942 0 0.00032625426607210646 -0.034393045452329123 0 0.00039919318688654302 -0.034427778544143174 0 0.00032625426607210646 -0.034393045452329123 0 0.00029451248617011022 -0.034397083112942928 0 0.00040779833166462194 -0.034274343793952534 0 0.00033836572071168291 -0.034329036233975492 0 0.00029451248617011022 -0.034397083112942928 0 0.00040779833166462194 -0.034274343793952534 0 0.00027172713916196384 -0.034454653748051171 0 0.00029451248617011022 -0.034397083112942928 0 0.00020824800025026323 -0.034481796208494148 0 0.00027172713916196384 -0.034454653748051171 0 0.00032625426607210646 -0.034393045452329123 0 0.00029451248617011022 -0.034397083112942928 0 0.00029451248617011022 -0.034397083112942928 0 0.00020824800025026323 -0.034481796208494148 0 0.00018850088353016006 -0.034435827849931426 0 0.00025008262131495396 -0.034463615698931777 0 0.00029451248617011022 -0.034397083112942928 0 0.00018606662540910089 -0.034574855256397759 0 0.00017765461250400188 -0.034510156358332017 0 0.0001620145165330482 -0.034519048267234974 0 0.0001620145165330482 -0.034519048267234974 0 0.00014448146909608025 -0.034531964798708549 0 0.00020824800025026323 -0.034481796208494148 0 0.00018850088353016006 -0.034435827849931426 0 0.00013993853548617462 -0.034513069098669011 0 0.00018850088353016006 -0.034435827849931426 0 0.00013993853548617462 -0.034513069098669011 0 0.0001016311954932002 -0.034502947405352119 0 0.00020824800025026323 -0.034481796208494148 0 0.00013993853548617462 -0.034513069098669011 0 0.00016440950180956026 -0.034530798192868417 0 0.00016440950180956026 -0.034530798192868417 0 0.0001803139108655277 -0.034551915736646739 0 0.00010833939836162015 -0.034564319366164657 0 0.00016440950180956026 -0.034530798192868417 0 0.00019441967795884166 -0.034536948734860136 0 0.0001803139108655277 -0.034551915736646739 0 0.00027172713916196384 -0.034454653748051171 0 0.00020824800025026323 -0.034481796208494148 0 0.00023188758822517333 -0.034510398912013358 0 0.00020824800025026323 -0.034481796208494148 0 0.00016440950180956026 -0.034530798192868417 0 0.00019441967795884166 -0.034536948734860136 0 0.00020824800025026323 -0.034481796208494148 0 0.00023188758822517333 -0.034510398912013358 0 0.00019441967795884166 -0.034536948734860136 0 0.00021026364500488517 -0.034715665207280713 0 0.00019139606377642079 -0.034725429678661303 0 0.00019441967795884166 -0.034536948734860136 0 0.00022743171461124122 -0.03455965302514824 0 0.00018061150277249362 -0.034548113110902313 0 0.00023827187304786246 -0.034620962871751898 0 0.0001962595442946459 -0.034660177923583217 0 0.00016964883742411025 -0.03461761872162248 0 0.00019258096936732759 -0.034723582988669476 0 0.00019139606377642079 -0.034725429678661303 0 0.00023188758822517333 -0.034510398912013358 0 0.00019441967795884166 -0.034536948734860136 0 0.00022743171461124122 -0.03455965302514824 0 0.00024700164027969016 -0.034688980304142622 0 0.00023827187304786246 -0.034620962871751898 0 0.0001962595442946459 -0.034660177923583217 0 0.00019139606377642079 -0.034725429678661303 0 0.00015295934861281031 -0.034694799383686727 0 0.00016233359922546752 -0.034785721478019539 0 0.00019139606377642079 -0.034725429678661303 0 9.2170896142309129e-05 -0.034704852696809466 0 0.00015414603682852582 -0.034693708818563158 0 0.00016964883742411025 -0.03461761872162248 0 0.00015414603682852582 -0.034693708818563158 0 0.0001962595442946459 -0.034660177923583217 0 0.00016964883742411025 -0.03461761872162248 0 0.00031326882095279561 -0.034890678441763752 0 0.00049292201834346078 -0.034745767052800344 0 0.0002441429734668677 -0.034684694597190438 0 0.00031326882095279561 -0.034890678441763752 0 0.00015872253650222728 -0.034798551448802492 0 0.0002441429734668677 -0.034684694597190438 0 0.00015872253650222728 -0.034798551448802492 0 0.00011637644759587215 -0.034708082724451556 0 0.0002441429734668677 -0.034684694597190438 0 0.00017235767011184003 -0.03490876393962164 0 0.00015872253650222728 -0.034798551448802492 0 2.6162015147349407e-05 -0.034798410941403596 0 0.00015872253650222728 -0.034798551448802492 0 0.00011637644759587215 -0.034708082724451556 0 7.9709802091451477e-05 -0.034748048958427362 0 0.00015295934861281031 -0.034694799383686727 0 0.00012087615678788641 -0.034680807873196939 0 0.00011637644759587215 -0.034708082724451556 0 0.0002441429734668677 -0.034684694597190438 0 5.041773261694154e-05 -0.034601763904087104 0 0.00010833939836162015 -0.034564319366164657 0 9.1499736799522354e-05 -0.034551285855652765 0 5.041773261694154e-05 -0.034601763904087104 0 0.00013993853548617462 -0.034513069098669011 0 0.00016440950180956026 -0.034530798192868417 0 0.00010833939836162015 -0.034564319366164657 0 0.00013993853548617462 -0.034513069098669011 0 0.00010833939836162015 -0.034564319366164657 0 9.1499736799522354e-05 -0.034551285855652765 0 0.00013993853548617462 -0.034513069098669011 0 0.0001016311954932002 -0.034502947405352119 0 9.1499736799522354e-05 -0.034551285855652765 0 0.00010155903104266401 -0.034624931122330456 0 0.00018606662540910089 -0.034574855256397759 0 8.7250541720333406e-05 -0.034644131945250442 0 8.7250541720333406e-05 -0.034644131945250442 0 7.269157905472176e-05 -0.034594539150936375 0 7.2901526392777307e-05 -0.03462870688614017 0 6.7404899414845709e-05 -0.034655803568645803 0 8.7250541720333406e-05 -0.034644131945250442 0 7.2901526392777307e-05 -0.03462870688614017 0 0.00010155903104266401 -0.034624931122330456 0 6.7404899414845709e-05 -0.034655803568645803 0 8.7250541720333406e-05 -0.034644131945250442 0 0.00014448146909608025 -0.034531964798708549 0 0.00014000672761538648 -0.034537202230592048 0 0.0001016311954932002 -0.034502947405352119 0 9.1499736799522354e-05 -0.034551285855652765 0 6.5130157120457847e-05 -0.034577110710541106 0 0.0001016311954932002 -0.034502947405352119 0 6.5130157120457847e-05 -0.034577110710541106 0 7.269157905472176e-05 -0.034594539150936375 0 7.269157905472176e-05 -0.034594539150936375 0 9.3460256785326539e-05 -0.03460327360015443 0 3.4703689378583023e-05 -0.034585480723608522 0 2.2023061963046763e-05 -0.034860607931670617 0 1.8186560416704184e-05 -0.034892406250182903 0 6.5130157120457847e-05 -0.034577110710541106 0 7.269157905472176e-05 -0.034594539150936375 0 3.4703689378583023e-05 -0.034585480723608522 0 7.269157905472176e-05 -0.034594539150936375 0 7.2901526392777307e-05 -0.03462870688614017 0 9.3460256785326539e-05 -0.03460327360015443 0 8.4647535055721088e-05 -0.034658910258393523 0 7.2901526392777307e-05 -0.03462870688614017 0 9.3460256785326539e-05 -0.03460327360015443 0 6.7404899414845709e-05 -0.034655803568645803 0 8.4647535055721088e-05 -0.034658910258393523 0 7.2901526392777307e-05 -0.03462870688614017 0 0.00013103648912380234 -0.034706207588658305 0 8.4647535055721088e-05 -0.034658910258393523 0 9.3460256785326539e-05 -0.03460327360015443 0 2.4688070964281562e-05 -0.03484749903287563 0 2.2023061963046763e-05 -0.034860607931670617 0 5.9410877061193659e-11 -0.035000033694114835 0 2.6198251493453082e-06 -0.035001084212591196 0 2.9453149232015372e-09 -0.034999993394241036 0 2.9453149232015372e-09 -0.034999993394241036 0 1.0188243520889401e-06 -0.035000456456084052 0 3.2445054708259999e-11 -0.035000004551388415 0 2.6198251493453082e-06 -0.035001084212591196 0 1.0188243520889401e-06 -0.035000456456084052 0 3.1415439940915954e-07 -0.035000079332314041 0 2.6198251493453082e-06 -0.035001084212591196 0 2.9453149232015372e-09 -0.034999993394241036 0 1.0188243520889401e-06 -0.035000456456084052 0 1.0188243520889401e-06 -0.035000456456084052 0 3.1415439940915954e-07 -0.035000079332314041 0 3.2445054708259999e-11 -0.035000004551388415 0 9.1499736799522354e-05 -0.034551285855652765 0 6.5130157120457847e-05 -0.034577110710541106 0 5.041773261694154e-05 -0.034601763904087104 0 6.5130157120457847e-05 -0.034577110710541106 0 5.041773261694154e-05 -0.034601763904087104 0 3.4703689378583023e-05 -0.034585480723608522 0 0.00011637644759587215 -0.034708082724451556 0 5.041773261694154e-05 -0.034601763904087104 0 5.8314492359312938e-05 -0.03468605374123674 0 3.4703689378583023e-05 -0.034585480723608522 0 5.8314492359312938e-05 -0.03468605374123674 0 4.6409762078941811e-05 -0.03471735352884471 0 5.041773261694154e-05 -0.034601763904087104 0 3.4703689378583023e-05 -0.034585480723608522 0 5.8314492359312938e-05 -0.03468605374123674 0 0.00015872253650222728 -0.034798551448802492 0 7.9709802091451477e-05 -0.034748048958427362 0 2.6162015147349407e-05 -0.034798410941403596 0 3.4703689378583023e-05 -0.034585480723608522 0 4.6409762078941811e-05 -0.03471735352884471 0 2.6162015147349407e-05 -0.034798410941403596 0 1.8186560416704184e-05 -0.034892406250182903 0 1.7759453762768053e-05 -0.034955883430491767 0 0.00011637644759587215 -0.034708082724451556 0 5.8314492359312938e-05 -0.03468605374123674 0 7.9709802091451477e-05 -0.034748048958427362 0 4.6409762078941811e-05 -0.03471735352884471 0 7.9709802091451477e-05 -0.034748048958427362 0 2.6162015147349407e-05 -0.034798410941403596 0 5.8314492359312938e-05 -0.03468605374123674 0 4.6409762078941811e-05 -0.03471735352884471 0 7.9709802091451477e-05 -0.034748048958427362 0 1.7759453762768053e-05 -0.034955883430491767 0 1.7787163170001119e-05 -0.034955880058582231 0 1.4516589111412445e-05 -0.034981125658426003 0 2.823942433172403e-05 -0.034966689172584747 0 3.4504311016170643e-05 -0.034953755118924755 0 2.823942433172403e-05 -0.034966689172584747 0 3.4504311016170643e-05 -0.034953755118924755 0 3.8112374272311694e-05 -0.034946443515874538 0 1.0531307751062257e-08 -0.034999965882330612 0 1.4516589111412445e-05 -0.034981125658426003 0 3.7672149141105463e-09 -0.034999963109558205 0 1.7759453762768053e-05 -0.034955883430491767 0 7.8632811710770746e-08 -0.034999857959421392 0 3.1415439940915954e-07 -0.035000079332314041 0 2.1855657361957639e-07 -0.035000101447132247 0 3.2445054708259999e-11 -0.035000004551388415 0 1.4516589111412445e-05 -0.034981125658426003 0 3.4504311016170643e-05 -0.034953755118924755 0 3.7672149141105463e-09 -0.034999963109558205 0 0.0005985351510094264 -0.033571517220278069 0 0.00057561315923873341 -0.033589892616429147 0 0.00058023607846204234 -0.033573719574113377 0 0.0005985351510094264 -0.033571517220278069 0 0.00060708014150743139 -0.033572173908727659 0 0.00060524921254257423 -0.033568024332649708 0 0.0005985351510094264 -0.033571517220278069 0 0.00058023607846204234 -0.033573719574113377 0 0.00060708014150743139 -0.033572173908727659 0 0.0005985351510094264 -0.033571517220278069 0 0.00061748249901378519 -0.033573475081161951 0 0.00057561315923873341 -0.033589892616429147 0 0.0005985351510094264 -0.033571517220278069 0 0.00061748249901378519 -0.033573475081161951 0 0.00063495296087844803 -0.033558026117735847 0 0.00057561315923873341 -0.033589892616429147 0 0.00058023607846204234 -0.033573719574113377 0 0.00055002371855756183 -0.033575152017627959 0 0.00058023607846204234 -0.033573719574113377 0 0.00059669583483935981 -0.033544863111578942 0 0.00055002371855756183 -0.033575152017627959 0 0.00059669583483935981 -0.033544863111578942 0 0.00060471380772303927 -0.033564259021902444 0 0.00064529481988929169 -0.033564926228700998 0 0.00058023607846204234 -0.033573719574113377 0 0.00059669583483935981 -0.033544863111578942 0 0.00060471380772303927 -0.033564259021902444 0 0.00059669583483935981 -0.033544863111578942 0 0.00066328588010173639 -0.033537388313106715 0 0.00064529481988929169 -0.033564926228700998 0 0.00066328588010173639 -0.033537388313106715 0 0.0006912648527046709 -0.033496251360462546 0 0.00072694272978453896 -0.033525315986387923 0 0.00059669583483935981 -0.033544863111578942 0 0.00066328588010173639 -0.033537388313106715 0 0.00063893862535743676 -0.033514283494349234 0 0.00066328588010173639 -0.033537388313106715 0 0.0006912648527046709 -0.033496251360462546 0 0.00063893862535743676 -0.033514283494349234 0 0.00066328588010173639 -0.033537388313106715 0 0.00070885258812266119 -0.033566675999356546 0 0.00064529481988929169 -0.033564926228700998 0 0.00066328588010173639 -0.033537388313106715 0 0.00070885258812266119 -0.033566675999356546 0 0.00072694272978453896 -0.033525315986387923 0 0.00070885258812266119 -0.033566675999356546 0 0.00064529481988929169 -0.033564926228700998 0 0.00071099606664841105 -0.033585470773022999 0 0.00064529481988929169 -0.033564926228700998 0 0.00071099606664841105 -0.033585470773022999 0 0.0006596678559624453 -0.033578621328382019 0 0.00058023607846204234 -0.033573719574113377 0 0.00060471380772303927 -0.033564259021902444 0 0.00060708014150743139 -0.033572173908727659 0 0.00060471380772303927 -0.033564259021902444 0 0.00064529481988929169 -0.033564926228700998 0 0.00060708014150743139 -0.033572173908727659 0 0.00064529481988929169 -0.033564926228700998 0 0.00060708014150743139 -0.033572173908727659 0 0.0006596678559624453 -0.033578621328382019 0 0.00060708014150743139 -0.033572173908727659 0 0.00061970166637787764 -0.033577207711604141 0 0.00060524921254257423 -0.033568024332649708 0 0.00060708014150743139 -0.033572173908727659 0 0.00061970166637787764 -0.033577207711604141 0 0.0006596678559624453 -0.033578621328382019 0 0.00061970166637787764 -0.033577207711604141 0 0.00064691305497027783 -0.033597706291395767 0 0.00060345725867289317 -0.033562985622101499 0 0.00061970166637787764 -0.033577207711604141 0 0.00060345725867289317 -0.033562985622101499 0 0.00060524921254257423 -0.033568024332649708 0 0.00071099606664841105 -0.033585470773022999 0 0.0007180801824441807 -0.033583112160460935 0 0.0006596678559624453 -0.033578621328382019 0 0.00061970166637787764 -0.033577207711604141 0 0.0006596678559624453 -0.033578621328382019 0 0.00064691305497027783 -0.033597706291395767 0 0.0007180801824441807 -0.033583112160460935 0 0.0006596678559624453 -0.033578621328382019 0 0.00064691305497027783 -0.033597706291395767 0 0.0007180801824441807 -0.033583112160460935 0 0.00064691305497027783 -0.033597706291395767 0 0.00074820245127493658 -0.033585619219861619 0 0.00060142520833090022 -0.033725339456166181 0 0.00064691305497027783 -0.033597706291395767 0 0.00072217664250840785 -0.033679295085649583 0 0.00064691305497027783 -0.033597706291395767 0 0.00072217664250840785 -0.033679295085649583 0 0.00074820245127493658 -0.033585619219861619 0 0.0013271572773873965 -0.032248960979274405 0 0.0011812030134285287 -0.032539787590222337 0 0.00055834026413963329 -0.033504739712895561 0 0.00064691305497027783 -0.033597706291395767 0 0.00059730976478457212 -0.033550530402840457 0 0.00064691305497027783 -0.033597706291395767 0 0.00060345725867289317 -0.033562985622101499 0 0.00059730976478457212 -0.033550530402840457 0 0.00060345725867289317 -0.033562985622101499 0 0.00059730976478457212 -0.033550530402840457 0 0.00059270821861262481 -0.033527923781689783 0 0.00055834026413963329 -0.033504739712895561 0 0.00059730976478457212 -0.033550530402840457 0 0.00059270821861262481 -0.033527923781689783 0 0.00059270821861262481 -0.033527923781689783 0 0.00060781036359227984 -0.03351287254608986 0 0.00060673653753022441 -0.033545732753274125 0 0.00060781036359227984 -0.03351287254608986 0 0.00060673653753022441 -0.033545732753274125 0 0.00062811466529678732 -0.033521341751335518 0 0.00060673653753022441 -0.033545732753274125 0 0.00061769701214551447 -0.033554186126187352 0 0.00062811466529678732 -0.033521341751335518 0 0.00060345725867289317 -0.033562985622101499 0 0.00059270821861262481 -0.033527923781689783 0 0.00060673653753022441 -0.033545732753274125 0 0.00060345725867289317 -0.033562985622101499 0 0.00060673653753022441 -0.033545732753274125 0 0.00060524921254257423 -0.033568024332649708 0 0.0005985351510094264 -0.033571517220278069 0 0.00060524921254257423 -0.033568024332649708 0 0.00061769701214551447 -0.033554186126187352 0 0.00060673653753022441 -0.033545732753274125 0 0.00060524921254257423 -0.033568024332649708 0 0.00061769701214551447 -0.033554186126187352 0 0.0005985351510094264 -0.033571517220278069 0 0.00063495296087844803 -0.033558026117735847 0 0.00061769701214551447 -0.033554186126187352 0 0.00063495296087844803 -0.033558026117735847 0 0.00061769701214551447 -0.033554186126187352 0 0.00064961407179344203 -0.033535240265153608 0 0.00061769701214551447 -0.033554186126187352 0 0.00064961407179344203 -0.033535240265153608 0 0.00062811466529678732 -0.033521341751335518 0 0.00066457730999388632 -0.033493315300712596 0 0.00064961407179344203 -0.033535240265153608 0 0.00062811466529678732 -0.033521341751335518 0 0.00066457730999388632 -0.033493315300712596 0 0.00064961407179344203 -0.033535240265153608 0 0.00069362062810348452 -0.03352061532594245 0 0.00064961407179344203 -0.033535240265153608 0 0.00069362062810348452 -0.03352061532594245 0 0.00066747951830409876 -0.033544028366473723 0 0.00069362062810348452 -0.03352061532594245 0 0.00069817434464807069 -0.033541444072770883 0 0.00066747951830409876 -0.033544028366473723 0 0.00069362062810348452 -0.03352061532594245 0 0.00071259781537619791 -0.03352761327931477 0 0.00069817434464807069 -0.033541444072770883 0 0.00069362062810348452 -0.03352061532594245 0 0.000731297128878312 -0.033513871272314401 0 0.00071259781537619791 -0.03352761327931477 0 0.00071938897966287714 -0.033470721322034012 0 0.00069362062810348452 -0.03352061532594245 0 0.000731297128878312 -0.033513871272314401 0 0.00078849608719414553 -0.033491162645105259 0 0.000731297128878312 -0.033513871272314401 0 0.00073246848494230962 -0.033533079904577427 0 0.000731297128878312 -0.033513871272314401 0 0.00073246848494230962 -0.033533079904577427 0 0.00072457413049256366 -0.033531980690818357 0 0.000731297128878312 -0.033513871272314401 0 0.00071259781537619791 -0.03352761327931477 0 0.00072457413049256366 -0.033531980690818357 0 0.00048697561678260861 -0.034108629561671773 0 0.00048199191628980523 -0.034176052066776673 0 0.00078849608719414553 -0.033491162645105259 0 0.00079727536401184981 -0.033644607843399371 0 0.00093053469991128605 -0.033566972704380776 0 0.00048199191628980523 -0.034176052066776673 0 0.0004825583869611116 -0.034175641280209175 0 0.00071259781537619791 -0.03352761327931477 0 0.00072457413049256366 -0.033531980690818357 0 0.00069817434464807069 -0.033541444072770883 0 0.00072501140658977738 -0.033531673555958333 0 0.00072457413049256366 -0.033531980690818357 0 0.00069817434464807069 -0.033541444072770883 0 0.00048199191628980523 -0.034176052066776673 0 0.00052882275295282983 -0.0341580517190547 0 0.00072501140658977738 -0.033531673555958333 0 0.00069817434464807069 -0.033541444072770883 0 0.00068292610203602344 -0.033563379375417569 0 0.00069817434464807069 -0.033541444072770883 0 0.00066098826253713401 -0.033560729616252449 0 0.00068292610203602344 -0.033563379375417569 0 0.00063860215299669945 -0.034955411105357943 0 0.0005541877098127531 -0.034867964290068609 0 0.00063247249950389996 -0.0348068575036561 0 0.00061748249901378519 -0.033573475081161951 0 0.00063495296087844803 -0.033558026117735847 0 0.00066098826253713401 -0.033560729616252449 0 0.00063495296087844803 -0.033558026117735847 0 0.00064961407179344203 -0.033535240265153608 0 0.00066747951830409876 -0.033544028366473723 0 0.00063495296087844803 -0.033558026117735847 0 0.00066098826253713401 -0.033560729616252449 0 0.00066747951830409876 -0.033544028366473723 0 0.00069817434464807069 -0.033541444072770883 0 0.00066098826253713401 -0.033560729616252449 0 0.00066747951830409876 -0.033544028366473723 0 0.001041617155849005 -0.033534892508765297 0 0.0012339236717964861 -0.033554812834468102 0 0.0010440273192513241 -0.033666061811190563 0 0.00079727536401184981 -0.033644607843399371 0 0.0010440273192513241 -0.033666061811190563 0 0.00093053469991128605 -0.033566972704380776 0 0.00048199191628980523 -0.034176052066776673 0 0.00060353045107216195 -0.034290402279767741 0 0.00063860215299669945 -0.034955411105357943 0 0.00047532865530967134 -0.034941325964532914 0 0.0005541877098127531 -0.034867964290068609 0 0.001041617155849005 -0.033534892508765297 0 0.0010440273192513241 -0.033666061811190563 0 0.00093053469991128605 -0.033566972704380776 0 0.00031344802136046897 -0.034926082337986039 0 0.00047532865530967134 -0.034941325964532914 0 0.00046045820630190336 -0.03483011131104146 0 0.00047532865530967134 -0.034941325964532914 0 0.0005541877098127531 -0.034867964290068609 0 0.00046045820630190336 -0.03483011131104146 0 0.00035165150176995824 -0.034790204773190239 0 0.00046045820630190336 -0.03483011131104146 0 0.00041267828541905626 -0.034702927499797906 0 0.00046045820630190336 -0.03483011131104146 0 0.00053040155983379196 -0.034742070789119846 0 0.00041267828541905626 -0.034702927499797906 0 0.0005541877098127531 -0.034867964290068609 0 0.00046045820630190336 -0.03483011131104146 0 0.00053040155983379196 -0.034742070789119846 0 0.00053040155983379196 -0.034742070789119846 0 0.00063247249950389996 -0.0348068575036561 0 0.00063513831517175213 -0.034651891822044679 0 0.0005541877098127531 -0.034867964290068609 0 0.00053040155983379196 -0.034742070789119846 0 0.00063247249950389996 -0.0348068575036561 0 0.00053040155983379196 -0.034742070789119846 0 0.00063513831517175213 -0.034651891822044679 0 0.00048810919703023113 -0.034569581264307481 0 0.00053040155983379196 -0.034742070789119846 0 0.00041267828541905626 -0.034702927499797906 0 0.00048810919703023113 -0.034569581264307481 0 0.00038015407310805477 -0.034593708108258826 0 0.00041267828541905626 -0.034702927499797906 0 0.00048810919703023113 -0.034569581264307481 0 0.00061748249901378519 -0.033573475081161951 0 0.00066098826253713401 -0.033560729616252449 0 0.00063369300518239602 -0.03358377137766827 0 0.00068292610203602344 -0.033563379375417569 0 0.00067371913590895068 -0.03360382786865955 0 0.00063369300518239602 -0.03358377137766827 0 0.00052882275295282983 -0.0341580517190547 0 0.00055665129806745269 -0.03413003421851004 0 0.00066098826253713401 -0.033560729616252449 0 0.00068292610203602344 -0.033563379375417569 0 0.00063369300518239602 -0.03358377137766827 0 0.00067371913590895068 -0.03360382786865955 0 0.00063369300518239602 -0.03358377137766827 0 0.00058922209433105027 -0.033653377111254566 0 0.00057561315923873341 -0.033589892616429147 0 0.00063369300518239602 -0.03358377137766827 0 0.00058922209433105027 -0.033653377111254566 0 0.00061748249901378519 -0.033573475081161951 0 0.00057561315923873341 -0.033589892616429147 0 0.00063369300518239602 -0.03358377137766827 0 0.00055665129806745269 -0.03413003421851004 0 0.00057039474715836762 -0.03410344092231677 0 0.00067371913590895068 -0.03360382786865955 0 0.00058922209433105027 -0.033653377111254566 0 0.00069011295348902037 -0.033721760230333159 0 0.00058922209433105027 -0.033653377111254566 0 0.00057810083402872706 -0.033826759798816164 0 0.00069011295348902037 -0.033721760230333159 0 0.00057810083402872706 -0.033826759798816164 0 0.00069011295348902037 -0.033721760230333159 0 0.00059834074219262099 -0.034094294075566911 0 0.00057039474715836762 -0.03410344092231677 0 0.00057316770275411203 -0.03409204859163481 0 0.00058922209433105027 -0.033653377111254566 0 0.00057810083402872706 -0.033826759798816164 0 0.00053975353993316276 -0.033745025149679676 0 0.00058922209433105027 -0.033653377111254566 0 0.00053975353993316276 -0.033745025149679676 0 0.00053529378315290434 -0.033631498456314649 0 0.00038015407310805477 -0.034593708108258826 0 0.00048810919703023113 -0.034569581264307481 0 0.00039919318688654302 -0.034427778544143174 0 0.00063513831517175213 -0.034651891822044679 0 0.00064474832210497149 -0.034460081277163886 0 0.00048810919703023113 -0.034569581264307481 0 0.00064474832210497149 -0.034460081277163886 0 0.00049954636731950578 -0.034339478930314686 0 0.00059834074219262099 -0.034094294075566911 0 0.00064474832210497149 -0.034460081277163886 0 0.00048810919703023113 -0.034569581264307481 0 0.00049954636731950578 -0.034339478930314686 0 0.00048810919703023113 -0.034569581264307481 0 0.00049954636731950578 -0.034339478930314686 0 0.00039919318688654302 -0.034427778544143174 0 0.00032625426607210646 -0.034393045452329123 0 0.00039919318688654302 -0.034427778544143174 0 0.00040779833166462194 -0.034274343793952534 0 0.00049954636731950578 -0.034339478930314686 0 0.00039919318688654302 -0.034427778544143174 0 0.00040779833166462194 -0.034274343793952534 0 0.00049954636731950578 -0.034339478930314686 0 0.00040779833166462194 -0.034274343793952534 0 0.00059834074219262099 -0.034094294075566911 0 0.00043844468395013705 -0.03419473820536207 0 0.00040779833166462194 -0.034274343793952534 0 0.00059834074219262099 -0.034094294075566911 0 0.00051321744508953581 -0.034074830759377103 0 0.00043844468395013705 -0.03419473820536207 0 0.00059834074219262099 -0.034094294075566911 0 0.00043844468395013705 -0.03419473820536207 0 0.00033836572071168291 -0.034329036233975492 0 0.00040779833166462194 -0.034274343793952534 0 0.00053975353993316276 -0.033745025149679676 0 0.00054516847025691431 -0.033921821770472302 0 0.00050742246712154153 -0.033695392321493656 0 0.00057810083402872706 -0.033826759798816164 0 0.00053975353993316276 -0.033745025149679676 0 0.00054516847025691431 -0.033921821770472302 0 0.00054516847025691431 -0.033921821770472302 0 0.00052412295195915768 -0.033861386066454703 0 0.00050742246712154153 -0.033695392321493656 0 0.00057810083402872706 -0.033826759798816164 0 0.00054516847025691431 -0.033921821770472302 0 0.00059834074219262099 -0.034094294075566911 0 0.00051321744508953581 -0.034074830759377103 0 0.00054516847025691431 -0.033921821770472302 0 0.00059834074219262099 -0.034094294075566911 0 0.00051321744508953581 -0.034074830759377103 0 0.00054516847025691431 -0.033921821770472302 0 0.00052412295195915768 -0.033861386066454703 0 0.0005207784091556312 -0.033970217722515281 0 0.00052412295195915768 -0.033861386066454703 0 0.00050088422057533366 -0.033825635681655523 0 0.00052412295195915768 -0.033861386066454703 0 0.00050088422057533366 -0.033825635681655523 0 0.00048285799504436624 -0.033659442013828748 0 0.00050088422057533366 -0.033825635681655523 0 0.00045534522745796616 -0.033662740355084722 0 0.00048285799504436624 -0.033659442013828748 0 0.0004645483290129534 -0.033872803317811929 0 0.00050088422057533366 -0.033825635681655523 0 0.00045534522745796616 -0.033662740355084722 0 0.00045534522745796616 -0.033662740355084722 0 0.00048285799504436624 -0.033659442013828748 0 0.00044377473667092589 -0.033519996545304916 0 0.00048285799504436624 -0.033659442013828748 0 0.00048579964670933542 -0.033573659835191741 0 0.00050742246712154153 -0.033695392321493656 0 0.00048285799504436624 -0.033659442013828748 0 0.00048579964670933542 -0.033573659835191741 0 0.00044377473667092589 -0.033519996545304916 0 0.00052412295195915768 -0.033861386066454703 0 0.00048285799504436624 -0.033659442013828748 0 0.00050742246712154153 -0.033695392321493656 0 0.00053975353993316276 -0.033745025149679676 0 0.00050742246712154153 -0.033695392321493656 0 0.00053529378315290434 -0.033631498456314649 0 0.00050742246712154153 -0.033695392321493656 0 0.00051514279268440868 -0.033579952510408038 0 0.00053529378315290434 -0.033631498456314649 0 0.00048579964670933542 -0.033573659835191741 0 0.00050742246712154153 -0.033695392321493656 0 0.00051514279268440868 -0.033579952510408038 0 0.00048579964670933542 -0.033573659835191741 0 0.00051514279268440868 -0.033579952510408038 0 0.00052090086993623256 -0.033531751600109329 0 0.00051514279268440868 -0.033579952510408038 0 0.00055630977087517571 -0.033540989452865967 0 0.00052090086993623256 -0.033531751600109329 0 0.00051514279268440868 -0.033579952510408038 0 0.00055002371855756183 -0.033575152017627959 0 0.00055630977087517571 -0.033540989452865967 0 0.00051514279268440868 -0.033579952510408038 0 0.00055002371855756183 -0.033575152017627959 0 0.00053529378315290434 -0.033631498456314649 0 0.00057561315923873341 -0.033589892616429147 0 0.00055002371855756183 -0.033575152017627959 0 0.00053529378315290434 -0.033631498456314649 0 0.00057561315923873341 -0.033589892616429147 0 0.00058922209433105027 -0.033653377111254566 0 0.00053529378315290434 -0.033631498456314649 0 0.00065734713996870239 -0.033477232742139734 0 0.00062309178014045656 -0.033460296904651174 0 0.00069028360802358122 -0.033423156248040417 0 0.00065734713996870239 -0.033477232742139734 0 0.00060194150002754795 -0.03350932323554693 0 0.00062309178014045656 -0.033460296904651174 0 0.00065734713996870239 -0.033477232742139734 0 0.00069028360802358122 -0.033423156248040417 0 0.00072932567931930791 -0.033436799839418677 0 0.00065734713996870239 -0.033477232742139734 0 0.0006912648527046709 -0.033496251360462546 0 0.00072932567931930791 -0.033436799839418677 0 0.00065734713996870239 -0.033477232742139734 0 0.00063893862535743676 -0.033514283494349234 0 0.00060194150002754795 -0.03350932323554693 0 0.00065734713996870239 -0.033477232742139734 0 0.0006912648527046709 -0.033496251360462546 0 0.00063893862535743676 -0.033514283494349234 0 0.00059669583483935981 -0.033544863111578942 0 0.00063893862535743676 -0.033514283494349234 0 0.00060194150002754795 -0.03350932323554693 0 0.00059669583483935981 -0.033544863111578942 0 0.00055002371855756183 -0.033575152017627959 0 0.00055630977087517571 -0.033540989452865967 0 0.00059669583483935981 -0.033544863111578942 0 0.00055630977087517571 -0.033540989452865967 0 0.00060194150002754795 -0.03350932323554693 0 0.00060194150002754795 -0.03350932323554693 0 0.00056471836705750122 -0.033505517501639798 0 0.00062309178014045656 -0.033460296904651174 0 0.00055630977087517571 -0.033540989452865967 0 0.00060194150002754795 -0.03350932323554693 0 0.00056471836705750122 -0.033505517501639798 0 0.00056471836705750122 -0.033505517501639798 0 0.00058807103968997918 -0.03343077115777205 0 0.00062309178014045656 -0.033460296904651174 0 0.00055630977087517571 -0.033540989452865967 0 0.00056471836705750122 -0.033505517501639798 0 0.00052090086993623256 -0.033531751600109329 0 0.00056471836705750122 -0.033505517501639798 0 0.00052090086993623256 -0.033531751600109329 0 0.00050935262040505418 -0.033490535854927131 0 0.00048579964670933542 -0.033573659835191741 0 0.00052090086993623256 -0.033531751600109329 0 0.00050935262040505418 -0.033490535854927131 0 0.00056471836705750122 -0.033505517501639798 0 0.00058807103968997918 -0.03343077115777205 0 0.00050935262040505418 -0.033490535854927131 0 0.0006514432049168434 -0.033409823860733885 0 0.00058807103968997918 -0.03343077115777205 0 0.00062309178014045656 -0.033460296904651174 0 0.0006514432049168434 -0.033409823860733885 0 0.00058807103968997918 -0.03343077115777205 0 0.00072125848917989669 -0.033326324849456863 0 0.0006514432049168434 -0.033409823860733885 0 0.00062309178014045656 -0.033460296904651174 0 0.00069028360802358122 -0.033423156248040417 0 0.00069028360802358122 -0.033423156248040417 0 0.00072125848917989669 -0.033326324849456863 0 0.00077663184390295572 -0.033354357178255765 0 0.0006514432049168434 -0.033409823860733885 0 0.00069028360802358122 -0.033423156248040417 0 0.00072125848917989669 -0.033326324849456863 0 0.00058807103968997918 -0.03343077115777205 0 0.00062419509270017341 -0.033341731833465567 0 0.00048547181054207477 -0.03344118486277415 0 0.00058807103968997918 -0.03343077115777205 0 0.00072125848917989669 -0.033326324849456863 0 0.00062419509270017341 -0.033341731833465567 0 0.00072125848917989669 -0.033326324849456863 0 0.00062419509270017341 -0.033341731833465567 0 0.00074199107125540165 -0.033200568185207571 0 0.00048579964670933542 -0.033573659835191741 0 0.00050935262040505418 -0.033490535854927131 0 0.00044377473667092589 -0.033519996545304916 0 0.00058807103968997918 -0.03343077115777205 0 0.00050935262040505418 -0.033490535854927131 0 0.00048547181054207477 -0.03344118486277415 0 0.00048547181054207477 -0.03344118486277415 0 0.00044377473667092589 -0.033519996545304916 0 0.00037084483309536765 -0.033443902288426142 0 0.00050935262040505418 -0.033490535854927131 0 0.00048547181054207477 -0.03344118486277415 0 0.00044377473667092589 -0.033519996545304916 0 0.00051127472523758541 -0.032470006839090973 0 0.00037084483309536765 -0.033443902288426142 0 0.00062703174715816087 -0.033155431499610741 0 0.00045534522745796616 -0.033662740355084722 0 0.00044377473667092589 -0.033519996545304916 0 0.00037084483309536765 -0.033443902288426142 0 0.00048547181054207477 -0.03344118486277415 0 0.00037084483309536765 -0.033443902288426142 0 0.00062703174715816087 -0.033155431499610741 0 0.00037493779631143286 -0.033753775225353867 0 0.00045534522745796616 -0.033662740355084722 0 0.00037084483309536765 -0.033443902288426142 0 0.00074199107125540165 -0.033200568185207571 0 0.00062703174715816087 -0.033155431499610741 0 0.0007726623550389747 -0.033054381364208893 0 0.00062419509270017341 -0.033341731833465567 0 0.00048547181054207477 -0.03344118486277415 0 0.00062703174715816087 -0.033155431499610741 0 0.00062419509270017341 -0.033341731833465567 0 0.00074199107125540165 -0.033200568185207571 0 0.00062703174715816087 -0.033155431499610741 0 0.00072471873232114736 -0.032981319964826152 0 0.00062703174715816087 -0.033155431499610741 0 0.0007726623550389747 -0.033054381364208893 0 0.00072471873232114736 -0.032981319964826152 0 0.00080417037175069543 -0.032920353071777889 0 0.0007726623550389747 -0.033054381364208893 0 0.0007726623550389747 -0.033054381364208893 0 0.00086581400641910344 -0.032972738482393051 0 0.00087456283685185686 -0.033067769893066486 0 0.00080417037175069543 -0.032920353071777889 0 0.0007726623550389747 -0.033054381364208893 0 0.00086581400641910344 -0.032972738482393051 0 0.00074199107125540165 -0.033200568185207571 0 0.0007726623550389747 -0.033054381364208893 0 0.00087456283685185686 -0.033067769893066486 0 0.00087456283685185686 -0.033067769893066486 0 0.0010345967118335201 -0.032973838287246905 0 0.00092618233509092224 -0.033113055721540004 0 0.00086581400641910344 -0.032972738482393051 0 0.00087456283685185686 -0.033067769893066486 0 0.00097473174506296266 -0.032918496574911041 0 0.0011277890527893631 -0.032842109473878223 0 0.0010345967118335201 -0.032973838287246905 0 0.001238110960145696 -0.032878950974648935 0 0.0011277890527893631 -0.032842109473878223 0 0.00097473174506296266 -0.032918496574911041 0 0.0010345967118335201 -0.032973838287246905 0 0.0010345967118335201 -0.032973838287246905 0 0.0010807276214748157 -0.033026695409822393 0 0.001238110960145696 -0.032878950974648935 0 0.00087456283685185686 -0.033067769893066486 0 0.00097473174506296266 -0.032918496574911041 0 0.0010345967118335201 -0.032973838287246905 0 0.0010345967118335201 -0.032973838287246905 0 0.0010807276214748157 -0.033026695409822393 0 0.00092618233509092224 -0.033113055721540004 0 0.0010807276214748157 -0.033026695409822393 0 0.00096939997907521177 -0.03314408505231025 0 0.0010197568678688167 -0.03316265860865119 0 0.0010807276214748157 -0.033026695409822393 0 0.00096939997907521177 -0.03314408505231025 0 0.00092618233509092224 -0.033113055721540004 0 0.00096939997907521177 -0.03314408505231025 0 0.00092618233509092224 -0.033113055721540004 0 0.00083984559645438521 -0.033251732873514517 0 0.00081724126462773988 -0.033196300982380536 0 0.00092618233509092224 -0.033113055721540004 0 0.00083984559645438521 -0.033251732873514517 0 0.00072125848917989669 -0.033326324849456863 0 0.00081724126462773988 -0.033196300982380536 0 0.00083984559645438521 -0.033251732873514517 0 0.00072125848917989669 -0.033326324849456863 0 0.00074199107125540165 -0.033200568185207571 0 0.00081724126462773988 -0.033196300982380536 0 0.00074199107125540165 -0.033200568185207571 0 0.00087456283685185686 -0.033067769893066486 0 0.00081724126462773988 -0.033196300982380536 0 0.00087456283685185686 -0.033067769893066486 0 0.00081724126462773988 -0.033196300982380536 0 0.00092618233509092224 -0.033113055721540004 0 0.0013575129704602666 -0.032808790009121833 0 0.0013827410191069702 -0.0328510360549591 0 0.001238110960145696 -0.032878950974648935 0 0.0013827410191069702 -0.0328510360549591 0 0.001238110960145696 -0.032878950974648935 0 0.0013348292006068658 -0.032854895967130669 0 0.0010807276214748157 -0.033026695409822393 0 0.001238110960145696 -0.032878950974648935 0 0.0012181650696275817 -0.032968444684112634 0 0.001238110960145696 -0.032878950974648935 0 0.0012181650696275817 -0.032968444684112634 0 0.0013348292006068658 -0.032854895967130669 0 0.0010807276214748157 -0.033026695409822393 0 0.0012181650696275817 -0.032968444684112634 0 0.0010197568678688167 -0.03316265860865119 0 0.0012181650696275817 -0.032968444684112634 0 0.0013348292006068658 -0.032854895967130669 0 0.0014411702589923405 -0.032764249644240503 0 0.0013827410191069702 -0.0328510360549591 0 0.0013348292006068658 -0.032854895967130669 0 0.0014411702589923405 -0.032764249644240503 0 0.0013827410191069702 -0.0328510360549591 0 0.0014411702589923405 -0.032764249644240503 0 0.0014449581313047473 -0.032840401520158574 0 0.0014411702589923405 -0.032764249644240503 0 0.0013273677862592145 -0.033003449743857036 0 0.0016964805250412444 -0.032463427540381472 0 0.0012181650696275817 -0.032968444684112634 0 0.0014411702589923405 -0.032764249644240503 0 0.0013273677862592145 -0.033003449743857036 0 0.0013273677862592145 -0.033003449743857036 0 0.0011100667285174725 -0.03315448529371947 0 0.0011514589002113453 -0.033287396821235764 0 0.0012181650696275817 -0.032968444684112634 0 0.0013273677862592145 -0.033003449743857036 0 0.0011100667285174725 -0.03315448529371947 0 0.0012181650696275817 -0.032968444684112634 0 0.0011100667285174725 -0.03315448529371947 0 0.0010197568678688167 -0.03316265860865119 0 0.0011100667285174725 -0.03315448529371947 0 0.0011514589002113453 -0.033287396821235764 0 0.0010182387076323742 -0.033306069680200424 0 0.001022366184845226 -0.033395657810620857 0 0.0011514589002113453 -0.033287396821235764 0 0.0010182387076323742 -0.033306069680200424 0 0.001022366184845226 -0.033395657810620857 0 0.0011514589002113453 -0.033287396821235764 0 0.0011915045184669546 -0.033435923813424855 0 0.0011514589002113453 -0.033287396821235764 0 0.0013405328042803376 -0.033261739398948977 0 0.0011915045184669546 -0.033435923813424855 0 0.0013273677862592145 -0.033003449743857036 0 0.0013405328042803376 -0.033261739398948977 0 0.0017129533453685011 -0.033151985774625782 0 0.0013273677862592145 -0.033003449743857036 0 0.0011514589002113453 -0.033287396821235764 0 0.0013405328042803376 -0.033261739398948977 0 0.0008743788427189198 -0.033282415879468487 0 0.00077663184390295572 -0.033354357178255765 0 0.0008191594117261114 -0.03338917226984317 0 0.0008743788427189198 -0.033282415879468487 0 0.0009306422926177823 -0.033286610488146406 0 0.0008191594117261114 -0.03338917226984317 0 0.00072125848917989669 -0.033326324849456863 0 0.00077663184390295572 -0.033354357178255765 0 0.00083984559645438521 -0.033251732873514517 0 0.0008743788427189198 -0.033282415879468487 0 0.00077663184390295572 -0.033354357178255765 0 0.00083984559645438521 -0.033251732873514517 0 0.00096939997907521177 -0.03314408505231025 0 0.0008743788427189198 -0.033282415879468487 0 0.00083984559645438521 -0.033251732873514517 0 0.00096939997907521177 -0.03314408505231025 0 0.0008743788427189198 -0.033282415879468487 0 0.0010197568678688167 -0.03316265860865119 0 0.0011100667285174725 -0.03315448529371947 0 0.0010197568678688167 -0.03316265860865119 0 0.0009306422926177823 -0.033286610488146406 0 0.0008743788427189198 -0.033282415879468487 0 0.0010197568678688167 -0.03316265860865119 0 0.0009306422926177823 -0.033286610488146406 0 0.0009306422926177823 -0.033286610488146406 0 0.00089961402234399099 -0.033400633947100286 0 0.0008191594117261114 -0.03338917226984317 0 0.0009306422926177823 -0.033286610488146406 0 0.0010182387076323742 -0.033306069680200424 0 0.00089961402234399099 -0.033400633947100286 0 0.0011100667285174725 -0.03315448529371947 0 0.0009306422926177823 -0.033286610488146406 0 0.0010182387076323742 -0.033306069680200424 0 0.001022366184845226 -0.033395657810620857 0 0.00089961402234399099 -0.033400633947100286 0 0.00093524445638941368 -0.033447485779785187 0 0.001022366184845226 -0.033395657810620857 0 0.0010182387076323742 -0.033306069680200424 0 0.00089961402234399099 -0.033400633947100286 0 0.00089961402234399099 -0.033400633947100286 0 0.00082304702961348488 -0.033452448606682846 0 0.0008191594117261114 -0.03338917226984317 0 0.00082304702961348488 -0.033452448606682846 0 0.0008191594117261114 -0.03338917226984317 0 0.00075894377652448261 -0.033469511896949272 0 0.00069028360802358122 -0.033423156248040417 0 0.00077663184390295572 -0.033354357178255765 0 0.00072932567931930791 -0.033436799839418677 0 0.00077663184390295572 -0.033354357178255765 0 0.0008191594117261114 -0.03338917226984317 0 0.00072932567931930791 -0.033436799839418677 0 0.0006912648527046709 -0.033496251360462546 0 0.00072932567931930791 -0.033436799839418677 0 0.00075894377652448261 -0.033469511896949272 0 0.0008191594117261114 -0.03338917226984317 0 0.00072932567931930791 -0.033436799839418677 0 0.00075894377652448261 -0.033469511896949272 0 0.0006912648527046709 -0.033496251360462546 0 0.00075894377652448261 -0.033469511896949272 0 0.00072694272978453896 -0.033525315986387923 0 0.00075894377652448261 -0.033469511896949272 0 0.00072694272978453896 -0.033525315986387923 0 0.00079260982468330428 -0.033510706023031196 0 0.00082304702961348488 -0.033452448606682846 0 0.00075894377652448261 -0.033469511896949272 0 0.00079260982468330428 -0.033510706023031196 0 0.00082304702961348488 -0.033452448606682846 0 0.00079260982468330428 -0.033510706023031196 0 0.00086473862506051896 -0.03347616466500801 0 0.00079260982468330428 -0.033510706023031196 0 0.00076367691400612157 -0.03356107034674826 0 0.00083943000741882104 -0.033552984320032772 0 0.00070885258812266119 -0.033566675999356546 0 0.00072694272978453896 -0.033525315986387923 0 0.00076367691400612157 -0.03356107034674826 0 0.00072694272978453896 -0.033525315986387923 0 0.00079260982468330428 -0.033510706023031196 0 0.00076367691400612157 -0.03356107034674826 0 0.00070885258812266119 -0.033566675999356546 0 0.00071099606664841105 -0.033585470773022999 0 0.00075280968375522508 -0.033594324325585602 0 0.00070885258812266119 -0.033566675999356546 0 0.00076367691400612157 -0.03356107034674826 0 0.00075280968375522508 -0.033594324325585602 0 0.00076367691400612157 -0.03356107034674826 0 0.00075280968375522508 -0.033594324325585602 0 0.00079292288190142997 -0.033597371601171162 0 0.00076367691400612157 -0.03356107034674826 0 0.00079292288190142997 -0.033597371601171162 0 0.00083943000741882104 -0.033552984320032772 0 0.00075280968375522508 -0.033594324325585602 0 0.00078168321309169688 -0.033627118101404514 0 0.00076291816758242289 -0.033607898342285197 0 0.00075280968375522508 -0.033594324325585602 0 0.00079292288190142997 -0.033597371601171162 0 0.00078168321309169688 -0.033627118101404514 0 0.00079292288190142997 -0.033597371601171162 0 0.00078168321309169688 -0.033627118101404514 0 0.00079883782655041854 -0.033653559776858473 0 0.00078168321309169688 -0.033627118101404514 0 0.00079883782655041854 -0.033653559776858473 0 0.00078505877465646684 -0.033651735371032776 0 0.00078168321309169688 -0.033627118101404514 0 0.00076291816758242289 -0.033607898342285197 0 0.00078505877465646684 -0.033651735371032776 0 0.00071099606664841105 -0.033585470773022999 0 0.00075280968375522508 -0.033594324325585602 0 0.00076291816758242289 -0.033607898342285197 0 0.00088847773273456761 -0.033636940213976445 0 0.00087888713916076154 -0.033683646347373752 0 0.00079883782655041854 -0.033653559776858473 0 0.00088847773273456761 -0.033636940213976445 0 0.00087888713916076154 -0.033683646347373752 0 0.000968597606093093 -0.033650994807575919 0 0.00087888713916076154 -0.033683646347373752 0 0.000968597606093093 -0.033650994807575919 0 0.00096159984022552234 -0.033696723382376843 0 0.00087888713916076154 -0.033683646347373752 0 0.00096159984022552234 -0.033696723382376843 0 0.00091266661286251954 -0.033732434492772884 0 0.00087888713916076154 -0.033683646347373752 0 0.00079883782655041854 -0.033653559776858473 0 0.00071878133106922188 -0.033721593906857236 0 0.00088847773273456761 -0.033636940213976445 0 0.00079883782655041854 -0.033653559776858473 0 0.00085642671489133285 -0.033602315591755291 0 0.00079292288190142997 -0.033597371601171162 0 0.00085642671489133285 -0.033602315591755291 0 0.00083943000741882104 -0.033552984320032772 0 0.00079292288190142997 -0.033597371601171162 0 0.00079883782655041854 -0.033653559776858473 0 0.00085642671489133285 -0.033602315591755291 0 0.00085642671489133285 -0.033602315591755291 0 0.00090361474003315483 -0.033559096139227904 0 0.00083943000741882104 -0.033552984320032772 0 0.00085642671489133285 -0.033602315591755291 0 0.0009541201272459368 -0.033591595415724804 0 0.00090361474003315483 -0.033559096139227904 0 0.00088847773273456761 -0.033636940213976445 0 0.00085642671489133285 -0.033602315591755291 0 0.0009541201272459368 -0.033591595415724804 0 0.00088847773273456761 -0.033636940213976445 0 0.0009541201272459368 -0.033591595415724804 0 0.000968597606093093 -0.033650994807575919 0 0.0009541201272459368 -0.033591595415724804 0 0.00090361474003315483 -0.033559096139227904 0 0.0010029948114291982 -0.033514678595938097 0 0.00091181376729271746 -0.033509527598856281 0 0.00093524445638941368 -0.033447485779785187 0 0.0010029948114291982 -0.033514678595938097 0 0.00090361474003315483 -0.033559096139227904 0 0.00091181376729271746 -0.033509527598856281 0 0.0010029948114291982 -0.033514678595938097 0 0.00079260982468330428 -0.033510706023031196 0 0.00083943000741882104 -0.033552984320032772 0 0.00086473862506051896 -0.03347616466500801 0 0.00091181376729271746 -0.033509527598856281 0 0.00083943000741882104 -0.033552984320032772 0 0.00086473862506051896 -0.03347616466500801 0 0.00090361474003315483 -0.033559096139227904 0 0.00091181376729271746 -0.033509527598856281 0 0.00083943000741882104 -0.033552984320032772 0 0.00089961402234399099 -0.033400633947100286 0 0.00082304702961348488 -0.033452448606682846 0 0.00086473862506051896 -0.03347616466500801 0 0.00089961402234399099 -0.033400633947100286 0 0.00086473862506051896 -0.03347616466500801 0 0.00093524445638941368 -0.033447485779785187 0 0.00091181376729271746 -0.033509527598856281 0 0.00086473862506051896 -0.03347616466500801 0 0.00093524445638941368 -0.033447485779785187 0 0.001022366184845226 -0.033395657810620857 0 0.00093524445638941368 -0.033447485779785187 0 0.0010029948114291982 -0.033514678595938097 0 0.001022366184845226 -0.033395657810620857 0 0.0011915045184669546 -0.033435923813424855 0 0.0010029948114291982 -0.033514678595938097 0 0.0011915045184669546 -0.033435923813424855 0 0.0010029948114291982 -0.033514678595938097 0 0.0011231517613221951 -0.0335739077628174 0 0.0011915045184669546 -0.033435923813424855 0 0.001339967089651724 -0.033614366660950558 0 0.0011231517613221951 -0.0335739077628174 0 0.0013405328042803376 -0.033261739398948977 0 0.0011915045184669546 -0.033435923813424855 0 0.0014402085628477637 -0.033402553738994381 0 0.0011915045184669546 -0.033435923813424855 0 0.0014402085628477637 -0.033402553738994381 0 0.001339967089651724 -0.033614366660950558 0 0.001339967089651724 -0.033614366660950558 0 0.0013507722788803197 -0.033816389342387523 0 0.0016832213980993163 -0.033793136039904401 0 0.001339967089651724 -0.033614366660950558 0 0.0010991990302259298 -0.03368753187124858 0 0.0013507722788803197 -0.033816389342387523 0 0.0010991990302259298 -0.03368753187124858 0 0.0010110680614222383 -0.033809501128912678 0 0.0013507722788803197 -0.033816389342387523 0 0.0009541201272459368 -0.033591595415724804 0 0.0010029948114291982 -0.033514678595938097 0 0.0010314407858824737 -0.033613407615521083 0 0.0010314407858824737 -0.033613407615521083 0 0.0011231517613221951 -0.0335739077628174 0 0.0010991990302259298 -0.03368753187124858 0 0.0010029948114291982 -0.033514678595938097 0 0.0010314407858824737 -0.033613407615521083 0 0.0011231517613221951 -0.0335739077628174 0 0.0009541201272459368 -0.033591595415724804 0 0.0010314407858824737 -0.033613407615521083 0 0.000968597606093093 -0.033650994807575919 0 0.001339967089651724 -0.033614366660950558 0 0.0011231517613221951 -0.0335739077628174 0 0.0010991990302259298 -0.03368753187124858 0 0.0010314407858824737 -0.033613407615521083 0 0.0010991990302259298 -0.03368753187124858 0 0.000968597606093093 -0.033650994807575919 0 0.0010991990302259298 -0.03368753187124858 0 0.000968597606093093 -0.033650994807575919 0 0.00096159984022552234 -0.033696723382376843 0 0.0010991990302259298 -0.03368753187124858 0 0.00096159984022552234 -0.033696723382376843 0 0.0010166415093711527 -0.033728830815941892 0 0.0010991990302259298 -0.03368753187124858 0 0.0010166415093711527 -0.033728830815941892 0 0.0010110680614222383 -0.033809501128912678 0 0.00096159984022552234 -0.033696723382376843 0 0.00099084735792957985 -0.033756588355853892 0 0.00091266661286251954 -0.033732434492772884 0 0.00096159984022552234 -0.033696723382376843 0 0.0010166415093711527 -0.033728830815941892 0 0.00099084735792957985 -0.033756588355853892 0 0.00099084735792957985 -0.033756588355853892 0 0.0010110680614222383 -0.033809501128912678 0 0.00091266661286251954 -0.033732434492772884 0 0.0010166415093711527 -0.033728830815941892 0 0.00099084735792957985 -0.033756588355853892 0 0.0010110680614222383 -0.033809501128912678 0 0.0023708080669036448 -0.026745007624087144 0 0.0011697285246624937 -0.026279636234390238 0 0.0023045056156416649 -0.01888330121500803 0 0.0021562775303807084 -0.018776180742032293 0 0.0020256095336894618 -0.018928867509450772 0 0.0023045056156416649 -0.01888330121500803 0 0.0022645393544021009 -0.01873237615377019 0 0.0023417443938046453 -0.018656668437413843 0 0.0023045056156416649 -0.01888330121500803 0 0.0021562775303807084 -0.018776180742032293 0 0.0022645393544021009 -0.01873237615377019 0 0.0020256095336894618 -0.018928867509450772 0 0.0020068683071129034 -0.018691583764344901 0 0.001822713362769195 -0.018784013199674571 0 0.0021562775303807084 -0.018776180742032293 0 0.0020256095336894618 -0.018928867509450772 0 0.0020068683071129034 -0.018691583764344901 0 0.0020068683071129034 -0.018691583764344901 0 0.0020628169270040905 -0.018524206946280316 0 0.002210180347766827 -0.018612746382658314 0 0.0021562775303807084 -0.018776180742032293 0 0.0020068683071129034 -0.018691583764344901 0 0.002210180347766827 -0.018612746382658314 0 0.0020068683071129034 -0.018691583764344901 0 0.0020628169270040905 -0.018524206946280316 0 0.0018848395234085276 -0.018508160858047722 0 0.0022645393544021009 -0.01873237615377019 0 0.002210180347766827 -0.018612746382658314 0 0.0023417443938046453 -0.018656668437413843 0 0.0021562775303807084 -0.018776180742032293 0 0.0022645393544021009 -0.01873237615377019 0 0.002210180347766827 -0.018612746382658314 0 0.002210180347766827 -0.018612746382658314 0 0.0023417443938046453 -0.018656668437413843 0 0.0023589225050944557 -0.018478808162782932 0 0.0023417443938046453 -0.018656668437413843 0 0.0024891865700909029 -0.01858189853118862 0 0.0023589225050944557 -0.018478808162782932 0 0.0023045056156416649 -0.01888330121500803 0 0.0023417443938046453 -0.018656668437413843 0 0.0024891865700909029 -0.01858189853118862 0 0.0017805810027723495 -0.032721410801063541 0 0.0007323422693336748 -0.032827309480551278 0 0.0008605296904070003 -0.033517740227032015 0 0.0020386642394158638 -0.031984504205189328 0 0.0017805810027723495 -0.032721410801063541 0 0.0007323422693336748 -0.032827309480551278 0 0.00072217664250840785 -0.033679295085649583 0 0.0008605296904070003 -0.033517740227032015 0 0.00074820245127493658 -0.033585619219861619 0 0.0012366306181251893 -0.032265867022593195 0 0.0011258879764419352 -0.032426016719596357 0 0.0007180801824441807 -0.033583112160460935 0 0.00074820245127493658 -0.033585619219861619 0 0.00078986349605896986 -0.033580957578393869 0 0.0008605296904070003 -0.033517740227032015 0 0.00074820245127493658 -0.033585619219861619 0 0.00078986349605896986 -0.033580957578393869 0 0.0007180801824441807 -0.033583112160460935 0 0.00078986349605896986 -0.033580957578393869 0 0.00076291816758242289 -0.033607898342285197 0 0.00071099606664841105 -0.033585470773022999 0 0.0007180801824441807 -0.033583112160460935 0 0.00076291816758242289 -0.033607898342285197 0 0.0008605296904070003 -0.033517740227032015 0 0.00078986349605896986 -0.033580957578393869 0 0.00078505877465646684 -0.033651735371032776 0 0.00078986349605896986 -0.033580957578393869 0 0.00076291816758242289 -0.033607898342285197 0 0.00078505877465646684 -0.033651735371032776 0 0.0008605296904070003 -0.033517740227032015 0 0.00078505877465646684 -0.033651735371032776 0 0.00071878133106922188 -0.033721593906857236 0 0.00079883782655041854 -0.033653559776858473 0 0.00078505877465646684 -0.033651735371032776 0 0.00071878133106922188 -0.033721593906857236 0 0.0023708080669036448 -0.026745007624087144 0 0.0023545290785470302 -0.025720774468937634 0 0.00021640934575829565 -0.033806878299092215 0 0.0007323422693336748 -0.032827309480551278 0 0.0008605296904070003 -0.033517740227032015 0 0.00021640934575829565 -0.033806878299092215 0 0.0008605296904070003 -0.033517740227032015 0 0.00071878133106922188 -0.033721593906857236 0 0.00087888713916076154 -0.033683646347373752 0 0.00071878133106922188 -0.033721593906857236 0 0.00091266661286251954 -0.033732434492772884 0 0.0010110680614222383 -0.033809501128912678 0 0.00071878133106922188 -0.033721593906857236 0 0.00091266661286251954 -0.033732434492772884 0 0.0023708080669036448 -0.026745007624087144 0 0.0021834651593810287 -0.026923264053213911 0 -0.0017721691109491445 -0.019896018783660915 0 -0.00041971240178448284 -0.020489286212418224 0 -0.0024793140617332577 -0.021286016028002595 0 -0.0017721691109491445 -0.019896018783660915 0 -0.00041971240178448284 -0.020489286212418224 0 -0.00091897248157408345 -0.019061103195965098 0 -0.00041971240178448284 -0.020489286212418224 0 -0.0024793140617332577 -0.021286016028002595 0 -0.00061932287490861328 -0.02227019486740511 0 -0.0024793140617332577 -0.021286016028002595 0 -0.003769607144015702 -0.021242654272422938 0 -0.0042069450911170272 -0.023013627740111915 0 -0.003769607144015702 -0.021242654272422938 0 -0.0049095829817922369 -0.021254712265932719 0 -0.0042069450911170272 -0.023013627740111915 0 -0.0049095829817922369 -0.021254712265932719 0 -0.0034904824446076606 -0.019498475838717215 0 -0.0055932759417514572 -0.019099064177253808 0 -0.003769607144015702 -0.021242654272422938 0 -0.0049095829817922369 -0.021254712265932719 0 -0.0034904824446076606 -0.019498475838717215 0 -0.0024793140617332577 -0.021286016028002595 0 -0.003769607144015702 -0.021242654272422938 0 -0.0034904824446076606 -0.019498475838717215 0 -0.0017721691109491445 -0.019896018783660915 0 -0.0024793140617332577 -0.021286016028002595 0 -0.0034904824446076606 -0.019498475838717215 0 -0.0034904824446076606 -0.019498475838717215 0 -0.0017411109374850138 -0.01852939881118142 0 -0.0030103694844266795 -0.016921017252053156 0 -0.0034904824446076606 -0.019498475838717215 0 -0.004548388943456657 -0.017791331876645815 0 -0.0030103694844266795 -0.016921017252053156 0 -0.0034904824446076606 -0.019498475838717215 0 -0.004548388943456657 -0.017791331876645815 0 -0.0055932759417514572 -0.019099064177253808 0 -0.0011640673386829612 -0.017544329214375383 0 -0.0017411109374850138 -0.01852939881118142 0 -0.0030103694844266795 -0.016921017252053156 0 -0.0011640673386829612 -0.017544329214375383 0 -0.0017411109374850138 -0.01852939881118142 0 -0.00076664021895271714 -0.018134772613137489 0 -0.0017721691109491445 -0.019896018783660915 0 -0.0017411109374850138 -0.01852939881118142 0 -0.00091897248157408345 -0.019061103195965098 0 -0.0017721691109491445 -0.019896018783660915 0 -0.0034904824446076606 -0.019498475838717215 0 -0.0017411109374850138 -0.01852939881118142 0 -0.00041971240178448284 -0.020489286212418224 0 -0.00091897248157408345 -0.019061103195965098 0 -0.00015189453558566259 -0.018282491703718363 0 -0.0017411109374850138 -0.01852939881118142 0 -0.00091897248157408345 -0.019061103195965098 0 -0.00076664021895271714 -0.018134772613137489 0 -0.00091897248157408345 -0.019061103195965098 0 -0.00015189453558566259 -0.018282491703718363 0 -0.00076664021895271714 -0.018134772613137489 0 -0.00015189453558566259 -0.018282491703718363 0 -0.00076664021895271714 -0.018134772613137489 0 -0.00030299550991828275 -0.017298539638865747 0 -0.0011640673386829612 -0.017544329214375383 0 -0.00076664021895271714 -0.018134772613137489 0 -0.00030299550991828275 -0.017298539638865747 0 -0.0011640673386829612 -0.017544329214375383 0 -0.00030299550991828275 -0.017298539638865747 0 -0.00090135819665958423 -0.016517163163477715 0 0.00081536358246451287 -0.018412839761060843 0 0.0012395324324586965 -0.017869135532863633 0 0.000181465834017516 -0.017377312619845427 0 0.00055163395956496389 -0.017604753879766871 0 0.0004539192320166876 -0.016561529419301658 0 -0.00041971240178448284 -0.020489286212418224 0 0.0016833773421466077 -0.0183507914512115 0 0.0016752232049228486 -0.018652766589237008 0 -0.00041971240178448284 -0.020489286212418224 0 0.00055163395956496389 -0.017604753879766871 0 0.0015910374000738564 -0.016964566560021519 0 -0.00041971240178448284 -0.020489286212418224 0 -0.00015189453558566259 -0.018282491703718363 0 0.00055163395956496389 -0.017604753879766871 0 -0.00015189453558566259 -0.018282491703718363 0 0.000181465834017516 -0.017377312619845427 0 0.00055163395956496389 -0.017604753879766871 0 -0.00015189453558566259 -0.018282491703718363 0 -0.00030299550991828275 -0.017298539638865747 0 0.000181465834017516 -0.017377312619845427 0 0.00055163395956496389 -0.017604753879766871 0 0.0015910374000738564 -0.016964566560021519 0 0.001002087917438142 -0.016754631123334873 0 0.0020068683071129034 -0.018691583764344901 0 0.0018848395234085276 -0.018508160858047722 0 0.0018353624682846694 -0.018670676764796897 0 0.0016752232049228486 -0.018652766589237008 0 0.0018848395234085276 -0.018508160858047722 0 0.0018353624682846694 -0.018670676764796897 0 0.0016833773421466077 -0.0183507914512115 0 0.0016752232049228486 -0.018652766589237008 0 0.0018848395234085276 -0.018508160858047722 0 0.0016752232049228486 -0.018652766589237008 0 0.0018353624682846694 -0.018670676764796897 0 0.001822713362769195 -0.018784013199674571 0 0.0020068683071129034 -0.018691583764344901 0 0.0018353624682846694 -0.018670676764796897 0 0.001822713362769195 -0.018784013199674571 0 0.0020256095336894618 -0.018928867509450772 0 0.001822713362769195 -0.018784013199674571 0 0.0017502194722144068 -0.018958585451862069 0 -0.00020446604835126108 -0.023911103796301438 0 -0.00028343087217847895 -0.0258215289737884 0 0.0011697285246624937 -0.026279636234390238 0 -0.00028343087217847895 -0.0258215289737884 0 0.0016752232049228486 -0.018652766589237008 0 0.001822713362769195 -0.018784013199674571 0 0.0017502194722144068 -0.018958585451862069 0 -0.00041971240178448284 -0.020489286212418224 0 0.0020499639471857787 -0.021806921884127774 0 -0.00061932287490861328 -0.02227019486740511 0 -0.00041971240178448284 -0.020489286212418224 0 0.0016752232049228486 -0.018652766589237008 0 0.0020499639471857787 -0.021806921884127774 0 -0.00031707739772169691 -0.025091486782628188 0 0.0021064104673496941 -0.022771625234792571 0 -0.0010954618535946618 -0.023030905480103888 0 -0.00031707739772169691 -0.025091486782628188 0 0.0021064104673496941 -0.022771625234792571 0 0.0023222336183067794 -0.026013341585083807 0 -0.00028343087217847895 -0.0258215289737884 0 -0.00083727862582057982 -0.025406617613208414 0 0.001339967089651724 -0.033614366660950558 0 0.0016832213980993163 -0.033793136039904401 0 0.001673139977009357 -0.033489327829276432 0 -0.00028343087217847895 -0.0258215289737884 0 0.00025075069335088636 -0.027953398141053326 0 0.0014402085628477637 -0.033402553738994381 0 0.001673139977009357 -0.033489327829276432 0 0.0017129533453685011 -0.033151985774625782 0 0.0014402085628477637 -0.033402553738994381 0 0.001339967089651724 -0.033614366660950558 0 0.001673139977009357 -0.033489327829276432 0 -0.00031707739772169691 -0.025091486782628188 0 0.0023222336183067794 -0.026013341585083807 0 0.00066030702108324448 -0.027365776668005715 0 0.0023222336183067794 -0.026013341585083807 0 0.00066030702108324448 -0.027365776668005715 0 0.0023197642647496035 -0.02935298062684567 0 -0.00031707739772169691 -0.025091486782628188 0 0.00066030702108324448 -0.027365776668005715 0 -0.00094037783023386272 -0.027112147611486472 0 -0.00094037783023386272 -0.027112147611486472 0 -0.0026107049713536986 -0.02641705395438048 0 -0.0019505853772788916 -0.025484100921360307 0 -0.00094037783023386272 -0.027112147611486472 0 -0.0026107049713536986 -0.02641705395438048 0 -0.0015847924134951292 -0.028301788877858437 0 -0.0026107049713536986 -0.02641705395438048 0 -0.0019505853772788916 -0.025484100921360307 0 -0.0031777738579930495 -0.024718539743862209 0 -0.00031707739772169691 -0.025091486782628188 0 -0.00094037783023386272 -0.027112147611486472 0 -0.0019505853772788916 -0.025484100921360307 0 -0.0024793140617332577 -0.021286016028002595 0 -0.00061932287490861328 -0.02227019486740511 0 -0.0042069450911170272 -0.023013627740111915 0 -0.00031707739772169691 -0.025091486782628188 0 -0.0021646308320954506 -0.024159786396120996 0 -0.0010954618535946618 -0.023030905480103888 0 -0.00083727862582057982 -0.025406617613208414 0 -0.0013175582742447295 -0.025302680063074887 0 -0.00031707739772169691 -0.025091486782628188 0 -0.0019505853772788916 -0.025484100921360307 0 -0.0021646308320954506 -0.024159786396120996 0 -0.0021646308320954506 -0.024159786396120996 0 -0.0010954618535946618 -0.023030905480103888 0 -0.0042069450911170272 -0.023013627740111915 0 -0.0019505853772788916 -0.025484100921360307 0 -0.0021646308320954506 -0.024159786396120996 0 -0.0031777738579930495 -0.024718539743862209 0 -0.0049095829817922369 -0.021254712265932719 0 -0.0042069450911170272 -0.023013627740111915 0 -0.0050444657612988024 -0.024328821959878115 0 -0.0021646308320954506 -0.024159786396120996 0 -0.0042069450911170272 -0.023013627740111915 0 -0.0031777738579930495 -0.024718539743862209 0 -0.0042069450911170272 -0.023013627740111915 0 -0.0031777738579930495 -0.024718539743862209 0 -0.0050444657612988024 -0.024328821959878115 0 0.0066551556094617079 0.021950487184551747 0 0.0070710602801390757 0.020883814395409747 0 0.0077301348328620975 0.020389376449333276 0 0.00080756871186179785 -0.0017531275772533826 0 0.0028272872844897902 -0.0028324699040324476 0 -0.0026107049713536986 -0.02641705395438048 0 -0.0050444657612988024 -0.024328821959878115 0 -0.0030144165850234592 -0.028250490581921639 0 0.0066551556094617079 0.021950487184551747 0 0.006703581436057396 0.021051998118986434 0 0.0070710602801390757 0.020883814395409747 0 -0.0026107049713536986 -0.02641705395438048 0 -0.0031777738579930495 -0.024718539743862209 0 -0.0050444657612988024 -0.024328821959878115 0 0.006703581436057396 0.021051998118986434 0 0.0070710602801390757 0.020883814395409747 0 0.0071936125591614197 0.020139314853857469 0 0.0071936125591614197 0.020139314853857469 0 0.0077301348328620975 0.020389376449333276 0 0.0087427357933954394 0.019119599799170824 0 0.007013111379532074 0.020647574810024379 0 0.006677978360605609 0.019996935664015888 0 0.0059751868536764537 0.02045366664232879 0 0.0070710602801390757 0.020883814395409747 0 0.0071936125591614197 0.020139314853857469 0 0.0077301348328620975 0.020389376449333276 0 -0.0026107049713536986 -0.02641705395438048 0 -0.0030144165850234592 -0.028250490581921639 0 -0.0015847924134951292 -0.028301788877858437 0 -0.00094037783023386272 -0.027112147611486472 0 -0.0015847924134951292 -0.028301788877858437 0 -0.00011938228086437045 -0.02918173090376474 0 -0.0013074979283000322 -0.029918139335269083 0 -0.00011938228086437045 -0.02918173090376474 0 -0.00031590868248719843 -0.030511999217746364 0 -0.0015847924134951292 -0.028301788877858437 0 -0.0013074979283000322 -0.029918139335269083 0 -0.00011938228086437045 -0.02918173090376474 0 -0.0030144165850234592 -0.028250490581921639 0 -0.0015847924134951292 -0.028301788877858437 0 -0.0013074979283000322 -0.029918139335269083 0 -0.0030144165850234592 -0.028250490581921639 0 -0.0013074979283000322 -0.029918139335269083 0 -0.00069030524577666464 -0.031802202838851851 0 0.0077301348328620975 0.020389376449333276 0 0.0087427357933954394 0.019119599799170824 0 0.008967677599117943 0.01907345128449606 0 0.007013111379532074 0.020647574810024379 0 0.0087427357933954394 0.019119599799170824 0 0.0078212132753504981 0.019430597089528399 0 0.0067942179070053831 0.020666188363611906 0 0.0071465045837091519 0.020327514189519162 0 0.0028272872844897902 -0.0028324699040324476 0 0.0046576364998285325 -0.0032289884621343793 0 -0.0013074979283000322 -0.029918139335269083 0 -0.00060312394309490047 -0.030896575493128263 0 -0.00069030524577666464 -0.031802202838851851 0 -0.0013074979283000322 -0.029918139335269083 0 -0.00060312394309490047 -0.030896575493128263 0 -0.00031590868248719843 -0.030511999217746364 0 -0.00060312394309490047 -0.030896575493128263 0 -0.00069030524577666464 -0.031802202838851851 0 -0.00014356019386228618 -0.031326878991425264 0 0.0087427357933954394 0.019119599799170824 0 0.0083089472270924218 0.018865759057072901 0 0.0087504881842753544 0.018726412932662195 0 0.0087427357933954394 0.019119599799170824 0 0.008967677599117943 0.01907345128449606 0 0.0087504881842753544 0.018726412932662195 0 0.0087427357933954394 0.019119599799170824 0 0.0083089472270924218 0.018865759057072901 0 0.0078212132753504981 0.019430597089528399 0 0.0083089472270924218 0.018865759057072901 0 0.0078212132753504981 0.019430597089528399 0 0.0077306498394487371 0.018793124556462194 0 0.007013111379532074 0.020647574810024379 0 0.0078212132753504981 0.019430597089528399 0 0.0072675609142981183 0.019617709462917927 0 0.0078212132753504981 0.019430597089528399 0 0.0072675609142981183 0.019617709462917927 0 0.0077306498394487371 0.018793124556462194 0 0.006515958812418776 0.01925078403732404 0 0.0072675609142981183 0.019617709462917927 0 0.0077306498394487371 0.018793124556462194 0 0.006515958812418776 0.01925078403732404 0 0.006677978360605609 0.019996935664015888 0 0.0072675609142981183 0.019617709462917927 0 0.007013111379532074 0.020647574810024379 0 0.006677978360605609 0.019996935664015888 0 0.0072675609142981183 0.019617709462917927 0 0.00025075069335088636 -0.027953398141053326 0 0.00054304492925185126 -0.029232360341550138 0 0.0013405328042803376 -0.033261739398948977 0 0.0014402085628477637 -0.033402553738994381 0 0.0017129533453685011 -0.033151985774625782 0 0.00066030702108324448 -0.027365776668005715 0 0.0023197642647496035 -0.02935298062684567 0 -0.00011938228086437045 -0.02918173090376474 0 0.0023197642647496035 -0.02935298062684567 0 -0.00011938228086437045 -0.02918173090376474 0 0.00080395191264491679 -0.030940453283531767 0 0.00066030702108324448 -0.027365776668005715 0 -0.00094037783023386272 -0.027112147611486472 0 -0.00011938228086437045 -0.02918173090376474 0 -0.00031590868248719843 -0.030511999217746364 0 -0.00014356019386228618 -0.031326878991425264 0 0.00080395191264491679 -0.030940453283531767 0 -0.00011938228086437045 -0.02918173090376474 0 -0.00031590868248719843 -0.030511999217746364 0 0.00080395191264491679 -0.030940453283531767 0 -0.00060312394309490047 -0.030896575493128263 0 -0.00031590868248719843 -0.030511999217746364 0 -0.00014356019386228618 -0.031326878991425264 0 -0.00069030524577666464 -0.031802202838851851 0 -7.1034463789959018e-05 -0.031754800869687343 0 0.00042093313317803806 -0.032231492652786062 0 -0.00014356019386228618 -0.031326878991425264 0 0.00032943250228230288 -0.031698424167105076 0 0.00080395191264491679 -0.030940453283531767 0 -0.00069030524577666464 -0.031802202838851851 0 -0.00014356019386228618 -0.031326878991425264 0 -7.1034463789959018e-05 -0.031754800869687343 0 -0.00014356019386228618 -0.031326878991425264 0 -7.1034463789959018e-05 -0.031754800869687343 0 0.00032943250228230288 -0.031698424167105076 0 -7.1034463789959018e-05 -0.031754800869687343 0 0.00032943250228230288 -0.031698424167105076 0 0.00042093313317803806 -0.032231492652786062 0 0.0010054666614943576 -0.032049861591024797 0 0.00080395191264491679 -0.030940453283531767 0 0.0016964805250412444 -0.032463427540381472 0 0.00032943250228230288 -0.031698424167105076 0 0.0010054666614943576 -0.032049861591024797 0 0.00080395191264491679 -0.030940453283531767 0 0.0023197642647496035 -0.02935298062684567 0 0.00080395191264491679 -0.030940453283531767 0 0.0016964805250412444 -0.032463427540381472 0 0.0013273677862592145 -0.033003449743857036 0 0.0017129533453685011 -0.033151985774625782 0 0.0016964805250412444 -0.032463427540381472 0 0.00054304492925185126 -0.029232360341550138 0 0.00063283669816351605 -0.029694371944711671 0 0.0014411702589923405 -0.032764249644240503 0 0.0014449581313047473 -0.032840401520158574 0 0.0016964805250412444 -0.032463427540381472 0 0.0010054666614943576 -0.032049861591024797 0 0.0016964805250412444 -0.032463427540381472 0 0.0013310086415916111 -0.032708992610630261 0 0.0014449581313047473 -0.032840401520158574 0 0.0013310086415916111 -0.032708992610630261 0 0.0012379154604608823 -0.033051721522947559 0 0.0014449581313047473 -0.032840401520158574 0 0.0016964805250412444 -0.032463427540381472 0 0.0013310086415916111 -0.032708992610630261 0 0.008967677599117943 0.01907345128449606 0 0.010419268852259503 0.016885457674889567 0 0.0091614592463699473 0.018081929078443588 0 -0.00069030524577666464 -0.031802202838851851 0 0.00042093313317803806 -0.032231492652786062 0 0.0011172670541851467 -0.033314112471767833 0 0.00097252240920921173 -0.032728356814003809 0 0.00042093313317803806 -0.032231492652786062 0 0.0011172670541851467 -0.033314112471767833 0 0.0046576364998285325 -0.0032289884621343793 0 0.0058534489016510635 -0.0017360660137513094 0 0.0013310086415916111 -0.032708992610630261 0 0.00097252240920921173 -0.032728356814003809 0 0.0012379154604608823 -0.033051721522947559 0 0.0013310086415916111 -0.032708992610630261 0 0.00097252240920921173 -0.032728356814003809 0 0.00090219752211838063 -0.032406580124295259 0 0.0010054666614943576 -0.032049861591024797 0 0.0013310086415916111 -0.032708992610630261 0 0.00090219752211838063 -0.032406580124295259 0 0.00097252240920921173 -0.032728356814003809 0 0.00090219752211838063 -0.032406580124295259 0 0.00042093313317803806 -0.032231492652786062 0 0.00032943250228230288 -0.031698424167105076 0 0.0010054666614943576 -0.032049861591024797 0 0.00042093313317803806 -0.032231492652786062 0 0.0010054666614943576 -0.032049861591024797 0 0.00090219752211838063 -0.032406580124295259 0 0.00042093313317803806 -0.032231492652786062 0 0.010419268852259503 0.016885457674889567 0 0.0091873156661856012 0.017494650040049492 0 0.0091614592463699473 0.018081929078443588 0 0.010419268852259503 0.016885457674889567 0 0.0091873156661856012 0.017494650040049492 0 0.0091865044077225622 0.01659065979838065 0 0.00097252240920921173 -0.032728356814003809 0 0.0011172670541851467 -0.033314112471767833 0 0.0012379154604608823 -0.033051721522947559 0 0.0012998793383187509 -0.032998589715230925 0 0.0012379154604608823 -0.033051721522947559 0 0.001372402895856555 -0.03290107607442011 0 0.0058534489016510635 -0.0017360660137513094 0 0.0057591316756222229 -0.0018866151310826945 0 0.0068809972679837886 -0.0056093484975527552 0 0.0058534489016510635 -0.0017360660137513094 0 0.0014333227944092735 -0.032781202841124318 0 0.0012998793383187509 -0.032998589715230925 0 0.001372402895856555 -0.03290107607442011 0 0.0014449581313047473 -0.032840401520158574 0 0.0012379154604608823 -0.033051721522947559 0 0.001372402895856555 -0.03290107607442011 0 0.0013575129704602666 -0.032808790009121833 0 0.0013827410191069702 -0.0328510360549591 0 0.001372402895856555 -0.03290107607442011 0 0.0013827410191069702 -0.0328510360549591 0 0.0014449581313047473 -0.032840401520158574 0 0.001372402895856555 -0.03290107607442011 0 0.0078676455867860706 0.018002561477243138 0 0.0069520168673732835 0.017825656743055973 0 0.008327826735785757 0.017138592367425497 0 0.006515958812418776 0.01925078403732404 0 0.0069520168673732835 0.017825656743055973 0 0.0077306498394487371 0.018793124556462194 0 0.0078676455867860706 0.018002561477243138 0 0.0069520168673732835 0.017825656743055973 0 0.0077306498394487371 0.018793124556462194 0 0.0083089472270924218 0.018865759057072901 0 0.0077306498394487371 0.018793124556462194 0 0.0085032967789398471 0.01822514218236123 0 0.0078676455867860706 0.018002561477243138 0 0.0077306498394487371 0.018793124556462194 0 0.0085032967789398471 0.01822514218236123 0 0.0083089472270924218 0.018865759057072901 0 0.0085032967789398471 0.01822514218236123 0 0.0087504881842753544 0.018726412932662195 0 0.008967677599117943 0.01907345128449606 0 0.0087504881842753544 0.018726412932662195 0 0.0091614592463699473 0.018081929078443588 0 0.0085032967789398471 0.01822514218236123 0 0.0087504881842753544 0.018726412932662195 0 0.0091614592463699473 0.018081929078443588 0 0.0085032967789398471 0.01822514218236123 0 0.0091873156661856012 0.017494650040049492 0 0.008327826735785757 0.017138592367425497 0 0.0085032967789398471 0.01822514218236123 0 0.0091873156661856012 0.017494650040049492 0 0.0091614592463699473 0.018081929078443588 0 0.0078676455867860706 0.018002561477243138 0 0.0085032967789398471 0.01822514218236123 0 0.008327826735785757 0.017138592367425497 0 0.0088106715830271257 0.014823377756230487 0 0.008327826735785757 0.017138592367425497 0 0.0091865044077225622 0.01659065979838065 0 0.0088106715830271257 0.014823377756230487 0 0.010419268852259503 0.016885457674889567 0 0.0091865044077225622 0.01659065979838065 0 0.0088106715830271257 0.014823377756230487 0 0.008327826735785757 0.017138592367425497 0 0.007190992053457218 0.01623408712205637 0 0.0091873156661856012 0.017494650040049492 0 0.008327826735785757 0.017138592367425497 0 0.0091865044077225622 0.01659065979838065 0 0.0069520168673732835 0.017825656743055973 0 0.008327826735785757 0.017138592367425497 0 0.007190992053457218 0.01623408712205637 0 0.0069520168673732835 0.017825656743055973 0 0.007190992053457218 0.01623408712205637 0 0.0055592281452604584 0.016549543051232758 0 0.0069520168673732835 0.017825656743055973 0 0.0055592281452604584 0.016549543051232758 0 0.0049572861847821167 0.018369442298752415 0 0.006515958812418776 0.01925078403732404 0 0.0069520168673732835 0.017825656743055973 0 0.0049572861847821167 0.018369442298752415 0 0.0049572861847821167 0.018369442298752415 0 0.0035847960462631031 0.017545483075572396 0 0.0028370893114436982 0.019178068167272164 0 0.0041776907891496471 0.016059949848303799 0 0.0055592281452604584 0.016549543051232758 0 0.0035847960462631031 0.017545483075572396 0 0.0055592281452604584 0.016549543051232758 0 0.0049572861847821167 0.018369442298752415 0 0.0035847960462631031 0.017545483075572396 0 0.0035847960462631031 0.017545483075572396 0 0.0023511650843680552 0.016654443272619102 0 0.0018013021069045335 0.018540219435358121 0 0.0041776907891496471 0.016059949848303799 0 0.0035847960462631031 0.017545483075572396 0 0.0023511650843680552 0.016654443272619102 0 0.0023511650843680552 0.016654443272619102 0 0.00060942357552820061 0.016774098947533529 0 0.0018013021069045335 0.018540219435358121 0 0.0013255962855532166 0.015742147863205755 0 0.0023511650843680552 0.016654443272619102 0 0.00060942357552820061 0.016774098947533529 0 0.0004101664789606512 0.016981360530196356 0 0.00051424562665317031 0.0171496186417141 0 0.0016238405024749842 0.018481397644710747 0 0.0018013021069045335 0.018540219435358121 0 0.0014828662266434549 0.018777642534936304 0 0.0018013021069045335 0.018540219435358121 0 0.0014828662266434549 0.018777642534936304 0 0.0015360778314295821 0.019541767001650334 0 0.0018013021069045335 0.018540219435358121 0 0.0028370893114436982 0.019178068167272164 0 0.0015360778314295821 0.019541767001650334 0 0.0035847960462631031 0.017545483075572396 0 0.0018013021069045335 0.018540219435358121 0 0.0028370893114436982 0.019178068167272164 0 0.0028370893114436982 0.019178068167272164 0 0.0022474248005714586 0.020354427452249042 0 0.0040541277391201629 0.020044160065527273 0 0.0030948677824465128 0.020337904090073019 0 0.0040438708389642806 0.020042026073006036 0 0.0028370893114436982 0.019178068167272164 0 0.0022474248005714586 0.020354427452249042 0 0.0015360778314295821 0.019541767001650334 0 0.0034505938694961357 0.020340476939025624 0 0.0020415475581523779 0.020820104121341918 0 0.0029917440217904949 0.021581355270708574 0 0.0034505938694961357 0.020340476939025624 0 0.0049055808958121455 0.019847205748314934 0 0.0042948724296216359 0.021440834711638736 0 0.0052132747725286413 0.020870433566030213 0 0.0059751868536764537 0.02045366664232879 0 0.0049055808958121455 0.019847205748314934 0 0.0052132747725286413 0.020870433566030213 0 0.0049055808958121455 0.019847205748314934 0 0.0042948724296216359 0.021440834711638736 0 0.007013111379532074 0.020647574810024379 0 0.0059751868536764537 0.02045366664232879 0 0.0056888372420844761 0.021713661114109276 0 0.0052132747725286413 0.020870433566030213 0 0.0059751868536764537 0.02045366664232879 0 0.0056888372420844761 0.021713661114109276 0 0.006515958812418776 0.01925078403732404 0 0.006677978360605609 0.019996935664015888 0 0.0059751868536764537 0.02045366664232879 0 0.006515958812418776 0.01925078403732404 0 0.0059751868536764537 0.02045366664232879 0 0.0049055808958121455 0.019847205748314934 0 0.006515958812418776 0.01925078403732404 0 0.0049572861847821167 0.018369442298752415 0 0.0040541277391201629 0.020044160065527273 0 0.004551174574277372 0.019882789244868259 0 0.0040438708389642806 0.020042026073006036 0 0.0049572861847821167 0.018369442298752415 0 0.0028370893114436982 0.019178068167272164 0 0.0040541277391201629 0.020044160065527273 0 -0.00084550863836520046 0.019907314067556345 0 -0.00017563125873206226 0.018880483526143139 0 -6.0434557908409972e-05 0.020190686712040582 0 -6.4172668556520632e-05 0.018317441665039531 0 -0.00058051759089928264 0.018415069567656935 0 -0.00017563125873206226 0.018880483526143139 0 -0.00017563125873206226 0.018880483526143139 0 0.00048047861991264113 0.019302934912361729 0 0.00070942481669641346 0.018404677767248679 0 -5.6459221487030601e-06 0.017235954548774701 0 0.00011676201307193388 0.017046498652730047 0 -6.4172668556520632e-05 0.018317441665039531 0 -0.00017563125873206226 0.018880483526143139 0 0.00072302176048972037 0.01841515198977392 0 -0.00017563125873206226 0.018880483526143139 0 0.00048047861991264113 0.019302934912361729 0 -6.0434557908409972e-05 0.020190686712040582 0 0.00048047861991264113 0.019302934912361729 0 0.0010609262532868921 0.019100346811673188 0 0.00081263767938626302 0.02003887775763831 0 0.00048047861991264113 0.019302934912361729 0 0.0010609262532868921 0.019100346811673188 0 0.00070942481669641346 0.018404677767248679 0 0.0010609262532868921 0.019100346811673188 0 0.00070942481669641346 0.018404677767248679 0 0.0012868607110340389 0.018557638143805375 0 0.0014336336152652135 0.018058031675051475 0 0.0016238405024749842 0.018481397644710747 0 0.0012868607110340389 0.018557638143805375 0 0.0016238405024749842 0.018481397644710747 0 0.0012868607110340389 0.018557638143805375 0 0.0014828662266434549 0.018777642534936304 0 0.0010609262532868921 0.019100346811673188 0 0.0014828662266434549 0.018777642534936304 0 0.0015360778314295821 0.019541767001650334 0 0.0010609262532868921 0.019100346811673188 0 0.0012868607110340389 0.018557638143805375 0 0.0014828662266434549 0.018777642534936304 0 0.0015360778314295821 0.019541767001650334 0 0.0012810059582390888 0.020670618949771645 0 0.00081263767938626302 0.02003887775763831 0 0.0030948677824465128 0.020337904090073019 0 0.002223331665912525 0.020617375459877983 0 0.0022474248005714586 0.020354427452249042 0 0.0015360778314295821 0.019541767001650334 0 0.0012810059582390888 0.020670618949771645 0 0.002223331665912525 0.020617375459877983 0 0.0018218755467816175 0.020751734013831437 0 0.0012810059582390888 0.020670618949771645 0 0.00081263767938626302 0.02003887775763831 0 0.00060095106189542093 0.021301357191059102 0 0.0010609262532868921 0.019100346811673188 0 0.0015360778314295821 0.019541767001650334 0 0.00081263767938626302 0.02003887775763831 0 0.00048047861991264113 0.019302934912361729 0 0.00081263767938626302 0.02003887775763831 0 -6.0434557908409972e-05 0.020190686712040582 0 0.00081263767938626302 0.02003887775763831 0 -6.0434557908409972e-05 0.020190686712040582 0 0.00060095106189542093 0.021301357191059102 0 -0.00094215907507042408 0.020809273005321927 0 -6.0434557908409972e-05 0.020190686712040582 0 -0.00040357405022980536 0.021511385536555176 0 -6.0434557908409972e-05 0.020190686712040582 0 -0.00040357405022980536 0.021511385536555176 0 0.00060095106189542093 0.021301357191059102 0 1.0492218839863532e-05 0.022554584458557892 0 0.00060095106189542093 0.021301357191059102 0 0.00093915086528646502 0.023095526245687319 0 -0.00071310219747027902 0.022461214528694744 0 1.0492218839863532e-05 0.022554584458557892 0 -0.00040357405022980536 0.021511385536555176 0 -0.00071310219747027902 0.022461214528694744 0 -0.000503830908261742 0.023243156860508724 0 1.0492218839863532e-05 0.022554584458557892 0 1.0492218839863532e-05 0.022554584458557892 0 -0.00040357405022980536 0.021511385536555176 0 0.00060095106189542093 0.021301357191059102 0 0.00060095106189542093 0.021301357191059102 0 0.0016610481808557889 0.022094639274135769 0 0.00093915086528646502 0.023095526245687319 0 0.0016610481808557889 0.022094639274135769 0 0.0017830173567684937 0.023094730162171388 0 0.00093915086528646502 0.023095526245687319 0 0.0020415475581523779 0.020820104121341918 0 0.00060095106189542093 0.021301357191059102 0 0.0016610481808557889 0.022094639274135769 0 0.0020415475581523779 0.020820104121341918 0 0.0016610481808557889 0.022094639274135769 0 0.0029917440217904949 0.021581355270708574 0 0.0016610481808557889 0.022094639274135769 0 0.0025720941668868351 0.022678880932259792 0 0.0029917440217904949 0.021581355270708574 0 0.0016610481808557889 0.022094639274135769 0 0.0025720941668868351 0.022678880932259792 0 0.0017830173567684937 0.023094730162171388 0 0.0025720941668868351 0.022678880932259792 0 0.0023800336296798206 0.023605021681189435 0 0.0017830173567684937 0.023094730162171388 0 0.0023800336296798206 0.023605021681189435 0 0.0030485933935078561 0.024023597591547652 0 0.0022252173061671418 0.024459748913106181 0 0.0023800336296798206 0.023605021681189435 0 0.0014034555988358037 0.023930767686851394 0 0.0022252173061671418 0.024459748913106181 0 0.0014034555988358037 0.023930767686851394 0 0.0015568014377095772 0.024550570098801044 0 0.0022252173061671418 0.024459748913106181 0 0.0014034555988358037 0.023930767686851394 0 0.00071077165055983085 0.024553358733875867 0 0.0015568014377095772 0.024550570098801044 0 0.0023800336296798206 0.023605021681189435 0 0.0014034555988358037 0.023930767686851394 0 0.0017830173567684937 0.023094730162171388 0 0.0014034555988358037 0.023930767686851394 0 0.0017830173567684937 0.023094730162171388 0 0.00093915086528646502 0.023095526245687319 0 0.0014034555988358037 0.023930767686851394 0 0.00093915086528646502 0.023095526245687319 0 0.00021487262502066637 0.023832732628822604 0 1.0492218839863532e-05 0.022554584458557892 0 0.00093915086528646502 0.023095526245687319 0 0.00021487262502066637 0.023832732628822604 0 0.0014034555988358037 0.023930767686851394 0 0.00021487262502066637 0.023832732628822604 0 0.00071077165055983085 0.024553358733875867 0 -0.00054382839570473569 0.024178603571815522 0 -0.00024882945913839126 0.024798360114990904 0 0.00021487262502066637 0.023832732628822604 0 -0.000503830908261742 0.023243156860508724 0 1.0492218839863532e-05 0.022554584458557892 0 0.00021487262502066637 0.023832732628822604 0 -0.00054382839570473569 0.024178603571815522 0 -0.000503830908261742 0.023243156860508724 0 0.00021487262502066637 0.023832732628822604 0 0.0045709108695843499 0.022698778076413479 0 0.0056519349967973382 0.022390830159359172 0 0.0057873040473113216 0.021403333615706403 0 0.0045709108695843499 0.022698778076413479 0 0.0056888372420844761 0.021713661114109276 0 0.0042948724296216359 0.021440834711638736 0 0.0058718425959249721 0.021566497531441919 0 0.0061948644487120888 0.021247936910548482 0 0.0066551556094617079 0.021950487184551747 0 0.0056519349967973382 0.022390830159359172 0 0.0057536384364105008 0.022699423503106237 0 0.0066551556094617079 0.021950487184551747 0 0.0061148803086413708 0.021814430009508716 0 0.006361284714939722 0.021504775436255195 0 0.0066551556094617079 0.021950487184551747 0 0.0056519349967973382 0.022390830159359172 0 0.0061148803086413708 0.021814430009508716 0 0.0056519349967973382 0.022390830159359172 0 0.0061148803086413708 0.021814430009508716 0 0.0057873040473113216 0.021403333615706403 0 0.006703581436057396 0.021051998118986434 0 0.0071936125591614197 0.020139314853857469 0 0.0057873040473113216 0.021403333615706403 0 0.0067942179070053831 0.020666188363611906 0 0.0061948644487120888 0.021247936910548482 0 0.006703581436057396 0.021051998118986434 0 0.0057873040473113216 0.021403333615706403 0 0.006361284714939722 0.021504775436255195 0 0.0061148803086413708 0.021814430009508716 0 0.0057873040473113216 0.021403333615706403 0 0.006361284714939722 0.021504775436255195 0 0.0066551556094617079 0.021950487184551747 0 0.006703581436057396 0.021051998118986434 0 0.006361284714939722 0.021504775436255195 0 0.0052132747725286413 0.020870433566030213 0 0.0056888372420844761 0.021713661114109276 0 0.0042948724296216359 0.021440834711638736 0 0.0034505938694961357 0.020340476939025624 0 0.0042948724296216359 0.021440834711638736 0 0.0029917440217904949 0.021581355270708574 0 0.0042948724296216359 0.021440834711638736 0 0.0029917440217904949 0.021581355270708574 0 0.0036393644869283184 0.022526549317521325 0 0.0025720941668868351 0.022678880932259792 0 0.0029917440217904949 0.021581355270708574 0 0.0036393644869283184 0.022526549317521325 0 0.0045709108695843499 0.022698778076413479 0 0.0042948724296216359 0.021440834711638736 0 0.0036393644869283184 0.022526549317521325 0 0.0045709108695843499 0.022698778076413479 0 0.0036393644869283184 0.022526549317521325 0 0.0042884646981438132 0.023339856315056688 0 0.0036393644869283184 0.022526549317521325 0 0.0042884646981438132 0.023339856315056688 0 0.0032894466032396237 0.023395801932864321 0 0.0042884646981438132 0.023339856315056688 0 0.0032894466032396237 0.023395801932864321 0 0.0037492592715629301 0.023945371229634676 0 0.0025720941668868351 0.022678880932259792 0 0.0036393644869283184 0.022526549317521325 0 0.0032894466032396237 0.023395801932864321 0 0.0025720941668868351 0.022678880932259792 0 0.0023800336296798206 0.023605021681189435 0 0.0032894466032396237 0.023395801932864321 0 0.0030485933935078561 0.024023597591547652 0 0.0036382712494618147 0.024679786434049417 0 0.0022252173061671418 0.024459748913106181 0 0.0023800336296798206 0.023605021681189435 0 0.0032894466032396237 0.023395801932864321 0 0.0030485933935078561 0.024023597591547652 0 0.0032894466032396237 0.023395801932864321 0 0.0030485933935078561 0.024023597591547652 0 0.0037492592715629301 0.023945371229634676 0 0.0030485933935078561 0.024023597591547652 0 0.0037492592715629301 0.023945371229634676 0 0.0036382712494618147 0.024679786434049417 0 0.0042884646981438132 0.023339856315056688 0 0.0037492592715629301 0.023945371229634676 0 0.004453144696187893 0.024158337076313815 0 -8.1549015901644762e-05 0.0084115536042908851 0 0.00064442792459817801 0.0060422981569082093 0 0.0037492592715629301 0.023945371229634676 0 0.004453144696187893 0.024158337076313815 0 0.0036382712494618147 0.024679786434049417 0 -0.0072123753824353118 -0.020155873828285154 0 -0.0073816647028296586 -0.017725260958412925 0 -0.009509048489573145 -0.016072980973062725 0 -0.0011031576859781055 -0.00097360605440053216 0 -0.0024386564339872133 -0.0018108355249862936 0 0.0042884646981438132 0.023339856315056688 0 0.004453144696187893 0.024158337076313815 0 0.0052956011786598313 0.023592198687084936 0 0.0052956011786598313 0.023592198687084936 0 0.0056162665029754243 0.023421860366320952 0 0.0049110828940930103 0.024422343385878224 0 0.0046607704793800902 0.02396055781858443 0 0.0052956011786598313 0.023592198687084936 0 0.0049110828940930103 0.024422343385878224 0 -8.1549015901644762e-05 0.0084115536042908851 0 -0.00024588162913164987 0.009134945167111155 0 0.0045709108695843499 0.022698778076413479 0 0.0056519349967973382 0.022390830159359172 0 0.00513593672578127 0.023029102038772498 0 0.0042884646981438132 0.023339856315056688 0 0.0052956011786598313 0.023592198687084936 0 0.00513593672578127 0.023029102038772498 0 0.0052956011786598313 0.023592198687084936 0 0.00513593672578127 0.023029102038772498 0 0.0056162665029754243 0.023421860366320952 0 0.0056519349967973382 0.022390830159359172 0 0.00513593672578127 0.023029102038772498 0 0.0057536384364105008 0.022699423503106237 0 0.0045709108695843499 0.022698778076413479 0 0.0042884646981438132 0.023339856315056688 0 0.00513593672578127 0.023029102038772498 0 0.00080756871186179785 -0.0017531275772533826 0 -0.0011031576859781055 -0.00097360605440053216 0 -0.0049095829817922369 -0.021254712265932719 0 -0.0050444657612988024 -0.024328821959878115 0 -0.0072123753824353118 -0.020155873828285154 0 0.0066551556094617079 0.021950487184551747 0 0.0057536384364105008 0.022699423503106237 0 0.0056162665029754243 0.023421860366320952 0 0.00513593672578127 0.023029102038772498 0 0.0057536384364105008 0.022699423503106237 0 0.0056162665029754243 0.023421860366320952 0 -0.0049095829817922369 -0.021254712265932719 0 -0.0072123753824353118 -0.020155873828285154 0 -0.0055932759417514572 -0.019099064177253808 0 -0.0072123753824353118 -0.020155873828285154 0 -0.0055932759417514572 -0.019099064177253808 0 -0.0073816647028296586 -0.017725260958412925 0 -0.004548388943456657 -0.017791331876645815 0 -0.0055958890523121014 -0.017596859893651989 0 -0.0048608262354116662 -0.015764993641777605 0 -0.0073816647028296586 -0.017725260958412925 0 -0.0055958890523121014 -0.017596859893651989 0 -0.0048608262354116662 -0.015764993641777605 0 -0.004548388943456657 -0.017791331876645815 0 -0.0055932759417514572 -0.019099064177253808 0 -0.0055958890523121014 -0.017596859893651989 0 -0.0055932759417514572 -0.019099064177253808 0 -0.0073816647028296586 -0.017725260958412925 0 -0.0055958890523121014 -0.017596859893651989 0 -0.0073816647028296586 -0.017725260958412925 0 -0.009509048489573145 -0.016072980973062725 0 -0.0048608262354116662 -0.015764993641777605 0 -0.0024386564339872133 -0.0018108355249862936 0 -0.0028766707845348334 -0.0048112146893900566 0 -0.0019325964243303746 -0.01469489305223457 0 -0.0021222869950352215 -0.014983145413762833 0 -0.0013479889149201967 -0.015456032446906302 0 -0.0013911515218106194 -0.014891210376801217 0 -0.0019325964243303746 -0.01469489305223457 0 -0.0013479889149201967 -0.015456032446906302 0 -0.0019325964243303746 -0.01469489305223457 0 -0.0015830601622555667 -0.014549671554865343 0 -0.0019418520090749031 -0.014319410675443981 0 -0.0013911515218106194 -0.014891210376801217 0 -0.0015830601622555667 -0.014549671554865343 0 -0.0011685974671704843 -0.014570391557555316 0 -0.0013911515218106194 -0.014891210376801217 0 -0.0019325964243303746 -0.01469489305223457 0 -0.0015830601622555667 -0.014549671554865343 0 -0.0019325964243303746 -0.01469489305223457 0 -0.0024647733322930901 -0.014672924565982709 0 -0.0023767493536030176 -0.014236882555827838 0 -0.0020843038064597324 -0.013273536942214531 0 -0.0020330330624709005 -0.013064418027944624 0 -0.0019325964243303746 -0.01469489305223457 0 -0.0021222869950352215 -0.014983145413762833 0 -0.0024647733322930901 -0.014672924565982709 0 -0.0021222869950352215 -0.014983145413762833 0 -0.002312602945045053 -0.015438236454780896 0 -0.0013479889149201967 -0.015456032446906302 0 -0.0021222869950352215 -0.014983145413762833 0 -0.002312602945045053 -0.015438236454780896 0 -0.0024647733322930901 -0.014672924565982709 0 -0.0023175215273609682 -0.014695277924034409 0 -0.0028998926323999482 -0.014761589727229161 0 -0.0029725010203278477 -0.014317490400377258 0 0.0046607704793800902 0.02396055781858443 0 0.0049110828940930103 0.024422343385878224 0 0.0040801585457317588 0.024334372983222299 0 -0.0024386564339872133 -0.0018108355249862936 0 0.00064442792459817801 0.0060422981569082093 0 0.00064442792459817801 0.0060422981569082093 0 0.0013368005684335951 0.0072798511395320157 0 0.0031408426319623141 0.024494958022402959 0 0.0022252173061671418 0.024459748913106181 0 0.0021530537964812527 0.025169386399477293 0 -0.0028998926323999482 -0.014761589727229161 0 -0.0029725010203278477 -0.014317490400377258 0 -0.0037386071962478436 -0.014300559520283748 0 0.00064442792459817801 0.0060422981569082093 0 -0.00037668657330194221 0.0065562070249632612 0 -0.0029725010203278477 -0.014317490400377258 0 -0.0033281116802723583 -0.013740852269124885 0 -0.0037386071962478436 -0.014300559520283748 0 -0.0029725010203278477 -0.014317490400377258 0 -0.0027424316403698405 -0.013990585650496556 0 -0.0033281116802723583 -0.013740852269124885 0 -0.0024386564339872133 -0.0018108355249862936 0 -0.0012480463502784974 -0.0050952740374562355 0 -0.002312602945045053 -0.015438236454780896 0 -0.0024647733322930901 -0.014672924565982709 0 -0.0027424316403698405 -0.013990585650496556 0 -0.0024647733322930901 -0.014672924565982709 0 -0.0027424316403698405 -0.013990585650496556 0 -0.0021242017340957061 -0.013630056684468331 0 -0.0023175215273609682 -0.014695277924034409 0 -0.0029725010203278477 -0.014317490400377258 0 -0.0027424316403698405 -0.013990585650496556 0 -0.0027424316403698405 -0.013990585650496556 0 -0.0025051414709578853 -0.013385087287519967 0 -0.0021242017340957061 -0.013630056684468331 0 -0.0027424316403698405 -0.013990585650496556 0 -0.0025051414709578853 -0.013385087287519967 0 -0.0030004901028024516 -0.013517934833572814 0 -0.0025051414709578853 -0.013385087287519967 0 -0.0030004901028024516 -0.013517934833572814 0 -0.0026903697225891428 -0.013017924981055851 0 -0.0027424316403698405 -0.013990585650496556 0 -0.0033281116802723583 -0.013740852269124885 0 -0.0030004901028024516 -0.013517934833572814 0 -0.0030004901028024516 -0.013517934833572814 0 -0.0033415256361443136 -0.013155642361822133 0 -0.0026903697225891428 -0.013017924981055851 0 -0.0033281116802723583 -0.013740852269124885 0 -0.0030004901028024516 -0.013517934833572814 0 -0.0033415256361443136 -0.013155642361822133 0 -0.0033281116802723583 -0.013740852269124885 0 -0.0033415256361443136 -0.013155642361822133 0 -0.0037966471559512508 -0.013210870759007244 0 -0.0023452828542812982 -0.012526975652597938 0 -0.0021687645307799756 -0.012549856273745807 0 -0.0029018444053282868 -0.012743768609814856 0 -0.0030358820773539641 -0.011937911044335945 0 -0.0016677716309237798 -0.012063797998929345 0 -0.0030358820773539641 -0.011937911044335945 0 -0.0016677716309237798 -0.012063797998929345 0 -0.0027870193384169207 -0.011142956533912405 0 -0.0023452828542812982 -0.012526975652597938 0 -0.0020358321771935463 -0.012275907091803076 0 -0.0029018444053282868 -0.012743768609814856 0 -0.0030358820773539641 -0.011937911044335945 0 -0.0035686445044069821 -0.012550792486178066 0 -0.0021459656094913425 -0.012401822335901142 0 -0.002144177790633129 -0.012394141882289343 0 -0.00217075860384588 -0.012399985941146939 0 -0.0021687645307799756 -0.012549856273745807 0 -0.0019054205756920347 -0.01254347805756729 0 -0.0025051414709578853 -0.013385087287519967 0 -0.0026903697225891428 -0.013017924981055851 0 -0.0019440512224330822 -0.012814301021376526 0 -0.0021192932211212003 -0.01238857681559841 0 -0.0021459656094913425 -0.012401822335901142 0 -0.002144177790633129 -0.012394141882289343 0 -0.0020358321771935463 -0.012275907091803076 0 -0.0017741751506762345 -0.012047207137730697 0 -0.0021459656094913425 -0.012401822335901142 0 -0.00217075860384588 -0.012399985941146939 0 -0.0021745556414173518 -0.012415917766918555 0 -0.0022783703428644764 -0.013497289458240544 0 -0.0016748979898187199 -0.013702939758756014 0 -0.0020079098626573184 -0.013967127462018062 0 -0.0019054205756920347 -0.01254347805756729 0 -0.0017741751506762345 -0.012047207137730697 0 -0.0022783703428644764 -0.013497289458240544 0 -0.0013725960535056051 -0.013177437374295059 0 -0.0016748979898187199 -0.013702939758756014 0 -0.0025265994340408961 -0.013425225285680365 0 -0.00140105687510728 -0.013141689129552754 0 -0.0024017728528763567 -0.012897868121546694 0 -0.0019054205756920347 -0.01254347805756729 0 -0.0016110988418737359 -0.01259139256126964 0 -0.0013725960535056051 -0.013177437374295059 0 -0.0016748979898187199 -0.013702939758756014 0 -0.0010253448938430489 -0.013767101290982447 0 -0.0016748979898187199 -0.013702939758756014 0 -0.0015251003888314759 -0.014146608884542335 0 -0.0020079098626573184 -0.013967127462018062 0 -0.0015251003888314759 -0.014146608884542335 0 -0.0019418520090749031 -0.014319410675443981 0 -0.0020079098626573184 -0.013967127462018062 0 -0.0016748979898187199 -0.013702939758756014 0 -0.0015251003888314759 -0.014146608884542335 0 -0.0010253448938430489 -0.013767101290982447 0 -0.0015830601622555667 -0.014549671554865343 0 -0.0015251003888314759 -0.014146608884542335 0 -0.0011685974671704843 -0.014570391557555316 0 -0.0015830601622555667 -0.014549671554865343 0 -0.0015251003888314759 -0.014146608884542335 0 -0.0019418520090749031 -0.014319410675443981 0 -0.0019054205756920347 -0.01254347805756729 0 -0.0020330330624709005 -0.013064418027944624 0 -0.0025051414709578853 -0.013385087287519967 0 -0.0019440512224330822 -0.012814301021376526 0 -0.0021242017340957061 -0.013630056684468331 0 -0.0019325964243303746 -0.01469489305223457 0 -0.0019418520090749031 -0.014319410675443981 0 -0.0023767493536030176 -0.014236882555827838 0 -0.0019418520090749031 -0.014319410675443981 0 -0.0023767493536030176 -0.014236882555827838 0 -0.0020079098626573184 -0.013967127462018062 0 -0.0022783703428644764 -0.013497289458240544 0 -0.0023767493536030176 -0.014236882555827838 0 -0.0020079098626573184 -0.013967127462018062 0 -0.00024882945913839126 0.024798360114990904 0 -0.00011806131337368447 0.025416566157074192 0 0.00049165643517257477 0.025271104409864333 0 -0.00024882945913839126 0.024798360114990904 0 0.00071077165055983085 0.024553358733875867 0 0.00049165643517257477 0.025271104409864333 0 -0.00024882945913839126 0.024798360114990904 0 0.00021487262502066637 0.023832732628822604 0 0.00071077165055983085 0.024553358733875867 0 0.00071077165055983085 0.024553358733875867 0 0.00049165643517257477 0.025271104409864333 0 0.0012886477860635248 0.025059971823977505 0 0.00049165643517257477 0.025271104409864333 0 0.0012886477860635248 0.025059971823977505 0 0.001014288716297542 0.025712629701376076 0 0.0012886477860635248 0.025059971823977505 0 0.0021530537964812527 0.025169386399477293 0 0.001014288716297542 0.025712629701376076 0 -0.0037386071962478436 -0.014300559520283748 0 -0.0040046072752931323 -0.013702994838903197 0 -0.0054273819273328982 -0.013399055924558732 0 -0.00037668657330194221 0.0065562070249632612 0 -0.0014018300994403489 0.007376041301751647 0 0.0012886477860635248 0.025059971823977505 0 0.0015568014377095772 0.024550570098801044 0 0.0021530537964812527 0.025169386399477293 0 0.00071077165055983085 0.024553358733875867 0 0.0012886477860635248 0.025059971823977505 0 0.0015568014377095772 0.024550570098801044 0 0.0015568014377095772 0.024550570098801044 0 0.0022252173061671418 0.024459748913106181 0 0.0021530537964812527 0.025169386399477293 0 -0.0033281116802723583 -0.013740852269124885 0 -0.0037386071962478436 -0.014300559520283748 0 -0.0040046072752931323 -0.013702994838903197 0 -0.0033281116802723583 -0.013740852269124885 0 -0.0040046072752931323 -0.013702994838903197 0 -0.0037966471559512508 -0.013210870759007244 0 -0.0040046072752931323 -0.013702994838903197 0 -0.0037966471559512508 -0.013210870759007244 0 -0.0045163532353945509 -0.01332749821785364 0 -0.0037966471559512508 -0.013210870759007244 0 -0.0035686445044069821 -0.012550792486178066 0 -0.0045163532353945509 -0.01332749821785364 0 -0.0023452828542812982 -0.012526975652597938 0 -0.0024677150568949758 -0.012589454571490133 0 -0.0029018444053282868 -0.012743768609814856 0 -0.0037966471559512508 -0.013210870759007244 0 -0.0035686445044069821 -0.012550792486178066 0 -0.0035686445044069821 -0.012550792486178066 0 -0.0040259786038494621 -0.011991424032491059 0 -0.0045163532353945509 -0.01332749821785364 0 -0.0030358820773539641 -0.011937911044335945 0 -0.0035686445044069821 -0.012550792486178066 0 -0.0040259786038494621 -0.011991424032491059 0 -0.0030358820773539641 -0.011937911044335945 0 -0.0040259786038494621 -0.011991424032491059 0 -0.0035777307244056335 -0.011371812301563229 0 -0.0022363993777428878 -0.0092160840252410777 0 -0.0022412350093527753 -0.0081351645295235694 0 -0.0040259786038494621 -0.011991424032491059 0 -0.0045163532353945509 -0.01332749821785364 0 -0.005107979063503792 -0.011610848082703056 0 -0.0040046072752931323 -0.013702994838903197 0 -0.0054273819273328982 -0.013399055924558732 0 -0.0045163532353945509 -0.01332749821785364 0 -0.0054273819273328982 -0.013399055924558732 0 -0.0045163532353945509 -0.01332749821785364 0 -0.0051904638543235756 -0.010549595094130521 0 -0.0014018300994403489 0.007376041301751647 0 -0.002255858253506768 0.0084474491027285992 0 0.00049165643517257477 0.025271104409864333 0 0.001014288716297542 0.025712629701376076 0 8.7564723131451207e-05 0.026079000146247207 0 -0.0054273819273328982 -0.013399055924558732 0 -0.0078891130755887051 -0.011693595810302635 0 -0.0051904638543235756 -0.010549595094130521 0 -0.0003923944503799799 0.025699041671299151 0 -0.00011806131337368447 0.025416566157074192 0 8.7564723131451207e-05 0.026079000146247207 0 -0.00011806131337368447 0.025416566157074192 0 0.00049165643517257477 0.025271104409864333 0 8.7564723131451207e-05 0.026079000146247207 0 -0.0085091802849900609 -0.0077984314016089924 0 -0.0073846050090645614 -0.0080773420860388179 0 -0.0077430026424319676 -0.0068000168442498565 0 -0.0073846050090645614 -0.0080773420860388179 0 -0.0070609678875671496 -0.0072039058862498982 0 -0.0077430026424319676 -0.0068000168442498565 0 -0.0085091802849900609 -0.0077984314016089924 0 -0.0073846050090645614 -0.0080773420860388179 0 -0.0076581664473619471 -0.0094400836685403829 0 -0.0090929803173965627 -0.009265081375891852 0 -0.0085091802849900609 -0.0077984314016089924 0 -0.0076581664473619471 -0.0094400836685403829 0 -0.0090929803173965627 -0.009265081375891852 0 -0.0078891130755887051 -0.011693595810302635 0 -0.0076581664473619471 -0.0094400836685403829 0 -0.0078891130755887051 -0.011693595810302635 0 -0.0076581664473619471 -0.0094400836685403829 0 -0.0051904638543235756 -0.010549595094130521 0 -0.0073846050090645614 -0.0080773420860388179 0 -0.0076581664473619471 -0.0094400836685403829 0 -0.0051904638543235756 -0.010549595094130521 0 -0.0020406525033049086 -0.0053295641347347418 0 -0.0022412350093527753 -0.0081351645295235694 0 -0.0073846050090645614 -0.0080773420860388179 0 -0.006148262936160648 -0.007620889158960557 0 -0.0051904638543235756 -0.010549595094130521 0 -0.0057780903826676203 -0.0097791811150509268 0 -0.0052682427301369763 -0.010221233977495156 0 -0.005107979063503792 -0.011610848082703056 0 -0.0073846050090645614 -0.0080773420860388179 0 -0.006148262936160648 -0.007620889158960557 0 -0.0070609678875671496 -0.0072039058862498982 0 -0.0057780903826676203 -0.0097791811150509268 0 -0.0055654330801507106 -0.009741442052605364 0 -0.0054738159667912789 -0.0098941065126883273 0 -0.0057780903826676203 -0.0097791811150509268 0 -0.0055654330801507106 -0.009741442052605364 0 -0.0054241827182604091 -0.0094484244795861351 0 -0.0055654330801507106 -0.009741442052605364 0 -0.0053109293306575003 -0.0097950021270324303 0 -0.0054241827182604091 -0.0094484244795861351 0 -0.0055654330801507106 -0.009741442052605364 0 -0.0053109293306575003 -0.0097950021270324303 0 -0.0054738159667912789 -0.0098941065126883273 0 -0.0057780903826676203 -0.0097791811150509268 0 -0.0054738159667912789 -0.0098941065126883273 0 -0.0052682427301369763 -0.010221233977495156 0 -0.0053109293306575003 -0.0097950021270324303 0 -0.0054738159667912789 -0.0098941065126883273 0 -0.0052682427301369763 -0.010221233977495156 0 -0.0050191524070819218 -0.0099507447257774443 0 -0.0050130576966430484 -0.009586716283876192 0 -0.0043995712139156869 -0.0096857267293951419 0 -0.0053109293306575003 -0.0097950021270324303 0 -0.0050191524070819218 -0.0099507447257774443 0 -0.0052682427301369763 -0.010221233977495156 0 -0.0053109293306575003 -0.0097950021270324303 0 -0.0050191524070819218 -0.0099507447257774443 0 -0.0050130576966430484 -0.009586716283876192 0 -0.0053109293306575003 -0.0097950021270324303 0 -0.0050130576966430484 -0.009586716283876192 0 -0.0054241827182604091 -0.0094484244795861351 0 -0.0043995712139156869 -0.0096857267293951419 0 -0.0046319122421315381 -0.010222560080211501 0 -0.0039788825939804998 -0.01022407876750644 0 -0.0050191524070819218 -0.0099507447257774443 0 -0.0043995712139156869 -0.0096857267293951419 0 -0.0046319122421315381 -0.010222560080211501 0 -0.0046319122421315381 -0.010222560080211501 0 -0.0044322169911117986 -0.011066647974104317 0 -0.0039788825939804998 -0.01022407876750644 0 -0.0050191524070819218 -0.0099507447257774443 0 -0.0046319122421315381 -0.010222560080211501 0 -0.0052682427301369763 -0.010221233977495156 0 -0.0046319122421315381 -0.010222560080211501 0 -0.0052682427301369763 -0.010221233977495156 0 -0.0044322169911117986 -0.011066647974104317 0 -0.0040259786038494621 -0.011991424032491059 0 -0.005107979063503792 -0.011610848082703056 0 -0.0044322169911117986 -0.011066647974104317 0 -0.0052682427301369763 -0.010221233977495156 0 -0.005107979063503792 -0.011610848082703056 0 -0.0044322169911117986 -0.011066647974104317 0 -0.0044322169911117986 -0.011066647974104317 0 -0.0036158250628590587 -0.010727244253793355 0 -0.0039788825939804998 -0.01022407876750644 0 -0.0044322169911117986 -0.011066647974104317 0 -0.0035777307244056335 -0.011371812301563229 0 -0.0036158250628590587 -0.010727244253793355 0 -0.0040259786038494621 -0.011991424032491059 0 -0.0044322169911117986 -0.011066647974104317 0 -0.0035777307244056335 -0.011371812301563229 0 -0.0035777307244056335 -0.011371812301563229 0 -0.0036158250628590587 -0.010727244253793355 0 -0.0027870193384169207 -0.011142956533912405 0 -0.0028198041302463974 -0.0092187509561562336 0 -0.0026239962280614668 -0.0088011363671749825 0 -0.0036158250628590587 -0.010727244253793355 0 -0.0034937605424652869 -0.0097749107865306387 0 -0.0027446369874866042 -0.0090886151972155108 0 -0.0036158250628590587 -0.010727244253793355 0 -0.0039788825939804998 -0.01022407876750644 0 -0.0034937605424652869 -0.0097749107865306387 0 -0.0043995712139156869 -0.0096857267293951419 0 -0.0039788825939804998 -0.01022407876750644 0 -0.0034937605424652869 -0.0097749107865306387 0 -0.0034937605424652869 -0.0097749107865306387 0 -0.0030428821187275662 -0.0085008837899615431 0 -0.0027446369874866042 -0.0090886151972155108 0 -0.0034937605424652869 -0.0097749107865306387 0 -0.0040137290130153646 -0.0089917458897298859 0 -0.0031335326333967392 -0.0082343904889321824 0 -0.0026229797781396188 -0.0076611337459505761 0 -0.0025011150653059693 -0.0072132040399468808 0 -0.0043995712139156869 -0.0096857267293951419 0 -0.0034937605424652869 -0.0097749107865306387 0 -0.0040137290130153646 -0.0089917458897298859 0 -0.0040137290130153646 -0.0089917458897298859 0 -0.0031335326333967392 -0.0082343904889321824 0 -0.0042288594034731904 -0.0082205584034570692 0 -0.0027860100099153708 -0.0067007682626346867 0 -0.0031335326333967392 -0.0082343904889321824 0 -0.0037464880156342409 -0.0073846347819808535 0 -0.0031335326333967392 -0.0082343904889321824 0 -0.0037464880156342409 -0.0073846347819808535 0 -0.0042288594034731904 -0.0082205584034570692 0 -0.0037464880156342409 -0.0073846347819808535 0 -0.0042288594034731904 -0.0082205584034570692 0 -0.0049623779628153401 -0.0074904209281793765 0 -0.0042288594034731904 -0.0082205584034570692 0 -0.0049623779628153401 -0.0074904209281793765 0 -0.0051476018374147312 -0.0084885754501369589 0 -0.0051476018374147312 -0.0084885754501369589 0 -0.0047934973475022759 -0.0090342233663623876 0 -0.0055544015579907669 -0.0090555314375528068 0 -0.0040137290130153646 -0.0089917458897298859 0 -0.0042288594034731904 -0.0082205584034570692 0 -0.0047934973475022759 -0.0090342233663623876 0 -0.0042288594034731904 -0.0082205584034570692 0 -0.0051476018374147312 -0.0084885754501369589 0 -0.0047934973475022759 -0.0090342233663623876 0 -0.0050130576966430484 -0.009586716283876192 0 -0.0043995712139156869 -0.0096857267293951419 0 -0.0047934973475022759 -0.0090342233663623876 0 -0.0043995712139156869 -0.0096857267293951419 0 -0.0040137290130153646 -0.0089917458897298859 0 -0.0047934973475022759 -0.0090342233663623876 0 -0.0050130576966430484 -0.009586716283876192 0 -0.0047934973475022759 -0.0090342233663623876 0 -0.0054241827182604091 -0.0094484244795861351 0 -0.0047934973475022759 -0.0090342233663623876 0 -0.0055544015579907669 -0.0090555314375528068 0 -0.0054241827182604091 -0.0094484244795861351 0 -0.0021017961648573868 -0.004623335887058576 0 -0.0020535584189188328 -0.0047589038179087027 0 -0.0020251857020750176 -0.0047330648744824825 0 -0.0020406525033049086 -0.0053295641347347418 0 -0.0019038357551319704 -0.0043023127680605925 0 -0.0057780903826676203 -0.0097791811150509268 0 -0.0055544015579907669 -0.0090555314375528068 0 -0.0061940506820817049 -0.0086386356238445615 0 -0.0057780903826676203 -0.0097791811150509268 0 -0.0055544015579907669 -0.0090555314375528068 0 -0.0054241827182604091 -0.0094484244795861351 0 -0.0020406525033049086 -0.0053295641347347418 0 -0.0020096291277051197 -0.0042902890371499646 0 -0.006148262936160648 -0.007620889158960557 0 -0.0070609678875671496 -0.0072039058862498982 0 -0.0071050873311969765 -0.0062171515032204182 0 -0.0019038357551319704 -0.0043023127680605925 0 -0.0020096291277051197 -0.0042902890371499646 0 -0.0051476018374147312 -0.0084885754501369589 0 -0.0055544015579907669 -0.0090555314375528068 0 -0.0061940506820817049 -0.0086386356238445615 0 0.002692273233857951 0.00084896246159609932 0 0.0024129543477189497 0.0018022367709002313 0 0.0022927376176614198 0.0011677553780237476 0 0.0017615173037353311 0.0012672477714467667 0 0.0024129543477189497 0.0018022367709002313 0 0.0022927376176614198 0.0011677553780237476 0 -0.0049623779628153401 -0.0074904209281793765 0 -0.0051476018374147312 -0.0084885754501369589 0 -0.0061940506820817049 -0.0086386356238445615 0 -0.001627025174343807 -0.0040276007481481434 0 -0.0019038357551319704 -0.0043023127680605925 0 0.002692273233857951 0.00084896246159609932 0 0.0024735819436631466 0.0014395198689098924 0 0.0027884132762473497 0.0011934010384372878 0 -0.0017918955353199988 -0.0032672629257853351 0 -0.0019038357551319704 -0.0043023127680605925 0 -0.002620237421606891 -0.0017517689032299428 0 -0.0020096291277051197 -0.0042902890371499646 0 0.0030702961134188959 0.00083122586136107751 0 0.0028650040450300292 0.00084250126521122001 0 0.0027884132762473497 0.0011934010384372878 0 -0.0032352285019308078 0.00079776639971212992 0 -0.002620237421606891 -0.0017517689032299428 0 -0.0091378487586502733 -0.0060198121790203882 0 -0.0080674074199532549 -0.0047956477052566943 0 -0.008040123165600108 -0.0058181708300190562 0 -0.0091378487586502733 -0.0060198121790203882 0 -0.008040123165600108 -0.0058181708300190562 0 -0.0077430026424319676 -0.0068000168442498565 0 -0.0091378487586502733 -0.0060198121790203882 0 -0.0085091802849900609 -0.0077984314016089924 0 -0.0077430026424319676 -0.0068000168442498565 0 -0.008040123165600108 -0.0058181708300190562 0 -0.0070933194221900458 -0.0062066236288705768 0 -0.0077430026424319676 -0.0068000168442498565 0 0.0024735819436631466 0.0014395198689098924 0 0.0027884132762473497 0.0011934010384372878 0 0.0025563952888689634 0.0015150117362393997 0 -0.0080674074199532549 -0.0047956477052566943 0 -0.008040123165600108 -0.0058181708300190562 0 -0.0070933194221900458 -0.0062066236288705768 0 -0.0070609678875671496 -0.0072039058862498982 0 -0.0071050873311969765 -0.0062171515032204182 0 -0.0077430026424319676 -0.0068000168442498565 0 -0.0020096291277051197 -0.0042902890371499646 0 -0.0021523271313828233 -0.0043989292310271317 0 -0.00088569449313221347 -0.010313357516490752 0 -0.00010861757602865619 -0.0097494570441743981 0 -0.0007209501091975355 -0.0091112961248465112 0 -0.0013273830412946798 -0.01057758027633751 0 -0.0017741751506762345 -0.012047207137730697 0 -0.00088569449313221347 -0.010313357516490752 0 -0.0017385081306074074 -0.01012204045579114 0 -0.0007209501091975355 -0.0091112961248465112 0 -0.00088569449313221347 -0.010313357516490752 0 -0.00010861757602865619 -0.0097494570441743981 0 -0.00049008420468033714 -0.011425747302705753 0 -0.0026641012156172509 -0.01143800986062553 0 -0.0016516374706763879 -0.011749323430781252 0 -0.0018653799915803581 -0.012620092559709636 0 -0.0026641012156172509 -0.01143800986062553 0 -0.0016516374706763879 -0.011749323430781252 0 -0.0014572772338582187 -0.010989460797981668 0 -0.00140105687510728 -0.013141689129552754 0 -0.0015016723588288765 -0.012427758667515708 0 -0.0024017728528763567 -0.012897868121546694 0 -0.0026641012156172509 -0.01143800986062553 0 -0.0018653799915803581 -0.012620092559709636 0 -0.0030881641466276796 -0.013255347459866895 0 -0.0017141013243181067 -0.012083374434706843 0 -0.0017741751506762345 -0.012047207137730697 0 -0.00088569449313221347 -0.010313357516490752 0 -0.00049008420468033714 -0.011425747302705753 0 -0.0014411685319316578 -0.011091839045864044 0 -0.0016677716309237798 -0.012063797998929345 0 -0.00049008420468033714 -0.011425747302705753 0 -0.0014411685319316578 -0.011091839045864044 0 -0.0014411685319316578 -0.011091839045864044 0 -0.0027870193384169207 -0.011142956533912405 0 -0.0017385081306074074 -0.01012204045579114 0 -0.0016677716309237798 -0.012063797998929345 0 -0.0014411685319316578 -0.011091839045864044 0 -0.0027870193384169207 -0.011142956533912405 0 -0.0036158250628590587 -0.010727244253793355 0 -0.0027870193384169207 -0.011142956533912405 0 -0.0026225920372453982 -0.010064976483896655 0 -0.0030358820773539641 -0.011937911044335945 0 -0.0035777307244056335 -0.011371812301563229 0 -0.0027870193384169207 -0.011142956533912405 0 -0.0017262266660589443 -0.009991187106873042 0 -0.0015093329057257131 -0.0097675483558313184 0 -0.0036158250628590587 -0.010727244253793355 0 -0.0026225920372453982 -0.010064976483896655 0 -0.0028407782477578754 -0.0091008295526829007 0 -0.0027870193384169207 -0.011142956533912405 0 -0.0026225920372453982 -0.010064976483896655 0 -0.0017763344392610553 -0.01004640293151479 0 -0.00088569449313221347 -0.010313357516490752 0 -0.0014411685319316578 -0.011091839045864044 0 -0.0017385081306074074 -0.01012204045579114 0 -0.0026225920372453982 -0.010064976483896655 0 -0.0017763344392610553 -0.01004640293151479 0 -0.002113702498870074 -0.0093485921124324932 0 -0.0015093329057257131 -0.0097675483558313184 0 -0.0011157125281647659 -0.0093577589971036313 0 -0.002113702498870074 -0.0093485921124324932 0 -0.0018422345572136364 -0.0086554472440012048 0 -0.00088858249647670541 -0.0090247868690930232 0 -0.0017763344392610553 -0.01004640293151479 0 -0.002113702498870074 -0.0093485921124324932 0 -0.00088858249647670541 -0.0090247868690930232 0 -0.002113702498870074 -0.0093485921124324932 0 -0.0028407782477578754 -0.0091008295526829007 0 -0.0018422345572136364 -0.0086554472440012048 0 -0.0026225920372453982 -0.010064976483896655 0 -0.002113702498870074 -0.0093485921124324932 0 -0.0028407782477578754 -0.0091008295526829007 0 -0.0020504279235549721 -0.0076988848269823884 0 -0.0026972110559462755 -0.0073835145524627282 0 -0.0030428821187275662 -0.0085008837899615431 0 -0.002291041119179116 -0.0080937300200877894 0 -0.0026239962280614668 -0.0088011363671749825 0 -0.0020967770603165432 -0.0076792351159281572 0 -0.0028407782477578754 -0.0091008295526829007 0 -0.0018422345572136364 -0.0086554472440012048 0 -0.0020504279235549721 -0.0076988848269823884 0 -0.0030428821187275662 -0.0085008837899615431 0 -0.0027446369874866042 -0.0090886151972155108 0 -0.0021951870839317217 -0.0061194437742033043 0 -0.0025011150653059693 -0.0072132040399468808 0 -0.0020967770603165432 -0.0076792351159281572 0 -0.0018422345572136364 -0.0086554472440012048 0 -0.0016449162240421539 -0.0080001125121555265 0 -0.0018422345572136364 -0.0086554472440012048 0 -0.0011227227138561184 -0.0081709745340414301 0 -0.00088858249647670541 -0.0090247868690930232 0 -0.0018422345572136364 -0.0086554472440012048 0 -0.0016449162240421539 -0.0080001125121555265 0 -0.0011227227138561184 -0.0081709745340414301 0 -0.0014261851552616895 -0.0076395918911273293 0 -0.0016449162240421539 -0.0080001125121555265 0 -0.0011227227138561184 -0.0081709745340414301 0 -0.0011157125281647659 -0.0093577589971036313 0 -0.00086558751934362617 -0.0090900265572944044 0 -0.0011227227138561184 -0.0081709745340414301 0 -0.00088858249647670541 -0.0090247868690930232 0 -0.00011330761915872177 -0.0080901109506862287 0 -0.00096701721777966044 -0.0073944398755485625 0 -0.0011227227138561184 -0.0081709745340414301 0 -0.00011330761915872177 -0.0080901109506862287 0 -0.00010861757602865619 -0.0097494570441743981 0 -0.0007209501091975355 -0.0091112961248465112 0 0.00027428518816042597 -0.0081057814213990644 0 -0.0026641012156172509 -0.01143800986062553 0 -0.0022720022506995145 -0.0096004188891054658 0 -0.0014572772338582187 -0.010989460797981668 0 -0.0013273830412946798 -0.01057758027633751 0 -0.00086558751934362617 -0.0090900265572944044 0 -0.0022720022506995145 -0.0096004188891054658 0 -0.0006530284945409266 -0.010225537978681698 0 -0.00032913306770676002 -0.0091725347091503925 0 -0.0006530284945409266 -0.010225537978681698 0 -0.00032913306770676002 -0.0091725347091503925 0 0.00062201668749997945 -0.010156056985620112 0 0.0010515562897236463 -0.0087731667766712124 0 -0.00032913306770676002 -0.0091725347091503925 0 0.00062201668749997945 -0.010156056985620112 0 -0.0006530284945409266 -0.010225537978681698 0 -0.00010275711628548243 -0.0111692036428119 0 0.00062201668749997945 -0.010156056985620112 0 -0.0022720022506995145 -0.0096004188891054658 0 -0.0006530284945409266 -0.010225537978681698 0 -0.0014572772338582187 -0.010989460797981668 0 -0.0006530284945409266 -0.010225537978681698 0 -0.00010275711628548243 -0.0111692036428119 0 -0.0014572772338582187 -0.010989460797981668 0 -0.0017141013243181067 -0.012083374434706843 0 -0.0016073587416317848 -0.012049437304820923 0 -0.00010275711628548243 -0.0111692036428119 0 -0.0014572772338582187 -0.010989460797981668 0 -0.00061253329380881675 -0.011956530646723177 0 -0.0016516374706763879 -0.011749323430781252 0 -0.0018653799915803581 -0.012620092559709636 0 -0.00061253329380881675 -0.011956530646723177 0 -0.0016516374706763879 -0.011749323430781252 0 -0.0014572772338582187 -0.010989460797981668 0 -0.00061253329380881675 -0.011956530646723177 0 -0.00010275711628548243 -0.0111692036428119 0 -0.00061253329380881675 -0.011956530646723177 0 0.00024870186467561961 -0.012090612794657238 0 -0.00061253329380881675 -0.011956530646723177 0 0.00024870186467561961 -0.012090612794657238 0 -0.0002384313065440093 -0.012852258141625605 0 0.00024870186467561961 -0.012090612794657238 0 -0.0002384313065440093 -0.012852258141625605 0 0.00075561793505003511 -0.01281552426852962 0 -0.00140105687510728 -0.013141689129552754 0 -0.0002384313065440093 -0.012852258141625605 0 -0.0009154435682495216 -0.012583563421933727 0 -0.0015016723588288765 -0.012427758667515708 0 -0.00061253329380881675 -0.011956530646723177 0 -0.0009154435682495216 -0.012583563421933727 0 -0.00061253329380881675 -0.011956530646723177 0 -0.0002384313065440093 -0.012852258141625605 0 -0.0009154435682495216 -0.012583563421933727 0 -0.0016110988418737359 -0.01259139256126964 0 -0.0014095959731980354 -0.012578619787929093 0 -0.00140105687510728 -0.013141689129552754 0 -0.0015016723588288765 -0.012427758667515708 0 -0.0009154435682495216 -0.012583563421933727 0 0.0016310177183092456 -0.012612974605872632 0 0.00075561793505003511 -0.01281552426852962 0 0.0013129142349992975 -0.013387676782515142 0 0.0016310177183092456 -0.012612974605872632 0 0.00075561793505003511 -0.01281552426852962 0 0.0011882489613267832 -0.011442756279919773 0 0.00024870186467561961 -0.012090612794657238 0 0.00075561793505003511 -0.01281552426852962 0 0.0011882489613267832 -0.011442756279919773 0 -0.00010275711628548243 -0.0111692036428119 0 0.00024870186467561961 -0.012090612794657238 0 0.0011882489613267832 -0.011442756279919773 0 0.0016310177183092456 -0.012612974605872632 0 0.0011882489613267832 -0.011442756279919773 0 0.0019675911741753073 -0.011917468795403582 0 0.0026340605309381126 -0.011141823121786215 0 0.0028941108455004536 -0.01094687365394803 0 0.0011882489613267832 -0.011442756279919773 0 0.0019412439282011187 -0.011126269195677512 0 0.0019675911741753073 -0.011917468795403582 0 0.0011882489613267832 -0.011442756279919773 0 0.00062201668749997945 -0.010156056985620112 0 0.0024896436878724779 -0.009863977111757613 0 -0.00010275711628548243 -0.0111692036428119 0 0.0011882489613267832 -0.011442756279919773 0 0.00062201668749997945 -0.010156056985620112 0 0.0010515562897236463 -0.0087731667766712124 0 0.00062201668749997945 -0.010156056985620112 0 0.0024896436878724779 -0.009863977111757613 0 0.0034014467415555199 -0.010671921745456288 0 0.0028941108455004536 -0.01094687365394803 0 0.0025036058700022841 -0.010838421418516944 0 0.0019412439282011187 -0.011126269195677512 0 0.0027855517469068526 -0.011276258210781478 0 0.0027855517469068526 -0.011276258210781478 0 0.0024715998207878115 -0.011649869922389694 0 0.0031205073937112604 -0.011842325560902782 0 0.0019412439282011187 -0.011126269195677512 0 0.0024715998207878115 -0.011649869922389694 0 0.0019675911741753073 -0.011917468795403582 0 0.0019412439282011187 -0.011126269195677512 0 0.0027855517469068526 -0.011276258210781478 0 0.0024715998207878115 -0.011649869922389694 0 0.0033905618887792072 -0.011133829266361216 0 0.0032717133912330255 -0.011506441612248335 0 0.003556994015330868 -0.01149620241551824 0 0.0029960162476199361 -0.010954122235816684 0 0.0027855517469068526 -0.011276258210781478 0 0.0031141272972985226 -0.011213081120167502 0 0.0033905618887792072 -0.011133829266361216 0 0.0031141272972985226 -0.011213081120167502 0 0.0032717133912330255 -0.011506441612248335 0 0.0027855517469068526 -0.011276258210781478 0 0.0031141272972985226 -0.011213081120167502 0 0.0032717133912330255 -0.011506441612248335 0 0.0027855517469068526 -0.011276258210781478 0 0.0032717133912330255 -0.011506441612248335 0 0.0031205073937112604 -0.011842325560902782 0 0.0032717133912330255 -0.011506441612248335 0 0.0033423924406753773 -0.011798438833716117 0 0.0031205073937112604 -0.011842325560902782 0 0.0032717133912330255 -0.011506441612248335 0 0.0034410700152058479 -0.01167942765419462 0 0.003556994015330868 -0.01149620241551824 0 0.0033423924406753773 -0.011798438833716117 0 0.0034410700152058479 -0.01167942765419462 0 0.0034400436704992497 -0.01190310983812571 0 0.0032717133912330255 -0.011506441612248335 0 0.0033423924406753773 -0.011798438833716117 0 0.0034410700152058479 -0.01167942765419462 0 0.0036285784201775645 -0.011720463307295759 0 0.0034410700152058479 -0.01167942765419462 0 0.0034400436704992497 -0.01190310983812571 0 0.0036285784201775645 -0.011720463307295759 0 0.0034410700152058479 -0.01167942765419462 0 0.003556994015330868 -0.01149620241551824 0 0.0037428264850356456 -0.012117062504382235 0 0.0034211456353462999 -0.012109935812545256 0 0.0035409405003651588 -0.011954115065689278 0 0.0023153870836739865 -0.016287556911858264 0 0.0023697597613297388 -0.01620659786460828 0 0.0034334801625293537 -0.012022925839948672 0 0.0035409405003651588 -0.011954115065689278 0 0.0034400436704992497 -0.01190310983812571 0 0.0033423924406753773 -0.011798438833716117 0 0.0034334801625293537 -0.012022925839948672 0 0.0034400436704992497 -0.01190310983812571 0 0.0031205073937112604 -0.011842325560902782 0 0.0033347376803936958 -0.012412305135838216 0 0.0029240359588696254 -0.012552955933616664 0 0.0023153870836739865 -0.016287556911858264 0 0.0022547299769701142 -0.015987830062194692 0 0.0033423924406753773 -0.011798438833716117 0 0.0034334801625293537 -0.012022925839948672 0 0.0031205073937112604 -0.011842325560902782 0 0.0039569411272797009 -0.012196137446363909 0 0.0031205073937112604 -0.011842325560902782 0 0.0033347376803936958 -0.012412305135838216 0 0.0023153870836739865 -0.016287556911858264 0 0.0024737411634703495 -0.016139338737014206 0 0.0039569411272797009 -0.012196137446363909 0 0.0033347376803936958 -0.012412305135838216 0 0.0033333034369418357 -0.013009115407023658 0 0.0033347376803936958 -0.012412305135838216 0 0.0029240359588696254 -0.012552955933616664 0 0.0033333034369418357 -0.013009115407023658 0 0.0025598548759404142 -0.017684434240668512 0 0.0026298824580272169 -0.017835677166867167 0 0.0025343389194793287 -0.017889847024432876 0 0.0025598548759404142 -0.017684434240668512 0 0.0025343389194793287 -0.017889847024432876 0 0.002385234119400192 -0.017881635088127023 0 0.0026298824580272169 -0.017835677166867167 0 0.0026323320739994787 -0.017918377857522056 0 0.0025343389194793287 -0.017889847024432876 0 0.0019675911741753073 -0.011917468795403582 0 0.0025377910991027865 -0.012157872990272356 0 0.0023239511815341205 -0.012699765808081399 0 0.0024715998207878115 -0.011649869922389694 0 0.0019675911741753073 -0.011917468795403582 0 0.0025377910991027865 -0.012157872990272356 0 0.0024715998207878115 -0.011649869922389694 0 0.0031205073937112604 -0.011842325560902782 0 0.0025377910991027865 -0.012157872990272356 0 0.0031205073937112604 -0.011842325560902782 0 0.0025377910991027865 -0.012157872990272356 0 0.0029240359588696254 -0.012552955933616664 0 0.0029240359588696254 -0.012552955933616664 0 0.0023239511815341205 -0.012699765808081399 0 0.0027756489710019827 -0.013206492063427952 0 0.0025377910991027865 -0.012157872990272356 0 0.0029240359588696254 -0.012552955933616664 0 0.0023239511815341205 -0.012699765808081399 0 0.0029240359588696254 -0.012552955933616664 0 0.0027756489710019827 -0.013206492063427952 0 0.0033333034369418357 -0.013009115407023658 0 0.0016310177183092456 -0.012612974605872632 0 0.0023239511815341205 -0.012699765808081399 0 0.0019817011359184932 -0.013179354835416034 0 0.0016310177183092456 -0.012612974605872632 0 0.0019675911741753073 -0.011917468795403582 0 0.0023239511815341205 -0.012699765808081399 0 0.0023239511815341205 -0.012699765808081399 0 0.0019817011359184932 -0.013179354835416034 0 0.0027756489710019827 -0.013206492063427952 0 0.0019817011359184932 -0.013179354835416034 0 0.0027756489710019827 -0.013206492063427952 0 0.0018635390470591736 -0.014100339645432175 0 0.0019354219747726787 -0.014098355643944195 0 0.0016658811486348888 -0.014356966344724616 0 0.0027756489710019827 -0.013206492063427952 0 0.0028830587383502342 -0.013891104613004182 0 0.0033333034369418357 -0.013009115407023658 0 0.0022539960542666236 -0.016476374777516959 0 0.0024737411634703495 -0.016139338737014206 0 0.0021984186565628108 -0.018078009950260487 0 0.002385234119400192 -0.017881635088127023 0 0.0023557210814111502 -0.01805282861746892 0 0.0021984186565628108 -0.018078009950260487 0 0.0023063097822931416 -0.018177166130157206 0 0.0021928407271595927 -0.018248011621232213 0 0.0021984186565628108 -0.018078009950260487 0 0.0023063097822931416 -0.018177166130157206 0 0.0023557210814111502 -0.01805282861746892 0 0.0027756489710019827 -0.013206492063427952 0 0.0028830587383502342 -0.013891104613004182 0 0.0022655964640811836 -0.014008033443091436 0 0.0028830587383502342 -0.013891104613004182 0 0.0022655964640811836 -0.014008033443091436 0 0.0024446395481553169 -0.015027541831449805 0 0.0025946740041857519 -0.017993066218398926 0 0.0026323320739994787 -0.017918377857522056 0 0.0025343389194793287 -0.017889847024432876 0 0.0025946740041857519 -0.017993066218398926 0 0.0024649234284924463 -0.01800586944721488 0 0.0025522626256891398 -0.018091069664680565 0 0.0025946740041857519 -0.017993066218398926 0 0.0025343389194793287 -0.017889847024432876 0 0.0024649234284924463 -0.01800586944721488 0 0.0024649234284924463 -0.01800586944721488 0 0.002385234119400192 -0.017881635088127023 0 0.0023557210814111502 -0.01805282861746892 0 0.0025343389194793287 -0.017889847024432876 0 0.0024649234284924463 -0.01800586944721488 0 0.002385234119400192 -0.017881635088127023 0 0.0023063097822931416 -0.018177166130157206 0 0.0024229991073089529 -0.018124423478331316 0 0.002407065854292859 -0.018239908380996626 0 0.0023063097822931416 -0.018177166130157206 0 0.0023557210814111502 -0.01805282861746892 0 0.0024229991073089529 -0.018124423478331316 0 0.0024649234284924463 -0.01800586944721488 0 0.0024229991073089529 -0.018124423478331316 0 0.0025522626256891398 -0.018091069664680565 0 0.0024649234284924463 -0.01800586944721488 0 0.0023557210814111502 -0.01805282861746892 0 0.0024229991073089529 -0.018124423478331316 0 0.0024229991073089529 -0.018124423478331316 0 0.0025522626256891398 -0.018091069664680565 0 0.0025246984017624225 -0.018223843522219351 0 0.0026513418441875274 -0.018154003693446916 0 0.0025522626256891398 -0.018091069664680565 0 0.0025246984017624225 -0.018223843522219351 0 0.0026454073656131567 -0.018056922523669885 0 0.0025946740041857519 -0.017993066218398926 0 0.0025522626256891398 -0.018091069664680565 0 0.0026513418441875274 -0.018154003693446916 0 0.0026454073656131567 -0.018056922523669885 0 0.0025522626256891398 -0.018091069664680565 0 0.002646630125648107 -0.018326491564483509 0 0.0026513418441875274 -0.018154003693446916 0 0.0025246984017624225 -0.018223843522219351 0 0.002646630125648107 -0.018326491564483509 0 0.0025246984017624225 -0.018223843522219351 0 0.0024597991329468314 -0.018358680129753838 0 0.0025246984017624225 -0.018223843522219351 0 0.002407065854292859 -0.018239908380996626 0 0.0024597991329468314 -0.018358680129753838 0 0.0024229991073089529 -0.018124423478331316 0 0.0025246984017624225 -0.018223843522219351 0 0.002407065854292859 -0.018239908380996626 0 0.0023063097822931416 -0.018177166130157206 0 0.002407065854292859 -0.018239908380996626 0 0.0023205705967702349 -0.018320135560154341 0 0.002407065854292859 -0.018239908380996626 0 0.0024597991329468314 -0.018358680129753838 0 0.0023205705967702349 -0.018320135560154341 0 0.0024891865700909029 -0.01858189853118862 0 0.0023589225050944557 -0.018478808162782932 0 0.0024597991329468314 -0.018358680129753838 0 0.0023589225050944557 -0.018478808162782932 0 0.0024597991329468314 -0.018358680129753838 0 0.0023205705967702349 -0.018320135560154341 0 0.0026182157533343443 -0.024533447061616923 0 0.0023545290785470302 -0.025720774468937634 0 0.002646630125648107 -0.018326491564483509 0 0.0024891865700909029 -0.01858189853118862 0 0.0024597991329468314 -0.018358680129753838 0 0.0020386642394158638 -0.031984504205189328 0 0.00172970321352884 -0.031245013439107308 0 0.0007323422693336748 -0.032827309480551278 0 0.0022539960542666236 -0.016476374777516959 0 0.0018225125495428742 -0.017087380482747768 0 0.0021984186565628108 -0.018078009950260487 0 0.0019955134649481438 -0.018273452216497146 0 0.0021928407271595927 -0.018248011621232213 0 0.0019955134649481438 -0.018273452216497146 0 0.0021928407271595927 -0.018248011621232213 0 0.002152266599946254 -0.018396937069782158 0 0.0023063097822931416 -0.018177166130157206 0 0.0021928407271595927 -0.018248011621232213 0 0.0023205705967702349 -0.018320135560154341 0 0.0021928407271595927 -0.018248011621232213 0 0.0023205705967702349 -0.018320135560154341 0 0.002152266599946254 -0.018396937069782158 0 0.002210180347766827 -0.018612746382658314 0 0.0023589225050944557 -0.018478808162782932 0 0.002152266599946254 -0.018396937069782158 0 0.0023589225050944557 -0.018478808162782932 0 0.0023205705967702349 -0.018320135560154341 0 0.002152266599946254 -0.018396937069782158 0 0.0019955134649481438 -0.018273452216497146 0 0.002152266599946254 -0.018396937069782158 0 0.0019656149115610355 -0.0184026349996925 0 0.0020628169270040905 -0.018524206946280316 0 0.002210180347766827 -0.018612746382658314 0 0.002152266599946254 -0.018396937069782158 0 0.0020628169270040905 -0.018524206946280316 0 0.002152266599946254 -0.018396937069782158 0 0.0019656149115610355 -0.0184026349996925 0 0.0020628169270040905 -0.018524206946280316 0 0.0018848395234085276 -0.018508160858047722 0 0.0019656149115610355 -0.0184026349996925 0 0.0012395324324586965 -0.017869135532863633 0 0.0018225125495428742 -0.017087380482747768 0 0.0016833773421466077 -0.0183507914512115 0 0.0018848395234085276 -0.018508160858047722 0 0.0019656149115610355 -0.0184026349996925 0 0.0016833773421466077 -0.0183507914512115 0 0.0019955134649481438 -0.018273452216497146 0 0.0019656149115610355 -0.0184026349996925 0 0.0015910374000738564 -0.016964566560021519 0 0.0024446395481553169 -0.015027541831449805 0 0.0012456501284028043 -0.015960547345760391 0 0.0024446395481553169 -0.015027541831449805 0 0.0012344462946432182 -0.014990735391532365 0 0.0012456501284028043 -0.015960547345760391 0 0.0016658811486348888 -0.014356966344724616 0 0.0011064933408209555 -0.014881180073281425 0 0.0022655964640811836 -0.014008033443091436 0 0.0024446395481553169 -0.015027541831449805 0 0.0012344462946432182 -0.014990735391532365 0 0.00096703266700824144 -0.014982663145667277 0 -0.00049744717504643572 -0.01594691801473384 0 -0.00013971764525132652 -0.014887029636409376 0 0.00096703266700824144 -0.014982663145667277 0 -0.00013971764525132652 -0.014887029636409376 0 0.00027514186980592771 -0.014242461126460519 0 0.00096703266700824144 -0.014982663145667277 0 -0.00049744717504643572 -0.01594691801473384 0 -0.00090135819665958423 -0.016517163163477715 0 0.0011064933408209555 -0.014881180073281425 0 0.00072473429344982563 -0.015230778372672652 0 0.0012344462946432182 -0.014990735391532365 0 0.0012456501284028043 -0.015960547345760391 0 0.0004539192320166876 -0.016561529419301658 0 0.0012344462946432182 -0.014990735391532365 0 0.0004539192320166876 -0.016561529419301658 0 -0.00090135819665958423 -0.016517163163477715 0 0.0012456501284028043 -0.015960547345760391 0 0.001002087917438142 -0.016754631123334873 0 0.0004539192320166876 -0.016561529419301658 0 0.0015910374000738564 -0.016964566560021519 0 0.0012456501284028043 -0.015960547345760391 0 0.001002087917438142 -0.016754631123334873 0 0.00055163395956496389 -0.017604753879766871 0 0.001002087917438142 -0.016754631123334873 0 0.0004539192320166876 -0.016561529419301658 0 -0.00030299550991828275 -0.017298539638865747 0 0.000181465834017516 -0.017377312619845427 0 0.0004539192320166876 -0.016561529419301658 0 -0.00049744717504643572 -0.01594691801473384 0 -0.00090135819665958423 -0.016517163163477715 0 -0.0030103694844266795 -0.016921017252053156 0 -0.00030299550991828275 -0.017298539638865747 0 0.0004539192320166876 -0.016561529419301658 0 -0.00090135819665958423 -0.016517163163477715 0 -0.0011640673386829612 -0.017544329214375383 0 -0.00090135819665958423 -0.016517163163477715 0 -0.0030103694844266795 -0.016921017252053156 0 -0.0026028882540165797 -0.0057382676109040713 0 -0.0028766707845348334 -0.0048112146893900566 0 -0.00049744717504643572 -0.01594691801473384 0 -0.0013479889149201967 -0.015456032446906302 0 -0.0009172972209771157 -0.015141278546612876 0 -0.00049744717504643572 -0.01594691801473384 0 -0.0048608262354116662 -0.015764993641777605 0 -0.0030103694844266795 -0.016921017252053156 0 -0.004548388943456657 -0.017791331876645815 0 -0.0048608262354116662 -0.015764993641777605 0 -0.0030103694844266795 -0.016921017252053156 0 -0.0009172972209771157 -0.015141278546612876 0 -0.0011685974671704843 -0.014570391557555316 0 -0.00058922569275500318 -0.014269106122697538 0 -0.0013911515218106194 -0.014891210376801217 0 -0.0013479889149201967 -0.015456032446906302 0 -0.0009172972209771157 -0.015141278546612876 0 -0.0013911515218106194 -0.014891210376801217 0 -0.0009172972209771157 -0.015141278546612876 0 -0.0011685974671704843 -0.014570391557555316 0 -0.00049744717504643572 -0.01594691801473384 0 -0.0009172972209771157 -0.015141278546612876 0 -0.00013971764525132652 -0.014887029636409376 0 -0.0009172972209771157 -0.015141278546612876 0 -0.00013971764525132652 -0.014887029636409376 0 -0.00058922569275500318 -0.014269106122697538 0 -0.00058922569275500318 -0.014269106122697538 0 -0.0010253448938430489 -0.013767101290982447 0 -0.00016499019530738919 -0.013580513231876546 0 -0.00013971764525132652 -0.014887029636409376 0 -0.00058922569275500318 -0.014269106122697538 0 0.00027514186980592771 -0.014242461126460519 0 -0.00058922569275500318 -0.014269106122697538 0 -0.00016499019530738919 -0.013580513231876546 0 0.00027514186980592771 -0.014242461126460519 0 -0.0015251003888314759 -0.014146608884542335 0 -0.0011685974671704843 -0.014570391557555316 0 -0.0010834326680801815 -0.014187013603257982 0 -0.0011685974671704843 -0.014570391557555316 0 -0.00058922569275500318 -0.014269106122697538 0 -0.0010834326680801815 -0.014187013603257982 0 -0.00058922569275500318 -0.014269106122697538 0 -0.0010834326680801815 -0.014187013603257982 0 -0.0010253448938430489 -0.013767101290982447 0 -0.0015251003888314759 -0.014146608884542335 0 -0.0010834326680801815 -0.014187013603257982 0 -0.0010253448938430489 -0.013767101290982447 0 -0.0013725960535056051 -0.013177437374295059 0 -0.0002384313065440093 -0.012852258141625605 0 -0.0010253448938430489 -0.013767101290982447 0 -0.0002384313065440093 -0.012852258141625605 0 -0.0010253448938430489 -0.013767101290982447 0 -0.00016499019530738919 -0.013580513231876546 0 -0.0002384313065440093 -0.012852258141625605 0 0.00075561793505003511 -0.01281552426852962 0 -0.00016499019530738919 -0.013580513231876546 0 0.00075561793505003511 -0.01281552426852962 0 0.00061499145946936529 -0.01361385122437221 0 0.0013129142349992975 -0.013387676782515142 0 0.00075561793505003511 -0.01281552426852962 0 -0.00016499019530738919 -0.013580513231876546 0 0.00061499145946936529 -0.01361385122437221 0 0.00061499145946936529 -0.01361385122437221 0 0.0013129142349992975 -0.013387676782515142 0 0.0010147398180555837 -0.014035108140621318 0 0.0019817011359184932 -0.013179354835416034 0 0.0018635390470591736 -0.014100339645432175 0 0.0013129142349992975 -0.013387676782515142 0 0.0016310177183092456 -0.012612974605872632 0 0.0019817011359184932 -0.013179354835416034 0 0.0013129142349992975 -0.013387676782515142 0 0.0018635390470591736 -0.014100339645432175 0 0.00096703266700824144 -0.014982663145667277 0 0.0010147398180555837 -0.014035108140621318 0 0.0018635390470591736 -0.014100339645432175 0 0.0013129142349992975 -0.013387676782515142 0 0.0010147398180555837 -0.014035108140621318 0 0.00096703266700824144 -0.014982663145667277 0 0.00027514186980592771 -0.014242461126460519 0 0.0010147398180555837 -0.014035108140621318 0 0.00061499145946936529 -0.01361385122437221 0 0.00027514186980592771 -0.014242461126460519 0 0.0010147398180555837 -0.014035108140621318 0 -0.00016499019530738919 -0.013580513231876546 0 0.00061499145946936529 -0.01361385122437221 0 0.00027514186980592771 -0.014242461126460519 0 
</DataArray>
</PointData>
<CellData Scalars="region_id,cross_section_updated," Vectors="" Tensors="stress,">
<DataArray type="Float64" Name="region_id" format="ascii">
5 5 5 5 5 6 5 5 5 5 5 5 5 6 5 5 5 5 6 5 5 6 5 5 5 5 6 5 5 5 5 6 5 5 5 5 5 5 5 5 5 5 5 5 5 6 5 5 6 5 5 5 5 5 6 5 5 5 5 5 5 5 6 5 5 5 5 6 5 5 5 5 5 5 5 5 5 6 5 5 6 5 5 6 5 5 5 5 6 5 5 5 5 5 5 5 6 6 6 5 5 6 5 5 5 5 5 6 5 5 5 5 5 5 5 5 5 5 5 5 5 6 5 5 5 6 5 5 5 5 5 5 6 5 5 5 5 5 5 5 5 5 5 5 5 5 5 5 5 5 5 5 5 5 5 5 5 5 6 5 5 5 6 5 5 6 5 5 5 5 5 5 5 5 5 5 5 6 5 5 5 5 5 5 5 5 6 5 5 5 5 5 5 5 5 6 5 5 5 5 5 5 5 5 5 6 5 5 5 5 5 5 5 5 5 5 5 5 5 5 5 5 5 5 5 5 5 5 5 6 5 5 5 6 5 6 5 6 5 5 6 5 5 5 6 5 6 5 6 5 6 6 5 6 5 5 6 5 6 5 5 5 6 5 6 6 5 5 6 5 5 5 6 5 6 6 6 5 6 5 5 5 6 5 6 6 6 5 5 6 6 5 5 5 5 6 5 6 5 5 6 5 5 5 6 5 6 6 6 5 5 5 6 5 6 6 6 6 5 5 5 6 6 5 5 6 6 6 5 6 5 5 5 5 6 5 5 5 5 5 5 5 6 5 5 5 5 5 5 6 6 5 5 5 6 5 5 5 6 5 6 5 6 6 5 5 5 5 6 5 5 6 5 5 5 5 6 5 6 5 5 5 5 5 6 6 5 5 5 5 5 5 5 5 6 5 5 5 6 5 5 6 5 6 5 5 5 5 5 5 5 5 5 5 5 6 5 6 5 6 5 5 5 6 5 6 5 6 5 5 5 5 5 5 6 5 6 5 5 5 6 5 5 5 6 5 6 6 5 5 5 5 6 5 5 5 5 6 6 5 5 6 5 6 5 6 6 5 5 5 6 5 5 5 5 6 5 5 5 5 5 5 5 5 5 5 5 6 5 5 5 5 6 5 5 5 6 5 6 6 6 5 5 5 6 6 5 6 5 5 6 5 5 5 5 6 5 5 5 5 5 5 5 5 5 5 5 6 6 5 5 6 5 5 5 6 5 5 5 5 5 5 6 5 5 5 6 5 5 5 6 5 5 5 5 5 5 5 5 5 5 5 6 5 5 5 6 5 5 5 5 5 5 5 6 5 5 5 5 5 6 5 5 5 5 5 5 5 5 5 5 5 5 5 5 5 5 5 5 5 6 5 5 5 5 6 5 5 6 5 5 5 5 5 5 5 6 5 5 5 5 5 5 5 5 6 5 6 5 5 6 5 5 5 6 5 5 6 5 5 5 6 5 6 5 5 6 5 6 5 5 5 5 5 5 5 5 5 5 5 5 5 5 5 5 5 5 5 5 5 5 6 5 6 5 6 5 5 5 5 5 5 5 5 5 5 5 5 5 5 5 6 5 5 5 5 5 5 5 5 5 6 5 5 5 5 5 5 5 5 5 5 5 5 5 5 5 5 5 5 5 5 5 5 5 5 5 5 5 5 5 6 5 5 6 5 5 5 6 6 5 6 5 5 5 5 5 6 5 5 5 5 5 6 5 5 5 5 5 5 5 5 5 5 5 5 5 5 5 5 5 5 5 5 5 5 5 5 5 5 5 5 5 5 5 5 5 5 5 5 5 5 5 5 5 5 5 5 5 5 5 5 5 6 5 5 5 5 5 5 5 5 5 5 5 5 5 5 5 6 5 5 5 5 6 5 5 5 5 5 5 5 5 5 5 5 5 5 5 5 5 5 5 5 5 5 5 5 5 5 5 5 6 5 5 6 5 6 6 6 6 5 5 6 5 5 5 5 5 5 5 5 5 5 5 5 5 5 5 5 5 6 5 5 6 5 6 5 5 5 5 6 5 6 5 5 5 5 6 5 5 5 6 5 5 5 5 5 6 5 6 5 5 6 6 5 6 5 5 5 5 5 5 5 5 5 5 5 6 5 5 5 6 5 5 5 6 5 5 6 6 6 5 5 5 5 5 5 5 5 5 5 5 6 5 5 5 5 5 5 5 5 6 6 6 5 5 5 5 5 5 5 5 6 6 5 5 5 6 5 5 6 5 5 5 5 5 5 5 5 5 5 5 6 5 5 5 5 5 5 5 5 6 5 5 5 5 5 5 5 5 5 5 6 5 6 6 6 5 5 5 5 5 5 5 6 6 5 6 5 5 5 5 5 6 5 6 6 5 5 5 6 5 6 5 5 5 5 6 5 5 5 5 5 5 5 5 5 5 5 5 5 5 5 5 5 6 5 5 5 6 5 5 5 5 5 6 5 5 5 5 5 5 6 5 6 5 5 5 5 5 5 5 5 6 5 5 5 6 5 5 5 5 5 5 5 5 5 5 5 5 5 5 5 5 5 5 5 5 5 5 5 5 5 6 6 6 5 5 5 5 6 5 5 5 5 6 5 5 5 5 5 5 5 6 5 5 5 5 5 5 5 5 6 5 5 5 5 5 5 5 5 5 5 5 5 6 5 5 5 5 5 5 6 5 5 5 5 5 5 5 5 6 5 5 5 6 5 5 5 5 5 5 5 5 5 5 5 5 6 5 5 5 5 5 5 5 5 5 5 5 5 5 5 5 5 5 5 5 5 5 5 5 5 5 5 5 5 5 5 5 5 5 5 5 5 5 5 5 5 5 5 5 5 5 5 5 6 5 5 5 5 5 5 5 5 5 5 5 5 5 5 5 5 5 5 5 5 5 5 5 5 6 5 5 5 5 5 5 5 5 5 5 6 5 5 6 5 5 5 5 5 5 5 5 5 6 5 6 5 5 5 5 6 5 5 6 5 6 5 5 5 5 5 6 5 5 5 5 5 5 5 5 6 5 5 5 5 5 5 5 5 5 5 5 5 5 5 6 5 6 6 5 5 5 5 5 6 5 5 5 5 5 5 5 5 5 5 5 5 5 5 5 6 5 5 5 5 5 5 5 5 5 5 5 5 5 5 5 5 6 5 5 5 5 5 6 6 5 5 6 5 5 5 5 5 5 5 5 5 5 6 5 5 5 5 5 5 5 5 5 6 5 6 5 5 5 5 5 6 5 5 5 5 6 5 5 5 6 5 5 5 6 5 5 6 5 5 5 5 5 5 5 5 5 5 5 5 5 5 5 5 6 5 5 5 5 5 5 5 6 5 5 5 5 5 5 5 5 5 5 5 5 5 5 5 5 5 5 5 5 5 5 5 5 5 5 5 6 5 5 5 5 6 5 5 5 6 5 5 5 5 5 5 5 5 5 6 5 6 5 5 5 5 5 5 5 5 5 5 5 5 5 5 5 5 5 5 6 6 5 5 5 6 5 5 6 5 5 6 5 5 5 6 5 5 6 5 5 5 5 5 5 5 5 5 5 5 5 5 5 5 5 5 5 5 5 6 5 6 5 5 5 5 5 5 5 5 5 5 5 6 5 6 5 5 5 6 5 5 5 5 5 6 5 5 5 5 5 5 6 5 5 5 5 5 5 5 5 5 5 5 6 5 5 5 5 5 5 5 5 6 5 5 5 6 5 5 6 5 5 5 5 5 6 5 5 5 5 5 5 5 5 5 6 5 5 6 5 6 5 6 6 6 5 6 5 5 5 5 5 5 6 5 5 5 5 5 5 6 5 5 5 5 5 5 5 6 5 5 5 5 6 5 5 5 5 5 6 5 6 5 5 5 5 5 5 5 5 5 5 6 5 5 5 5 5 5 5 6 5 5 5 5 5 5 5 6 5 6 5 5 5 5 5 5 5 5 6 5 5 5 6 6 5 5 5 5 5 6 6 5 6 5 5 6 5 5 6 5 5 5 5 5 5 5 5 6 5 5 5 5 5 6 5 5 5 5 6 5 5 6 5 5 5 5 5 5 5 5 5 5 5 5 5 5 5 5 5 5 5 5 5 5 5 5 5 5 5 5 5 5 5 5 5 5 5 5 5 5 5 5 5 6 5 5 6 5 5 5 5 5 6 5 5 5 5 6 5 5 5 5 5 5 5 5 5 5 5 5 5 5 5 5 5 5 5 5 5 5 5 5 6 5 5 5 6 5 5 5 5 5 5 6 5 5 5 5 5 5 5 5 5 5 5 6 5 6 6 5 5 6 5 5 5 5 5 5 5 5 5 5 5 6 5 5 6 5 5 5 5 5 5 5 5 5 5 5 5 5 5 5 6 5 5 5 5 5 5 5 6 5 6 5 5 5 5 6 5 6 5 5 5 5 5 5 5 5 5 6 5 5 5 5 5 5 5 5 5 5 5 5 5 5 5 5 5 6 5 5 5 5 5 5 5 5 5 5 5 5 5 5 5 5 5 5 5 5 5 5 5 5 5 6 6 5 5 5 5 5 5 5 5 5 5 5 6 5 5 5 5 6 5 5 5 5 6 5 5 5 5 5 5 5 5 6 5 5 5 5 5 5 5 5 5 6 5 5 5 5 5 5 5 5 5 5 5 5 5 5 5 5 5 5 5 5 6 5 5 5 5 5 5 5 5 5 5 5 5 5 5 6 5 6 5 5 5 5 5 5 5 5 6 5 5 6 5 5 5 5 5 5 5 5 5 5 5 5 5 5 5 5 5 5 5 5 5 5 5 5 5 5 5 5 5 5 5 5 5 5 5 5 6 5 5 6 5 5 5 5 6 5 6 5 5 6 5 6 5 5 5 5 5 6 5 5 5 5 5 5 5 5 5 5 5 5 6 5 5 5 6 5 5 5 5 5 5 5 5 5 6 5 5 5 5 6 6 5 5 5 5 5 5 5 5 6 5 5 5 5 5 6 5 5 5 6 5 5 5 6 5 5 5 5 6 5 5 5 5 5 5 5 5 5 5 5 5 5 5 6 5 5 5 5 5 5 6 5 6 6 5 6 5 6 5 5 5 5 6 5 5 5 5 6 5 5 5 5 5 5 5 5 5 6 5 5 5 5 5 5 5 5 5 5 5 5 5 5 6 5 5 5 6 5 5 5 6 5 6 5 5 5 5 5 5 5 5 5 5 5 5 5 5 5 5 6 5 5 5 5 5 5 6 5 5 5 5 5 5 5 5 5 5 5 5 5 5 5 5 5 5 6 5 5 5 5 5 5 5 5 5 5 5 5 5 5 5 5 5 5 5 5 5 5 5 5 5 5 5 5 5 5 5 5 5 5 6 5 5 5 5 6 5 5 5 5 5 5 5 6 5 5 5 5 5 5 5 5 5 6 5 5 6 5 5 5 5 5 6 5 5 5 6 5 5 6 5 5 5 5 5 5 5 5 5 5 5 5 5 5 5 5 5 5 5 5 6 5 5 5 5 5 5 5 5 5 5 6 6 5 6 5 5 5 5 5 6 5 5 5 5 6 5 5 5 5 5 6 5 6 5 5 6 5 5 5 5 5 5 5 5 6 5 5 5 5 5 5 6 5 5 5 5 5 5 6 5 5 5 5 6 5 5 6 5 6 5 5 6 5 5 5 5 5 5 6 5 5 5 5 6 5 5 5 5 5 5 5 5 6 6 5 5 5 5 5 5 5 5 6 5 5 5 5 5 5 6 5 5 5 5 5 5 5 6 5 5 5 6 5 5 5 5 5 5 5 5 5 5 5 5 6 5 5 5 5 6 5 5 6 5 5 5 5 6 5 5 5 6 6 5 5 5 6 5 5 5 6 5 5 5 5 5 5 5 5 5 6 5 5 5 6 5 5 5 5 5 5 5 5 5 5 5 5 6 5 6 5 5 6 5 5 6 5 5 5 5 5 5 5 6 5 5 5 5 5 6 5 6 5 5 5 6 6 5 6 6 5 6 5 5 5 5 5 5 6 5 6 5 5 5 5 5 5 5 5 5 5 5 5 5 6 5 5 6 5 6 5 5 6 5 5 5 6 6 5 5 6 5 5 5 5 5 5 5 5 5 5 5 5 5 5 5 5 5 5 5 5 5 5 5 6 6 5 6 5 6 5 5 6 6 5 5 6 5 5 6 5 5 6 5 6 5 5 5 5 6 5 5 5 5 6 5 6 6 5 6 5 5 6 6 5 5 5 6 5 5 5 5 6 6 5 5 5 5 5 6 5 5 5 5 5 5 5 5 5 5 5 6 5 6 5 6 5 5 6 5 6 5 5 5 5 5 5 5 5 6 5 5 6 5 5 5 5 6 5 5 5 5 5 5 5 5 5 5 5 5 6 5 5 5 5 5 5 5 5 5 5 5 6 5 5 5 5 5 5 6 5 6 5 5 6 5 5 5 5 5 5 5 5 5 5 5 5 5 5 5 5 5 6 6 5 5 5 6 5 5 6 5 5 5 5 5 5 5 5 5 5 5 5 5 5 5 5 5 5 5 5 5 5 5 5 5 6 6 5 5 5 5 5 5 5 5 5 5 5 6 5 5 5 5 5 5 5 5 5 5 5 5 5 5 5 5 5 5 5 5 5 5 5 5 5 5 5 5 5 5 5 5 5 6 5 5 5 5 5 6 5 5 6 5 5 6 6 5 5 5 5 5 5 5 5 5 5 5 5 5 6 5 5 6 5 5 5 5 5 5 6 5 5 6 5 5 5 5 5 5 5 5 5 5 5 5 5 6 5 5 5 5 5 5 5 6 5 5 5 5 5 5 5 5 5 5 5 5 6 5 5 6 5 5 5 5 5 5 5 5 5 5 5 5 5 5 5 5 5 5 5 5 6 5 5 6 5 6 5 5 5 6 5 5 6 5 6 5 5 5 6 5 5 5 5 6 5 5 5 5 5 5 5 6 5 5 5 6 5 5 5 5 5 5 5 5 5 5 5 5 6 5 5 5 5 5 5 5 5 6 5 5 5 5 5 5 5 5 5 5 5 6 5 5 5 5 5 5 5 5 5 5 5 5 5 5 5 5 5 5 5 6 6 5 5 5 6 5 5 5 5 5 5 5 5 5 5 5 5 6 5 5 5 5 5 5 5 5 5 6 5 5 5 5 5 5 5 5 5 5 5 5 5 5 5 5 6 5 6 5 5 5 5 5 6 5 5 5 5 6 5 5 5 6 5 5 5 6 5 5 5 5 5 5 5 5 5 6 5 5 5 6 5 5 6 5 5 5 5 5 5 6 5 5 5 5 5 5 5 5 6 5 5 5 6 5 5 5 5 5 5 5 5 5 5 5 5 5 5 5 5 5 5 5 5 5 5 5 5 5 5 5 6 5 5 5 5 5 5 5 6 5 5 5 5 5 5 5 5 5 5 5 5 5 5 5 5 5 5 5 5 5 5 5 5 5 6 5 6 5 5 5 5 5 5 6 5 5 5 6 5 5 6 5 5 5 5 5 5 5 5 5 5 5 5 6 5 5 5 5 5 6 5 5 5 5 5 5 5 5 5 5 5 5 5 6 5 5 5 6 5 5 5 5 5 5 5 5 5 5 5 5 6 6 5 5 5 5 6 5 5 5 5 5 5 5 5 5 6 6 5 5 5 5 5 6 5 5 5 5 5 6 5 5 5 5 5 6 5 6 5 5 5 5 6 5 6 5 6 6 5 5 5 5 5 5 5 6 6 5 5 5 5 5 5 6 6 6 5 6 6 5 5 5 6 5 5 5 5 5 6 6 6 5 6 5 5 5 6 5 6 6 5 5 5 5 5 5 5 6 6 5 5 6 6 6 5 5 5 5 5 5 5 5 5 5 5 5 5 5 5 5 5 5 5 5 5 5 5 5 5 5 5 5 5 5 5 5 5 5 5 5 5 5 5 5 6 5 5 5 5 5 5 5 5 5 5 6 5 5 5 5 5 5 6 5 5 6 5 5 5 5 5 5 5 5 5 5 5 5 5 6 5 6 5 5 5 5 6 5 5 5 6 5 5 6 5 5 5 6 5 5 6 5 5 5 5 5 6 5 5 5 5 5 5 5 6 5 5 5 5 5 5 5 6 5 5 6 5 5 5 5 6 5 6 5 5 5 5 5 6 5 5 5 5 6 5 5 5 5 5 5 6 6 5 5 5 5 5 6 5 5 6 5 5 5 5 5 5 5 5 5 5 6 5 5 5 5 5 5 5 5 5 5 5 5 5 5 5 5 5 5 6 5 5 5 5 5 5 6 5 5 5 5 5 5 5 6 6 5 5 5 5 6 5 5 5 5 5 5 5 6 5 5 6 5 6 6 6 5 5 5 5 5 5 6 5 5 5 5 5 6 5 5 5 5 6 5 5 5 6 5 5 5 6 5 5 5 5 5 5 5 5 5 5 5 5 5 5 5 5 5 5 5 5 5 5 5 5 5 6 5 5 5 5 5 5 5 6 5 6 5 5 5 5 5 5 6 5 5 6 5 5 5 6 5 5 6 5 5 5 5 5 6 5 5 5 6 6 5 5 5 5 5 5 5 5 5 5 5 5 6 5 5 5 5 5 5 5 5 5 6 5 5 5 5 5 6 6 5 5 5 5 5 5 5 5 5 6 5 5 5 5 5 5 5 5 6 5 5 5 5 5 5 5 5 5 5 5 5 5 5 5 5 5 5 6 5 5 5 5 6 5 6 5 6 5 5 5 5 5 5 5 5 5 5 5 5 5 5 5 5 5 6 5 5 5 5 5 6 5 5 5 6 6 5 5 5 5 5 6 5 5 5 5 6 5 5 5 5 5 5 5 5 6 5 5 5 5 5 5 5 6 5 5 5 5 5 5 5 5 5 6 5 5 5 5 5 5 5 5 5 5 5 5 5 5 5 5 5 5 6 5 5 5 5 5 5 5 5 5 5 5 5 5 6 5 5 5 5 5 5 6 5 5 6 5 5 6 5 5 5 5 5 5 5 5 5 5 5 5 5 5 5 5 5 5 5 5 5 5 5 5 5 5 6 5 6 5 6 6 5 5 5 6 5 5 5 5 5 5 5 5 5 6 6 5 6 5 5 5 5 5 5 5 5 5 5 5 5 5 5 6 5 6 6 5 6 5 5 5 5 5 5 5 5 5 6 6 5 5 5 5 5 5 5 5 5 5 5 5 5 5 5 5 5 5 5 5 5 5 6 5 5 5 5 5 6 5 5 5 5 5 6 5 5 5 6 5 5 5 5 5 5 5 5 5 6 5 5 5 5 6 5 5 5 5 5 5 6 5 5 5 5 5 5 5 6 5 5 5 5 6 5 5 5 5 5 5 5 5 5 5 6 5 5 5 5 6 5 5 5 6 5 5 5 5 5 6 5 5 5 5 5 5 5 5 5 5 5 5 5 5 6 6 5 5 6 5 5 5 5 5 5 5 6 5 5 5 5 5 5 6 5 5 5 5 5 5 5 5 5 5 5 5 5 5 5 5 5 5 5 5 5 5 5 6 5 5 5 5 5 5 5 5 6 5 5 5 5 6 5 5 5 5 5 6 5 6 5 6 5 5 5 5 5 5 5 6 5 5 5 6 5 5 5 5 5 6 5 5 5 5 5 6 5 6 5 5 6 5 6 5 5 5 5 5 6 5 5 5 6 5 5 5 5 5 5 5 5 5 5 6 5 5 5 5 5 5 5 5 5 5 5 5 5 5 5 5 5 5 5 5 5 5 6 5 5 5 5 5 5 5 5 5 5 5 5 5 5 5 5 5 5 6 5 5 5 6 5 5 5 5 5 5 6 5 5 5 6 6 5 6 5 6 6 5 6 5 5 6 5 5 6 6 5 5 5 5 5 5 5 5 6 5 6 5 5 5 5 5 5 5 5 5 5 5 5 5 5 5 5 5 5 5 5 5 5 6 5 5 5 5 5 5 5 5 6 5 5 6 5 5 6 6 5 5 6 5 5 5 5 5 5 5 5 5 5 5 5 5 5 5 5 5 5 5 5 5 5 5 5 5 5 5 5 5 5 5 5 5 5 5 5 5 5 5 6 5 6 5 5 5 5 5 5 5 5 5 5 5 5 5 5 5 5 5 5 5 5 5 5 5 5 5 5 5 5 5 5 5 5 5 5 5 5 5 5 5 5 6 5 5 6 5 5 5 5 5 6 5 6 5 5 6 5 5 5 5 5 5 6 5 5 5 5 5 5 5 5 5 5 5 6 5 5 6 6 5 6 5 5 6 5 5 5 5 6 5 5 5 5 5 5 5 5 5 6 5 6 5 5 5 5 5 5 5 6 5 6 5 5 5 5 5 5 5 5 5 6 5 6 5 5 5 5 5 5 5 5 5 5 6 5 5 5 6 5 5 6 5 5 6 5 5 5 5 6 5 5 5 6 5 5 5 5 5 5 5 5 5 5 5 5 5 5 6 5 5 5 5 5 5 6 5 6 5 6 5 5 5 6 5 5 5 5 5 5 5 5 6 5 5 5 5 5 6 5 5 6 5 5 5 5 5 5 5 5 5 6 5 5 5 6 5 5 5 5 5 5 6 5 5 5 5 5 5 5 5 5 5 5 5 5 5 5 5 5 5 5 5 5 5 5 5 5 5 5 5 5 5 5 6 5 5 5 5 5 6 5 5 6 6 5 5 5 5 6 5 5 5 5 5 6 5 5 5 5 5 5 5 5 5 5 5 5 5 5 5 5 6 5 5 5 5 5 5 5 5 6 6 5 5 5 5 5 5 6 5 5 5 5 6 5 5 5 5 5 5 5 5 5 5 5 5 5 5 5 5 5 5 5 5 5 5 5 5 6 5 5 6 5 5 5 5 5 5 5 5 5 5 5 5 5 5 5 5 5 5 5 5 5 5 5 5 5 5 5 6 5 6 5 5 5 5 5 6 5 5 5 5 5 5 5 5 5 5 5 5 5 5 5 5 5 5 5 5 6 6 5 6 5 5 5 5 5 5 5 5 5 5 5 5 5 5 5 5 6 5 5 5 6 5 5 5 5 5 5 5 5 5 5 5 5 5 6 5 5 5 5 5 5 5 5 5 5 5 5 5 5 5 5 5 5 5 5 5 5 6 5 5 5 5 5 5 5 5 5 5 5 5 5 6 5 6 5 5 6 6 5 5 5 5 5 5 5 5 5 5 5 5 5 5 5 5 5 5 5 5 6 5 5 6 5 5 5 6 5 5 5 5 5 5 6 5 5 5 6 5 5 5 5 5 5 5 5 6 5 5 6 5 5 6 5 6 5 5 5 5 6 6 5 5 6 6 5 5 6 5 5 5 5 6 5 5 6 6 5 6 5 5 5 5 5 5 5 5 5 5 5 5 5 5 5 5 5 5 5 5 6 5 5 5 5 6 5 5 5 5 6 6 5 5 5 5 5 5 5 5 5 5 5 5 6 5 5 5 6 5 5 5 5 5 5 5 6 5 5 5 6 5 5 6 6 5 5 5 6 5 5 5 6 5 5 5 5 5 5 5 5 5 5 5 5 5 5 5 5 5 5 6 5 5 5 5 5 5 5 5 5 5 5 5 5 5 5 5 5 5 6 6 5 5 5 5 5 6 6 5 6 5 5 5 5 5 5 5 5 5 6 5 5 5 6 5 5 5 5 5 5 5 5 5 5 5 5 5 5 6 5 5 5 5 5 5 5 6 5 5 6 5 5 5 5 5 5 6 5 5 5 5 6 5 5 5 5 5 5 6 5 5 5 5 5 5 5 5 6 6 5 5 5 6 6 5 5 5 5 5 6 5 5 5 5 5 5 6 5 5 5 5 6 5 5 5 5 5 6 5 5 5 5 6 5 5 5 5 5 5 5 5 5 5 5 5 5 5 5 5 5 5 5 5 5 5 5 5 5 6 5 5 5 5 6 5 6 5 6 5 5 6 5 5 6 5 5 6 5 5 5 5 5 5 6 5 5 6 5 6 6 6 5 5 6 5 6 6 5 5 5 6 5 6 5 5 5 5 5 5 6 5 5 5 6 5 5 5 5 5 5 5 6 5 5 5 6 5 6 6 5 5 5 5 5 5 5 6 5 5 5 5 5 5 5 5 6 6 5 5 5 5 6 5 5 6 5 5 5 6 5 5 5 6 6 5 5 5 5 6 5 5 5 5 5 6 6 5 5 5 5 5 5 5 5 5 5 5 5 5 5 5 5 5 5 5 5 5 5 5 5 5 5 5 5 5 5 5 6 5 5 5 6 5 5 5 5 5 5 5 5 5 5 5 5 5 5 5 6 5 6 6 5 5 6 5 5 5 5 5 5 5 5 5 5 5 5 5 5 5 5 5 5 5 5 5 5 5 6 5 5 6 6 5 5 5 5 5 5 5 6 5 5 5 6 5 5 5 5 6 6 5 5 5 5 5 5 5 6 5 5 5 5 6 5 5 5 5 6 5 5 5 5 5 5 5 5 5 5 5 5 5 5 5 5 5 5 5 6 5 5 5 5 5 5 5 5 5 5 5 5 5 5 5 5 6 5 5 5 6 5 5 5 5 5 5 5 5 5 6 5 5 5 5 5 5 5 5 5 5 5 5 5 5 5 5 5 5 5 5 5 6 5 5 5 5 5 5 5 5 5 5 5 5 5 5 5 5 5 6 5 5 5 5 5 6 5 5 5 5 5 5 5 5 5 5 5 5 5 5 5 5 5 5 5 5 5 5 5 5 5 5 5 6 5 5 6 5 5 5 6 5 5 5 5 5 5 5 5 5 5 5 5 5 5 5 6 5 6 5 5 5 5 5 5 5 5 5 6 5 5 5 5 5 5 5 5 5 6 6 5 5 5 5 5 5 5 5 5 5 5 5 5 5 5 5 5 5 5 5 5 5 5 5 5 5 5 5 5 5 5 5 5 5 5 5 5 5 5 5 5 5 5 5 5 5 5 5 5 5 5 5 5 5 5 5 5 5 5 5 5 5 5 5 5 5 5 5 5 5 5 6 5 5 5 5 5 5 6 5 5 5 5 5 5 5 5 5 6 5 6 5 5 5 5 5 5 5 5 5 5 5 5 5 5 5 5 5 5 5 5 5 5 5 5 5 5 5 5 5 5 5 5 5 5 6 5 5 5 6 6 5 5 5 5 5 5 5 5 5 5 5 5 5 5 5 5 5 5 5 5 5 5 6 6 5 5 5 5 5 5 5 5 6 5 5 5 5 5 5 6 5 5 5 5 5 6 5 5 5 5 6 5 5 5 6 5 5 5 6 5 5 6 5 5 5 5 5 5 5 5 5 5 5 5 5 6 5 5 5 5 5 5 5 5 6 5 5 5 5 5 5 5 5 5 5 5 6 5 5 5 6 5 5 5 5 6 5 5 5 5 5 5 5 5 6 5 6 5 5 6 5 5 5 5 5 6 5 5 5 5 5 5 5 5 5 5 5 5 6 5 5 5 5 5 5 5 5 5 6 5 5 5 5 5 5 6 5 5 5 5 5 5 5 6 5 5 5 5 5 6 5 5 5 5 5 5 5 5 5 5 5 5 5 5 5 5 5 5 5 5 5 5 5 5 5 5 5 5 5 5 5 5 5 5 5 5 5 5 5 5 5 5 5 5 5 5 5 6 5 6 5 5 5 5 5 5 5 5 5 5 5 5 5 5 6 5 5 5 5 5 5 5 5 5 5 5 5 5 5 5 6 5 5 6 5 6 5 5 5 5 5 6 5 5 5 5 5 5 5 5 5 5 5 5 5 5 5 5 5 5 5 5 6 5 5 5 5 5 5 5 5 5 5 5 6 5 6 5 5 6 5 6 5 5 5 5 5 5 5 6 5 6 5 5 5 5 6 5 5 5 5 6 6 5 5 6 5 5 5 5 5 5 5 5 5 5 5 5 5 5 5 5 6 5 5 5 5 5 5 5 5 5 5 5 5 5 5 6 5 6 5 5 5 5 5 5 5 6 5 6 5 5 5 5 5 5 5 5 5 6 6 5 5 5 6 5 5 5 5 6 5 6 5 5 6 5 6 6 6 5 5 6 5 5 5 6 6 6 5 5 5 5 5 5 5 5 5 5 5 6 5 5 5 5 5 5 6 5 5 5 6 5 5 5 5 5 5 5 5 6 5 5 5 6 5 5 5 5 5 5 5 5 5 5 5 5 5 5 5 5 5 5 5 5 5 5 5 5 5 5 5 5 5 5 5 5 5 5 5 5 5 5 5 5 5 5 5 5 5 5 5 5 5 5 5 5 5 5 5 5 5 5 5 5 6 5 5 5 5 5 6 5 5 5 5 6 5 5 5 6 5 5 5 5 5 5 5 5 5 5 5 5 5 5 5 5 5 5 5 5 5 5 5 5 5 5 5 5 5 5 5 5 5 5 5 5 5 5 5 5 6 5 5 6 5 5 5 5 5 5 5 6 5 5 5 5 5 5 5 5 5 5 5 6 5 5 6 5 6 5 5 5 6 5 5 5 5 5 5 5 5 6 5 5 5 5 6 5 5 5 5 6 5 6 5 5 5 5 5 5 5 5 5 5 5 5 6 5 6 5 5 5 5 5 5 5 5 5 5 5 5 5 6 5 5 5 5 5 5 5 5 5 6 5 5 5 6 5 5 5 5 5 5 5 5 5 5 5 5 5 5 5 5 5 5 5 5 5 5 5 5 5 5 5 5 5 5 5 5 5 5 5 6 5 5 6 5 5 5 5 6 5 5 5 5 5 5 5 5 5 5 5 5 5 5 5 6 5 5 5 5 5 5 5 5 5 6 5 6 5 5 5 5 5 5 5 6 5 5 5 5 5 5 5 5 5 5 5 5 5 5 6 5 5 5 5 5 5 5 5 5 5 5 6 5 5 5 5 5 5 5 5 5 5 5 5 5 5 5 5 5 5 5 5 5 5 5 6 5 6 5 5 5 5 5 5 6 5 6 5 5 5 6 5 5 5 6 5 5 5 6 5 5 6 5 5 5 5 5 5 5 6 5 5 5 5 5 5 5 6 5 5 5 5 5 5 5 5 5 5 5 5 5 6 5 5 5 5 5 5 5 5 6 5 5 5 5 5 5 5 5 5 5 5 5 5 5 5 5 5 5 5 5 6 5 5 5 5 5 5 5 5 5 5 5 5 5 5 5 5 5 5 5 5 5 5 5 5 5 5 5 5 5 5 5 5 5 5 5 5 5 5 5 5 5 5 5 5 5 5 5 5 5 5 6 5 6 5 5 5 6 5 5 6 6 5 6 5 5 5 5 5 5 5 5 5 5 5 5 5 5 5 5 5 5 5 5 5 5 5 5 5 5 5 5 5 5 5 5 5 5 5 6 5 5 5 5 6 5 5 6 5 5 5 6 5 5 5 5 6 5 6 6 5 5 5 5 6 5 5 5 6 5 5 5 6 5 5 5 5 5 5 6 5 5 5 5 5 5 5 5 5 5 5 5 5 5 5 5 5 5 5 5 6 5 5 5 5 5 5 5 5 5 5 5 5 5 5 5 5 5 5 6 5 5 6 5 5 6 5 5 5 5 5 5 5 5 5 5 5 6 5 5 5 5 6 5 5 5 5 6 5 5 5 6 5 5 5 5 5 5 5 5 5 5 5 5 5 5 5 5 5 5 5 5 5 5 5 5 5 6 5 5 5 5 5 5 5 5 6 5 5 5 6 5 5 5 5 5 5 5 5 5 5 5 5 5 5 5 5 5 5 5 5 5 5 5 5 6 5 5 5 6 5 5 5 5 5 5 5 5 6 5 5 6 5 5 5 5 6 5 5 5 5 5 5 5 6 5 6 5 5 6 5 5 6 6 5 5 5 5 5 5 5 5 5 5 5 5 5 5 5 5 5 5 5 5 5 6 5 5 5 5 6 5 5 5 5 5 5 5 5 5 5 5 5 5 6 5 5 6 5 5 5 5 5 5 5 5 5 5 5 5 5 5 5 5 5 5 5 5 5 5 5 5 5 5 5 5 5 5 5 5 5 5 5 5 5 5 5 5 5 5 5 5 5 5 5 5 5 5 5 5 5 5 5 5 5 5 5 5 5 5 5 5 5 5 5 5 5 5 5 5 5 5 5 5 5 5 5 5 5 5 5 5 5 5 5 5 5 5 5 5 5 5 5 5 5 5 5 5 5 5 5 5 5 5 5 5 5 5 5 5 5 5 5 5 5 5 5 5 5 5 5 5 5 5 5 5 6 5 5 5 5 5 5 5 6 5 5 5 5 5 5 5 5 5 6 5 6 5 5 5 6 5 5 6 5 5 5 5 5 5 5 5 5 5 5 5 5 5 5 5 5 5 5 5 5 5 5 5 5 5 5 5 5 5 5 5 5 5 5 5 5 6 5 5 6 6 5 5 6 5 5 6 5 5 5 6 5 5 5 5 5 5 5 5 5 6 5 5 5 5 5 5 6 5 5 5 5 5 5 5 5 5 5 5 5 5 5 5 5 5 5 5 5 5 5 5 5 5 5 5 5 5 5 5 6 5 5 5 5 5 5 5 5 5 5 5 5 5 5 5 5 5 5 5 5 5 5 5 5 5 5 5 5 5 5 5 5 5 5 5 5 5 5 5 5 5 5 5 5 5 5 6 5 6 5 5 5 5 6 5 5 5 5 6 5 5 5 5 6 5 5 5 5 5 5 5 5 6 5 5 6 5 6 5 5 5 5 6 5 5 6 6 5 5 5 5 5 5 6 5 5 5 5 5 5 5 5 5 5 6 6 5 5 5 5 5 6 5 5 6 5 5 5 5 6 5 5 6 5 5 5 5 5 5 5 5 5 5 5 5 5 5 5 5 5 5 5 5 5 5 5 5 5 5 5 5 5 6 5 6 5 5 5 5 5 5 5 5 5 5 5 5 5 6 5 5 5 5 6 6 5 5 5 5 5 5 5 5 5 5 5 5 5 5 5 5 5 5 5 5 5 5 5 5 5 5 5 5 5 5 5 5 5 5 5 5 5 5 5 5 5 5 6 5 5 5 6 5 5 5 5 5 5 5 5 5 5 5 5 5 5 5 5 5 5 5 5 6 5 5 6 5 5 5 5 5 5 5 5 5 6 5 5 5 5 5 6 5 5 5 5 5 6 5 6 5 5 5 5 5 5 5 5 5 5 5 5 5 6 5 5 5 6 6 5 5 5 5 5 5 5 5 6 5 5 6 5 5 6 6 5 5 5 5 5 6 5 5 5 5 5 5 5 6 5 5 6 6 5 5 5 5 5 5 6 6 5 5 5 6 5 5 5 5 5 5 5 6 5 5 5 5 5 5 5 5 5 5 5 5 5 5 5 5 5 5 5 5 5 5 5 5 5 5 6 5 5 5 5 5 5 5 6 5 5 5 5 5 5 5 5 5 5 5 6 5 5 5 5 5 5 5 5 6 5 5 5 5 5 5 5 5 5 5 5 5 5 5 5 5 6 5 5 5 6 5 5 5 5 5 6 5 5 5 5 5 5 5 5 5 5 5 5 5 5 6 5 5 5 5 6 5 5 6 5 5 5 5 5 6 5 5 5 5 5 5 5 5 5 5 5 5 5 5 6 5 6 5 5 5 6 5 6 5 6 5 5 5 5 5 5 6 6 5 5 5 5 5 5 6 5 6 5 5 5 5 5 5 5 5 5 5 5 5 5 5 5 5 5 6 5 5 5 6 6 5 5 5 5 5 6 5 5 6 6 5 5 5 5 5 5 5 5 5 5 5 5 5 5 5 5 5 5 5 5 5 5 5 5 5 5 5 5 5 5 5 5 5 5 5 5 5 5 5 5 5 5 5 5 6 5 5 6 6 6 5 5 5 5 5 5 6 5 5 5 5 5 5 5 5 5 6 5 5 5 6 5 5 5 5 5 5 5 5 5 5 5 5 5 5 5 5 5 5 5 5 6 5 5 5 5 6 5 5 5 5 5 5 5 5 5 5 5 5 5 5 5 5 5 5 5 5 5 5 5 5 5 5 5 5 5 5 5 5 5 5 6 5 6 5 5 5 5 5 5 5 5 6 5 5 5 6 5 6 5 5 5 5 5 5 5 5 6 5 5 5 5 6 5 5 5 5 6 5 5 5 5 5 5 5 6 5 5 5 5 6 5 5 5 5 5 5 5 5 5 5 5 5 5 5 5 5 5 5 5 5 5 5 5 5 5 5 5 5 5 5 5 5 5 5 5 5 5 5 5 5 5 5 5 5 5 5 6 5 5 5 5 6 6 5 5 6 6 5 5 5 5 5 5 5 5 5 5 5 5 5 5 5 5 5 5 5 6 5 5 5 6 6 5 5 5 5 5 5 5 5 5 5 5 5 5 5 5 5 5 5 5 5 5 5 5 5 5 5 5 6 5 5 5 5 5 5 5 6 5 5 5 5 5 5 5 5 5 5 5 5 5 5 5 6 5 5 5 5 5 5 5 5 6 5 6 6 5 5 5 5 5 5 5 5 5 5 5 5 6 5 5 5 5 5 5 5 5 5 5 5 5 5 5 5 5 5 5 6 5 5 5 6 5 5 5 5 5 5 5 5 6 5 5 5 5 5 5 5 5 5 5 5 5 5 5 5 6 5 5 5 6 5 5 5 5 5 5 5 5 5 5 5 5 5 5 5 5 5 5 5 5 5 5 5 5 5 5 5 5 5 5 5 5 5 6 5 6 5 5 5 5 5 5 5 5 6 5 5 5 5 5 5 5 5 5 6 5 5 6 5 5 5 5 5 6 5 5 5 5 6 5 5 5 5 6 5 5 5 6 5 6 5 5 6 5 5 5 5 5 5 5 5 5 5 5 5 5 5 6 5 5 6 5 6 5 5 5 6 5 5 6 5 5 5 5 6 5 6 5 5 5 5 5 5 6 5 6 5 5 5 5 5 6 5 5 5 5 6 5 5 5 5 5 5 6 5 5 5 5 5 5 5 5 5 5 5 5 5 5 5 5 5 5 5 5 5 5 5 5 5 5 5 5 5 5 5 5 5 6 6 5 5 5 5 5 5 5 5 5 5 6 5 5 6 6 5 6 5 5 5 5 5 5 5 6 5 5 5 5 5 5 5 5 5 5 5 5 6 5 5 5 5 6 5 5 5 5 5 5 5 5 5 5 5 5 6 5 5 5 5 5 5 5 5 5 5 5 5 5 5 5 5 5 6 5 5 5 5 5 6 5 5 5 6 5 5 5 5 5 5 6 5 6 5 5 5 6 5 5 5 5 5 5 5 5 5 6 5 5 6 5 5 5 5 5 5 5 6 5 5 5 5 5 5 5 5 5 5 5 5 5 6 5 5 6 5 5 5 5 5 5 6 5 5 5 5 5 5 6 5 5 5 5 5 5 5 6 5 5 5 5 5 5 5 5 5 5 5 5 5 5 5 5 5 5 5 5 5 5 6 5 5 5 5 5 5 5 5 5 5 6 5 5 5 5 6 6 5 5 5 5 6 5 5 5 5 5 5 5 5 5 6 5 5 5 5 5 5 5 5 5 5 5 6 5 5 5 6 5 5 5 6 5 5 5 5 5 5 5 5 5 5 5 5 6 5 5 5 5 5 6 5 5 6 5 5 5 5 5 5 5 5 5 5 5 5 5 5 6 5 5 5 5 5 5 5 6 5 5 5 6 5 5 5 5 5 6 5 5 5 5 5 5 5 5 5 6 5 5 5 5 5 5 5 5 6 5 5 5 5 5 6 5 5 5 5 5 5 5 6 5 5 5 5 5 5 5 5 5 5 5 5 5 5 5 5 5 5 5 5 5 5 5 5 5 5 5 5 5 5 5 5 5 5 5 5 5 5 5 5 5 5 5 5 5 5 5 5 6 5 5 5 5 5 5 5 6 5 5 5 5 5 5 5 5 5 5 5 5 5 5 5 5 5 5 5 5 5 5 6 6 5 5 6 6 5 5 5 5 5 5 5 6 5 5 5 5 5 5 5 5 5 5 5 5 5 5 6 5 5 5 5 5 5 5 5 6 5 5 6 5 5 5 6 5 5 5 5 5 5 5 5 5 5 5 5 5 5 5 5 5 5 5 5 5 5 5 5 5 5 5 5 6 5 5 5 5 5 5 5 5 6 5 5 5 5 5 5 6 6 5 5 5 5 6 5 5 6 5 5 6 5 5 5 5 5 5 6 5 5 5 5 5 5 5 5 6 5 5 5 5 5 5 5 5 5 5 5 6 5 5 6 5 5 5 5 5 5 5 6 5 5 5 6 5 6 5 6 5 5 5 5 5 5 5 5 5 5 5 5 5 5 5 5 5 6 5 6 5 5 5 5 5 5 5 5 5 5 6 5 5 5 5 5 5 5 6 5 5 5 6 5 6 6 5 5 6 5 5 5 5 6 5 5 5 6 5 5 5 6 5 6 6 5 5 5 5 5 5 6 5 5 5 5 5 5 5 5 6 6 6 5 6 5 5 6 6 5 5 6 5 5 5 5 5 5 5 5 5 5 5 6 5 5 5 5 5 5 5 5 5 5 5 5 5 6 6 5 5 5 5 6 5 5 5 6 5 5 5 5 5 6 6 5 5 5 6 5 5 5 5 5 5 5 5 5 5 5 5 5 5 5 6 5 5 5 6 5 5 5 6 5 5 5 5 5 5 6 5 5 5 5 5 6 5 5 5 5 5 5 5 5 6 5 5 5 5 5 5 5 5 5 6 5 5 5 5 6 5 6 5 5 6 5 6 5 5 5 5 5 5 6 5 6 6 5 5 5 5 5 5 5 5 6 5 6 5 6 5 6 5 5 5 5 5 5 5 5 5 5 5 6 5 5 5 6 5 5 5 5 5 5 5 5 6 5 5 5 5 5 5 5 5 5 6 5 5 5 5 6 5 5 6 5 5 5 5 5 5 5 5 5 6 5 5 5 6 5 5 5 5 5 5 5 5 5 5 5 5 5 5 5 5 5 5 5 6 5 5 5 5 5 5 5 5 5 5 6 5 5 5 5 5 5 5 5 5 5 5 5 5 5 5 5 5 5 5 5 5 5 5 5 5 5 5 5 5 5 5 5 5 5 5 5 5 5 5 5 5 5 5 5 5 6 6 5 5 5 5 5 5 5 5 5 5 5 5 5 6 6 5 5 5 6 5 5 6 5 5 5 6 5 5 5 6 5 5 5 5 5 5 5 5 6 5 5 6 5 6 6 5 5 5 5 5 5 6 5 6 6 6 5 5 6 5 5 6 6 5 5 5 5 5 5 5 5 5 5 5 5 5 5 5 5 5 5 5 5 5 6 5 5 5 5 5 5 5 5 5 6 5 5 5 5 5 5 5 6 6 5 5 5 5 5 5 5 5 5 5 5 5 5 5 5 5 5 5 5 5 5 5 5 6 5 6 5 5 5 5 5 5 5 6 5 5 5 6 6 5 5 6 5 5 5 5 6 5 5 5 6 5 5 5 6 5 5 5 5 5 5 5 5 5 6 6 5 5 5 5 5 6 5 5 6 6 6 5 5 5 5 5 6 5 5 5 5 5 5 5 5 5 6 5 6 5 5 5 5 5 5 5 5 5 5 5 5 5 5 5 5 5 5 5 5 5 5 5 5 6 5 5 5 5 6 6 5 5 5 6 5 5 5 5 5 5 5 5 5 5 5 5 5 5 5 5 6 5 5 5 6 5 5 6 5 5 5 5 5 5 5 5 5 5 5 5 5 6 5 5 6 5 5 5 6 5 6 5 6 5 6 6 6 5 5 5 5 5 5 5 5 6 5 5 5 5 5 5 5 5 6 5 5 6 5 5 5 5 5 5 5 5 5 5 5 5 5 5 5 5 5 5 5 5 5 6 5 5 5 5 5 5 5 5 5 5 6 5 6 5 5 6 5 6 5 6 5 5 6 5 6 5 5 6 5 5 5 6 5 5 5 5 5 5 5 5 5 5 5 5 5 5 5 5 5 5 5 5 5 5 5 5 5 5 5 5 5 5 5 5 5 5 5 5 5 5 5 5 5 5 5 5 5 5 5 5 5 5 5 5 5 5 5 5 5 5 5 5 5 6 5 5 6 5 5 5 5 5 5 6 6 5 5 5 5 5 5 5 5 5 5 5 5 5 5 5 5 5 5 6 5 5 5 6 5 5 5 5 5 5 5 5 5 5 5 5 5 5 5 5 6 5 5 5 5 5 5 5 6 5 5 5 5 5 5 5 5 6 5 6 5 5 5 5 5 5 5 5 5 5 5 5 5 5 5 5 6 5 5 5 5 5 5 5 6 5 5 5 5 6 5 5 5 5 5 5 5 6 5 5 6 6 5 5 6 5 5 5 5 5 5 6 5 5 5 5 5 5 5 5 5 6 5 5 6 5 5 6 5 5 6 5 5 5 5 5 6 5 5 5 5 5 5 5 5 6 5 5 5 5 5 5 5 6 5 5 5 5 5 5 5 5 5 5 5 5 6 5 5 5 5 5 5 5 6 6 5 6 5 6 5 5 5 5 5 5 5 5 5 5 5 5 5 5 5 6 5 6 5 5 5 5 5 5 5 5 6 5 6 5 6 5 6 5 6 5 5 6 5 5 5 5 5 6 5 5 5 5 5 5 5 5 6 5 5 5 5 5 6 5 5 6 5 6 6 5 5 5 5 5 5 5 5 6 5 5 5 5 5 5 5 5 5 5 5 5 5 6 5 5 5 5 5 5 5 6 5 5 5 6 5 5 5 5 5 5 5 5 5 5 5 5 5 5 5 5 5 6 5 5 5 5 5 5 5 6 5 5 6 5 5 5 5 5 5 5 5 5 5 5 5 5 5 5 6 5 5 5 5 6 5 5 5 5 5 5 5 5 5 5 5 5 5 5 5 5 5 5 5 5 5 5 5 5 5 6 5 5 5 5 5 5 6 5 5 5 5 5 5 5 5 5 6 6 5 5 5 6 5 6 5 5 5 5 5 5 5 5 5 5 5 5 5 5 5 6 5 5 5 5 5 5 5 5 5 5 5 5 6 6 5 5 5 5 5 5 5 5 6 5 5 6 5 5 6 6 5 5 5 5 5 5 5 6 5 5 5 5 5 5 5 5 5 6 5 5 5 6 5 5 5 5 5 6 5 5 5 5 5 5 5 5 5 5 5 5 6 5 5 5 6 5 5 5 6 5 5 5 5 5 5 5 5 5 5 5 5 5 5 5 5 5 5 5 5 5 5 5 5 5 5 5 5 5 5 5 5 6 5 5 5 5 5 5 5 5 5 5 5 5 5 5 5 5 5 5 5 5 5 5 5 5 6 5 6 5 5 6 5 5 5 5 5 5 5 5 5 6 5 5 5 5 5 5 5 5 5 5 5 5 5 5 6 5 5 5 5 6 5 5 5 6 5 5 5 5 5 5 5 5 5 5 5 5 5 5 5 5 5 5 5 5 5 5 5 5 5 5 5 5 5 5 5 5 5 5 5 5 5 5 5 5 5 5 5 5 5 5 5 5 5 5 5 5 5 5 5 5 5 5 5 5 5 5 5 5 5 5 5 5 5 5 5 5 5 5 5 5 5 5 5 5 5 5 5 5 5 5 5 5 5 5 5 5 5 5 5 5 5 5 5 5 5 5 5 5 5 5 5 5 5 5 5 5 5 5 5 5 5 5 5 5 5 5 5 5 5 5 5 5 5 5 5 5 5 5 5 5 5 5 5 5 5 5 5 5 5 5 5 5 5 5 5 5 5 5 5 5 5 5 5 5 5 5 5 5 5 5 5 5 5 5 5 5 5 5 5 5 5 5 5 5 5 5 5 5 5 5 5 5 5 6 5 5 5 5 5 5 5 5 5 5 5 5 5 5 5 5 6 5 5 5 5 5 5 5 5 6 5 5 5 5 6 5 5 5 5 5 5 5 5 5 5 5 5 5 5 5 5 5 5 5 5 5 5 6 5 5 5 5 5 5 5 5 5 5 5 5 5 6 6 5 5 5 5 5 6 5 6 5 5 5 5 5 5 5 5 5 5 5 6 5 5 5 5 5 5 5 6 5 5 5 5 5 5 5 5 5 5 5 5 5 5 5 6 6 5 5 5 5 5 5 5 5 5 5 5 5 6 5 5 5 5 5 5 5 5 5 5 5 5 5 5 5 5 6 5 5 5 5 5 5 5 6 5 5 5 5 5 5 5 5 5 5 6 6 5 5 5 5 5 5 5 5 5 5 5 5 5 5 5 5 5 5 5 5 5 5 5 5 5 5 5 5 5 5 6 5 5 5 5 5 6 5 5 5 5 5 5 5 5 5 5 6 5 5 5 5 6 5 5 5 5 5 5 5 5 5 5 6 5 6 5 5 5 5 5 5 5 5 5 5 5 5 5 5 5 5 5 5 5 5 5 5 5 5 5 5 5 5 5 5 5 6 5 5 5 5 5 6 5 5 5 5 5 5 5 5 5 5 5 5 5 5 5 5 5 5 6 5 5 6 5 5 5 6 5 5 5 5 5 6 5 5 5 5 5 5 5 5 5 5 6 5 5 5 5 5 5 6 5 5 5 5 5 6 6 5 5 6 5 5 6 5 5 5 5 5 5 5 5 5 5 6 5 5 6 5 5 6 5 5 6 5 5 6 5 5 6 5 5 5 5 5 5 6 5 5 5 5 5 5 5 5 5 5 5 6 5 5 5 5 5 5 5 6 5 5 5 5 6 5 5 5 6 5 5 5 5 5 5 5 5 5 5 5 6 5 5 5 5 5 5 5 5 5 5 5 5 5 5 5 5 5 5 5 5 5 5 5 5 6 5 5 5 5 5 6 5 5 5 5 5 5 5 5 5 5 5 5 5 5 6 5 5 6 5 6 5 5 5 5 6 5 6 6 5 6 5 5 5 5 5 5 5 6 5 6 5 5 5 5 5 5 6 5 5 5 5 5 5 6 5 5 5 5 6 5 5 5 5 5 6 5 5 6 5 5 5 5 6 5 5 5 5 6 5 5 5 5 5 5 6 5 5 5 5 5 5 5 5 5 6 5 5 5 5 5 5 6 5 5 5 5 6 5 5 5 5 5 5 5 5 5 5 5 5 5 5 5 5 6 5 5 5 6 5 5 6 5 5 5 5 5 5 5 5 5 5 5 5 5 5 5 5 6 5 6 5 5 5 5 5 5 5 5 5 5 5 5 5 5 5 5 5 5 5 5 5 5 5 5 5 5 6 5 5 6 5 5 5 5 5 5 5 5 5 5 6 5 5 5 5 6 5 5 5 5 6 5 5 5 5 5 5 5 5 5 6 5 5 5 5 5 5 5 5 5 5 5 5 5 5 5 5 5 5 5 5 5 5 5 5 5 5 5 5 
</DataArray>
<DataArray type="Float64" Name="stress" NumberOfComponents="9" format="ascii">
-228071209.5344685 -816762382.61128807 0 -816762382.61128807 2200449326.8357964 0 0 0 0 -145970968.47526702 -136336050.61022377 0 -136336050.61022377 1537246470.144619 0 0 0 0 1048406.4821259353 -120232897.90428352 0 -120232897.90428352 1214699242.8061943 0 0 0 0 158297403.31875139 -312378198.48717499 0 -312378198.48717499 590879346.98890686 0 0 0 0 -34797961.411443621 -183572447.59433746 0 -183572447.59433746 593851335.90635502 0 0 0 0 -209463.80465990395 24946.847388667986 0 24946.847388667986 1108589.3256581016 0 0 0 0 -1812884.867800951 69181669.53446579 0 69181669.53446579 -48969555.668926239 0 0 0 0 73167039.542849839 -23894880.440010071 0 -23894880.440010071 4995780.1952667236 0 0 0 0 97423256.548436701 -647011444.91200829 0 -647011444.91200829 1372488704.6131592 0 0 0 0 361894204.71696544 -349399560.57481003 0 -349399560.57481003 543390629.45615387 0 0 0 0 5731013.1640779972 -237289019.78235626 0 -237289019.78235626 675506415.87792397 0 0 0 0 1425726182.6390622 -1191017708.3854733 0 -1191017708.3854733 419664203.45542526 0 0 0 0 497354774.7393856 1287760348.7900181 0 1287760348.7900181 2201515096.9864769 0 0 0 0 1164211.137576069 883439.64988487959 0 883439.64988487959 2639371.6435477994 0 0 0 0 -83251030.809204757 554859466.57039499 0 554859466.57039499 1599627396.0435638 0 0 0 0 -335581940.05661803 209350191.73545456 0 209350191.73545456 2205266739.1652002 0 0 0 0 -7257882.0992777199 423615232.86928558 0 423615232.86928558 893338476.05644989 0 0 0 0 42042460.779003024 249112462.74951553 0 249112462.74951553 933844669.67728424 0 0 0 0 1203387.5442698523 245956.97194001451 0 245956.97194001451 4979485.1395781301 0 0 0 0 139064160.79816484 185103143.39120865 0 185103143.39120865 478433994.41874313 0 0 0 0 -132420961.30857828 -115361280.1653595 0 -115361280.1653595 1192145124.4292336 0 0 0 0 855769.08656200767 1541466.4773127213 0 1541466.4773127213 4378997.4082671385 0 0 0 0 -22768853.00366807 14534995.489221573 0 14534995.489221573 4057143.2535171509 0 0 0 0 -51610887.151611328 6153676.7278442383 0 6153676.7278442383 20388691.18145752 0 0 0 0 -12101263.648560047 7800723.4926681519 0 7800723.4926681519 7778988.8130874634 0 0 0 0 -69765368.782552361 -62264190.943696976 0 -62264190.943696976 -27475778.098983765 0 0 0 0 313184.5171658218 -1441544.6679907208 0 -1441544.6679907208 9177241.7073420323 0 0 0 0 49402804.402281523 -52826773.181861877 0 -52826773.181861877 -37124191.907314301 0 0 0 0 -11714193.461239815 -13882886.973709106 0 -13882886.973709106 10431772.654781342 0 0 0 0 -18841088.783246994 -7559890.0014562607 0 -7559890.0014562607 24657190.295677185 0 0 0 0 68875841.782381296 2704064.2069549561 0 2704064.2069549561 -106051995.84713364 0 0 0 0 -887061.60244187433 -115281.26674779132 0 -115281.26674779132 3421818.2906694002 0 0 0 0 298426347.73995584 -218558743.93474388 0 -218558743.93474388 169334832.44485092 0 0 0 0 74864643.479686022 38888045.381629944 0 38888045.381629944 47410251.62776947 0 0 0 0 12579388.680930257 -50743815.985839844 0 -50743815.985839844 78830512.357406616 0 0 0 0 28145711.906144381 -57972124.960269928 0 -57972124.960269928 -42354764.740131378 0 0 0 0 -42488387.516884036 -2605169.6250457019 0 -2605169.6250457019 111544200.10824585 0 0 0 0 -15058697.025229245 -10112142.912034988 0 -10112142.912034988 111051285.78767395 0 0 0 0 -20274721.205405235 -52212813.647918701 0 -52212813.647918701 126142123.20286179 0 0 0 0 -12708500.795379162 -40426476.174057007 0 -40426476.174057007 123917436.97628784 0 0 0 0 -42555033.165371135 -18386801.345686257 0 -18386801.345686257 156601122.64056396 0 0 0 0 30241106.959755898 -8581774.7153625488 0 -8581774.7153625488 62627813.462310791 0 0 0 0 127326190.59708452 107005006.45738983 0 107005006.45738983 199951318.35679626 0 0 0 0 184477864.18428028 -52095332.720079422 0 -52095332.720079422 73004876.70753479 0 0 0 0 18784405.967551231 21925690.494346619 0 21925690.494346619 234780857.3011322 0 0 0 0 4899.4130381685172 319328.10768614034 0 319328.10768614034 214573.19639766216 0 0 0 0 105359813.44329667 -87333278.159492493 0 -87333278.159492493 94758952.438766479 0 0 0 0 182338014.32555091 121149284.36543083 0 121149284.36543083 95000016.628158569 0 0 0 0 -81839.331846390531 166678.90507630073 0 166678.90507630073 192255.41484300792 0 0 0 0 23167971.934190035 -86353421.080207825 0 -86353421.080207825 25230078.317169189 0 0 0 0 -7963906.0887365341 -30202877.786739349 0 -30202877.786739349 138356799.47592163 0 0 0 0 -61192477.610856056 -84795707.09286499 0 -84795707.09286499 330290850.48643494 0 0 0 0 -18659795.234314919 -43936937.373825073 0 -43936937.373825073 137820844.21490812 0 0 0 0 -5798357.096269846 3495834.5786819458 0 3495834.5786819458 9555852.6112728119 0 0 0 0 -1102390.0076636043 614336.68603969971 0 614336.68603969971 2804053.1984515637 0 0 0 0 -28720844.661527514 -1704638.3613204956 0 -1704638.3613204956 30540307.19984436 0 0 0 0 1868545.3383080959 8498471.3797569275 0 8498471.3797569275 24960940.630249023 0 0 0 0 2728292.4724599533 -731692.66361451149 0 -731692.66361451149 53938920.7109375 0 0 0 0 -205477.24319335818 -22153105.15644455 0 -22153105.15644455 59557193.932296753 0 0 0 0 -19014133.661316872 -23917666.467643738 0 -23917666.467643738 65370749.713500977 0 0 0 0 -120494418.59384525 -68378573.635654449 0 -68378573.635654449 42054324.890899658 0 0 0 0 -10837493.475967169 -13625161.185064316 0 -13625161.185064316 10406312.655708313 0 0 0 0 60898.403968858707 -1160688.2877417118 0 -1160688.2877417118 9374634.8017420806 0 0 0 0 -31638399.938485861 14706165.274223328 0 14706165.274223328 8523165.6275138855 0 0 0 0 -76037447.912462056 17565937.717411041 0 17565937.717411041 69990824.878128052 0 0 0 0 18582671.245504856 -15366332.4633255 0 -15366332.4633255 57937742.264907837 0 0 0 0 52352178.253862858 63021211.291404724 0 63021211.291404724 17906870.826732635 0 0 0 0 455665.17530351866 1418766.9573101969 0 1418766.9573101969 -592011.58797507733 0 0 0 0 14808973.680015087 69188782.911933899 0 69188782.911933899 79477790.153886795 0 0 0 0 58658275.324624777 38596882.983581543 0 38596882.983581543 40355393.588844299 0 0 0 0 -24232402.772757769 3681346.7356529236 0 3681346.7356529236 24835238.308044434 0 0 0 0 -43224458.772572041 16746217.927612305 0 16746217.927612305 35320226.44095993 0 0 0 0 -51648457.550288662 7703419.0594472885 0 7703419.0594472885 17051885.42048645 0 0 0 0 -47112813.065109134 22728239.4557724 0 22728239.4557724 26696617.402679443 0 0 0 0 -16228709.862131059 35512711.486461639 0 35512711.486461639 26528937.99407959 0 0 0 0 -35521411.536189735 6425009.8224258423 0 6425009.8224258423 24596174.363113403 0 0 0 0 46631661.21246624 18372004.630069733 0 18372004.630069733 6357078.0772476196 0 0 0 0 -170779.25268266539 2358937.1615321152 0 2358937.1615321152 58085.684523522854 0 0 0 0 -512650.53452110291 1900175.4758148193 0 1900175.4758148193 2482827.099395752 0 0 0 0 -1156894.4680702686 657977.78686141968 0 657977.78686141968 1935289.7387542725 0 0 0 0 -507909.13114143582 1049977.1731201559 0 1049977.1731201559 6869263.3900882136 0 0 0 0 -2502222.1654162407 4595685.9700393677 0 4595685.9700393677 23611848.842033386 0 0 0 0 9461592.735850811 11780414.068006039 0 11780414.068006039 22308236.391586304 0 0 0 0 213461.05310942023 2042201.1307265405 0 2042201.1307265405 6807821.2369011575 0 0 0 0 12647494.539278269 37417760.362586975 0 37417760.362586975 19754441.169216156 0 0 0 0 -538703.15605068207 1972596.0968742371 0 1972596.0968742371 1973231.4407348633 0 0 0 0 -3464456.2160004377 -2521757.6286277771 0 -2521757.6286277771 3351731.9342041016 0 0 0 0 -7658846.1766543388 8901160.0360717773 0 8901160.0360717773 5240178.7337646484 0 0 0 0 -1286917.193755053 1315001.6631114227 0 1315001.6631114227 3801409.1967187598 0 0 0 0 3743441.3976579309 7125457.9622879028 0 7125457.9622879028 -498461.40812683105 0 0 0 0 -249696.29565042257 1326367.6090965271 0 1326367.6090965271 3544926.9338855743 0 0 0 0 3768632.062838614 406787.6294593811 0 406787.6294593811 -4357615.822303772 0 0 0 0 14217065.88273257 14549455.888065338 0 14549455.888065338 7493330.0761013031 0 0 0 0 9641282.2245462537 85501.173336029053 0 85501.173336029053 -3846778.6289291382 0 0 0 0 69941393.446240291 -10801037.597251892 0 -10801037.597251892 23415045.348632812 0 0 0 0 -1047915.7019002098 -31105.626819610596 0 -31105.626819610596 2602765.485496521 0 0 0 0 -88002.591588900235 -73095.720264768228 0 -73095.720264768228 445933.99994258396 0 0 0 0 3985.6487312171794 7297.0534346797504 0 7297.0534346797504 -9246.7765766605735 0 0 0 0 204518.58011784972 601456.0192897683 0 601456.0192897683 -305019.33660132065 0 0 0 0 -2534164.0075058006 3428537.9957122803 0 3428537.9957122803 1599671.8974380493 0 0 0 0 -2056919.6899419129 -482413.01424407959 0 -482413.01424407959 -462871.88866043091 0 0 0 0 360006.83333547763 875601.89314923109 0 875601.89314923109 -592656.45304024965 0 0 0 0 -624396.70983682573 1803872.0438766479 0 1803872.0438766479 764376.58237457275 0 0 0 0 -1644140.8263169238 2648651.1905136108 0 2648651.1905136108 966040.6156463623 0 0 0 0 -806973.74286358897 -2694456.8524055481 0 -2694456.8524055481 -76912.849365234375 0 0 0 0 -949813.38121685944 2635159.6661453247 0 2635159.6661453247 -1049043.7798156738 0 0 0 0 -1709750.2071064208 2388349.8769760132 0 2388349.8769760132 1691483.1596298218 0 0 0 0 -17050.808554023319 -81405.709252439439 0 -81405.709252439439 362591.35528005846 0 0 0 0 -726709.36308870651 -883903.79895782471 0 -883903.79895782471 6264147.2733764648 0 0 0 0 213310.23577984143 -15634335.358608246 0 -15634335.358608246 66339936.389595032 0 0 0 0 -10348579.304199027 -62034452.40737915 0 -62034452.40737915 150079929.63619995 0 0 0 0 96030644.215316594 -115946434.4091835 0 -115946434.4091835 142250366.3662672 0 0 0 0 -118545.00617580683 -48733265.828209855 0 -48733265.828209855 325738957.34011841 0 0 0 0 23575756.336594958 -68040116.254482269 0 -68040116.254482269 228515311.25102997 0 0 0 0 134500117.60094887 -248610963.39874649 0 -248610963.39874649 278616304.73661041 0 0 0 0 159444360.5429194 -122516650.58689022 0 -122516650.58689022 108680705.02837372 0 0 0 0 14366066.679869473 8743175.5229873657 0 8743175.5229873657 109545229.9892363 0 0 0 0 8366399.4618334323 441370.90174388885 0 441370.90174388885 99692099.649673462 0 0 0 0 9329866.1537202597 9683949.3478469849 0 9683949.3478469849 59149539.421951294 0 0 0 0 6466368.880659461 -16803489.203704834 0 -16803489.203704834 44873754.682617188 0 0 0 0 20423303.307115734 24777202.58984375 0 24777202.58984375 74505212.848632812 0 0 0 0 4347.9588561779528 9908.8109170999378 0 9908.8109170999378 -20477.824338715523 0 0 0 0 -22622177.430060059 -49337695.940078735 0 -49337695.940078735 102169403.6415329 0 0 0 0 -37317291.716600418 -473850.97769165039 0 -473850.97769165039 61011523.946990967 0 0 0 0 98757860.012941658 -50548693.723735809 0 -50548693.723735809 90804334.502624512 0 0 0 0 563832.80061191146 528435.23733139201 0 528435.23733139201 1652226.7767682187 0 0 0 0 177197970.30340794 151290376.47706556 0 151290376.47706556 49028845.165649414 0 0 0 0 -129922098.19533166 106121133.9535923 0 106121133.9535923 4261064.5969715118 0 0 0 0 67918598.061660573 99451126.743020296 0 99451126.743020296 -96252239.394199371 0 0 0 0 83048738.976285115 -47049336.012628555 0 -47049336.012628555 -141989987.55455971 0 0 0 0 40159952.681588471 -22165511.926405907 0 -22165511.926405907 750597840.56993866 0 0 0 0 192063161.03333843 -22537877.692234039 0 -22537877.692234039 -124666416.67803192 0 0 0 0 193419.76006692159 146212.87752142909 0 146212.87752142909 692407.15549445711 0 0 0 0 -56670069.405857921 -401306807.64385796 0 -401306807.64385796 731173900.07549286 0 0 0 0 527551798.28737366 461908243.5943737 0 461908243.5943737 581050521.21021652 0 0 0 0 226934976.02304983 -118860130.16500497 0 -118860130.16500497 1698051187.3134308 0 0 0 0 175948752.48241562 -454236886.22681689 0 -454236886.22681689 1484614401.1746902 0 0 0 0 -246848470.72890064 -67848588.398281097 0 -67848588.398281097 2205261350.7720718 0 0 0 0 -185053833.20192888 -58676954.199308395 0 -58676954.199308395 1699471186.0854492 0 0 0 0 -36949798.974436998 -108250700.7281456 0 -108250700.7281456 776039887.02695465 0 0 0 0 -34736058.570781894 187852434.9807682 0 187852434.9807682 877732612.33570862 0 0 0 0 -167741233.16667444 86429117.042280197 0 86429117.042280197 1752571217.9588509 0 0 0 0 -174744665.84315151 184397730.54395008 0 184397730.54395008 2204849320.9408722 0 0 0 0 -208893616.52632797 32847893.471586227 0 32847893.471586227 1766491627.8175278 0 0 0 0 399818589.60237348 203301055.63890839 0 203301055.63890839 1877443497.0189133 0 0 0 0 256928919.70360202 579608296.76777077 0 579608296.76777077 385538319.31772614 0 0 0 0 -128896235.43563622 340983632.46193314 0 340983632.46193314 1954482863.5811405 0 0 0 0 -22176688.751470208 -32923691.808000565 0 -32923691.808000565 414662891.69359589 0 0 0 0 36254271.668745458 -98685529.0512743 0 -98685529.0512743 19959610.477012634 0 0 0 0 -1874249.7445567846 -37556340.559082031 0 -37556340.559082031 247046454.2790432 0 0 0 0 182732340.65159023 13888239.077400208 0 13888239.077400208 199468142.93623352 0 0 0 0 150264151.85897988 -50401952.945689201 0 -50401952.945689201 201308254.03336334 0 0 0 0 -605058.26051959395 137559945.93228912 0 137559945.93228912 893395164.06122589 0 0 0 0 16787751.702733696 148208427.79500198 0 148208427.79500198 67316202.514438629 0 0 0 0 22943200.325001076 -182193332.72364864 0 -182193332.72364864 -24797803.358070374 0 0 0 0 61898308.356223583 -23199838.513595581 0 -23199838.513595581 -212382561.31380844 0 0 0 0 56888073.175702512 -62776372.260204315 0 -62776372.260204315 -63304597.316261292 0 0 0 0 -43014763.842801094 -39532095.812770844 0 -39532095.812770844 -18012250.704265594 0 0 0 0 92258.930988812412 50296.74529693462 0 50296.74529693462 -40029.114768346772 0 0 0 0 -5925756.9651801586 12839290.646663666 0 12839290.646663666 -5228293.5328247547 0 0 0 0 -108798803.3291142 -119447459.58736134 0 -119447459.58736134 34244351.541984558 0 0 0 0 50525739.081155419 -44137236.498960495 0 -44137236.498960495 33337236.422073364 0 0 0 0 302471.00310041965 -100018.47756818403 0 -100018.47756818403 207794.76477739774 0 0 0 0 32967918.290178299 -14022681.936290741 0 -14022681.936290741 44027441.484085083 0 0 0 0 9347537.7300677299 -83902948.13483429 0 -83902948.13483429 34867854.836090088 0 0 0 0 153848.30666165851 83785.747243487043 0 83785.747243487043 285615.98507997766 0 0 0 0 -56852908.44399333 -27765227.348932266 0 -27765227.348932266 23944905.245407104 0 0 0 0 13052841.013000965 -12873581.16819191 0 -12873581.16819191 67942038.023620605 0 0 0 0 24247169.583719492 -40714176.58928299 0 -40714176.58928299 54581710.373001099 0 0 0 0 -51513973.170783043 -13088775.516475677 0 -13088775.516475677 73394867.307983398 0 0 0 0 -18277399.328569651 -58503474.282817841 0 -58503474.282817841 73752172.88041687 0 0 0 0 -72792925.268164635 17570231.206432343 0 17570231.206432343 149171079.63960266 0 0 0 0 -86025958.644074082 39616787.369070053 0 39616787.369070053 126821314.03012085 0 0 0 0 -61922967.587496281 -73253265.673618317 0 -73253265.673618317 210387641.45461273 0 0 0 0 -41056429.22496891 -53172651.679191589 0 -53172651.679191589 -20915710.75643158 0 0 0 0 -44045058.303327322 67674628.842170715 0 67674628.842170715 182635363.06399155 0 0 0 0 138866641.58906198 215912475.31411743 0 215912475.31411743 -323920803.28619766 0 0 0 0 422211.15101279563 316785.26828609314 0 316785.26828609314 709236.98163933214 0 0 0 0 6652335.438423574 -171375319.24206924 0 -171375319.24206924 3162883398.5172195 0 0 0 0 -84111622.100794315 -202085544.38344574 0 -202085544.38344574 37312111.178806305 0 0 0 0 187996790.80301073 -53099627.47983551 0 -53099627.47983551 2205301795.0193429 0 0 0 0 315793383.71572888 139398362.60621262 0 139398362.60621262 2372879964.8591385 0 0 0 0 268881174.6009872 258581845.06085205 0 258581845.06085205 2835905096.1210175 0 0 0 0 60647331.418872386 -375885601.66267014 0 -375885601.66267014 2695012407.2085743 0 0 0 0 60952864.673098788 -335353788.5591476 0 -335353788.5591476 2095761886.6399918 0 0 0 0 -19777678.575438291 36615209.483833313 0 36615209.483833313 2236350943.3795013 0 0 0 0 973626.76210544561 940675.25015200954 0 940675.25015200954 1971889.3496678206 0 0 0 0 -10925881.31295234 -170234611.25754547 0 -170234611.25754547 1945542447.0787315 0 0 0 0 -3108813.836356163 52309029.904327393 0 52309029.904327393 -132449483.16598511 0 0 0 0 -145261681.99402761 89476430.341163635 0 89476430.341163635 329597701.88843536 0 0 0 0 -81771971.483088017 93959538.876552582 0 93959538.876552582 34601620.960682869 0 0 0 0 -58350096.322793439 -271548643.11566067 0 -271548643.11566067 1751800251.0557632 0 0 0 0 -165626186.72243658 -79609697.407936096 0 -79609697.407936096 2204597447.5702324 0 0 0 0 -305617409.72927129 206873821.63031769 0 206873821.63031769 1872622394.9915047 0 0 0 0 -37109900.646722496 56973063.441730499 0 56973063.441730499 1318344539.6507435 0 0 0 0 1110772.173714302 1355403.3946021134 0 1355403.3946021134 3115738.2700333707 0 0 0 0 -37194235.663627863 -42751685.15886116 0 -42751685.15886116 48853932.715423584 0 0 0 0 126264304.06044197 67928700.265792847 0 67928700.265792847 -51518074.011291504 0 0 0 0 41516329.314748764 -40203332.662567139 0 -40203332.662567139 14372430.028244019 0 0 0 0 -101028290.30512476 33103563.956806183 0 33103563.956806183 134519327.8877182 0 0 0 0 -71474705.966780186 -40550801.744369507 0 -40550801.744369507 37020554.565155029 0 0 0 0 -24728874.997038841 20585796.112258911 0 20585796.112258911 77707023.233108521 0 0 0 0 15183131.027508736 15091067.6614151 0 15091067.6614151 63926608.762062073 0 0 0 0 46799781.766569138 -1009851.2850418091 0 -1009851.2850418091 -1149709.0427322388 0 0 0 0 -17187073.071144581 93916235.433143616 0 93916235.433143616 123831249.73111439 0 0 0 0 102132.92052413302 -33231.134904353879 0 -33231.134904353879 69994.754453431815 0 0 0 0 8946858.56919384 3209576.0426635742 0 3209576.0426635742 -1527566.8465881348 0 0 0 0 8297192.5100784302 2466896.2658576965 0 2466896.2658576965 40838524.925750732 0 0 0 0 -3498746.6890442371 3074823.9990682602 0 3074823.9990682602 3831632.030960083 0 0 0 0 630189.94414138794 -5106814.3923492432 0 -5106814.3923492432 4028110.9382476807 0 0 0 0 1681158.3201808929 -292409.94088363647 0 -292409.94088363647 3451171.9591445923 0 0 0 0 4842831.1091775894 1454724.1704330444 0 1454724.1704330444 4060484.9406509399 0 0 0 0 9931897.7347371578 -1755690.4050750732 0 -1755690.4050750732 -168194.67889404297 0 0 0 0 3918056.3615026474 -9326229.1114006042 0 -9326229.1114006042 367937.2738494873 0 0 0 0 -3136072.0877006054 -28109888.108675003 0 -28109888.108675003 11271053.275489807 0 0 0 0 31418127.168379784 -9891906.6711959839 0 -9891906.6711959839 -1675032.7026367188 0 0 0 0 -3212247.951363802 -5905201.2179431915 0 -5905201.2179431915 1606736.4949951172 0 0 0 0 -3093.0553479194641 -5720705.1687698364 0 -5720705.1687698364 665667.34285736084 0 0 0 0 371919.09027099609 -3896080.2707672119 0 -3896080.2707672119 -510706.19667053223 0 0 0 0 1527325.1174737215 -944802.70889663696 0 -944802.70889663696 688446.34020996094 0 0 0 0 5666791.0601730347 -3741957.0204696655 0 -3741957.0204696655 -928663.54805755615 0 0 0 0 2451282.9402942657 -2189634.3293647766 0 -2189634.3293647766 -595942.2745513916 0 0 0 0 133930.85221242905 58253.78689956665 0 58253.78689956665 -3372.3503875732422 0 0 0 0 758016.81787204742 -4054302.3664932251 0 -4054302.3664932251 -775580.28196048737 0 0 0 0 -131499.19739973545 -3378768.000878334 0 -3378768.000878334 -55877.776443481445 0 0 0 0 -2009864.3946218491 -2130464.6271629333 0 -2130464.6271629333 3082545.4449996948 0 0 0 0 78119.991872310638 -2796385.5709152222 0 -2796385.5709152222 -1603544.7085418701 0 0 0 0 -2162258.7578926086 -2661670.1134796143 0 -2661670.1134796143 -638550.53767967224 0 0 0 0 -890242.67487645149 63937.650943756104 0 63937.650943756104 313548.01875305176 0 0 0 0 -6841.6780842063017 14604.046559915878 0 14604.046559915878 8086.1296584424563 0 0 0 0 -1035875.0539717674 -1005363.4242591858 0 -1005363.4242591858 772602.19718551636 0 0 0 0 403510.28217363358 -3417458.35131073 0 -3417458.35131073 -760415.33569335938 0 0 0 0 -2968505.2272992134 -5493843.728553772 0 -5493843.728553772 810238.97145462036 0 0 0 0 -503860.13300494372 -497683.29526548274 0 -497683.29526548274 9951486.1324808411 0 0 0 0 -2016306.5603294373 -3369529.5215911865 0 -3369529.5215911865 1144183.9564590454 0 0 0 0 -20691.147532231989 72189.06693466194 0 72189.06693466194 985259.35867572157 0 0 0 0 -12544703.087253928 -13130796.262550354 0 -13130796.262550354 7778332.0474333763 0 0 0 0 492950.84840999759 -1859030.1159414528 0 -1859030.1159414528 5340142.5831460766 0 0 0 0 -4127661.5167868137 -3731228.8488922119 0 -3731228.8488922119 14320347.473678589 0 0 0 0 1599000.4741868973 996013.79563903809 0 996013.79563903809 13893755.392961979 0 0 0 0 691736.21020852274 2357417.0446825158 0 2357417.0446825158 7692204.4472373761 0 0 0 0 -820315.59446418285 898180.56482696533 0 898180.56482696533 18936733.789001465 0 0 0 0 -1317110.2600603104 -1349956.2828769684 0 -1349956.2828769684 1271281.7397270203 0 0 0 0 -881802.73470163345 -662112.63732624054 0 -662112.63732624054 2983528.4250183105 0 0 0 0 -621868.48520222271 -1325608.2054981575 0 -1325608.2054981575 2336407.2543203365 0 0 0 0 -1101958.9148845673 1465918.8804626465 0 1465918.8804626465 2122901.6634874344 0 0 0 0 -1136712.1658444274 478060.86571410485 0 478060.86571410485 8328049.5191568164 0 0 0 0 -1463282.069316864 45536.302154541016 0 45536.302154541016 1026516.0116100311 0 0 0 0 -292664.85077635216 323969.31169701926 0 323969.31169701926 9446185.6657770053 0 0 0 0 -1484289.5763940811 -1261083.2504577637 0 -1261083.2504577637 1373624.3297119141 0 0 0 0 -308401.75640143413 -887447.0176876653 0 -887447.0176876653 6992175.3972145543 0 0 0 0 -599034.45202959166 -303581.11620487459 0 -303581.11620487459 6767259.9109861078 0 0 0 0 -1215837.5376952738 -771405.33303642273 0 -771405.33303642273 2175948.8492202759 0 0 0 0 -178040.84451040742 201322.88784684613 0 201322.88784684613 5499111.1310018152 0 0 0 0 -211652.65462613106 101882.18148612976 0 101882.18148612976 2768300.7391815186 0 0 0 0 -664068.88891887665 -615967.2547416687 0 -615967.2547416687 1650208.9239022732 0 0 0 0 -492881.1217916694 589757.15809109248 0 589757.15809109248 8218165.3010554751 0 0 0 0 -1109885.8348543644 -134507.25349903107 0 -134507.25349903107 2947082.1618423462 0 0 0 0 -471212.52867098013 -508875.16091642715 0 -508875.16091642715 6370185.2636350319 0 0 0 0 -1534094.0467262268 -582684.77801513672 0 -582684.77801513672 3765075.2840881348 0 0 0 0 -782074.97959709167 820499.80979919434 0 820499.80979919434 5144655.4757142067 0 0 0 0 -363486.96907448769 682895.9659280777 0 682895.9659280777 2602059.8136138916 0 0 0 0 -124842.87394811609 1524574.3464462971 0 1524574.3464462971 3433276.0278098769 0 0 0 0 -89801.392061948776 26783.505899429321 0 26783.505899429321 1848436.7805747986 0 0 0 0 218412.2678540498 118944.05384464562 0 118944.05384464562 1657954.100607302 0 0 0 0 -21914.797184252413 2214.0060540959239 0 2214.0060540959239 3936553.5177904991 0 0 0 0 219589.2687330246 -198783.34773254395 0 -198783.34773254395 1078202.8057975769 0 0 0 0 356913.59399604797 -204401.57622528076 0 -204401.57622528076 815814.59600830078 0 0 0 0 155527.10905495519 -402472.7351610316 0 -402472.7351610316 2715564.117155767 0 0 0 0 382077.53720676899 -122070.73190975189 0 -122070.73190975189 957086.17100524902 0 0 0 0 -749041.06844711304 -1796023.4213409424 0 -1796023.4213409424 766243.88061523438 0 0 0 0 -232697.33097457886 -1217411.9175415039 0 -1217411.9175415039 765595.07407355309 0 0 0 0 484955.62103913771 -878970.26724240929 0 -878970.26724240929 260110.70215212926 0 0 0 0 246288.59398937225 -294066.51939582825 0 -294066.51939582825 896099.54410552979 0 0 0 0 -327066.81973559468 -2723945.862922478 0 -2723945.862922478 966713.22289825045 0 0 0 0 -191235.13699853927 -755230.6423494895 0 -755230.6423494895 533438.66788995825 0 0 0 0 373938.08873231523 -152460.77953084419 0 -152460.77953084419 295870.99789735675 0 0 0 0 -349105.50472450256 -409698.58972930908 0 -409698.58972930908 209135.02018737793 0 0 0 0 197537.19298729813 -370083.23274262343 0 -370083.23274262343 2008631.4677547226 0 0 0 0 -613916.58432245255 797726.06923675537 0 797726.06923675537 -521605.87454605103 0 0 0 0 -212873.3773483634 -263343.28233289719 0 -263343.28233289719 752123.07006072998 0 0 0 0 -382359.31564795971 -249756.61452388763 0 -249756.61452388763 751087.60803604126 0 0 0 0 24649.601228286687 5190.8363166851923 0 5190.8363166851923 4111.7036922480911 0 0 0 0 -484296.13276004791 117459.51118469238 0 117459.51118469238 59101.399604797363 0 0 0 0 105214.08212979924 -737481.33160938264 0 -737481.33160938264 826801.41251436993 0 0 0 0 575224.54101818171 -206542.06956317835 0 -206542.06956317835 1311197.2345138267 0 0 0 0 467244.4190463344 15153.269931300078 0 15153.269931300078 -324491.68406626955 0 0 0 0 3447400.5700769424 -4017585.1634654999 0 -4017585.1634654999 -7144129.5077483654 0 0 0 0 1594195.3078926206 1713739.4176216125 0 1713739.4176216125 -1150912.607131958 0 0 0 0 849597.36344051617 -531826.6151772514 0 -531826.6151772514 2308197.7275148137 0 0 0 0 1023255.6899409576 -144073.22758374363 0 -144073.22758374363 1777300.9779401654 0 0 0 0 -6529569.9189645052 -28827957.073863983 0 -28827957.073863983 -79292242.502731323 0 0 0 0 -91095.519581794739 -83205.146068572998 0 -83205.146068572998 448552.88786888123 0 0 0 0 -2783026.158741951 -4258185.2832717896 0 -4258185.2832717896 -6311028.7124404907 0 0 0 0 -21837973.303146496 62056896.90304184 0 62056896.90304184 -99960614.576732635 0 0 0 0 1567411.8371609861 349961.91483377852 0 349961.91483377852 2278841.0996106872 0 0 0 0 439371.96128940582 97555.962205886841 0 97555.962205886841 1809275.8179244995 0 0 0 0 214245.70161033704 100522.72461175499 0 100522.72461175499 -190633.4207021147 0 0 0 0 -27459277.784942634 -54262295.881729841 0 -54262295.881729841 -97299110.20281601 0 0 0 0 301107.72763061523 95293.835506439209 0 95293.835506439209 1942132.3116455078 0 0 0 0 439070.34428886703 -177163.2111919634 0 -177163.2111919634 999494.24359829165 0 0 0 0 285439.46592509747 99522.166246414185 0 99522.166246414185 1960430.9754104614 0 0 0 0 24002.444143295288 195868.09997558594 0 195868.09997558594 407325.45858764648 0 0 0 0 -70510.802577972412 -143075.00301933289 0 -143075.00301933289 323416.68557357788 0 0 0 0 387460.1840347175 449151.52792033087 0 449151.52792033087 899538.48959899507 0 0 0 0 132998.88016176224 -99089.413814544678 0 -99089.413814544678 988433.35069274902 0 0 0 0 462618.53501234797 240207.53394268872 0 240207.53394268872 670286.92343090847 0 0 0 0 453153.34454087936 378868.88830323238 0 378868.88830323238 1154125.9798420258 0 0 0 0 525265.31885050389 177776.85188128427 0 177776.85188128427 274543.52715831064 0 0 0 0 3424.7015867233276 57546.537757873535 0 57546.537757873535 263830.42868232727 0 0 0 0 -54490.635341644287 43947.655223846436 0 43947.655223846436 1852521.8261795044 0 0 0 0 197005.06206512451 134767.93657684326 0 134767.93657684326 138336.48430538177 0 0 0 0 -341536.15623201639 111721.2459655609 0 111721.2459655609 4056989.8375306409 0 0 0 0 -471154.05705070496 -354346.12828826904 0 -354346.12828826904 227689.01629638672 0 0 0 0 417438.18857072195 157615.21795582678 0 157615.21795582678 816985.04344104417 0 0 0 0 356994.06136461237 -567117.90173470229 0 -567117.90173470229 1834770.5572932772 0 0 0 0 -652355.12877228914 452901.3936580224 0 452901.3936580224 8423104.2745286413 0 0 0 0 285726.61501006898 -494406.52516242024 0 -494406.52516242024 4069557.0934518836 0 0 0 0 -522940.23657417297 1778657.7090377808 0 1778657.7090377808 2576679.7935905457 0 0 0 0 -1241961.5595588684 1073431.689956665 0 1073431.689956665 3136938.9298400879 0 0 0 0 513632.81640338898 3074976.4045295715 0 3074976.4045295715 1985135.8952941895 0 0 0 0 571973.70961548341 2782149.254348767 0 2782149.254348767 1043195.6868593805 0 0 0 0 -110139.98328851908 97784.165204936638 0 97784.165204936638 119810.66547208279 0 0 0 0 -212432.53135299683 -664343.08570861816 0 -664343.08570861816 2539508.7489013672 0 0 0 0 -1489231.7033720016 829215.53108215332 0 829215.53108215332 991491.08801269531 0 0 0 0 -198101.20915734582 1769751.940913483 0 1769751.940913483 2274575.2121234294 0 0 0 0 -405564.06439792359 520323.55449622282 0 520323.55449622282 1658763.2463977486 0 0 0 0 -556797.66565713845 248234.26659751125 0 248234.26659751125 8197658.3931474322 0 0 0 0 -1017903.7527332306 1611974.834777832 0 1611974.834777832 4648888.9676971436 0 0 0 0 -633827.6235448342 730121.23562909756 0 730121.23562909756 7272708.3826101124 0 0 0 0 655686.3039932251 239691.20151138306 0 239691.20151138306 2892122.1018486023 0 0 0 0 -349964.98546171188 811510.31028556824 0 811510.31028556824 -1076570.1666412354 0 0 0 0 -492903.59858512878 3065281.7284317017 0 3065281.7284317017 6883834.3928070068 0 0 0 0 1462911.7216250896 5480507.2309341431 0 5480507.2309341431 5858666.231918335 0 0 0 0 -185481.67627518135 247699.80425649928 0 247699.80425649928 269894.00206480548 0 0 0 0 -5776567.1800508499 -1668343.7666664124 0 -1668343.7666664124 5006187.0448760986 0 0 0 0 -4154660.9181423187 456374.07061004639 0 456374.07061004639 5773085.9016647339 0 0 0 0 -3106245.7027826309 -1175114.5250282288 0 -1175114.5250282288 7066957.9251861572 0 0 0 0 273205.67657089233 -1717760.7642440796 0 -1717760.7642440796 7598032.3358764648 0 0 0 0 -646165.42269611359 -249559.01863861084 0 -249559.01863861084 5366925.36328125 0 0 0 0 854438.34506034851 3772461.1718597412 0 3772461.1718597412 556837.17126083374 0 0 0 0 -2129991.2268776894 910612.90787696838 0 910612.90787696838 12125175.377868652 0 0 0 0 71723.749350547558 761577.15718013514 0 761577.15718013514 4891560.6032063169 0 0 0 0 135364.07613372803 194242.02100372314 0 194242.02100372314 2772772.0350570679 0 0 0 0 -2109508.3114237785 1723468.6181812286 0 1723468.6181812286 5281147.5470581055 0 0 0 0 -3039053.7043514252 883037.27491378784 0 883037.27491378784 4522462.3584785461 0 0 0 0 -2216768.5927314758 797983.87437438965 0 797983.87437438965 3192717.6925086975 0 0 0 0 19365.978128433228 -906959.58972167969 0 -906959.58972167969 1835938.8550567627 0 0 0 0 -98743.145574569702 1360230.4852523804 0 1360230.4852523804 3685503.1383132935 0 0 0 0 1120573.557601793 482743.49275695701 0 482743.49275695701 699709.2883641012 0 0 0 0 -30494.597394737415 7747.7401293069124 0 7747.7401293069124 61283.599671559408 0 0 0 0 8787.2328281402588 128786.85963439941 0 128786.85963439941 2792761.8884925842 0 0 0 0 209598.96476340294 3528664.6657896042 0 3528664.6657896042 3343014.9949150085 0 0 0 0 1810695.9201886952 -2995950.2795456648 0 -2995950.2795456648 -1331789.1620292664 0 0 0 0 47221.956195144448 697731.05229171831 0 697731.05229171831 4850876.5488099875 0 0 0 0 129827.88696861267 690881.57112121582 0 690881.57112121582 2151267.2768340111 0 0 0 0 3037656.9435443878 9388174.9180984497 0 9388174.9180984497 7498600.9376449585 0 0 0 0 2713463.6457166672 1839215.4488563538 0 1839215.4488563538 -2149512.1707000732 0 0 0 0 -114816.52972747781 452087.1289495253 0 452087.1289495253 178917.06956684217 0 0 0 0 939371.79275608063 -882646.14103317261 0 -882646.14103317261 5370423.6244354248 0 0 0 0 -422269.51425750763 730820.6706231134 0 730820.6706231134 4612720.6541197672 0 0 0 0 -2872152.20353508 2345888.0768947601 0 2345888.0768947601 11804463.972272873 0 0 0 0 -1224505.866713258 63493.066788694821 0 63493.066788694821 2597162.5275483634 0 0 0 0 1007562.8999992465 3400332.2453046483 0 3400332.2453046483 2450863.7643057983 0 0 0 0 -11343201.379565239 5796837.2472648621 0 5796837.2472648621 19806807.974441528 0 0 0 0 -14724153.403098106 9476046.4722242355 0 9476046.4722242355 16588674.496191025 0 0 0 0 -3610368.0443506241 7142242.8742542267 0 7142242.8742542267 -1129660.6226882935 0 0 0 0 2674245.6988544464 -9095539.9215736389 0 -9095539.9215736389 -7952181.0622825623 0 0 0 0 -270384.16735442728 160410.84509417042 0 160410.84509417042 1756621.1923723004 0 0 0 0 1079911.192940712 23744159.037223816 0 23744159.037223816 -28778876.449951172 0 0 0 0 4081311.3191547394 15574792.47360611 0 15574792.47360611 6075829.1466732025 0 0 0 0 1214930.8019906534 1972228.4158478407 0 1972228.4158478407 3020702.7612072136 0 0 0 0 -144109.91855931282 996315.29624462128 0 996315.29624462128 1810790.9642181396 0 0 0 0 382272.64122486115 669498.36582183838 0 669498.36582183838 1794144.1435983181 0 0 0 0 -48995773.459690094 -4197443.7092037201 0 -4197443.7092037201 4666523.5169525146 0 0 0 0 -52515135.639212132 -26286776.214084148 0 -26286776.214084148 22591928.957595825 0 0 0 0 116050.38667201187 651383.2770790651 0 651383.2770790651 112993.28989771195 0 0 0 0 -118815220.26154518 -9316119.4014434814 0 -9316119.4014434814 18202791.496444702 0 0 0 0 -162748.13823800604 -109611.30902858695 0 -109611.30902858695 141238.7462219093 0 0 0 0 650622.57880783081 272314.84475898743 0 272314.84475898743 1852733.5480766296 0 0 0 0 -119398.67161989212 512444.16824913025 0 512444.16824913025 2237111.4662399292 0 0 0 0 318550.94870793819 239823.62073755264 0 239823.62073755264 1892920.2143630981 0 0 0 0 484860.93500256538 672917.38524246216 0 672917.38524246216 1628570.398475647 0 0 0 0 457706.05216598511 747376.57262802124 0 747376.57262802124 1540033.0953292847 0 0 0 0 1061835.8233933961 2347104.1916530202 0 2347104.1916530202 2659775.9997507129 0 0 0 0 1567733.5678955219 718659.07160776667 0 718659.07160776667 2511156.8021698669 0 0 0 0 359032.85221576691 737886.69916343689 0 737886.69916343689 1688927.7874031067 0 0 0 0 -57367884.648534775 18261962.384979248 0 18261962.384979248 21322204.381744385 0 0 0 0 -271085564.40242004 -64822797.280039787 0 -64822797.280039787 154033858.07884598 0 0 0 0 -105302408.42052507 -15133080.841856003 0 -15133080.841856003 122956044.83661079 0 0 0 0 -189373173.45055008 -25271437.892079353 0 -25271437.892079353 147124884.17379761 0 0 0 0 -110006484.70549774 -5367512.3091011047 0 -5367512.3091011047 149337811.45472717 0 0 0 0 -253697712.29107666 23284032.144669533 0 23284032.144669533 195046120.09196854 0 0 0 0 13860758.638396263 10723534.943311691 0 10723534.943311691 11954443.410043716 0 0 0 0 -164173.5640124043 1139143.3139195081 0 1139143.3139195081 660265.16956219822 0 0 0 0 -188237485.03915787 5834270.1309623718 0 5834270.1309623718 364053028.15122223 0 0 0 0 13571167.098583996 44155770.62980362 0 44155770.62980362 27380551.770915985 0 0 0 0 -1024439.1033163071 3889073.3814935684 0 3889073.3814935684 -88056975.520949364 0 0 0 0 -1072889.7364762777 1912838.3824730031 0 1912838.3824730031 1701595.2480779793 0 0 0 0 19390324.953820229 -16050352.320916176 0 -16050352.320916176 -85106347.388746262 0 0 0 0 -46020322.593757153 -15552410.801734924 0 -15552410.801734924 52015016.036935806 0 0 0 0 -1151505.5697708358 -662335.08057340421 0 -662335.08057340421 5051142.9880666956 0 0 0 0 -37387937.60487175 -43803373.075555801 0 -43803373.075555801 -30018444.20285511 0 0 0 0 -32046.943652710877 66865.492220809683 0 66865.492220809683 127517.85261976137 0 0 0 0 -113455891.49004269 -44461810.137493134 0 -44461810.137493134 -84814051.313045502 0 0 0 0 -209017912.42098141 -108218661.72214603 0 -108218661.72214603 28102483.499359131 0 0 0 0 -198198541.18099999 -65781611.031333447 0 -65781611.031333447 106053095.93474197 0 0 0 0 -84202921.099927902 16472531.500780106 0 16472531.500780106 21315940.860729218 0 0 0 0 -67803312.780770063 -13227914.352499485 0 -13227914.352499485 64724303.774288177 0 0 0 0 -101798730.52542591 75718114.784601212 0 75718114.784601212 -17552290.454648018 0 0 0 0 -46225052.657380581 100234013.15679789 0 100234013.15679789 54541345.127410889 0 0 0 0 -84622361.333827019 49433514.536136627 0 49433514.536136627 9442103.3073616028 0 0 0 0 -38868564.184648991 57264706.74296093 0 57264706.74296093 -78811430.742084503 0 0 0 0 -35414387.578990936 88008725.289076805 0 88008725.289076805 -44035354.625261307 0 0 0 0 -79184878.774996758 77484267.912878036 0 77484267.912878036 15803902.987976074 0 0 0 0 -831088.55345548014 1475069.0329036703 0 1475069.0329036703 4677622.8036989905 0 0 0 0 -610288.15274524689 2342524.2375335693 0 2342524.2375335693 -192236.45186519623 0 0 0 0 -463283.07491596416 3554404.728649443 0 3554404.728649443 1739882.6827542856 0 0 0 0 9198469.3621768951 -4239060.9068107605 0 -4239060.9068107605 -8701791.8436508179 0 0 0 0 314341.96266655775 3253327.5778577272 0 3253327.5778577272 2104574.9229335953 0 0 0 0 -91701621.555654764 40819587.924471378 0 40819587.924471378 -21960821.417060852 0 0 0 0 -126197274.34265947 47817342.280703068 0 47817342.280703068 10003034.984464645 0 0 0 0 5604997.5958430767 19486051.214729309 0 19486051.214729309 2459480.8436813354 0 0 0 0 -496047.10289906355 3693435.5903787632 0 3693435.5903787632 2009191.2013547644 0 0 0 0 -2530648.9016885757 708604.31064224243 0 708604.31064224243 2601669.0570678711 0 0 0 0 -49183.152749253204 -117251.88450879604 0 -117251.88450879604 128319.78708071262 0 0 0 0 -2365538.7422862053 1786960.7863483429 0 1786960.7863483429 2865101.643491745 0 0 0 0 -575439.54923694115 2156946.3570555695 0 2156946.3570555695 2769646.8870362882 0 0 0 0 -2209948.9359769821 779777.24419403076 0 779777.24419403076 3364677.1380655766 0 0 0 0 -2835633.7578792572 1772663.1431007385 0 1772663.1431007385 1561381.8502349854 0 0 0 0 -3065423.8274674416 1149141.3803367615 0 1149141.3803367615 1917271.623134613 0 0 0 0 -1424109.9584445953 937394.7357635498 0 937394.7357635498 2578331.0467195511 0 0 0 0 -637442.12693309784 994819.7593421936 0 994819.7593421936 2145894.3469047546 0 0 0 0 -1885495.8928689957 621959.46101760864 0 621959.46101760864 2534501.2996292114 0 0 0 0 -77937.44128950173 866399.93137863278 0 866399.93137863278 1790153.1452710666 0 0 0 0 -1255144.3998432159 220743.35808181763 0 220743.35808181763 1652082.3051834106 0 0 0 0 -29319.336297610309 2146410.1791096274 0 2146410.1791096274 4322090.7371579427 0 0 0 0 -6829953.4631130695 -428239.03849029541 0 -428239.03849029541 11427206.956954956 0 0 0 0 -4743513.2719203234 2055836.142157793 0 2055836.142157793 3683303.4483413696 0 0 0 0 -1904761.0468525887 1895425.0024280548 0 1895425.0024280548 1700717.2550495863 0 0 0 0 9309.4989530561434 775372.62581923115 0 775372.62581923115 1691356.0755745061 0 0 0 0 1140914.2274093628 3799306.2197952271 0 3799306.2197952271 4626384.6050872803 0 0 0 0 152530.23049211502 6451424.5697822571 0 6451424.5697822571 6463114.9888534546 0 0 0 0 7960378.3886846304 3074562.2478904724 0 3074562.2478904724 2408371.6822052002 0 0 0 0 -24981.288321130472 1825799.9181911624 0 1825799.9181911624 3478541.4312910587 0 0 0 0 -1755497.7524242401 1596690.0433425903 0 1596690.0433425903 1395986.5241851807 0 0 0 0 6811.8862469798187 2647721.3997356575 0 2647721.3997356575 2791881.4525525142 0 0 0 0 878713.5910615006 1811138.9696731437 0 1811138.9696731437 5449337.2102182163 0 0 0 0 305499.20663642883 -87093.15119934082 0 -87093.15119934082 1123585.0905094147 0 0 0 0 -595691.98813152313 -1829764.0096569061 0 -1829764.0096569061 3577744.0993347168 0 0 0 0 -3324808.6391940117 -1760524.2631416321 0 -1760524.2631416321 3427487.2813720703 0 0 0 0 -3307168.9801177979 4025035.564119339 0 4025035.564119339 16505427.495603561 0 0 0 0 -2533352.8791855308 2174028.6750014527 0 2174028.6750014527 8592381.8643445168 0 0 0 0 5013487.6130495071 4305246.6624259949 0 4305246.6624259949 12774598.547717094 0 0 0 0 -1070405.6441202164 1633354.869562149 0 1633354.869562149 10182232.238042831 0 0 0 0 -3555861.0032424927 11998589.687125444 0 11998589.687125444 24912705.064918518 0 0 0 0 -1364242.1016921997 153770.9925365448 0 153770.9925365448 6747807.9911346436 0 0 0 0 -967521.43399319996 1921225.08305554 0 1921225.08305554 6903796.7129641138 0 0 0 0 581182.59073501779 -60179.316603653133 0 -60179.316603653133 7861319.06603326 0 0 0 0 -1568929.2004365921 719902.75793075562 0 719902.75793075562 1949651.3400726318 0 0 0 0 -3616508.207681179 827817.19226074219 0 827817.19226074219 4088826.3178329468 0 0 0 0 -712348.13236344326 -717080.6014470309 0 -717080.6014470309 8649855.9398388546 0 0 0 0 -716897.30835533142 1309075.9891586304 0 1309075.9891586304 960672.42340087891 0 0 0 0 423552.51326425921 1155519.6115683038 0 1155519.6115683038 1251345.1337026097 0 0 0 0 -4557647.2288589478 -805789.33406066895 0 -805789.33406066895 10640932.696670532 0 0 0 0 -673125.35157192394 -215354.76875424478 0 -215354.76875424478 10890738.266386714 0 0 0 0 -748962.23241059994 -401614.17767215986 0 -401614.17767215986 10860938.846676126 0 0 0 0 -732091.4993185997 471302.89812278748 0 471302.89812278748 8075345.027885437 0 0 0 0 -545803.02441608906 -1442653.7506132126 0 -1442653.7506132126 13767000.426940918 0 0 0 0 4746385.4589320421 12187102.549862385 0 12187102.549862385 9536580.8508987427 0 0 0 0 -459425.02357700479 442540.98255313188 0 442540.98255313188 1120700.4028135762 0 0 0 0 669003.66643548012 1233755.0910129547 0 1233755.0910129547 7911530.2030305862 0 0 0 0 -1001873.660910368 9203517.0112161636 0 9203517.0112161636 15222448.810272217 0 0 0 0 -5218589.9681456089 4310444.7105722427 0 4310444.7105722427 15921487.313415527 0 0 0 0 8628375.4011673927 2654693.8544120789 0 2654693.8544120789 6312485.1733474731 0 0 0 0 92944.67138041131 1551179.423091107 0 1551179.423091107 3857151.6862171367 0 0 0 0 -3195940.271248579 134717.24602890015 0 134717.24602890015 5944114.8366775513 0 0 0 0 913293.88397455215 -656301.91149520874 0 -656301.91149520874 5779694.643371582 0 0 0 0 2210888.8097791672 1030506.3061828613 0 1030506.3061828613 3963488.9551832676 0 0 0 0 -1315468.4763110876 1185032.5745410919 0 1185032.5745410919 5700647.906829834 0 0 0 0 4109621.0213842392 5533564.8458480835 0 5533564.8458480835 9449839.5076370239 0 0 0 0 -1468926.1609144211 320773.14459228516 0 320773.14459228516 5926203.4882278442 0 0 0 0 167664.2876598835 6768952.3172092438 0 6768952.3172092438 14965967.98840332 0 0 0 0 -546510.47215986252 4552665.3674049377 0 4552665.3674049377 11582766.354873657 0 0 0 0 -659568.33046197891 4084355.3466072083 0 4084355.3466072083 10859857.050537109 0 0 0 0 -931059.41892004013 2430917.801235199 0 2430917.801235199 10379701.266933441 0 0 0 0 419805.79846858978 3074199.440372467 0 3074199.440372467 8642209.8567657471 0 0 0 0 -121355.49891280779 193431.88894535601 0 193431.88894535601 319352.52662271075 0 0 0 0 1296659.5489253998 6293628.0552520752 0 6293628.0552520752 11847060.036220551 0 0 0 0 16797.307636260986 -497451.47750854492 0 -497451.47750854492 4753925.1944904327 0 0 0 0 1393574.5224428177 4918762.2469291687 0 4918762.2469291687 10416358.747764587 0 0 0 0 -1281592.1574208736 1170437.6492366791 0 1170437.6492366791 4130196.0173187256 0 0 0 0 -113249.48365685984 57093.778217090294 0 57093.778217090294 6808701.585315438 0 0 0 0 -1438871.7109146118 1152563.4577331543 0 1152563.4577331543 1988884.975189209 0 0 0 0 -506926.63375091553 965529.29739379883 0 965529.29739379883 3011073.3762207031 0 0 0 0 -1449713.6255640984 413785.20407152176 0 413785.20407152176 4795225.7312927246 0 0 0 0 905516.53845407499 1141803.6163267214 0 1141803.6163267214 2702827.3978388533 0 0 0 0 7782490.5514068604 7108789.5796203613 0 7108789.5796203613 2586150.6553344727 0 0 0 0 -774428.47461191053 -800608.22622008622 0 -800608.22622008622 1677428.2825100273 0 0 0 0 1156373.0706067602 1514848.3285171329 0 1514848.3285171329 1292538.2248948216 0 0 0 0 45792.706522702356 75750.530495402403 0 75750.530495402403 -38161.624661535025 0 0 0 0 -238591.47821545601 111723.99901199341 0 111723.99901199341 4531456.5837020874 0 0 0 0 477657.03614425659 3202845.0055007935 0 3202845.0055007935 7218097.2653846741 0 0 0 0 1278590.4780343771 2220542.3350014687 0 2220542.3350014687 6472053.8565979004 0 0 0 0 952007.56798809452 154267.91953892447 0 154267.91953892447 6925376.5925774053 0 0 0 0 -788631.79290249129 -870475.01707686298 0 -870475.01707686298 8514450.2163347341 0 0 0 0 -1630192.656799078 1260912.4374313354 0 1260912.4374313354 8709642.7556495667 0 0 0 0 -1376990.1874242043 -404022.16850060225 0 -404022.16850060225 9806330.1579837576 0 0 0 0 -1961563.5939697325 1800930.3915061951 0 1800930.3915061951 17044708.515350342 0 0 0 0 -1813298.8702216148 -1383911.6743431091 0 -1383911.6743431091 8392836.6316633224 0 0 0 0 -613493.82724296546 636916.47123849764 0 636916.47123849764 5949327.8395749945 0 0 0 0 -559308.02808713913 990768.75166320801 0 990768.75166320801 17502519.058233261 0 0 0 0 -480587.86056515202 -8400206.9235420227 0 -8400206.9235420227 10065543.726852417 0 0 0 0 -2914400.2492242903 -6173925.4142799377 0 -6173925.4142799377 8176426.8787536621 0 0 0 0 -3518405.2111886516 -6262726.0132808685 0 -6262726.0132808685 11223709.659362793 0 0 0 0 527234.29280555295 -1932229.0222012717 0 -1932229.0222012717 7851462.9015826192 0 0 0 0 -4043182.8195594288 -7598687.3874073029 0 -7598687.3874073029 11971720.405395508 0 0 0 0 -4742145.5404545739 -9285774.3825178146 0 -9285774.3825178146 9935132.0855331421 0 0 0 0 -15163013.591645394 -4742691.060669899 0 -4742691.060669899 19587617.527694702 0 0 0 0 -12763221.897561651 -14440597.198161125 0 -14440597.198161125 30556419.075286865 0 0 0 0 -40636108.118292518 -16408438.611686707 0 -16408438.611686707 36556824.824417114 0 0 0 0 -26397682.087651543 -11812231.670860291 0 -11812231.670860291 30341643.285573959 0 0 0 0 -16909941.660405099 2614927.6519927979 0 2614927.6519927979 27389071.591140747 0 0 0 0 -11976705.148563705 4868011.130027771 0 4868011.130027771 12860647.560302734 0 0 0 0 -9136765.7684200555 -4641044.9297866821 0 -4641044.9297866821 17180008.564273834 0 0 0 0 -2749697.036357522 -3852214.5392084122 0 -3852214.5392084122 6653768.7416610718 0 0 0 0 -6148478.8743030205 -499328.41123962402 0 -499328.41123962402 15124673.140645981 0 0 0 0 -116257.62747179954 -828404.25544352643 0 -828404.25544352643 9624441.4666133933 0 0 0 0 -780157.24782368785 1961810.2947086673 0 1961810.2947086673 9398567.9174122438 0 0 0 0 -8850501.1711465865 1466645.8965606689 0 1466645.8965606689 15567687.632416725 0 0 0 0 -5746088.5896897316 2270681.7420825958 0 2270681.7420825958 5340692.8784866333 0 0 0 0 -1250034.7928696394 5480616.4017886017 0 5480616.4017886017 8364698.9353720304 0 0 0 0 -13938600.111658335 2081571.0200519562 0 2081571.0200519562 6201694.5313286781 0 0 0 0 -5447926.5884026885 -351835.42079138756 0 -351835.42079138756 5588400.8262557983 0 0 0 0 -11083542.614088535 901505.83111190796 0 901505.83111190796 5909471.0138931274 0 0 0 0 -198444.17177944799 -206835.71432446875 0 -206835.71432446875 382226.40434586629 0 0 0 0 -6937940.364941895 693867.73364281654 0 693867.73364281654 5730228.6947174072 0 0 0 0 -6588504.5330862701 -1810096.0581772327 0 -1810096.0581772327 6076149.0729141235 0 0 0 0 -604051.65147721767 276760.00269126892 0 276760.00269126892 7370281.89777565 0 0 0 0 -1384045.0504214764 -1149534.743719101 0 -1149534.743719101 7715295.4550447464 0 0 0 0 -4054040.9884569049 -2099463.6575593948 0 -2099463.6575593948 6026440.380531311 0 0 0 0 -3381945.8350234628 378945.78308820724 0 378945.78308820724 5687185.8620605469 0 0 0 0 -465944.91465432907 2595566.7548219496 0 2595566.7548219496 9788844.6283224784 0 0 0 0 -5663549.2319040298 1182676.3558616638 0 1182676.3558616638 8766805.0993328094 0 0 0 0 -7767670.1738014221 21916990.408159733 0 21916990.408159733 13691332.817306519 0 0 0 0 -6003603.653629303 21472458.325080395 0 21472458.325080395 9565013.6668186188 0 0 0 0 -938907.99504436692 3601118.6024343818 0 3601118.6024343818 1184646.9051577412 0 0 0 0 -5959313.4362792969 19802548.219006538 0 19802548.219006538 15236394.78263855 0 0 0 0 -3640976.627374649 1545381.4175033569 0 1545381.4175033569 3374718.4199447632 0 0 0 0 -8514325.4730606079 -1109217.5471143723 0 -1109217.5471143723 14643138.47008419 0 0 0 0 -1985788.4214788303 1135605.0636319667 0 1135605.0636319667 7263674.6249141488 0 0 0 0 -8067783.5588588715 -249550.20145225525 0 -249550.20145225525 7635598.1914901733 0 0 0 0 -5183604.8811035156 18820785.961048126 0 18820785.961048126 17997587.044548035 0 0 0 0 -706659.30909347534 15460443.315387726 0 15460443.315387726 18694847.772621155 0 0 0 0 3317978.5517997742 15620139.622760773 0 15620139.622760773 13037361.925418854 0 0 0 0 7532187.209651947 8516070.4806556702 0 8516070.4806556702 20531730.713959694 0 0 0 0 16861610.587718964 17040749.502450943 0 17040749.502450943 12214504.257658005 0 0 0 0 -2358172.2748508453 12575054.534679413 0 12575054.534679413 19909956.895797729 0 0 0 0 27864461.38773632 7212100.2619695663 0 7212100.2619695663 11174030.07390213 0 0 0 0 -9894540.4890003204 16735988.455951691 0 16735988.455951691 23408404.244337082 0 0 0 0 -11370533.388383865 -1376621.199798584 0 -1376621.199798584 11079013.907115936 0 0 0 0 -42820520.346035361 11974290.622892499 0 11974290.622892499 26980154.416090012 0 0 0 0 -786328.29564432066 1129228.9985601802 0 1129228.9985601802 10294802.702633187 0 0 0 0 -1959929.7299966812 11538276.728922844 0 11538276.728922844 3547267.9560775757 0 0 0 0 -13319648.656774044 -2526843.9481716156 0 -2526843.9481716156 10365683.479667664 0 0 0 0 -12790840.813698769 7699867.6639089584 0 7699867.6639089584 5697130.2424459457 0 0 0 0 -1378826.7668048572 -1031497.4811505715 0 -1031497.4811505715 10891336.353203004 0 0 0 0 -40420042.720667362 -5260109.3186731339 0 -5260109.3186731339 29301100.267711639 0 0 0 0 3840110.6785459518 15439855.423465252 0 15439855.423465252 29161494.88359642 0 0 0 0 -21533217.27009964 -3254160.2994194031 0 -3254160.2994194031 49087620.564248562 0 0 0 0 -13209553.791761398 8934253.7041215897 0 8934253.7041215897 34043591.26483345 0 0 0 0 9870300.6688787937 14786503.272211313 0 14786503.272211313 12606693.827899933 0 0 0 0 8174918.7455568314 9776770.7332000732 0 9776770.7332000732 32888155.355650425 0 0 0 0 5807626.1884940863 24543193.709354877 0 24543193.709354877 42404983.334308624 0 0 0 0 -216604.80668018747 516617.4535762365 0 516617.4535762365 1206178.5903379833 0 0 0 0 31286139.453458309 53263664.512321234 0 53263664.512321234 92208204.23713398 0 0 0 0 -2269517.6709599495 -82939373.060576439 0 -82939373.060576439 -8306788.3238825798 0 0 0 0 524365.53663635254 -30605888.899839401 0 -30605888.899839401 -21142819.979883194 0 0 0 0 -87266038.812150955 -49547825.053326607 0 -49547825.053326607 21893643.13848114 0 0 0 0 31060482.825269103 38176908.48988378 0 38176908.48988378 21488450.777347565 0 0 0 0 -924205.43838130508 1835730.80729568 0 1835730.80729568 3982425.4508283632 0 0 0 0 -69774165.553216934 -10803800.99965477 0 -10803800.99965477 19106264.385375977 0 0 0 0 -63173636.943901062 -20881607.057673454 0 -20881607.057673454 3169814.386220932 0 0 0 0 -96530818.478225708 -3603285.0951576233 0 -3603285.0951576233 18046627.194404602 0 0 0 0 -61904417.16280365 8943647.1103858948 0 8943647.1103858948 24436710.772987366 0 0 0 0 -52538436.248670578 10253158.073032379 0 10253158.073032379 22312151.513055801 0 0 0 0 -99311213.292269707 27035247.112947464 0 27035247.112947464 50733401.634399414 0 0 0 0 -16501278.273731232 -5258215.3661575317 0 -5258215.3661575317 5541791.6319127083 0 0 0 0 -44413148.782396317 -4114165.7013664246 0 -4114165.7013664246 15449721.691986084 0 0 0 0 -15533293.701503754 1900035.9852933884 0 1900035.9852933884 19343869.680194855 0 0 0 0 -14878903.970617294 2099246.1887531281 0 2099246.1887531281 16459801.979205608 0 0 0 0 -24603835.071652412 24665329.587703705 0 24665329.587703705 30985563.285186768 0 0 0 0 -60445104.684043884 34597555.859306335 0 34597555.859306335 51365337.146900177 0 0 0 0 -164060486.94206333 62301494.578781128 0 62301494.578781128 203456673.36479187 0 0 0 0 -44572004.335787296 -9088771.9935035706 0 -9088771.9935035706 -13225235.294752121 0 0 0 0 -151046462.00615603 286967762.37655556 0 286967762.37655556 28035200.954174042 0 0 0 0 -125884975.96290493 8455178.7851581573 0 8455178.7851581573 43951641.804046631 0 0 0 0 -108662550.39635116 -109157332.30586636 0 -109157332.30586636 -169406103.74813461 0 0 0 0 -9659169.0640785694 -8072408.081287384 0 -8072408.081287384 16465893.667163849 0 0 0 0 1047738.4217753857 26141418.324680328 0 26141418.324680328 -17245746.851238251 0 0 0 0 -303178.52040926687 -487146.01235717162 0 -487146.01235717162 2506767.0108308736 0 0 0 0 -6655880.3970361054 2132947.2522096634 0 2132947.2522096634 7058590.3943023682 0 0 0 0 17213503.533485301 -25705782.782583237 0 -25705782.782583237 44307409.933135986 0 0 0 0 7030798.4343593791 -5418092.640007019 0 -5418092.640007019 60428847.983505249 0 0 0 0 -15480195.722466171 -18063691.854942322 0 -18063691.854942322 53334879.615318298 0 0 0 0 -53807.152433160751 -399189.52721666917 0 -399189.52721666917 1834481.066866409 0 0 0 0 -3044455.6179358941 -17800050.714780807 0 -17800050.714780807 56430483.81930542 0 0 0 0 30084629.624014266 -81314794.231170654 0 -81314794.231170654 28703580.245605469 0 0 0 0 60321.606541453359 -373258.87873403728 0 -373258.87873403728 1514119.2959422842 0 0 0 0 -34365.571058218891 1840728.0635948181 0 1840728.0635948181 14864364.509487152 0 0 0 0 23431711.362636596 -5381713.8004379272 0 -5381713.8004379272 -53666595.400100708 0 0 0 0 -6348204.106549615 2469367.0932207108 0 2469367.0932207108 15973917.834014893 0 0 0 0 25314348.04239656 -27393552.534629822 0 -27393552.534629822 10135332.200408936 0 0 0 0 15558263.720738927 15042313.639133453 0 15042313.639133453 12180084.868507385 0 0 0 0 -4700861.5038885614 14550383.651711464 0 14550383.651711464 64252174.826095581 0 0 0 0 -37670502.131057262 37366399.826416016 0 37366399.826416016 109526827.16598511 0 0 0 0 -81962.445939713609 -146571.89043489285 0 -146571.89043489285 199624.96388181672 0 0 0 0 5096908.501301432 310634.44841766357 0 310634.44841766357 -1017494.1992111206 0 0 0 0 6499548.6136279516 8262680.3064994812 0 8262680.3064994812 5247927.2628555298 0 0 0 0 3051.352726041524 5834216.3716697693 0 5834216.3716697693 17533941.49521637 0 0 0 0 9376.8288034013749 1562912.0490919084 0 1562912.0490919084 1674370.631439209 0 0 0 0 498647.64608256565 2569448.2706680298 0 2569448.2706680298 3571479.165184021 0 0 0 0 -4287214.2214411609 -860727.04139328003 0 -860727.04139328003 3635354.9614067078 0 0 0 0 -4020604.8199983258 -1145263.8116588593 0 -1145263.8116588593 1737189.3273925781 0 0 0 0 521920.49406996975 2920309.9565639496 0 2920309.9565639496 1449980.8224029541 0 0 0 0 -4021.0414718373977 41135.384023277089 0 41135.384023277089 105448.50969463319 0 0 0 0 2142965.8756217062 -5060803.0919456482 0 -5060803.0919456482 7108615.7780227661 0 0 0 0 -270686.68809221894 -479972.0669514006 0 -479972.0669514006 615300.59535049647 0 0 0 0 5701606.3436628878 -5832174.3379955292 0 -5832174.3379955292 7020972.2646636963 0 0 0 0 -917062.62195926905 -2534200.4854354858 0 -2534200.4854354858 5452209.7402572632 0 0 0 0 110695.46252238806 538953.58196647838 0 538953.58196647838 2696757.3245799066 0 0 0 0 -414425.51657253504 -1462217.9845962524 0 -1462217.9845962524 7664645.9333648682 0 0 0 0 -539774.38717389107 -807997.7590637207 0 -807997.7590637207 6573010.4579825401 0 0 0 0 -250336.90897214413 -423843.87699890137 0 -423843.87699890137 7045737.9373550415 0 0 0 0 104727.34656093735 670758.64426504821 0 670758.64426504821 3794242.2536346652 0 0 0 0 -901757.16069638729 -204387.78911972046 0 -204387.78911972046 6994767.1175079346 0 0 0 0 2020884.1175668333 -11961107.804876804 0 -11961107.804876804 32350226.094184875 0 0 0 0 -703841.91172262398 -526458.9095006939 0 -526458.9095006939 3749253.6162291765 0 0 0 0 -1202107.0313059092 -482219.94590759277 0 -482219.94590759277 8274864.3627319336 0 0 0 0 -1185731.0576053858 1297741.4877624512 0 1297741.4877624512 3504561.1256217957 0 0 0 0 -605110.81157588959 -67666.005249023438 0 -67666.005249023438 4914975.0056568384 0 0 0 0 -446515.17392380006 1422321.2727010567 0 1422321.2727010567 3776332.6200257782 0 0 0 0 -1327273.0922660828 1069881.361995697 0 1069881.361995697 3137958.6404644251 0 0 0 0 -1644770.8104411012 -197319.39415218309 0 -197319.39415218309 3987944.1482093185 0 0 0 0 -771561.02958226204 -4837711.671081543 0 -4837711.671081543 14194483.530586243 0 0 0 0 -6411728.3055254817 -10883226.85991478 0 -10883226.85991478 31762988.898071289 0 0 0 0 36940.808279751815 -185721.29849564703 0 -185721.29849564703 -53737.013314962387 0 0 0 0 -4200810.4790074527 -4550491.1526298523 0 -4550491.1526298523 14453354.13508606 0 0 0 0 -1411702.027821904 -2405013.5536453128 0 -2405013.5536453128 5648338.8337592725 0 0 0 0 -2193246.6619573236 -2821470.2976303101 0 -2821470.2976303101 13165581.5390625 0 0 0 0 -563102.63849565387 233084.20505714417 0 233084.20505714417 10480353.164382935 0 0 0 0 -3072258.7835961282 240970.5696144104 0 240970.5696144104 17677342.891799927 0 0 0 0 -3102059.988452211 246599.69120979309 0 246599.69120979309 18513830.486694336 0 0 0 0 322227.89227866381 -5631686.4401397705 0 -5631686.4401397705 24307182.376968384 0 0 0 0 -3052782.8989148438 -750555.05233001709 0 -750555.05233001709 23537093.428237915 0 0 0 0 -5451991.0181328058 3614284.961730957 0 3614284.961730957 19479460.107391357 0 0 0 0 -1125942.2968282104 -1196732.4893417358 0 -1196732.4893417358 16811015.417572021 0 0 0 0 -5873234.1847380381 -175766.12859773636 0 -175766.12859773636 29946800.29524231 0 0 0 0 -2124359.4137406051 4716809.2061080933 0 4716809.2061080933 19716767.955215454 0 0 0 0 -4044195.8734435141 9840621.1361312866 0 9840621.1361312866 7188461.6483612061 0 0 0 0 -2449594.7502183616 4188366.8860702515 0 4188366.8860702515 19375897.114379883 0 0 0 0 -553148.61116611247 4272878.797278747 0 4272878.797278747 16932065.872665405 0 0 0 0 5942228.9805721045 -10785810.006977081 0 -10785810.006977081 29726100.258880615 0 0 0 0 882683.65321733057 -18524580.420303345 0 -18524580.420303345 41293232.996208191 0 0 0 0 -6654763.0149784088 -9010767.3093338013 0 -9010767.3093338013 34771835.607097626 0 0 0 0 -22653514.40724127 -5956864.823387146 0 -5956864.823387146 39487920.334377289 0 0 0 0 -15510917.882113457 10825956.607559204 0 10825956.607559204 21771382.817691803 0 0 0 0 9190208.8372159302 2084843.6242599487 0 2084843.6242599487 -3871078.6467514038 0 0 0 0 -12746452.651036086 -9577924.2515363693 0 -9577924.2515363693 3663157.2179718018 0 0 0 0 -15951205.360188778 9350849.9375238419 0 9350849.9375238419 8525128.6400146484 0 0 0 0 1419527.7716475576 6682708.5219573975 0 6682708.5219573975 7831938.5679931641 0 0 0 0 1207.6316867344758 -8713.6834989171475 0 -8713.6834989171475 51859.590433605015 0 0 0 0 -12118962.228487499 8766478.7965488434 0 8766478.7965488434 24471009.33366394 0 0 0 0 -286136.13545255281 186387.79110505432 0 186387.79110505432 3254097.3465359919 0 0 0 0 979537.1322205998 -7472821.3113822937 0 -7472821.3113822937 4399764.8447742462 0 0 0 0 -84025.315530341424 35114.335182789713 0 35114.335182789713 1035548.9006101042 0 0 0 0 586140.37269504368 -8338692.4304580688 0 -8338692.4304580688 -4979452.7406368256 0 0 0 0 588595.18692983314 -6767360.6881351471 0 -6767360.6881351471 3193123.5292739868 0 0 0 0 -222063.46624669433 -4939844.4830513 0 -4939844.4830513 4704203.6771621704 0 0 0 0 5571835.9077183753 -14023621.493347168 0 -14023621.493347168 5444358.5862388611 0 0 0 0 -738209.72110711411 -14778163.979118347 0 -14778163.979118347 16810318.783622742 0 0 0 0 -603553.48973902315 -12926667.185279608 0 -12926667.185279608 11293433.98550415 0 0 0 0 -9568136.3686880581 -14001247.853385925 0 -14001247.853385925 19336969.36076355 0 0 0 0 14036419.21464847 -10215674.675983429 0 -10215674.675983429 6639867.1633071899 0 0 0 0 5497954.8946187198 -19768599.524162292 0 -19768599.524162292 18577315.487983704 0 0 0 0 29227569.755375788 -30382347.66493988 0 -30382347.66493988 28637944.03313446 0 0 0 0 14747617.147127166 1045330.2805976868 0 1045330.2805976868 57827993.30493927 0 0 0 0 4040930.6577029154 -15996689.470619202 0 -15996689.470619202 21031585.305179596 0 0 0 0 2031181.9577929263 -25578560.510558128 0 -25578560.510558128 27677828.448608398 0 0 0 0 -17394109.489514314 -27123825.713722229 0 -27123825.713722229 38499121.874282837 0 0 0 0 332826.77212216705 4186400.6595306396 0 4186400.6595306396 3138536.9384994507 0 0 0 0 -237.29178471962223 -2139.5895948093385 0 -2139.5895948093385 28262.956920832396 0 0 0 0 11862948.148359701 -16685945.201313019 0 -16685945.201313019 16322801.015327454 0 0 0 0 25572053.940918148 46343532.681165695 0 46343532.681165695 54897334.658287048 0 0 0 0 481032.80674471334 21138344.866630554 0 21138344.866630554 49468269.284172058 0 0 0 0 3909073.2540849596 28595241.297389984 0 28595241.297389984 32141766.24230957 0 0 0 0 4526177.3528318107 13738891.221130371 0 13738891.221130371 18530857.234176636 0 0 0 0 2423184.7562072948 15879997.365194321 0 15879997.365194321 2770502.9366912842 0 0 0 0 4160617.7389743552 6380780.3363189697 0 6380780.3363189697 25399072.235383987 0 0 0 0 599638.27387157828 -15518916.098733902 0 -15518916.098733902 22045056.464874268 0 0 0 0 2747180.5933972225 -7689750.1892051697 0 -7689750.1892051697 50569930.700942993 0 0 0 0 3009.8944143130939 -7011.5733353933319 0 -7011.5733353933319 22879.151313625276 0 0 0 0 12616081.953203276 15148641.502475739 0 15148641.502475739 44628056.702412575 0 0 0 0 -17300967.614716858 -26064531.018413544 0 -26064531.018413544 28855726.273696899 0 0 0 0 -4427968.1274842918 -22988429.493179321 0 -22988429.493179321 14509343.36662674 0 0 0 0 3414040.3421300557 -12051589.6133461 0 -12051589.6133461 83400013.217029572 0 0 0 0 8705308.5211889446 -7364644.585773468 0 -7364644.585773468 35194808.246536255 0 0 0 0 4922691.3484404404 10269082.279323578 0 10269082.279323578 45231286.005760193 0 0 0 0 5778212.0794307217 7588111.1770591736 0 7588111.1770591736 46480465.839290619 0 0 0 0 33927.359207037378 8196358.2658233643 0 8196358.2658233643 49690808.012481689 0 0 0 0 -3121.958234779906 12405834.61869812 0 12405834.61869812 42478593.024185181 0 0 0 0 6996127.3267877167 12606708.582843781 0 12606708.582843781 36917575.407249451 0 0 0 0 -667565.95864250511 17902154.341396332 0 17902154.341396332 41011362.309387207 0 0 0 0 1341240.4500504271 14750762.598506927 0 14750762.598506927 45875212.095314026 0 0 0 0 -5203.6688960323063 10713922.12323761 0 10713922.12323761 44070420.924423218 0 0 0 0 -4341473.9794095978 12280388.489318848 0 12280388.489318848 45972923.583265662 0 0 0 0 -3179364.2177235652 15309707.815798759 0 15309707.815798759 53113359.828956604 0 0 0 0 -8122487.5628182124 5737374.8328094482 0 5737374.8328094482 49917035.967055321 0 0 0 0 -6026005.1840797681 2136021.2256851196 0 2136021.2256851196 40418051.285163879 0 0 0 0 -2754735.9889567345 25222151.615478516 0 25222151.615478516 67821969.331878662 0 0 0 0 -4740470.2010416687 17918555.053951263 0 17918555.053951263 48845835.772988319 0 0 0 0 -5968318.98572235 5814290.7238178253 0 5814290.7238178253 42886466.167274475 0 0 0 0 -7680147.1740840375 -1420940.2864379883 0 -1420940.2864379883 74793288.261306763 0 0 0 0 -1280539.6411398649 -2674186.9508600235 0 -2674186.9508600235 44476937.777458191 0 0 0 0 10824.785309222527 -11632860.216917276 0 -11632860.216917276 31385612.142227173 0 0 0 0 -985076.60456285253 4020525.6442146301 0 4020525.6442146301 15648804.11341095 0 0 0 0 -5473.448407597295 7838593.3155822754 0 7838593.3155822754 29049100.250247955 0 0 0 0 1205310.2185214348 -1499302.7192993164 0 -1499302.7192993164 3580208.2066345215 0 0 0 0 -2589036.4755667923 -663398.75556182861 0 -663398.75556182861 23392842.649776459 0 0 0 0 1399.2893317990752 5771931.3339805603 0 5771931.3339805603 3527810.0599136353 0 0 0 0 -950029.20433874149 -958941.89304351807 0 -958941.89304351807 -6935428.7613067627 0 0 0 0 143324.75197035164 260651.52043041773 0 260651.52043041773 448553.32256112993 0 0 0 0 -410.56305451593903 -42090.984077453613 0 -42090.984077453613 331433.99240112305 0 0 0 0 -141751.24028383871 1425098.3118591309 0 1425098.3118591309 376875.70225524902 0 0 0 0 -143561.87832728546 -47080.768426235765 0 -47080.768426235765 459242.87158193439 0 0 0 0 -2932144.0406341553 2128003.9365310669 0 2128003.9365310669 1290390.2232778072 0 0 0 0 -2408326.5142309666 1344822.8430480957 0 1344822.8430480957 1262302.8871269226 0 0 0 0 99300.971273315285 -676170.51264286041 0 -676170.51264286041 -108441.09065246582 0 0 0 0 -390590.30661330005 81632.776666350663 0 81632.776666350663 646770.55635352992 0 0 0 0 266806.91658150149 488595.30088357627 0 488595.30088357627 575331.84074993432 0 0 0 0 2259428.0937259691 6029910.4412250519 0 6029910.4412250519 1347276.6025772095 0 0 0 0 345388.37014042959 331590.10767911933 0 331590.10767911933 314096.44974611886 0 0 0 0 -12007286.16518259 8422653.859992981 0 8422653.859992981 -3028888.0499153137 0 0 0 0 -15132860.881144822 4018941.1500654221 0 4018941.1500654221 8700749.3324966431 0 0 0 0 -15541522.350977063 189227.86381912231 0 189227.86381912231 5094332.2818107605 0 0 0 0 -2323815.8762280941 474844.7310333252 0 474844.7310333252 2339107.5403232574 0 0 0 0 -3200458.5521044135 1364388.7992362976 0 1364388.7992362976 2388021.8951873779 0 0 0 0 -392976.10727840679 -78319.313492640853 0 -78319.313492640853 648129.67830812559 0 0 0 0 -231743.16642326862 -1084752.3919258118 0 -1084752.3919258118 752304.67809581757 0 0 0 0 -9986509.4858994186 -3504273.2333078384 0 -3504273.2333078384 1604376.0380706787 0 0 0 0 -11893652.13425386 -8675758.5097045898 0 -8675758.5097045898 -4865660.8179798126 0 0 0 0 -10182592.905426562 -3282590.2622394562 0 -3282590.2622394562 7083715.2807388306 0 0 0 0 -11605684.340850353 -16721568.935718536 0 -16721568.935718536 -6177329.4967327118 0 0 0 0 -341754.86483531189 -202821.28861301951 0 -202821.28861301951 631111.94568579458 0 0 0 0 573638.75995226856 910602.42655181885 0 910602.42655181885 1172271.7043190002 0 0 0 0 3206826.835730236 84529.984294891357 0 84529.984294891357 1578710.0766830444 0 0 0 0 -117252.38181934971 640833.3214302063 0 640833.3214302063 3176902.4513168335 0 0 0 0 2035191.6918481945 5017224.400352478 0 5017224.400352478 8519626.1529960632 0 0 0 0 -15154.43700781484 1343667.7919109634 0 1343667.7919109634 2333272.0728149414 0 0 0 0 1107079.6084661742 1406668.1327514648 0 1406668.1327514648 110016.68496704102 0 0 0 0 1693136.5799029674 -536727.58795022964 0 -536727.58795022964 -218224.63919830322 0 0 0 0 32255.186986982822 1254345.7475395203 0 1254345.7475395203 1276500.5816116333 0 0 0 0 510266.42146700621 -24040468.329406738 0 -24040468.329406738 40356924.473928452 0 0 0 0 24554672.237842187 -26118919.38511467 0 -26118919.38511467 -1782990.3834533691 0 0 0 0 -599290.25385224819 -15056533.421920776 0 -15056533.421920776 5229009.5121002197 0 0 0 0 18108793.352460135 -2660153.5868520737 0 -2660153.5868520737 -949151.11022949219 0 0 0 0 50612936.404518403 -32014363.228248596 0 -32014363.228248596 24056975.045558929 0 0 0 0 -621881.25342340954 -10587178.783161163 0 -10587178.783161163 -3196058.8089752197 0 0 0 0 15096168.742386848 -16894531.023983002 0 -16894531.023983002 -29381177.296859741 0 0 0 0 5815260.2732530236 -13312794.132835388 0 -13312794.132835388 -7199711.4554443359 0 0 0 0 637374.18043708801 -22089461.46131897 0 -22089461.46131897 5199580.2066802979 0 0 0 0 9763204.5223706663 -19186277.335632324 0 -19186277.335632324 -17623384.528762817 0 0 0 0 3418236.8066008091 -12010230.680175781 0 -12010230.680175781 -20909466.066085815 0 0 0 0 -1357038.1772046089 -17239559.541046143 0 -17239559.541046143 -12694636.279895544 0 0 0 0 -482584.41670042276 -15822742.305000305 0 -15822742.305000305 -19837305.44871521 0 0 0 0 -7095698.6776009798 -12400748.04825592 0 -12400748.04825592 -13086219.503540039 0 0 0 0 -2895326.4852869511 -16601746.476287842 0 -16601746.476287842 -13640619.558418274 0 0 0 0 -3767983.8518323898 -19391699.60559082 0 -19391699.60559082 -1012162.1557617188 0 0 0 0 -134582.11276578903 -16174200.497024536 0 -16174200.497024536 -12702500.995079756 0 0 0 0 -13760362.21556139 -9637446.2004318237 0 -9637446.2004318237 -10302560.63482666 0 0 0 0 -9884699.3896504641 -16331973.882198334 0 -16331973.882198334 -1401986.0456848145 0 0 0 0 -12866845.518535614 -7447206.1833992004 0 -7447206.1833992004 14140039.481750488 0 0 0 0 -8109717.7120568752 -14348522.865745544 0 -14348522.865745544 -1752293.9210863113 0 0 0 0 -5554488.2411078215 -19141754.575393677 0 -19141754.575393677 16900529.096313477 0 0 0 0 -7949691.8085280657 -11362292.352882385 0 -11362292.352882385 3715787.1791114807 0 0 0 0 -9703786.5815961957 -1557225.8740463257 0 -1557225.8740463257 27403362.326906204 0 0 0 0 -11087705.59850055 -6616962.9379901886 0 -6616962.9379901886 12756209.518516541 0 0 0 0 -15729100.518722177 -727150.11915588379 0 -727150.11915588379 22050901.225395203 0 0 0 0 -11308087.842691779 4886787.4697246552 0 4886787.4697246552 -2426362.3886413574 0 0 0 0 -10374409.401849747 12698251.245643616 0 12698251.245643616 13798292.078899384 0 0 0 0 -6534039.7830978036 6044706.8026275635 0 6044706.8026275635 16703174.006690979 0 0 0 0 11860383.387636825 20861278.153362274 0 20861278.153362274 43455015.605178833 0 0 0 0 10699887.871793449 23983942.987869263 0 23983942.987869263 35360786.711448669 0 0 0 0 27369362.333525717 53076000.530212402 0 53076000.530212402 25752339.477657318 0 0 0 0 -6681494.2174191028 -7848078.4765129089 0 -7848078.4765129089 39619130.177360535 0 0 0 0 5037380.9097037315 -2156973.7601737976 0 -2156973.7601737976 34282261.616767883 0 0 0 0 18742700.714362733 21604095.280557632 0 21604095.280557632 192670027.99728394 0 0 0 0 22097048.202235125 25960693.526695251 0 25960693.526695251 58473397.355316162 0 0 0 0 738920.28981842846 904905.23889923096 0 904905.23889923096 96085497.295959473 0 0 0 0 58008062.683667243 82454919.859172821 0 82454919.859172821 59720695.267349243 0 0 0 0 18882870.644050032 37342121.001434326 0 37342121.001434326 74229315.362190247 0 0 0 0 67762086.245848477 42375307.003707886 0 42375307.003707886 35260376.422401428 0 0 0 0 73874493.571340844 60629613.444004059 0 60629613.444004059 -14830060.868408203 0 0 0 0 -611467.9133788005 -497221.20822413266 0 -497221.20822413266 1054924.7502465248 0 0 0 0 -14245753.710347325 -31041455.970344543 0 -31041455.970344543 84246767.882232666 0 0 0 0 2971079.6680389792 74490284.294094086 0 74490284.294094086 -19734687.927444458 0 0 0 0 5998874.0970552936 40143610.40596199 0 40143610.40596199 -35221971.090438843 0 0 0 0 43976903.740401417 56166499.697395325 0 56166499.697395325 -11306848.091262817 0 0 0 0 3975431.0342092961 68350193.199546814 0 68350193.199546814 16506874.487060547 0 0 0 0 32103936.435046881 35379079.740829468 0 35379079.740829468 40491016.186698914 0 0 0 0 26112452.146683276 38127313.831367493 0 38127313.831367493 3280254.708770752 0 0 0 0 44524887.733523935 49467258.902726889 0 49467258.902726889 -14108831.647705078 0 0 0 0 40373586.449374944 85003400.755781174 0 85003400.755781174 55137322.067619324 0 0 0 0 84739317.881920278 71583465.010814667 0 71583465.010814667 -5121125.4793262482 0 0 0 0 -6786623.55938752 57824156.803119659 0 57824156.803119659 13068653.773544312 0 0 0 0 -20070418.232218377 17767872.374095917 0 17767872.374095917 23294300.873275757 0 0 0 0 -52598333.090764165 26879951.01789856 0 26879951.01789856 -3068079.7973175049 0 0 0 0 15892465.615111092 46448238.423786163 0 46448238.423786163 -5579894.3217468262 0 0 0 0 10690585.916161589 63206382.002601624 0 63206382.002601624 -3166857.2653656006 0 0 0 0 293687.7287870216 208285.68154074624 0 208285.68154074624 163019.41827665269 0 0 0 0 -20216605.828202844 30203331.620391846 0 30203331.620391846 -11875380.347957611 0 0 0 0 -10694670.337155819 1697004.5759887695 0 1697004.5759887695 -7801567.2919845581 0 0 0 0 32198396.61312449 28389454.398200989 0 28389454.398200989 6837132.9464836121 0 0 0 0 70518036.287233829 25743678.276554108 0 25743678.276554108 -38109056.351905823 0 0 0 0 127058.94484298208 71963.35588779673 0 71963.35588779673 47490.730048105121 0 0 0 0 6304498.6454565823 -6737323.7528343201 0 -6737323.7528343201 46197356.19434166 0 0 0 0 -1291881.4606501311 -15465439.088488579 0 -15465439.088488579 139478783.40274048 0 0 0 0 49291698.003635392 50568099.418117523 0 50568099.418117523 101958902.74571609 0 0 0 0 3880917.0958616883 16309143.940109253 0 16309143.940109253 76182288.091819763 0 0 0 0 -17260584.959009796 12002096.703914642 0 12002096.703914642 37899002.476745605 0 0 0 0 -47523361.674275562 34408268.056190491 0 34408268.056190491 32197835.553089142 0 0 0 0 -56840948.632646978 5506435.409034729 0 5506435.409034729 43800823.385482788 0 0 0 0 65064053.428516284 -33165214.312587738 0 -33165214.312587738 54410766.490509033 0 0 0 0 -8043307.0821507424 49553569.286579132 0 49553569.286579132 105993606.31876373 0 0 0 0 -1896620.394002676 -20159852.822128296 0 -20159852.822128296 104012312.30092406 0 0 0 0 91745650.283509493 22659489.629692078 0 22659489.629692078 47314301.642028809 0 0 0 0 3392063.1248458177 -10114724.882911682 0 -10114724.882911682 54300847.259223938 0 0 0 0 -71449.016853668843 -26415805.958291054 0 -26415805.958291054 32987854.127838135 0 0 0 0 -33627373.871337615 -11662051.044624329 0 -11662051.044624329 59905269.163581848 0 0 0 0 -18829313.853579998 -14226955.272354126 0 -14226955.272354126 34151531.463562012 0 0 0 0 -43566973.747004807 -4230182.5641784668 0 -4230182.5641784668 27555591.605171204 0 0 0 0 -31506687.566349275 -23595154.384864807 0 -23595154.384864807 38288782.901596069 0 0 0 0 -36750592.113135055 14453839.822665215 0 14453839.822665215 37301126.152481079 0 0 0 0 -90982558.952877313 6234613.7440719604 0 6234613.7440719604 36057193.17024231 0 0 0 0 -55829067.809650421 2790929.8597412109 0 2790929.8597412109 16098187.240509033 0 0 0 0 -85371733.957826048 -17856663.147346497 0 -17856663.147346497 4703088.333480835 0 0 0 0 -53015601.17863407 -15393472.596617699 0 -15393472.596617699 15196176.701568604 0 0 0 0 -63321786.312101156 8086880.293762207 0 8086880.293762207 21656791.237289429 0 0 0 0 -63256929.526486486 9265487.4216051102 0 9265487.4216051102 -19524818.199584961 0 0 0 0 -44481361.353703812 8490733.2100982666 0 8490733.2100982666 25155855.241420746 0 0 0 0 -87893909.089092627 11740287.55488205 0 11740287.55488205 30317383.228347778 0 0 0 0 -70336415.025736809 28537210.883277893 0 28537210.883277893 35510327.645828247 0 0 0 0 -1840212.0411186006 343019.45389549714 0 343019.45389549714 5568089.4060541168 0 0 0 0 -44739423.155232385 5268364.3163528442 0 5268364.3163528442 10359122.193756104 0 0 0 0 -91656782.464865431 32417124.181461334 0 32417124.181461334 21248086.173183441 0 0 0 0 -395802.48474007734 -113224.34467221424 0 -113224.34467221424 1672353.4163851812 0 0 0 0 -4967995.558454752 212829.65359687805 0 212829.65359687805 1926742.1985549927 0 0 0 0 104072.22365234292 1023302.6902476484 0 1023302.6902476484 5175115.1390550435 0 0 0 0 -1076504.9695473122 -1730287.2717415048 0 -1730287.2717415048 3025728.4929489829 0 0 0 0 -769386.73699910624 4457616.0216293987 0 4457616.0216293987 864892.55568922311 0 0 0 0 365633.64525488717 2906590.1882255948 0 2906590.1882255948 7940019.5002830643 0 0 0 0 6147790.7200626582 4216043.4088287354 0 4216043.4088287354 -7487822.9241027832 0 0 0 0 -3850778.8539430611 18353729.409584999 0 18353729.409584999 16087818.983306885 0 0 0 0 308689.10553773429 970231.55577668035 0 970231.55577668035 -322435.83212567493 0 0 0 0 -109557768.4232527 -3976734.5417785645 0 -3976734.5417785645 32817848.282287598 0 0 0 0 -1214143.6172976494 1821245.7471084595 0 1821245.7471084595 6853714.5613327026 0 0 0 0 -924066.05842781067 1380849.9412841797 0 1380849.9412841797 5413114.6489543915 0 0 0 0 -4879379.1393237114 -564.44163131713867 0 -564.44163131713867 6738936.6446151733 0 0 0 0 -3338216.3140432835 -133317.73176193237 0 -133317.73176193237 6043795.2127380371 0 0 0 0 -3016555.5085096359 863428.58929347992 0 863428.58929347992 6726372.1428222656 0 0 0 0 -3653200.5451426506 251520.50224304199 0 251520.50224304199 5625619.6834182739 0 0 0 0 -1363778.3567767143 1325967.7803249359 0 1325967.7803249359 9088677.2604598999 0 0 0 0 -3542187.9001922607 -928122.32787704468 0 -928122.32787704468 6462211.4748840332 0 0 0 0 -2517217.6395606995 1386271.4696979523 0 1386271.4696979523 6968389.8940124512 0 0 0 0 -1880538.7576293945 638077.78577423096 0 638077.78577423096 6271888.0535430908 0 0 0 0 -2099436.2762966156 1410713.1288204193 0 1410713.1288204193 8713285.3179321289 0 0 0 0 -1137717.0745725632 477706.66607666016 0 477706.66607666016 6342457.6391997337 0 0 0 0 630992.81618881226 2715842.4237937927 0 2715842.4237937927 7133101.0617618561 0 0 0 0 947651.94643878937 1916072.3966903687 0 1916072.3966903687 3302843.2756347656 0 0 0 0 -528920.79138851166 1298216.468132019 0 1298216.468132019 6764670.3623123169 0 0 0 0 -887279.7902879715 1128552.7519016266 0 1128552.7519016266 8619374.7833633423 0 0 0 0 -12629.62566710799 1065745.2452928564 0 1065745.2452928564 4563004.8736458607 0 0 0 0 -449245.38527488708 2310258.7563819885 0 2310258.7563819885 9066490.8645820618 0 0 0 0 980219.75738227367 1793085.5458145142 0 1793085.5458145142 3730797.5295257568 0 0 0 0 -1838933.4085535556 -782027.09897335619 0 -782027.09897335619 13572010.707294136 0 0 0 0 1482236.7479376793 2721093.2837562561 0 2721093.2837562561 8524424.1245479584 0 0 0 0 530170.36705204519 766601.78050747793 0 766601.78050747793 12253546.462886665 0 0 0 0 -12238820.905246735 -9690963.3281860352 0 -9690963.3281860352 -13702983.51373148 0 0 0 0 -1842078.8704204559 605756.11866760254 0 605756.11866760254 10701787.03666687 0 0 0 0 -117787.98872661591 827360.58018493652 0 827360.58018493652 8884925.3374404907 0 0 0 0 3496923.4107055664 -15418440.438140869 0 -15418440.438140869 1557587.2307128906 0 0 0 0 -438477.95461190725 -515863.18934796005 0 -515863.18934796005 8069989.2127447426 0 0 0 0 -397934.65667831898 -21482390.535482407 0 -21482390.535482407 -23081601.811035156 0 0 0 0 1325003.8892171369 -1421105.5574649908 0 -1421105.5574649908 -5996574.1435407884 0 0 0 0 6486808.0962102413 -2810688.7975234985 0 -2810688.7975234985 957548.56414794922 0 0 0 0 -18998186.343162775 8993668.3217849731 0 8993668.3217849731 -19697172.461791992 0 0 0 0 -32675.966184616089 -1216396.737159729 0 -1216396.737159729 2703630.9677276611 0 0 0 0 993267.5694231987 2282041.0585899353 0 2282041.0585899353 6502217.5990447998 0 0 0 0 538242.53910350834 -505443.43817498628 0 -505443.43817498628 -1138631.0105808061 0 0 0 0 -2816115.777787447 -3765704.8010025024 0 -3765704.8010025024 6748960.3688678741 0 0 0 0 275361.23334723711 -983768.15828323364 0 -983768.15828323364 -1607399.9898529053 0 0 0 0 -1758167.9021823406 -1316914.0189781189 0 -1316914.0189781189 2728685.4303951263 0 0 0 0 -1251038.7468695703 -2024995.8264228278 0 -2024995.8264228278 4956847.1446844712 0 0 0 0 -214738.03459590673 -1152006.788225174 0 -1152006.788225174 2083311.1552047729 0 0 0 0 -2266239.7551585585 -1517677.7249412537 0 -1517677.7249412537 6989199.1466674805 0 0 0 0 -2712238.6877466142 -1325219.2094841003 0 -1325219.2094841003 13088695.379119873 0 0 0 0 1843131.7244664431 -6942165.6871643066 0 -6942165.6871643066 452596.10461425781 0 0 0 0 -1203871.9379390478 -258027.95318603516 0 -258027.95318603516 811752.76165628433 0 0 0 0 -308274.36115678906 -705481.8266275581 0 -705481.8266275581 1619208.5648079859 0 0 0 0 -71948811.49576351 61289410.562828064 0 61289410.562828064 -21965962.300979614 0 0 0 0 -1653640.3007425279 -1307265.8494150368 0 -1307265.8494150368 2767496.8976411857 0 0 0 0 -82343928.910008907 49314780.791976929 0 49314780.791976929 -2193598.314239502 0 0 0 0 -54872030.997626767 17362344.408233643 0 17362344.408233643 -6868952.5363006592 0 0 0 0 -202510.84831037201 -314599.64253316075 0 -314599.64253316075 1246388.0575120114 0 0 0 0 -1240091.9886069277 929227.03046630416 0 929227.03046630416 4889769.143938072 0 0 0 0 -1118340.596950531 -1333202.8826713562 0 -1333202.8826713562 3395826.3473510742 0 0 0 0 -436520.54601086117 -197855.56437729485 0 -197855.56437729485 4769923.5615163362 0 0 0 0 -1334309.9901866913 7855.5485229492188 0 7855.5485229492188 2335364.1513900757 0 0 0 0 -1010784.3182532787 -138192.36507415771 0 -138192.36507415771 2375655.8820419312 0 0 0 0 -4446423.1002413034 11880895.816740632 0 11880895.816740632 5915210.5877866745 0 0 0 0 12401272.33698082 -27717076.449091434 0 -27717076.449091434 -34441611.890432358 0 0 0 0 1611413.3300657272 -30376029.17948246 0 -30376029.17948246 83965981.067962646 0 0 0 0 5501259.6031322479 -9285168.0589208603 0 -9285168.0589208603 19389893.725801468 0 0 0 0 -6813094.423116684 -22483423.528884411 0 -22483423.528884411 16487778.660164714 0 0 0 0 -4242406.6809406281 -19452666.895676136 0 -19452666.895676136 -8683333.2164230347 0 0 0 0 -16204030.87063694 -11935208.844051361 0 -11935208.844051361 10301894.400385857 0 0 0 0 -11848192.478447914 -21939516.928020477 0 -21939516.928020477 7657198.6092941761 0 0 0 0 -6488954.4377856255 -24194623.132134676 0 -24194623.132134676 25500496.185922623 0 0 0 0 400245.6940527953 -984043.03305169288 0 -984043.03305169288 11261264.326105312 0 0 0 0 -25836246.551200867 -19619849.943483353 0 -19619849.943483353 16649739.686338902 0 0 0 0 -21621968.227312088 -5237394.1957160234 0 -5237394.1957160234 14959080.42178154 0 0 0 0 -5629072.1988415122 -3742460.3397927284 0 -3742460.3397927284 5593171.5896377563 0 0 0 0 1191697.8788215443 -2230596.8316661404 0 -2230596.8316661404 9633251.8867430817 0 0 0 0 -532612.60959243774 -719448.65217590332 0 -719448.65217590332 5889043.4422302246 0 0 0 0 -1239541.789298296 -998823.50492858887 0 -998823.50492858887 8014873.8528518677 0 0 0 0 2298574.9539179802 1414335.8117628098 0 1414335.8117628098 6230819.2090682983 0 0 0 0 358956.37820690917 488554.85317124147 0 488554.85317124147 12214454.085730994 0 0 0 0 -437966.85093355179 -604933.6909236908 0 -604933.6909236908 6836859.3147716522 0 0 0 0 -3746276.6241402626 2659962.1872878075 0 2659962.1872878075 25150979.501499176 0 0 0 0 -493285.52220599481 360640.66474547284 0 360640.66474547284 12289161.9703812 0 0 0 0 -208572.59762473637 621544.47989917826 0 621544.47989917826 4885930.2042630101 0 0 0 0 -60428.904064921197 139662.14433840336 0 139662.14433840336 1577094.3012414009 0 0 0 0 -863028.17505788803 5595596.4518113136 0 5595596.4518113136 21593377.409960747 0 0 0 0 -15784225.001688957 -2492174.6178078651 0 -2492174.6178078651 19925076.972949386 0 0 0 0 -252139.14239501953 2474569.2497253418 0 2474569.2497253418 26258709.108880997 0 0 0 0 -10406532.91528511 -4354547.1386365891 0 -4354547.1386365891 36539224.444690704 0 0 0 0 -22186714.912779093 -6011115.0158615112 0 -6011115.0158615112 23197852.647859573 0 0 0 0 -13681462.917559624 10891540.38203907 0 10891540.38203907 28933067.968632698 0 0 0 0 -20116919.820730448 -25708848.856599331 0 -25708848.856599331 30088767.24268055 0 0 0 0 -19958195.809801102 -9458663.0147132874 0 -9458663.0147132874 21716604.057815552 0 0 0 0 -9920691.0904083252 -19593631.60154438 0 -19593631.60154438 30405518.393651962 0 0 0 0 -7856521.3055682182 -11632459.343522787 0 -11632459.343522787 16014754.941112518 0 0 0 0 16265615.494633675 -3751177.9576721191 0 -3751177.9576721191 -36381178.341579437 0 0 0 0 546118.33688704355 -1447343.3804907033 0 -1447343.3804907033 -628903.69310138142 0 0 0 0 -5082042.7957767844 -22388003.753704548 0 -22388003.753704548 10969963.257669449 0 0 0 0 -5050228.1159667969 -23083408.194784164 0 -23083408.194784164 25852561.246501923 0 0 0 0 -3283915.1792514324 -19684900.628627539 0 -19684900.628627539 18964012.538654327 0 0 0 0 -12403581.920615673 1202534.3778214455 0 1202534.3778214455 21468272.763789177 0 0 0 0 -4283771.9214315414 -9361665.6978750229 0 -9361665.6978750229 25605573.141998291 0 0 0 0 -3506352.2658772469 -11581350.248120785 0 -11581350.248120785 7539915.2269115448 0 0 0 0 -2393029.5208263397 -10800838.368123055 0 -10800838.368123055 26473787.897226334 0 0 0 0 -299751.44926309586 -2907872.5464706421 0 -2907872.5464706421 5404173.3940658569 0 0 0 0 659780.63203905395 -819967.13689810457 0 -819967.13689810457 10174339.578984929 0 0 0 0 -144407.82927275173 -296424.71588705108 0 -296424.71588705108 14656117.187967837 0 0 0 0 2063977.2615887856 -1918984.2448069812 0 -1918984.2448069812 8047023.5809809566 0 0 0 0 -903807.69792938232 1031533.3713569641 0 1031533.3713569641 5905424.494354248 0 0 0 0 2758344.6467276216 -165089396.47824097 0 -165089396.47824097 -62735136.749427795 0 0 0 0 146658804.35395008 11879213.102279663 0 11879213.102279663 2521321.5439872742 0 0 0 0 34698510.130368114 54494882.723121643 0 54494882.723121643 43084507.410037994 0 0 0 0 32727921.516253948 61222227.784416199 0 61222227.784416199 -72649161.009307861 0 0 0 0 -119002160.06679258 -19725614.973419189 0 -19725614.973419189 24700370.329120636 0 0 0 0 208923.4830083847 2488019.8627853394 0 2488019.8627853394 7225913.4214537144 0 0 0 0 43338548.931126952 -74452393.323440552 0 -74452393.323440552 -101660877.77705383 0 0 0 0 5825.0359465813381 -638654.93662747927 0 -638654.93662747927 10572117.27241281 0 0 0 0 -20791.323154148762 -156718.48309096321 0 -156718.48309096321 -205774.62872459274 0 0 0 0 -31122914.95005846 7095005.4985466003 0 7095005.4985466003 -22553967.343115568 0 0 0 0 -22864209.491583824 -39848330.552986145 0 -39848330.552986145 -24501586.332763672 0 0 0 0 12987245.378994942 -20734074.872924805 0 -20734074.872924805 1427672.3086547852 0 0 0 0 950279.28941986361 -685439.12212035432 0 -685439.12212035432 -5319655.7310019322 0 0 0 0 15258459.493481364 27762841.874409437 0 27762841.874409437 51477343.29119873 0 0 0 0 14651187.293334991 20180207.812278748 0 20180207.812278748 29309753.257263184 0 0 0 0 699031.47412509879 -914234.2335673999 0 -914234.2335673999 -1446980.6173381545 0 0 0 0 52235163.833872437 7688421.3944320679 0 7688421.3944320679 -5722795.3155059814 0 0 0 0 -801517.32536262274 14024227.990600586 0 14024227.990600586 72849347.174007416 0 0 0 0 9819907.5167796761 31656565.260527611 0 31656565.260527611 50298289.642364502 0 0 0 0 11388852.640567072 23025203.164621353 0 23025203.164621353 97494922.721633911 0 0 0 0 24161988.648563161 -356306.50649738312 0 -356306.50649738312 22909657.427978516 0 0 0 0 30272207.857931465 -26830540.539012909 0 -26830540.539012909 31175876.429130554 0 0 0 0 31324739.638972461 -45454520.036621094 0 -45454520.036621094 53325685.891021729 0 0 0 0 19928075.040916301 6532816.3376312256 0 6532816.3376312256 103829111.93856812 0 0 0 0 136944898.13165969 -54665542.757743835 0 -54665542.757743835 122845309.21162415 0 0 0 0 73861771.650619745 25596427.001937866 0 25596427.001937866 74560333.42237854 0 0 0 0 35394391.330400072 20180293.097566903 0 20180293.097566903 104177750.04638672 0 0 0 0 223607.86385114471 -295427.4616604913 0 -295427.4616604913 -464207.11999076977 0 0 0 0 11241194.350954652 -54457042.305931091 0 -54457042.305931091 -92862661.898464203 0 0 0 0 61660135.266912162 -151398570.7447834 0 -151398570.7447834 81849026.535385132 0 0 0 0 -192752500.26870883 -19791236.458518982 0 -19791236.458518982 70711740.560379028 0 0 0 0 -45669098.026666522 10351427.822338104 0 10351427.822338104 20512034.98638916 0 0 0 0 -32551738.073182166 -25854406.809726715 0 -25854406.809726715 117535000.77267456 0 0 0 0 60018821.530589461 67343824.501449585 0 67343824.501449585 126707263.05649567 0 0 0 0 171627749.32407817 -21505467.41783905 0 -21505467.41783905 83632747.115966797 0 0 0 0 58785667.28267628 22150085.502349854 0 22150085.502349854 150209654.90431976 0 0 0 0 9836.4839472741587 396190.387958996 0 396190.387958996 717572.90976465493 0 0 0 0 112922772.91011184 132684429.17964935 0 132684429.17964935 73427274.334701538 0 0 0 0 -45579546.36340642 56470556.524429321 0 56470556.524429321 56686850.791511536 0 0 0 0 99973996.22634542 36919749.424201965 0 36919749.424201965 1281617.1627197266 0 0 0 0 -26768726.500471652 -4263104.3172569275 0 -4263104.3172569275 37422598.911071777 0 0 0 0 25795422.566637397 75224126.36894989 0 75224126.36894989 66001915.153839111 0 0 0 0 -68134012.079503059 17617554.558074951 0 17617554.558074951 53641297.974105835 0 0 0 0 -157727447.77421284 -49275199.035804749 0 -49275199.035804749 21421208.97102356 0 0 0 0 -96462129.757537246 54226017.153709412 0 54226017.153709412 46590110.314254761 0 0 0 0 -36085578.469725564 15705252.194137573 0 15705252.194137573 -40764960.292999268 0 0 0 0 -129128967.16056478 -67475175.693450928 0 -67475175.693450928 -5982489.6580352783 0 0 0 0 -359498.03515460284 261452.95678667165 0 261452.95678667165 860745.37352248468 0 0 0 0 -2583338.1830949783 1160494.1093025208 0 1160494.1093025208 2150757.2317199707 0 0 0 0 -2369154.0472608181 67082.18339709565 0 67082.18339709565 14296699.764287792 0 0 0 0 -4950714.6267638383 -257383.37377237994 0 -257383.37377237994 17343646.813531354 0 0 0 0 1615862.6872160337 3401937.1693357523 0 3401937.1693357523 3529212.9456355739 0 0 0 0 -163441215.66577506 -21789635.148612976 0 -21789635.148612976 53557578.685882568 0 0 0 0 -220787143.39339161 20706255.682228088 0 20706255.682228088 22559132.078430176 0 0 0 0 -986326.4202132225 674217.86952924728 0 674217.86952924728 2675823.7946891785 0 0 0 0 -137719888.61591482 -39061344.901924133 0 -39061344.901924133 76701701.781143188 0 0 0 0 -142815861.17112762 -16712208.368946075 0 -16712208.368946075 -594052.11399841309 0 0 0 0 -5029484.4985847473 -2633775.748664856 0 -2633775.748664856 -282560.87649536133 0 0 0 0 -214681949.45267832 -110428731.76972198 0 -110428731.76972198 26264411.98336792 0 0 0 0 386887.29398335156 -852065.77111403272 0 -852065.77111403272 12885625.730435118 0 0 0 0 895600.02077832865 658124.79178518802 0 658124.79178518802 12779215.891140748 0 0 0 0 -5684540.8569879532 -6799084.4754247665 0 -6799084.4754247665 3472636.2848453522 0 0 0 0 1437352.1649059448 -1261928.1778034009 0 -1261928.1778034009 252674.09091942944 0 0 0 0 -4255268.4483114704 9662251.2580490112 0 9662251.2580490112 69461814.582824707 0 0 0 0 -18403804.66503128 5269324.1038665771 0 5269324.1038665771 99857866.086593628 0 0 0 0 5012267.8927676827 41439693.08745575 0 41439693.08745575 175721613.84687805 0 0 0 0 135036066.77906269 -14782206.274822235 0 -14782206.274822235 53848524.070335388 0 0 0 0 21589705.367062688 -48825992.146781921 0 -48825992.146781921 95374393.428474426 0 0 0 0 -172223.42897066326 -900127.21903253812 0 -900127.21903253812 436117.69944782928 0 0 0 0 84523683.238811225 14420496.726579666 0 14420496.726579666 8692977.3652038574 0 0 0 0 -42522.909364303137 -57863.608232751489 0 -57863.608232751489 224729.68084451603 0 0 0 0 -49068.181661760871 -1153017.911048308 0 -1153017.911048308 547096.2278418541 0 0 0 0 -864089.83527767658 -2233637.8524627686 0 -2233637.8524627686 911815.94596862793 0 0 0 0 18858705.698059745 -23664148.79529953 0 -23664148.79529953 25198796.717323303 0 0 0 0 -12629707.478774358 7156149.0155220032 0 7156149.0155220032 74601587.346487045 0 0 0 0 -40047.825849969988 -1255599.9651566837 0 -1255599.9651566837 861996.04499181313 0 0 0 0 -649055.90598857403 -5707466.2813949585 0 -5707466.2813949585 -4979207.7714767456 0 0 0 0 39189.897149836361 -1084963.1670464948 0 -1084963.1670464948 1141235.7160873581 0 0 0 0 28568948.58806932 -19368560.922912598 0 -19368560.922912598 -6290003.9415588379 0 0 0 0 4297761.8490545303 21638018.142539978 0 21638018.142539978 48592541.086919785 0 0 0 0 4561491.2989919186 10520013.36366272 0 10520013.36366272 -4094919.3941802979 0 0 0 0 -329026.61155486107 11856638.470367432 0 11856638.470367432 -4252086.8773651123 0 0 0 0 145650.5523379907 -156677.93767921254 0 -156677.93767921254 -342327.63770639524 0 0 0 0 -11257210.515634298 1259634.5998306274 0 1259634.5998306274 121582.03411102295 0 0 0 0 -18797.003830287606 21764226.629013062 0 21764226.629013062 57161476.163383484 0 0 0 0 -1888141.4471987784 25031550.61882019 0 25031550.61882019 58542658.269033432 0 0 0 0 -1401208.6250302345 30679888.344924927 0 30679888.344924927 53052184.440338135 0 0 0 0 -17831472.115260214 12378527.175883293 0 12378527.175883293 69577760.273109436 0 0 0 0 -26267413.162363365 13648699.384632111 0 13648699.384632111 71121304.243839264 0 0 0 0 -612141.89542922378 15340811.425857544 0 15340811.425857544 33032392.922878265 0 0 0 0 -20166792.889738828 35004480.67127037 0 35004480.67127037 53874149.159622192 0 0 0 0 -23872779.539197393 37586513.474784851 0 37586513.474784851 13265521.295318604 0 0 0 0 -41441032.410444528 -5754566.8381547928 0 -5754566.8381547928 15607537.897163391 0 0 0 0 9346743.675027281 26038847.433952332 0 26038847.433952332 -82433189.7498703 0 0 0 0 -21502601.131012764 24681455.005773544 0 24681455.005773544 76226927.705245972 0 0 0 0 -14932085.274840087 30024353.460075378 0 30024353.460075378 33078307.608726501 0 0 0 0 43967450.732493833 10034729.854442596 0 10034729.854442596 -8527046.7427978516 0 0 0 0 23067875.955397729 13354247.502212524 0 13354247.502212524 46938488.44152832 0 0 0 0 29389133.520803396 -6574727.6577453613 0 -6574727.6577453613 -56466176.802108765 0 0 0 0 -13975591.556284808 8122062.8640403748 0 8122062.8640403748 -8586944.9299921989 0 0 0 0 -174952.9142573938 -125933.73907973245 0 -125933.73907973245 172329.07822333835 0 0 0 0 46650.566944867373 -3800297.6586666107 0 -3800297.6586666107 4769720.2276611328 0 0 0 0 4764689.2758671343 25517897.376296997 0 25517897.376296997 -71736678.871707916 0 0 0 0 2575567.9653674364 -2400943.4883384705 0 -2400943.4883384705 -2508286.4399032593 0 0 0 0 383738.47869640181 -86953.861793477088 0 -86953.861793477088 154607.61911301501 0 0 0 0 5660237.8846012354 -9810352.5415420532 0 -9810352.5415420532 16574214.561903 0 0 0 0 -7966753.5301070064 -7462641.420331955 0 -7462641.420331955 -8237283.5772628784 0 0 0 0 -1753068.3126351237 -292408.42100143433 0 -292408.42100143433 -103669.36201477051 0 0 0 0 3335027.1983177662 -835259.82375335693 0 -835259.82375335693 -186609.71855163574 0 0 0 0 -14781740.960140347 1508473.32081604 0 1508473.32081604 6257558.3636856079 0 0 0 0 -54751.780395669019 -33144.431600179523 0 -33144.431600179523 56130.607364957221 0 0 0 0 -25177436.549423229 -9741226.0560112 0 -9741226.0560112 4535619.1773529053 0 0 0 0 8904671.7830071766 -23780354.476284027 0 -23780354.476284027 -22310898.333320618 0 0 0 0 20880844.929484889 -7675215.3115959167 0 -7675215.3115959167 -5210533.3697967529 0 0 0 0 40906704.987707943 -18501965.805179596 0 -18501965.805179596 -11856447.231483459 0 0 0 0 -4487572.146724835 -2942829.3565635681 0 -2942829.3565635681 -4802246.7790145874 0 0 0 0 -9092192.7496499419 -11363405.671310425 0 -11363405.671310425 4144885.4163885117 0 0 0 0 280030.62740654853 -51009.373015237972 0 -51009.373015237972 86015.068998148665 0 0 0 0 13204326.13789928 -2280003.5576858521 0 -2280003.5576858521 36810414.665248871 0 0 0 0 107924.19557585577 -16167.012571865693 0 -16167.012571865693 28712.671946125105 0 0 0 0 -3250771.2175271213 -17018759.230735779 0 -17018759.230735779 118918257.92423248 0 0 0 0 49577926.860657424 -1078652.8721923828 0 -1078652.8721923828 -24025333.419525146 0 0 0 0 29573748.634889424 -45934484.623432159 0 -45934484.623432159 91047496.651744843 0 0 0 0 32284086.675091267 -1520298.0012969971 0 -1520298.0012969971 62880514.032833099 0 0 0 0 8166230.8489713669 21837735.166023254 0 21837735.166023254 82922161.299324036 0 0 0 0 18018524.061448097 13506977.721717834 0 13506977.721717834 65165549.509796143 0 0 0 0 6617132.1937924922 26843291.26633358 0 26843291.26633358 54814133.277946472 0 0 0 0 -4252178.4081721306 -3592982.6605682373 0 -3592982.6605682373 64454678.863777161 0 0 0 0 -169410.87114587284 1302681.3968201363 0 1302681.3968201363 2459377.2470127903 0 0 0 0 3044464.3562348047 -6623352.0515683293 0 -6623352.0515683293 -25230325.654541016 0 0 0 0 -97934465.765208825 -14435829.634477615 0 -14435829.634477615 65256912.90296936 0 0 0 0 4458916.8709699726 69227812.112671554 0 69227812.112671554 66480500.476654053 0 0 0 0 -1377742.9170771595 -8741348.146677671 0 -8741348.146677671 7378531.2190079615 0 0 0 0 -29522509.986914575 2308356.5138587952 0 2308356.5138587952 52940775.934555054 0 0 0 0 -34073434.087124586 -40976426.138561249 0 -40976426.138561249 -15622292.489624023 0 0 0 0 -35130851.195895433 -29317473.368267059 0 -29317473.368267059 24947802.600646973 0 0 0 0 57656828.215240508 -59994063.943881989 0 -59994063.943881989 19039222.779953003 0 0 0 0 29766035.808728069 -36448533.076293945 0 -36448533.076293945 3672454.1340789795 0 0 0 0 34207229.167027205 -49292987.978065491 0 -49292987.978065491 -18530752.420501709 0 0 0 0 10869818.599619716 -3602043.7533569336 0 -3602043.7533569336 -18288228.62828064 0 0 0 0 50177817.504895091 -23781080.330192566 0 -23781080.330192566 -12390388.979981422 0 0 0 0 40746888.754993752 -29426517.234786987 0 -29426517.234786987 -13352401.562088013 0 0 0 0 81551444.19114697 -34920266.325431824 0 -34920266.325431824 -19198355.98093605 0 0 0 0 41899237.676164374 -17591910.996694565 0 -17591910.996694565 -13466295.002548218 0 0 0 0 47023793.646633938 20315985.860663414 0 20315985.860663414 48894460.208862305 0 0 0 0 71411477.145219043 -31635243.64763546 0 -31635243.64763546 44517351.264007568 0 0 0 0 6378669.7629071474 2697549.4585189819 0 2697549.4585189819 49968070.259757996 0 0 0 0 5106683.9590351582 15492797.746013641 0 15492797.746013641 27668772.941940308 0 0 0 0 2907591.294960916 -16580271.16267395 0 -16580271.16267395 81993646.914024353 0 0 0 0 4168454.8012459129 -20971882.691040993 0 -20971882.691040993 10044834.914367676 0 0 0 0 -27089500.400092602 -6033478.0320892334 0 -6033478.0320892334 47786789.084907532 0 0 0 0 -28038558.741647661 -12249310.791791916 0 -12249310.791791916 16078118.454177856 0 0 0 0 -18987029.18766892 10018528.906936646 0 10018528.906936646 16087839.371707916 0 0 0 0 -41525148.237580657 -5691334.4702606201 0 -5691334.4702606201 32398716.912071228 0 0 0 0 -41454621.84827745 -4199141.2593650818 0 -4199141.2593650818 7041116.5956344604 0 0 0 0 -51876737.146650553 -2132438.8605117798 0 -2132438.8605117798 15904057.831665039 0 0 0 0 -50440560.026146039 -21353216.146118164 0 -21353216.146118164 14350710.447875977 0 0 0 0 -46311963.25928092 -7778472.9507980347 0 -7778472.9507980347 23921294.418609619 0 0 0 0 -1015500.2372810917 2630505.7634303393 0 2630505.7634303393 5187258.7162641287 0 0 0 0 -1224182.4455598686 692158.30428577389 0 692158.30428577389 4547076.265264025 0 0 0 0 -1286277.6375786813 -2249445.6508868882 0 -2249445.6508868882 4858956.2132658288 0 0 0 0 -17232188.39670372 -1577265.3318405151 0 -1577265.3318405151 -11817650.078186035 0 0 0 0 -45173517.175954342 10495048.192344666 0 10495048.192344666 -792466.40374755859 0 0 0 0 -74765294.579041839 30008010.281734467 0 30008010.281734467 34270600.140563965 0 0 0 0 -20881762.79445219 23784881.07988739 0 23784881.07988739 61128180.81628418 0 0 0 0 -712478.09376712842 2678251.496605468 0 2678251.496605468 2799793.8540734313 0 0 0 0 10178523.760048211 42621932.097480774 0 42621932.097480774 -68371560.924316406 0 0 0 0 -22910212.171746314 29624622.028057098 0 29624622.028057098 24968302.835327148 0 0 0 0 -69939312.404997766 -27580198.097625732 0 -27580198.097625732 62766983.398834229 0 0 0 0 -39643195.612519711 24147984.558033466 0 24147984.558033466 -7981814.4020996094 0 0 0 0 -898918.33858230594 1727079.836671799 0 1727079.836671799 2413411.437802881 0 0 0 0 -35353158.609082624 1391684.0421614647 0 1391684.0421614647 -7579747.963973999 0 0 0 0 -35128555.23234041 -1316334.6209392548 0 -1316334.6209392548 12834866.800430298 0 0 0 0 -39354674.210305542 20889894.534389496 0 20889894.534389496 18762019.089035034 0 0 0 0 -21004450.455520988 14363449.759689331 0 14363449.759689331 18473846.684570312 0 0 0 0 -22197992.435814738 14637170.782333374 0 14637170.782333374 34053314.233169556 0 0 0 0 -8562028.7699112892 22636378.070865631 0 22636378.070865631 26549702.261268616 0 0 0 0 -16800550.99120751 4223769.5649499893 0 4223769.5649499893 29305424.967956543 0 0 0 0 85409.20470961 -10006.940649369732 0 -10006.940649369732 -3153.3515591365285 0 0 0 0 -20514828.961463928 6842455.0308380127 0 6842455.0308380127 -58033702.006153107 0 0 0 0 -17126608.817047238 18027190.994915009 0 18027190.994915009 49158710.201034546 0 0 0 0 -24798358.949580193 29076034.694076538 0 29076034.694076538 38734981.795959473 0 0 0 0 2622421.2117336392 14078568.565982819 0 14078568.565982819 32457583.088890076 0 0 0 0 1231654.6120909154 7065978.380376339 0 7065978.380376339 24408393.906013489 0 0 0 0 16714191.620039381 -17311073.287964821 0 -17311073.287964821 56024157.699539185 0 0 0 0 28342428.584467828 14896458.745544434 0 14896458.745544434 26308699.785369873 0 0 0 0 20353484.087516487 10032248.437376022 0 10032248.437376022 -2767004.7174987793 0 0 0 0 187870.30523389031 406.98594643361866 0 406.98594643361866 -92.671389115042984 0 0 0 0 41362287.985964119 51127610.891834259 0 51127610.891834259 -16674462.510162354 0 0 0 0 24124081.448483706 13222145.683425903 0 13222145.683425903 33595849.934505463 0 0 0 0 3567548.643422246 69783876.891750336 0 69783876.891750336 137384351.46125031 0 0 0 0 34344143.834399939 83578262.065406799 0 83578262.065406799 134117725.28193665 0 0 0 0 64343493.378289759 41990339.467214584 0 41990339.467214584 10404136.094772339 0 0 0 0 62348120.997674465 89507193.027709961 0 89507193.027709961 117520618.47195816 0 0 0 0 51167583.423775196 101329118.74137497 0 101329118.74137497 110165908.12346649 0 0 0 0 -21902338.635627389 7471258.1651229858 0 7471258.1651229858 25204313.029167175 0 0 0 0 25564508.136878133 -13408355.539649963 0 -13408355.539649963 -49139385.444473267 0 0 0 0 -87569722.750100374 -36581275.832504272 0 -36581275.832504272 -7466849.9912719727 0 0 0 0 -49388524.388305902 1471795.6093597412 0 1471795.6093597412 -3023067.9277648926 0 0 0 0 74152862.018778682 34371863.837394714 0 34371863.837394714 -53985873.760971069 0 0 0 0 -144855.32145758861 -300344.69655435113 0 -300344.69655435113 827353.78474706039 0 0 0 0 80416273.854231 121533746.64838409 0 121533746.64838409 106294605.69565582 0 0 0 0 27652046.419427395 33215394.371734619 0 33215394.371734619 -14817059.850280762 0 0 0 0 43858058.461873829 -1359071.4050254822 0 -1359071.4050254822 -56079188.454101562 0 0 0 0 -27549188.643921912 -30817474.604892731 0 -30817474.604892731 -53053688.15461731 0 0 0 0 66584665.206599355 -98995294.454563141 0 -98995294.454563141 105673810.12527466 0 0 0 0 -22576147.801604033 127461456.74035263 0 127461456.74035263 85716501.585752487 0 0 0 0 -657102.9771583234 -1916027.1859268649 0 -1916027.1859268649 906866.82873659581 0 0 0 0 39765910.803337097 -101330110.75927734 0 -101330110.75927734 175684290.16894531 0 0 0 0 1105092.4538989067 -37414554.709060669 0 -37414554.709060669 70897162.293914795 0 0 0 0 15210152.934512615 -75209696.081233978 0 -75209696.081233978 131986691.59609985 0 0 0 0 25802658.617988586 -66474534.728538513 0 -66474534.728538513 91633976.208099365 0 0 0 0 53650833.920360565 -80125621.987457275 0 -80125621.987457275 71324414.387481689 0 0 0 0 46313776.70746994 -51359927.691970825 0 -51359927.691970825 10211256.300598145 0 0 0 0 67773372.477306366 -70052142.688446045 0 -70052142.688446045 -116591.27883911133 0 0 0 0 63754059.925354242 -83971201.263198853 0 -83971201.263198853 26092519.011474609 0 0 0 0 -2251893.9273604061 3317437.4374891659 0 3317437.4374891659 7375587.6320272908 0 0 0 0 22400267.016054153 -40623703.488670349 0 -40623703.488670349 -29479960.387451172 0 0 0 0 -10894209.873120308 -4027518.6837005615 0 -4027518.6837005615 12584431.050209045 0 0 0 0 -96243919.573997021 19673867.633056641 0 19673867.633056641 -13107977.24307251 0 0 0 0 -527848.97354746796 -1008716.7805080772 0 -1008716.7805080772 2617621.0673463009 0 0 0 0 -82983965.751384258 -93060902.56413269 0 -93060902.56413269 14650448.669881821 0 0 0 0 111873914.21435213 59043463.732852936 0 59043463.732852936 75953516.013618469 0 0 0 0 44617864.293622315 67615612.756128311 0 67615612.756128311 152954298.39571381 0 0 0 0 42614564.711793035 56346685.34495163 0 56346685.34495163 112399570.50409698 0 0 0 0 21339278.830991864 44794048.062931061 0 44794048.062931061 112393155.66448212 0 0 0 0 54161203.610756874 34841297.17975235 0 34841297.17975235 78915816.547213554 0 0 0 0 36401565.100525379 9213033.643907547 0 9213033.643907547 61647175.475814819 0 0 0 0 38304721.682317257 4835514.961856842 0 4835514.961856842 68233685.241939545 0 0 0 0 29955760.079255134 -26286761.108626366 0 -26286761.108626366 53336964.754653931 0 0 0 0 13866892.709359258 -27881455.226966858 0 -27881455.226966858 57756438.173999786 0 0 0 0 518538.15210336447 7568327.3754844666 0 7568327.3754844666 32950102.321269989 0 0 0 0 77876928.487002492 -19528267.372402191 0 -19528267.372402191 -1184948.2885131836 0 0 0 0 103491.209719971 5341.0431102775037 0 5341.0431102775037 4349.3912636488676 0 0 0 0 75729592.643468916 102912354.77051735 0 102912354.77051735 151097500.46647644 0 0 0 0 -2952355.9359176159 36308869.15081501 0 36308869.15081501 166882107.77230072 0 0 0 0 5515353.8688284159 94880354.584030151 0 94880354.584030151 199196043.25815582 0 0 0 0 102767685.44265217 73763976.15511322 0 73763976.15511322 156286048.02157652 0 0 0 0 80706147.023326665 49305701.16799736 0 49305701.16799736 148959393.80351257 0 0 0 0 38461461.891734302 81076294.130270004 0 81076294.130270004 172000812.15727997 0 0 0 0 6711383.1347696781 62891097.673294067 0 62891097.673294067 165193969.35279751 0 0 0 0 -1954797.0092139244 51992165.450366974 0 51992165.450366974 166589762.83271265 0 0 0 0 5521248.5181779563 56516515.783851624 0 56516515.783851624 150311283.10062408 0 0 0 0 16956151.227751732 57527896.573001862 0 57527896.573001862 153432341.76944733 0 0 0 0 11806670.559403762 56818165.260070801 0 56818165.260070801 129217243.95626068 0 0 0 0 19740217.212576449 70852960.41942215 0 70852960.41942215 153345008.74289909 0 0 0 0 4862461.3048956394 68578423.573575974 0 68578423.573575974 146303953.42711639 0 0 0 0 4942754.1641470194 47653045.433084488 0 47653045.433084488 117723344.22390747 0 0 0 0 6894535.0899139643 52513222.534355164 0 52513222.534355164 129808881.04833651 0 0 0 0 24129744.167871237 48808390.24714756 0 48808390.24714756 101344611.32717896 0 0 0 0 -9633644.9992896169 66545915.479560852 0 66545915.479560852 157922049.0864563 0 0 0 0 -9522153.0856243968 52116888.149864197 0 52116888.149864197 159255139.12696457 0 0 0 0 -10236040.404131263 42356952.908039093 0 42356952.908039093 168647406.65808487 0 0 0 0 -7076832.0558249354 48846080.502708435 0 48846080.502708435 132543590.3583374 0 0 0 0 -5233732.3916332126 53299645.365852356 0 53299645.365852356 141746503.53829077 0 0 0 0 -3037846.2842473388 61791700.434307098 0 61791700.434307098 141685567.56571481 0 0 0 0 -5982573.6645836234 66719059.108459473 0 66719059.108459473 151009983.97873306 0 0 0 0 -10006081.723518074 64692691.809848785 0 64692691.809848785 150103630.57723236 0 0 0 0 -6502490.9576260895 68897392.695930481 0 68897392.695930481 137385118.26393127 0 0 0 0 -8466919.0393339694 69396090.716899872 0 69396090.716899872 149541885.25569153 0 0 0 0 1902402.2273438573 65223856.570823669 0 65223856.570823669 133448198.30280685 0 0 0 0 -4426364.5556592047 36584363.112873077 0 36584363.112873077 159085610.670681 0 0 0 0 -2255059.9605626166 35363172.020217896 0 35363172.020217896 95502227.107625961 0 0 0 0 5555955.4835857153 81169592.689102173 0 81169592.689102173 83806944.391597748 0 0 0 0 -6117104.3298882023 54129003.741418839 0 54129003.741418839 83402247.990905762 0 0 0 0 -3740280.5758214295 63113009.483913422 0 63113009.483913422 103898436.88411331 0 0 0 0 -2791904.0504701138 63470108.648085594 0 63470108.648085594 162082382.43847656 0 0 0 0 -7558366.6269586682 78340400.055780411 0 78340400.055780411 154120323.42628479 0 0 0 0 -11743039.129546285 65460352.791778564 0 65460352.791778564 148148925.2002182 0 0 0 0 -9626795.492456913 75942559.926017761 0 75942559.926017761 132119283.32285309 0 0 0 0 -14722460.489808232 72390455.085790634 0 72390455.085790634 142301324.53294373 0 0 0 0 -15028542.646226604 13377547.148647308 0 13377547.148647308 2959532.6331996918 0 0 0 0 9856084.3392955661 4038737.9315795898 0 4038737.9315795898 2924607.1505508423 0 0 0 0 106850801.9532603 76537926.648292542 0 76537926.648292542 28803649.974170685 0 0 0 0 33965330.414202899 60642984.234733582 0 60642984.234733582 26289592.848630905 0 0 0 0 21568088.695354879 95073897.818595886 0 95073897.818595886 101636461.82416153 0 0 0 0 47853418.69334951 90738907.972648621 0 90738907.972648621 153485657.03855896 0 0 0 0 20671441.692771837 80982157.183949471 0 80982157.183949471 149995145.40405273 0 0 0 0 -43390224.671876289 -12901450.840339661 0 -12901450.840339661 10100872.630869865 0 0 0 0 140072876.41358697 135471372.39519119 0 135471372.39519119 126087329.98013306 0 0 0 0 -98866.939995002409 91164045.361461639 0 91164045.361461639 213410287.1835022 0 0 0 0 -8671.7409917500299 9368.4430006844923 0 9368.4430006844923 100016.55294308439 0 0 0 0 47867755.174758166 117823898.45401001 0 117823898.45401001 264598326.04516602 0 0 0 0 23857762.641513459 55140154.574554443 0 55140154.574554443 212752596.33671761 0 0 0 0 64812488.165995836 49892557.948616028 0 49892557.948616028 213044881.33590698 0 0 0 0 29620887.949493721 41508754.697875977 0 41508754.697875977 269227113.02711487 0 0 0 0 26457413.699698292 27181433.197509766 0 27181433.197509766 203436394.18546939 0 0 0 0 30481791.772504479 61070626.922561646 0 61070626.922561646 203823225.54851675 0 0 0 0 10853808.435189778 61548249.772924423 0 61548249.772924423 229472863.2114563 0 0 0 0 9970761.6939501017 69951974.514167786 0 69951974.514167786 165359584.77234268 0 0 0 0 19410931.562669925 36541011.577802658 0 36541011.577802658 187584968.36988831 0 0 0 0 20744018.586568087 37971117.891624451 0 37971117.891624451 185921835.79956055 0 0 0 0 31859546.118358657 29648706.533187866 0 29648706.533187866 185665710.91581178 0 0 0 0 89713.193224549599 33991254.496368408 0 33991254.496368408 200071777.76603699 0 0 0 0 -4675138.5245628357 72843217.625617981 0 72843217.625617981 152987156.61921692 0 0 0 0 -3432373.2597994506 59062725.36945343 0 59062725.36945343 163173722.28157043 0 0 0 0 -11432694.183899768 65497150.729787827 0 65497150.729787827 173858055.91868591 0 0 0 0 127128.0617275238 60443509.082145691 0 60443509.082145691 160056226.87068558 0 0 0 0 -2656092.0055830181 59813336.801200867 0 59813336.801200867 192302723.8495636 0 0 0 0 6730162.9561373591 50878133.221702576 0 50878133.221702576 172789787.0490365 0 0 0 0 15820690.96521914 33922489.225646973 0 33922489.225646973 183830369.24205875 0 0 0 0 4922688.1572893262 50150336.867710114 0 50150336.867710114 180564616.97323608 0 0 0 0 15719817.248228639 46558987.833141327 0 46558987.833141327 169719081.92058182 0 0 0 0 -4571297.5718181729 59767308.459430695 0 59767308.459430695 172465735.4369812 0 0 0 0 -5598567.8859333694 51862498.970916748 0 51862498.970916748 186798715.88018799 0 0 0 0 172631.07326130569 14007679.83656311 0 14007679.83656311 290634712.15312958 0 0 0 0 66726.993635728286 44172.245986305177 0 44172.245986305177 55304.163825287484 0 0 0 0 1425257.9309318811 752363.57258224487 0 752363.57258224487 159119893.06876373 0 0 0 0 -1953795.6633221507 8615011.1466712952 0 8615011.1466712952 147047193.70435524 0 0 0 0 20706618.745696284 24110029.309818268 0 24110029.309818268 187407276.95397186 0 0 0 0 18870415.731247827 38776372.211372375 0 38776372.211372375 190971362.05267334 0 0 0 0 42977936.880335644 47189762.347145081 0 47189762.347145081 193109292.20926094 0 0 0 0 34385295.356378205 26762126.702587128 0 26762126.702587128 186744416.70036602 0 0 0 0 -36947.641710597243 7554453.9498901367 0 7554453.9498901367 176379568.74027634 0 0 0 0 25791948.389335535 77470881.872470856 0 77470881.872470856 103102154.47080994 0 0 0 0 45257132.77154763 30441325.145131111 0 30441325.145131111 3741636.4542388916 0 0 0 0 24637949.949552074 -5415855.8109054565 0 -5415855.8109054565 -10795352.732452393 0 0 0 0 -17972.635842095064 3924.0031503196806 0 3924.0031503196806 52847.793794983998 0 0 0 0 -7384948.8565126657 7703373.8630714417 0 7703373.8630714417 58544763.170166016 0 0 0 0 54603.134504092319 3075225.4763259888 0 3075225.4763259888 9711280.8267173767 0 0 0 0 185683.64115072379 125926.92860363983 0 125926.92860363983 146898.77777574491 0 0 0 0 1117616.5751727223 -398701.49503707886 0 -398701.49503707886 459866.65221405029 0 0 0 0 -7710296.873530969 4127296.3474588394 0 4127296.3474588394 -1531690.2729949951 0 0 0 0 21111834.891976029 6707197.4154281616 0 6707197.4154281616 -13988151.025844574 0 0 0 0 -9908652.3005070947 2014322.908782959 0 2014322.908782959 11421865.230026245 0 0 0 0 -3391537.1554041803 7659355.6058921814 0 7659355.6058921814 25012335.634056091 0 0 0 0 -7110427.2912477553 -7348033.176990509 0 -7348033.176990509 7158287.1231880188 0 0 0 0 -655961.60489844065 391037.32827949524 0 391037.32827949524 2446046.3503189087 0 0 0 0 -6700922.7459783852 -3839487.8971939087 0 -3839487.8971939087 -800103.7645111084 0 0 0 0 432482.50667327642 167916.21578979492 0 167916.21578979492 679785.33360290527 0 0 0 0 -62637.465743762885 30651.059060130268 0 30651.059060130268 160741.34123643115 0 0 0 0 -144169.24532362446 201753.83115959167 0 201753.83115959167 2123296.9685058594 0 0 0 0 -103320.43647768557 97700.981334790587 0 97700.981334790587 280778.88684539031 0 0 0 0 -3677421.8774282932 -12462726.045509338 0 -12462726.045509338 -22422089.271972656 0 0 0 0 -497589.01371592283 1222150.3126506805 0 1222150.3126506805 1674652.549697876 0 0 0 0 7832758.8507047892 13203778.999225616 0 13203778.999225616 56109029.955944061 0 0 0 0 462462.66141223907 215205.32012939453 0 215205.32012939453 684670.23483276367 0 0 0 0 275857.18716160627 197313.35297066532 0 197313.35297066532 227529.51419625618 0 0 0 0 -3151833.1412011385 10497414.372402191 0 10497414.372402191 72318576.478744507 0 0 0 0 -11756607.446228504 -1101299.8636474609 0 -1101299.8636474609 -11850608.100402832 0 0 0 0 -108585.31234696231 -210660.30849983171 0 -210660.30849983171 424655.44399954379 0 0 0 0 347.67996644973755 15688.884735107422 0 15688.884735107422 77606.363403320312 0 0 0 0 -123265.30809537793 23339.12884712778 0 23339.12884712778 309061.57630814239 0 0 0 0 -1563495.1096978188 -16655489.283813477 0 -16655489.283813477 -22801877.588729858 0 0 0 0 -10417767.172511041 -9723272.9601173401 0 -9723272.9601173401 -22900100.849060059 0 0 0 0 -3762715.2557163239 -7811103.5986175537 0 -7811103.5986175537 -24689972.94442749 0 0 0 0 -4045485.7594671249 -16280947.176742554 0 -16280947.176742554 -22729682.964416504 0 0 0 0 -9468753.9046707749 -6969325.6719970703 0 -6969325.6719970703 -21546831.807678223 0 0 0 0 -261542.21864199213 -298527.57805325277 0 -298527.57805325277 594187.3546068687 0 0 0 0 -7394197.7703232765 -9531019.042755127 0 -9531019.042755127 -25288287.456787109 0 0 0 0 -1993790.4052611589 -12242611.678619385 0 -12242611.678619385 -23402049.695718765 0 0 0 0 -359314.33835870028 -13636656.833587646 0 -13636656.833587646 -23932085.995223999 0 0 0 0 -3856103.4515639544 -15529840.512229919 0 -15529840.512229919 -19862449.782043457 0 0 0 0 4202681.3648990393 -14486405.630706787 0 -14486405.630706787 -24525751.121185303 0 0 0 0 6021487.5361683369 4808582.971572876 0 4808582.971572876 -49716548.093475342 0 0 0 0 4208314.0698350668 -17254309.824790955 0 -17254309.824790955 -22426146.852264404 0 0 0 0 10749249.914654016 -4474140.4087905884 0 -4474140.4087905884 -50602285.611167908 0 0 0 0 -329830.8679999896 -239341.43071127497 0 -239341.43071127497 322500.73208977655 0 0 0 0 1023084.0466907024 -7114456.9160690308 0 -7114456.9160690308 -32470021.694030762 0 0 0 0 9446311.8784944713 -10954712.806114197 0 -10954712.806114197 -37047992.423095703 0 0 0 0 2084103.6446092129 -871950.41906738281 0 -871950.41906738281 -39307904.255126953 0 0 0 0 -12367784.863324404 2770036.786315918 0 2770036.786315918 -23035057.740264893 0 0 0 0 -1957131.3327457905 -4319321.2042541504 0 -4319321.2042541504 -28763090.685134888 0 0 0 0 -5551921.8810019493 791037.47782897949 0 791037.47782897949 -35024198.602508545 0 0 0 0 -10752016.431066275 6427426.2824707031 0 6427426.2824707031 -30998645.458358765 0 0 0 0 2898939.3064820468 -6163702.1385374069 0 -6163702.1385374069 -32040261.119384766 0 0 0 0 3380814.2284292281 -13491832.207313538 0 -13491832.207313538 -41454500.641860962 0 0 0 0 4791250.3640550971 -6104532.8514404297 0 -6104532.8514404297 -30985854.647602081 0 0 0 0 551733.48351198435 -2345235.7834000587 0 -2345235.7834000587 1003340.6848678589 0 0 0 0 1028922.3837293983 1686829.3031082153 0 1686829.3031082153 1026773.479927063 0 0 0 0 -811755.9232019186 1641903.5044021606 0 1641903.5044021606 1570886.6452102661 0 0 0 0 826564.63102138042 237508.13578033447 0 237508.13578033447 -375488.97003173828 0 0 0 0 435843.88126585644 -157208.73253529891 0 -157208.73253529891 261748.69213059451 0 0 0 0 -51908.347371101379 214302.97732543945 0 214302.97732543945 319650.4128112793 0 0 0 0 151431.00426954299 -4271.0365745928138 0 -4271.0365745928138 430401.40270975418 0 0 0 0 96985.870037168759 51521.411783661693 0 51521.411783661693 14039.958229482174 0 0 0 0 1980942.815323472 -1260531.1116256714 0 -1260531.1116256714 45961071.968086243 0 0 0 0 -5822151.0118082166 24062482.004653931 0 24062482.004653931 102016149.56228638 0 0 0 0 9049778.195117712 30807695.208030701 0 30807695.208030701 57380443.130893707 0 0 0 0 7650413.5360554755 34097260.031953812 0 34097260.031953812 96627574.621391296 0 0 0 0 11258719.920780301 29323318.827018738 0 29323318.827018738 94749589.747394562 0 0 0 0 32927.901801863394 15343.992324322462 0 15343.992324322462 8058.344536582008 0 0 0 0 7790291.9181879759 28052273.189685822 0 28052273.189685822 97536679.498580933 0 0 0 0 12577290.26886183 30967809.748311996 0 30967809.748311996 96780355.116241455 0 0 0 0 9432359.7793258429 30167588.209747314 0 30167588.209747314 100237870.48531246 0 0 0 0 -1542835.1445859075 30865822.302112579 0 30865822.302112579 101328437.04962921 0 0 0 0 -90018.688586473465 36891371.833683014 0 36891371.833683014 117586787.43161011 0 0 0 0 -10960887.40124543 29289031.237823486 0 29289031.237823486 112456364.76040649 0 0 0 0 -9449662.6457235217 36182680.229026794 0 36182680.229026794 133274323.87338877 0 0 0 0 -13500556.041543186 34699387.47146225 0 34699387.47146225 158222478.30213928 0 0 0 0 -9770723.2528789341 45286468.836711884 0 45286468.836711884 138362671.43598938 0 0 0 0 -4551154.0303326845 -1082394.6399040222 0 -1082394.6399040222 111048933.67619324 0 0 0 0 1920129.9730793238 -530800.48923492432 0 -530800.48923492432 69662870.537452698 0 0 0 0 -5120919.4883455634 15558174.650215149 0 15558174.650215149 118282624.00914001 0 0 0 0 -1483495.4872647524 18231443.67388916 0 18231443.67388916 71614851.571798801 0 0 0 0 15999742.082319379 -1975390.3818159103 0 -1975390.3818159103 -195745195.00748634 0 0 0 0 -35917968.750071526 32033015.61838913 0 32033015.61838913 16443619.635906219 0 0 0 0 -529067.91145940777 -495477.87198960036 0 -495477.87198960036 1135111.6813222971 0 0 0 0 -166938118.92895198 -63575611.049246788 0 -63575611.049246788 -48971330.095581532 0 0 0 0 -104115124.41337681 -193456974.02737045 0 -193456974.02737045 -144397287.31816483 0 0 0 0 22334389.112469673 -21774351.684846878 0 -21774351.684846878 -77852385.557479858 0 0 0 0 -14055364.256849289 -17942531.9003582 0 -17942531.9003582 -52485591.981555939 0 0 0 0 -22086024.886079296 -93253260.545565248 0 -93253260.545565248 -78941880.819972992 0 0 0 0 37204525.915371418 -87950614.685174942 0 -87950614.685174942 -120963060.92683172 0 0 0 0 41439653.380656719 -41326719.382469177 0 -41326719.382469177 -52631124.452007294 0 0 0 0 9793215.5296244621 -43520291.376722336 0 -43520291.376722336 -25417896.05474472 0 0 0 0 27973986.55817318 1124160.1231689453 0 1124160.1231689453 3946739.9388122559 0 0 0 0 6789475.3454988003 -4277214.8350248337 0 -4277214.8350248337 42962689.277393341 0 0 0 0 28403786.581056595 -30537085.465232849 0 -30537085.465232849 -66585771.617294312 0 0 0 0 -24028914.612981796 -96554501.45664978 0 -96554501.45664978 -40177173.525122166 0 0 0 0 289804606.74053001 56961383.794221878 0 56961383.794221878 -134718127.87346649 0 0 0 0 45571770.127290726 54664956.290023804 0 54664956.290023804 40897055.729146957 0 0 0 0 56233971.104698956 25928169.627020895 0 25928169.627020895 -32420409.595766068 0 0 0 0 77084266.564191818 61005130.14621973 0 61005130.14621973 13259381.106918812 0 0 0 0 -366266.61366486165 954286.86234215694 0 954286.86234215694 542193.77054202836 0 0 0 0 192302804.89117146 29103009.660966396 0 29103009.660966396 -86722582.137945175 0 0 0 0 60491104.236078262 35527128.484813213 0 35527128.484813213 -84818834.156476974 0 0 0 0 -93695797.882262707 -145253755.81971025 0 -145253755.81971025 -15656402.273603439 0 0 0 0 30429977.803243637 7074119.3654584885 0 7074119.3654584885 -34705721.037469983 0 0 0 0 934388.33337688446 -53884223.993846416 0 -53884223.993846416 -120015738.48958361 0 0 0 0 -783326.7648276242 -1335814.003885512 0 -1335814.003885512 3071714.9096102361 0 0 0 0 -833117.22059164685 214377.57990050025 0 214377.57990050025 988120.73742477386 0 0 0 0 143427.02584552765 30025254.703205347 0 30025254.703205347 16105580.134476094 0 0 0 0 77676278.379997492 -36825551.204974174 0 -36825551.204974174 16520855.633164406 0 0 0 0 -844691.2925645099 -1118653.5825600524 0 -1118653.5825600524 2454094.6237637941 0 0 0 0 -36308088.729840875 -179328779.57056189 0 -179328779.57056189 -177970458.25928497 0 0 0 0 53248243.955138683 71283147.153844357 0 71283147.153844357 57855847.369019508 0 0 0 0 136810120.30456781 137590448.83617115 0 137590448.83617115 110448132.23813248 0 0 0 0 127862491.51289797 53956565.517408371 0 53956565.517408371 30331961.299873352 0 0 0 0 195409163.77469909 189384331.74723649 0 189384331.74723649 81009713.575463295 0 0 0 0 207454310.15888786 -31858027.089702606 0 -31858027.089702606 20335113.230150938 0 0 0 0 333087196.94432449 234787327.42955685 0 234787327.42955685 -8713381.8423554301 0 0 0 0 -246350759.72972739 29663993.500630498 0 29663993.500630498 225558115.89780998 0 0 0 0 273118977.27810287 392076382.20849228 0 392076382.20849228 374318826.98344088 0 0 0 0 -293089549.90344763 853640236.09329987 0 853640236.09329987 -1181676057.1403542 0 0 0 0 -34172.255275741452 -291971.08888371196 0 -291971.08888371196 730161.18442015722 0 0 0 0 -262200407.84693146 183130952.66755295 0 183130952.66755295 43357131.348682404 0 0 0 0 -33329317.747257233 47346429.154098511 0 47346429.154098511 688952098.96353531 0 0 0 0 195656666.85026264 -758671259.85719776 0 -758671259.85719776 2036251478.6573639 0 0 0 0 201662491.52301979 -397574230.73036385 0 -397574230.73036385 327871329.4846611 0 0 0 0 118257990.30667326 22236023.651506931 0 22236023.651506931 -209371687.33068657 0 0 0 0 102416438.33834076 -262326946.22411728 0 -262326946.22411728 265119014.348629 0 0 0 0 131849049.20624447 57604646.19462347 0 57604646.19462347 18775502.235122681 0 0 0 0 148076816.01138592 37906025.439986229 0 37906025.439986229 -21859711.5187397 0 0 0 0 146169943.37238884 86261857.099336624 0 86261857.099336624 -40489153.980019569 0 0 0 0 -811518.56995679787 -146398.02733984101 0 -146398.02733984101 1265525.9278117223 0 0 0 0 202767207.70022678 92276799.589197159 0 92276799.589197159 -12934663.654511452 0 0 0 0 585696.15986441472 3414645.9226705884 0 3414645.9226705884 10600284.046574457 0 0 0 0 -34729754.556432247 31718395.345106125 0 31718395.345106125 -21608888.391504288 0 0 0 0 -36484424.847374439 31912675.107877254 0 31912675.107877254 4498205.8179473877 0 0 0 0 -18134718.681138992 51896189.589047432 0 51896189.589047432 -2807173.8793582916 0 0 0 0 -14055654.512702942 137925470.44926548 0 137925470.44926548 -134912843.55505943 0 0 0 0 -29863568.622220993 77872551.633872032 0 77872551.633872032 -60245396.510261536 0 0 0 0 -355096.80732107046 1551754.8946781966 0 1551754.8946781966 598743.90473064315 0 0 0 0 9277614.369410038 480549.9481253624 0 480549.9481253624 476142.56714820862 0 0 0 0 52101025.629350662 72482836.923042297 0 72482836.923042297 -78353801.098132133 0 0 0 0 48440992.403438568 25397082.482046127 0 25397082.482046127 -50112037.420894265 0 0 0 0 -26339849.49061203 6458597.6861476898 0 6458597.6861476898 15857850.239334106 0 0 0 0 1300540.1212759051 4320195.0828264942 0 4320195.0828264942 10986538.64642222 0 0 0 0 -24184368.623992682 -570680.71963500977 0 -570680.71963500977 19328779.873649597 0 0 0 0 -16904027.841120243 -7707840.548784256 0 -7707840.548784256 22246302.750686646 0 0 0 0 -13123161.075659752 3035719.6492233276 0 3035719.6492233276 9213288.6424446106 0 0 0 0 -1417412.176357609 5236836.1686510351 0 5236836.1686510351 1975359.735959697 0 0 0 0 198291185.65236664 -113628339.78593636 0 -113628339.78593636 -106858514.27874756 0 0 0 0 -5837058.1234836578 26287693.452994823 0 26287693.452994823 16498984.696959734 0 0 0 0 -2223826.2658201456 16732746.8393116 0 16732746.8393116 17540442.628479004 0 0 0 0 2755397.1568837808 4511272.3158403365 0 4511272.3158403365 8018547.4190089377 0 0 0 0 -14579042.649633408 17782776.648163795 0 17782776.648163795 -96409326.067006111 0 0 0 0 48888966.567442894 124755717.43731403 0 124755717.43731403 45467225.098880291 0 0 0 0 -1631170.6043656389 4068194.3350895727 0 4068194.3350895727 3679081.0687520728 0 0 0 0 5642969.4898962975 -2647802.9206390381 0 -2647802.9206390381 10888598.690793991 0 0 0 0 -5208456.5360033512 -15066494.860204697 0 -15066494.860204697 17516717.393508911 0 0 0 0 -20919370.083101273 -12012265.091083527 0 -12012265.091083527 18545810.009140015 0 0 0 0 258904276.76798248 206976475.64330864 0 206976475.64330864 56590001.355381966 0 0 0 0 8241544.1028118134 -226040614.87528419 0 -226040614.87528419 -245176756.50848007 0 0 0 0 415743623.601511 120734898.81111145 0 120734898.81111145 -61233408.530143738 0 0 0 0 371991404.95283127 -7274649.1485500336 0 -7274649.1485500336 -6156355.7805862427 0 0 0 0 146274968.23773003 168918.3778591156 0 168918.3778591156 56957446.10483551 0 0 0 0 392106551.71917915 -238441589.27058029 0 -238441589.27058029 118210749.09671783 0 0 0 0 533774800.37679482 -75880853.967182159 0 -75880853.967182159 -42083376.496086121 0 0 0 0 137552330.7853632 18872538.495012283 0 18872538.495012283 -3852712.5408782959 0 0 0 0 325742181.87404251 134088746.38371086 0 134088746.38371086 -11610249.319999695 0 0 0 0 172565682.58244371 59922257.533947945 0 59922257.533947945 -17100546.549530029 0 0 0 0 -70242859.596216917 -67683634.802567482 0 -67683634.802567482 46687152.661392212 0 0 0 0 46867363.388374329 293498912.33340645 0 293498912.33340645 -184346408.16972429 0 0 0 0 -39454362.174118042 -90246996.938438416 0 -90246996.938438416 -38931503.20331955 0 0 0 0 -463221.01112297922 -64397.713515088893 0 -64397.713515088893 675376.08237454109 0 0 0 0 129830407.30201721 28439630.106903076 0 28439630.106903076 -1941532.2293891907 0 0 0 0 -40533051.891738892 34434248.193481445 0 34434248.193481445 23989669.035335541 0 0 0 0 -1736979.4978713989 -16132295.703533173 0 -16132295.703533173 -114426843.61991501 0 0 0 0 6534453.0138626099 -1940220.2843170166 0 -1940220.2843170166 14616259.518641949 0 0 0 0 41790720.139093399 -81673460.151786804 0 -81673460.151786804 1212899.0272827148 0 0 0 0 43045383.893250585 -19915607.812668085 0 -19915607.812668085 -12230261.941398621 0 0 0 0 40408992.270900726 -53819238.452476501 0 -53819238.452476501 132288138.63945007 0 0 0 0 -1085177.8062480236 1248146.3412197484 0 1248146.3412197484 1973553.9344043173 0 0 0 0 85547982.873004913 59626634.686717987 0 59626634.686717987 -113265606.72454071 0 0 0 0 -14668100.910266876 15989581.408723831 0 15989581.408723831 -78476538.989519 0 0 0 0 112837075.93319368 45151434.439647913 0 45151434.439647913 -20021057.28704071 0 0 0 0 6214279.2086648941 -8889020.5284366608 0 -8889020.5284366608 -103378862.5640837 0 0 0 0 1581708.0659999847 -27458842.808706284 0 -27458842.808706284 -83156003.500026703 0 0 0 0 121506996.26756763 23080967.853216171 0 23080967.853216171 -95058554.768554688 0 0 0 0 149069775.60375375 -26240919.094005108 0 -26240919.094005108 -144038454.27742004 0 0 0 0 146092703.99848425 41744413.497279525 0 41744413.497279525 -187681188.89124298 0 0 0 0 119168658.55990791 -73960450.268569946 0 -73960450.268569946 -208787102.56393814 0 0 0 0 270126252.29026222 -50124772.778434753 0 -50124772.778434753 -233113113.53885651 0 0 0 0 -47788718.885227203 -122902659.3939209 0 -122902659.3939209 435259310.26299286 0 0 0 0 408779954.86142159 173426319.6358223 0 173426319.6358223 -146828154.00608826 0 0 0 0 27868103.054252625 132321619.7837677 0 132321619.7837677 41052743.452606201 0 0 0 0 41887202.094078064 -121260495.06534767 0 -121260495.06534767 -170982500.8534584 0 0 0 0 170019267.11533546 -117220734.07070923 0 -117220734.07070923 -278062281.56275177 0 0 0 0 108711129.18395042 -57206006.337120056 0 -57206006.337120056 -114401002.60231018 0 0 0 0 32777819.605922937 -51605877.32966423 0 -51605877.32966423 -45481384.070175171 0 0 0 0 67827781.425263405 -63526004.801795959 0 -63526004.801795959 -113063341.95825195 0 0 0 0 90293588.755167484 -23260072.108987808 0 -23260072.108987808 -47049120.983192444 0 0 0 0 53669713.973667353 -29002108.870226383 0 -29002108.870226383 -27674181.762489319 0 0 0 0 58078487.240820885 -41344535.605560303 0 -41344535.605560303 -53982641.401670456 0 0 0 0 44210509.797557384 -36331509.915330887 0 -36331509.915330887 2190270.6179466248 0 0 0 0 43825196.125918388 -37482133.253234863 0 -37482133.253234863 11921719.214393616 0 0 0 0 56453658.720196724 -25935868.618427277 0 -25935868.618427277 -15105760.212371826 0 0 0 0 71663560.537156105 -15664433.923044205 0 -15664433.923044205 -8392473.7260360718 0 0 0 0 65456399.284172773 2789151.8107910156 0 2789151.8107910156 30587655.669780731 0 0 0 0 32168408.968008041 -17374427.514024734 0 -17374427.514024734 20578023.1257267 0 0 0 0 2336253.6254667901 1654136.1189310935 0 1654136.1189310935 3632151.7182066422 0 0 0 0 1296407.4200853109 -1930620.9464550018 0 -1930620.9464550018 24159.846313476562 0 0 0 0 38966623.888868213 -33480911.909804821 0 -33480911.909804821 23215768.74042511 0 0 0 0 31100454.286188602 -20622573.216615677 0 -20622573.216615677 9412831.0407829285 0 0 0 0 1036489.9890680313 -13878143.015735626 0 -13878143.015735626 14267709.48770833 0 0 0 0 -488558.05039938667 1264779.2595786536 0 1264779.2595786536 1150754.4896800853 0 0 0 0 -16121053.0780797 -20846349.539089203 0 -20846349.539089203 14539932.480415344 0 0 0 0 -19558880.861605167 -5392956.0368881226 0 -5392956.0368881226 10865420.282875061 0 0 0 0 1347322.8034338951 -2199165.4584293365 0 -2199165.4584293365 -695666.13315200806 0 0 0 0 -870883.55253410898 255264.18383559491 0 255264.18383559491 8104404.2809245735 0 0 0 0 21185247.051692128 89450499.715010643 0 89450499.715010643 42003884.114479065 0 0 0 0 69193753.011653423 -39421171.569862366 0 -39421171.569862366 15354000.571281433 0 0 0 0 136187630.11501598 -107041132.0034256 0 -107041132.0034256 -15170997.788715363 0 0 0 0 130984036.39307404 34784684.330085754 0 34784684.330085754 5513870.5949707031 0 0 0 0 27043566.246001244 73585920.969200134 0 73585920.969200134 83622147.441223145 0 0 0 0 -15007703.285322189 22846432.240737915 0 22846432.240737915 106959114.78860855 0 0 0 0 -12423981.409029007 -9900837.1151733398 0 -9900837.1151733398 -147076.89306640625 0 0 0 0 12820926.468271255 -86618797.270050049 0 -86618797.270050049 2991158.7586364746 0 0 0 0 -4370553.4873253107 -12530065.960975647 0 -12530065.960975647 -8839411.2813949585 0 0 0 0 -749164.23080100177 -373753.83732526191 0 -373753.83732526191 7246155.0152995232 0 0 0 0 -16425617.266273499 -27901093.14264679 0 -27901093.14264679 -35443899.239814758 0 0 0 0 -63043.068755290937 -33922.517119068652 0 -33922.517119068652 87224.019476843067 0 0 0 0 -16709083.139683247 41457962.993770599 0 41457962.993770599 -2986159.3654937744 0 0 0 0 8932741.6331148148 35248937.857955933 0 35248937.857955933 -4754032.7289886475 0 0 0 0 -26878817.53424263 24311856.211582184 0 24311856.211582184 7716690.0863342285 0 0 0 0 -9061878.8988962173 16092059.726711273 0 16092059.726711273 3633168.9922637939 0 0 0 0 3183518.975854516 -4490390.0676651001 0 -4490390.0676651001 -10419883.632567406 0 0 0 0 -1300751.2255424559 -1909345.8860735893 0 -1909345.8860735893 -17683.901245117188 0 0 0 0 3472569.3476903439 -2697614.8264064789 0 -2697614.8264064789 -4947720.3394737244 0 0 0 0 3442840.7058563232 6040620.4199752808 0 6040620.4199752808 14042342.253749847 0 0 0 0 7990961.789124012 1658012.0402107239 0 1658012.0402107239 2870620.0276145935 0 0 0 0 8713374.6464494765 5035249.9423208237 0 5035249.9423208237 -1551863.2871704102 0 0 0 0 6546611.130761832 -4954752.9177236557 0 -4954752.9177236557 -11790040.642150879 0 0 0 0 8893580.6126182675 -9633743.6516208649 0 -9633743.6516208649 -12857167.049942017 0 0 0 0 20424116.386814386 12949574.70016098 0 12949574.70016098 -3200466.6785850525 0 0 0 0 -4749729.110243082 -3482158.1409416199 0 -3482158.1409416199 431285.1446762085 0 0 0 0 -516922.28333854675 -17989420.178897858 0 -17989420.178897858 -41383049.602905273 0 0 0 0 -12308390.222470284 -6701075.5192718506 0 -6701075.5192718506 -9889569.0356369019 0 0 0 0 -16672511.369191647 -26510049.083320618 0 -26510049.083320618 -29422738.894165039 0 0 0 0 -25353098.793726206 -43407190.259246826 0 -43407190.259246826 -42712333.97479248 0 0 0 0 217946.53460216796 -71030.790515792556 0 -71030.790515792556 -236576.67636152729 0 0 0 0 2730150.142885074 1698569.1557125642 0 1698569.1557125642 1562792.8380615152 0 0 0 0 9136008.7916660309 -3545325.2627639771 0 -3545325.2627639771 24290195.956642151 0 0 0 0 5895562.9583640099 1559431.3729438782 0 1559431.3729438782 -581787.69554233551 0 0 0 0 4140951.6302204132 2539395.4390535355 0 2539395.4390535355 2087909.9140930176 0 0 0 0 -121408.21285080141 195139.3770355247 0 195139.3770355247 953419.85294806585 0 0 0 0 6378072.9041874409 6230857.6571350098 0 6230857.6571350098 4214714.7448806763 0 0 0 0 34446731.182133675 -36797199.480659485 0 -36797199.480659485 28022648.663452148 0 0 0 0 1226618.1669536983 1199698.8615819393 0 1199698.8615819393 771090.59115287289 0 0 0 0 112350883.16605806 72106990.155204773 0 72106990.155204773 54760796.198863983 0 0 0 0 159336385.5747118 149556847.09082794 0 149556847.09082794 70589989.176292419 0 0 0 0 -198610.71417384534 -656121.50765216444 0 -656121.50765216444 1314397.8620882584 0 0 0 0 143500953.1906333 5203186.0814971924 0 5203186.0814971924 4439283.1781692505 0 0 0 0 472543161.84623718 153914058.79963684 0 153914058.79963684 169915974.27460861 0 0 0 0 482420971.06871796 185802320.31859207 0 185802320.31859207 22398028.763393402 0 0 0 0 -367891.05769597489 1005483.1612477464 0 1005483.1612477464 531996.20420095697 0 0 0 0 279879813.27291763 229132774.39014006 0 229132774.39014006 115654112.83785629 0 0 0 0 145811490.46878839 -41901411.562914848 0 -41901411.562914848 357773901.01836014 0 0 0 0 -167930.64669671305 -329399.63400177984 0 -329399.63400177984 568121.21314259805 0 0 0 0 24198306.776608706 -102320764.08470345 0 -102320764.08470345 198451668.7358799 0 0 0 0 23903225.9036479 -14384134.350082397 0 -14384134.350082397 27616077.049339294 0 0 0 0 16993276.107221484 -21611931.112286568 0 -21611931.112286568 20088594.566978455 0 0 0 0 24834871.214010566 -35980706.786117077 0 -35980706.786117077 59130202.508155823 0 0 0 0 67568552.010192364 -59870070.350721359 0 -59870070.350721359 25465904.071044922 0 0 0 0 87454669.901999891 -23322864.483971596 0 -23322864.483971596 -11673204.417728424 0 0 0 0 255871423.21527195 -137020222.08390427 0 -137020222.08390427 -7307276.5336837769 0 0 0 0 299813666.64914775 -31542521.521256447 0 -31542521.521256447 -97460176.072612762 0 0 0 0 177109156.83337092 50953012.379751205 0 50953012.379751205 -117385015.2989006 0 0 0 0 145035135.95411301 -58842341.56785202 0 -58842341.56785202 -23153425.474016666 0 0 0 0 75567727.953830242 69374562.401973724 0 69374562.401973724 24027783.302803516 0 0 0 0 131115598.04270172 76616784.49557972 0 76616784.49557972 -38480027.018007278 0 0 0 0 71115671.280793339 -2392885.1962440014 0 -2392885.1962440014 -14606532.897842407 0 0 0 0 41756269.365115166 -43892394.700332642 0 -43892394.700332642 -5785701.2958240509 0 0 0 0 55213763.668411314 -18724744.584869385 0 -18724744.584869385 -8929137.5996799469 0 0 0 0 10118746.264408976 -42642409.940868378 0 -42642409.940868378 -19888772.079177856 0 0 0 0 48748763.099683166 -13171105.986129761 0 -13171105.986129761 -10539650.608333588 0 0 0 0 194032374.36486244 264533773.83780479 0 264533773.83780479 242445137.76762581 0 0 0 0 28444060.619153023 -74573252.402015686 0 -74573252.402015686 420201936.32189512 0 0 0 0 -29773218.658391476 130616636.64164925 0 130616636.64164925 375894683.06854439 0 0 0 0 -672770.07834809273 1781375.438425597 0 1781375.438425597 1002753.0779975709 0 0 0 0 69632987.041535378 258178912.4457798 0 258178912.4457798 15712723.639652252 0 0 0 0 688687.56966450391 -190858.97084787348 0 -190858.97084787348 707527.91549822874 0 0 0 0 72515268.300026298 297444958.99000746 0 297444958.99000746 -156380515.2305603 0 0 0 0 -219060209.71001244 93229017.881978989 0 93229017.881978989 83187589.077876091 0 0 0 0 137707144.14883441 122017817.58214426 0 122017817.58214426 -210464494.12971878 0 0 0 0 427070471.96716261 265846356.07103181 0 265846356.07103181 15941038.893154144 0 0 0 0 139103400.45739555 77444158.668764114 0 77444158.668764114 -26901205.337919235 0 0 0 0 28373826.776480675 122792787.03500748 0 122792787.03500748 224279279.18037415 0 0 0 0 103718973.53905106 58578543.071098328 0 58578543.071098328 217356445.03855705 0 0 0 0 1049434.4700651169 30135074.65942955 0 30135074.65942955 29917841.120930672 0 0 0 0 -126247637.17053556 83332505.181671143 0 83332505.181671143 132798351.1439743 0 0 0 0 11757849.662296295 -41426045.028943539 0 -41426045.028943539 66147562.922355652 0 0 0 0 -110810137.27330208 90839941.053478241 0 90839941.053478241 -60330446.589772224 0 0 0 0 152321.40341986157 -1083155.9301793035 0 -1083155.9301793035 3918654.3133087745 0 0 0 0 -241063129.19564438 245428362.41119576 0 245428362.41119576 -38543796.413496494 0 0 0 0 -4498547.2477881685 -3078064.717470739 0 -3078064.717470739 11472032.260709204 0 0 0 0 -12221353.577352524 -28260881.733604431 0 -28260881.733604431 20907001.115305424 0 0 0 0 -37778980.421481848 -71733401.627254486 0 -71733401.627254486 -40501814.403017044 0 0 0 0 -162752264.59052515 -99942837.358711243 0 -99942837.358711243 -45228422.100673676 0 0 0 0 -4707110.0503855832 -2213990.7566574514 0 -2213990.7566574514 30646690.946843427 0 0 0 0 -33109060.570209503 -26837892.142918587 0 -26837892.142918587 40743619.161521912 0 0 0 0 -11108967.970096588 -10518683.658682823 0 -10518683.658682823 24417596.433329344 0 0 0 0 -39431690.259113312 1994538.3212852478 0 1994538.3212852478 57141852.087604523 0 0 0 0 -48415252.247735977 18284213.162160873 0 18284213.162160873 43629979.771062851 0 0 0 0 -34328739.124834061 28093669.927548409 0 28093669.927548409 20209040.300001144 0 0 0 0 -2890570.3901027879 924537.11552645266 0 924537.11552645266 5986361.3774306262 0 0 0 0 -35606669.495242119 -11920766.531217575 0 -11920766.531217575 103975656.5624752 0 0 0 0 -17950004.007461548 42980077.111207962 0 42980077.111207962 61245133.440425873 0 0 0 0 -18157977.327262878 50817165.989474297 0 50817165.989474297 198699968.3714323 0 0 0 0 5420985.8147516251 -3959070.4764018059 0 -3959070.4764018059 64440581.191038132 0 0 0 0 26565436.317831039 -41632887.311764717 0 -41632887.311764717 117117036.75321007 0 0 0 0 -9088407.4565629959 8419439.6650314331 0 8419439.6650314331 9286365.6770658493 0 0 0 0 -2818344.1937476974 -4966583.7019181922 0 -4966583.7019181922 4456843.4845689647 0 0 0 0 32972870.484651089 5551567.7824249268 0 5551567.7824249268 -27878048.136550903 0 0 0 0 -19721279.435468018 -17866277.075629234 0 -17866277.075629234 70165318.754150391 0 0 0 0 -15923940.054513931 3052633.9814758301 0 3052633.9814758301 42704272.731460571 0 0 0 0 1597386.1585053355 -46252917.598558187 0 -46252917.598558187 84693764.538101196 0 0 0 0 -24804991.814136505 -16372768.926353455 0 -16372768.926353455 116472957.42930603 0 0 0 0 -28919395.822392702 -17668689.949241638 0 -17668689.949241638 146267485.30012512 0 0 0 0 -20184531.399753571 886215.08401489258 0 886215.08401489258 78842845.819805145 0 0 0 0 7348282.8029942513 16518610.244052887 0 16518610.244052887 64858661.895759583 0 0 0 0 -23940312.739685535 953038.96745300293 0 953038.96745300293 110818632.24351501 0 0 0 0 3325843.4191379547 -18999928.974395752 0 -18999928.974395752 4617089.6915054321 0 0 0 0 1617897.8325128555 -4471465.207901001 0 -4471465.207901001 -3378313.3459205627 0 0 0 0 -3880728.4052669373 -4921165.0599036487 0 -4921165.0599036487 7049141.6362243136 0 0 0 0 -337199.16465711594 -19214917.515045166 0 -19214917.515045166 1546762.4273376465 0 0 0 0 -3958447.4861917496 -10076654.016967773 0 -10076654.016967773 13692614.706077576 0 0 0 0 6498108.5101063177 -4518676.6959969997 0 -4518676.6959969997 4443473.1838684082 0 0 0 0 29822887.137589455 55986692.912193298 0 55986692.912193298 78781392.396934509 0 0 0 0 19181108.661839962 14179648.93674469 0 14179648.93674469 -33053626.206245422 0 0 0 0 -22588915.961500883 -19786748.687362671 0 -19786748.687362671 11573884.061962128 0 0 0 0 -4988277.2073188722 -19321652.142843246 0 -19321652.142843246 -2170124.8089752197 0 0 0 0 -23209917.177867889 10658127.197613716 0 10658127.197613716 27425587.181282043 0 0 0 0 -4431062.0321949804 -2610189.2485142425 0 -2610189.2485142425 28246431.509875156 0 0 0 0 -21439525.414061546 -32814397.422527313 0 -32814397.422527313 -2172490.0612695925 0 0 0 0 -15335479.457118988 -27695820.641004562 0 -27695820.641004562 12641743.149978638 0 0 0 0 -9164451.3625068665 -11165489.709701538 0 -11165489.709701538 43521564.662807465 0 0 0 0 -1481313.2361265721 -2155576.2787123807 0 -2155576.2787123807 16101330.037191421 0 0 0 0 -1314609.1482744217 3761993.5204124451 0 3761993.5204124451 15451889.92142868 0 0 0 0 -946123.69492530823 -2002405.0229930878 0 -2002405.0229930878 20126834.275974274 0 0 0 0 -7091435.6554956706 -3841522.1228775103 0 -3841522.1228775103 12905767.989920527 0 0 0 0 -12377981.851759791 -18489295.811426163 0 -18489295.811426163 4434459.9454956055 0 0 0 0 -1946171.3119812012 4394118.4647502899 0 4394118.4647502899 12522704.781398773 0 0 0 0 -6382557.2848272324 -3500032.4361228943 0 -3500032.4361228943 25341670.484321594 0 0 0 0 -8037808.5581502914 4374574.2273197174 0 4374574.2273197174 16868076.090270996 0 0 0 0 -9706084.1954908371 14420046.627351761 0 14420046.627351761 12030410.079460144 0 0 0 0 -263320.1890060681 2477222.5253798971 0 2477222.5253798971 4103045.3411800209 0 0 0 0 -42070014.6889382 11090223.539763689 0 11090223.539763689 -865793.16059875488 0 0 0 0 -8297346.3463364094 9769677.794092834 0 9769677.794092834 4779182.254699707 0 0 0 0 -42225268.711916924 13735310.519493103 0 13735310.519493103 -4162631.0601806641 0 0 0 0 -13766041.891586304 -708229.6908416748 0 -708229.6908416748 13382883.383583069 0 0 0 0 -2684068.4555501938 266308.00713539124 0 266308.00713539124 8922422.4336700439 0 0 0 0 -19474830.114693642 6772294.2389659882 0 6772294.2389659882 14458775.502426147 0 0 0 0 3782303.3910053372 16518243.085769653 0 16518243.085769653 4587172.3716659546 0 0 0 0 -31037831.321216583 62410629.849697113 0 62410629.849697113 44035041.506917 0 0 0 0 -1347930.3958525658 4380153.1505622864 0 4380153.1505622864 11240992.310401917 0 0 0 0 -661610.07277292921 -1273431.792464314 0 -1273431.792464314 778212.09252648428 0 0 0 0 28042283.431135178 -22002835.864356995 0 -22002835.864356995 -3301845.1103668213 0 0 0 0 -32791910.894716263 -67771680.649166107 0 -67771680.649166107 14407185.534144402 0 0 0 0 -3774924.6962602236 -2649074.2042828938 0 -2649074.2042828938 11892154.330166003 0 0 0 0 -6893950.849609375 -312709.71605682373 0 -312709.71605682373 1192233.0927734375 0 0 0 0 -1614272.2470408643 -707558.82285274798 0 -707558.82285274798 6129895.5449019298 0 0 0 0 -6772771.9149160385 -524973.68538665771 0 -524973.68538665771 989422.07708740234 0 0 0 0 -1790269.3087958195 958060.77446637396 0 958060.77446637396 7316790.2849289346 0 0 0 0 -1162051.3575689697 513699.4045550127 0 513699.4045550127 5158600.553533012 0 0 0 0 -1685396.7338806263 -2603951.6106593879 0 -2603951.6106593879 2515422.5050213672 0 0 0 0 9306427.1632995605 11614770.234481812 0 11614770.234481812 -2131268.4991149902 0 0 0 0 -626273.19284520624 666275.80232325476 0 666275.80232325476 1242216.9885966685 0 0 0 0 -25358901.027309656 -1037298.7911663055 0 -1037298.7911663055 15582163.504852295 0 0 0 0 -14169068.576047897 7649619.1345291138 0 7649619.1345291138 15118771.424606323 0 0 0 0 -7100920.49568367 -1215440.974647522 0 -1215440.974647522 13162802.158363342 0 0 0 0 -18086432.491340637 2251723.7582359314 0 2251723.7582359314 11483280.329406738 0 0 0 0 -19328100.282607079 11901450.675100327 0 11901450.675100327 21235706.810813904 0 0 0 0 -10569408.124874115 -29689809.195426941 0 -29689809.195426941 11241356.159438133 0 0 0 0 -2389319.7158417101 29314.317773873452 0 29314.317773873452 16244566.381289864 0 0 0 0 36722593.157924652 -53407015.738501549 0 -53407015.738501549 16857771.038825512 0 0 0 0 -40010922.457248688 -56723014.903049469 0 -56723014.903049469 28522013.373198509 0 0 0 0 -7252864.094707489 13297014.462161779 0 13297014.462161779 11299414.392637253 0 0 0 0 8410075.7143554688 4041341.1203536987 0 4041341.1203536987 -8436257.1627388 0 0 0 0 38755503.534851074 72281215.604962349 0 72281215.604962349 64180634.259017944 0 0 0 0 93412125.165569305 12152248.107954979 0 12152248.107954979 1137828.8113045692 0 0 0 0 1145519.3772119936 -100619.09245551703 0 -100619.09245551703 -873725.43610296468 0 0 0 0 12760716.939403534 -3384036.9422945976 0 -3384036.9422945976 632160.0671620965 0 0 0 0 93265611.238658905 -3344584.4301736951 0 -3344584.4301736951 -3841470.7341623306 0 0 0 0 7726705.2185249329 31822274.515224457 0 31822274.515224457 15823360.012535095 0 0 0 0 9922246.8516616821 29602695.915364742 0 29602695.915364742 15481770.767709792 0 0 0 0 -31730451.541122437 38031291.688546658 0 38031291.688546658 106261515.94105625 0 0 0 0 60046043.636439323 74698401.376873255 0 74698401.376873255 47164019.29738903 0 0 0 0 -32018989.036314964 -25732802.075031281 0 -25732802.075031281 15439515.952384949 0 0 0 0 -2481174.0151824225 2090756.2842204785 0 2090756.2842204785 15822619.933229472 0 0 0 0 -56865259.226400375 -9650556.6227008104 0 -9650556.6227008104 53040580.28937912 0 0 0 0 -317549.17121887207 27308490.924426079 0 27308490.924426079 22536540.659984589 0 0 0 0 4771928.8204689026 34971361.787246346 0 34971361.787246346 29475220.671866417 0 0 0 0 -14136094.966989517 -10062652.445289612 0 -10062652.445289612 -5244203.931098938 0 0 0 0 -2072099.1325233802 4439528.2287056064 0 4439528.2287056064 15423593.744946906 0 0 0 0 -16519580.840613365 -11732555.491329193 0 -11732555.491329193 -4661299.5580444336 0 0 0 0 -3626607.8769454956 22573753.131122828 0 22573753.131122828 19958293.770872593 0 0 0 0 -14456087.046147346 -11410783.627552032 0 -11410783.627552032 -7333003.3303833008 0 0 0 0 -37349814.922259189 -1093268.3173904419 0 -1093268.3173904419 44515107.290267944 0 0 0 0 -7245267.2798352242 -15910658.599534988 0 -15910658.599534988 11773898.763793945 0 0 0 0 -1808257.1174321 -5433692.9546138272 0 -5433692.9546138272 7891353.0897329152 0 0 0 0 -14951301.480395317 -4189854.4026298523 0 -4189854.4026298523 -5077317.1599779129 0 0 0 0 -400976.3260967994 -1143376.4223109691 0 -1143376.4223109691 479298.47926397622 0 0 0 0 16114235.648283005 69536250.369606495 0 69536250.369606495 40882414.218127251 0 0 0 0 61693498.795518756 65772148.844883621 0 65772148.844883621 -12114156.634137154 0 0 0 0 9917350.2252216339 59920281.387645721 0 59920281.387645721 51633501.427839518 0 0 0 0 79329503.680468559 110444818.17708421 0 110444818.17708421 69416481.70957756 0 0 0 0 -32526287.412305832 58011296.085794449 0 58011296.085794449 81453705.141245842 0 0 0 0 -30549367.371599197 34320102.931646824 0 34320102.931646824 43664704.530302048 0 0 0 0 9856234.5398635864 20380639.385550499 0 20380639.385550499 36155895.451382637 0 0 0 0 -6236310.5830469131 30454002.275118113 0 30454002.275118113 24974894.790349007 0 0 0 0 -21630652.853261948 28910378.027329922 0 28910378.027329922 102431259.74387407 0 0 0 0 -6159741.4397172928 23695318.961582899 0 23695318.961582899 1252701.6331367493 0 0 0 0 2739244.7902684491 -237983.85347458441 0 -237983.85347458441 -1959497.6936526031 0 0 0 0 -3194274.4477272034 29080476.824763536 0 29080476.824763536 -1368446.8447458744 0 0 0 0 690119.78610038757 13927646.344265223 0 13927646.344265223 -26930337.076133728 0 0 0 0 21401897.623781204 38512597.196160793 0 38512597.196160793 -5902914.2359061241 0 0 0 0 22282272.890024185 18327375.820581436 0 18327375.820581436 -43382040.096905708 0 0 0 0 21862120.293564796 48412101.65362078 0 48412101.65362078 -6443710.0493068695 0 0 0 0 17871717.262366295 12817678.834035635 0 12817678.834035635 -33040697.353447676 0 0 0 0 6964482.0535235405 -4456401.9501589984 0 -4456401.9501589984 -46405638.477489948 0 0 0 0 -715844.88831876172 -1382969.7104487566 0 -1382969.7104487566 3604002.4014779557 0 0 0 0 2957288.1582102776 2547870.5407040119 0 2547870.5407040119 9019522.0278544426 0 0 0 0 -557514.74732875824 3759835.0446164608 0 3759835.0446164608 9807431.5067384243 0 0 0 0 4594969.2261123657 -2883327.210231781 0 -2883327.210231781 5626497.6484801769 0 0 0 0 2534920.8127598763 859916.21179181337 0 859916.21179181337 7435065.0468740463 0 0 0 0 8594193.1626176834 1385842.1090378761 0 1385842.1090378761 4770979.7434921265 0 0 0 0 7948437.9534339905 3626358.2793264389 0 3626358.2793264389 6547981.81270504 0 0 0 0 1766369.9671707153 3050237.935546875 0 3050237.935546875 19211092.760787964 0 0 0 0 26938.596780179068 -24220.275480726501 0 -24220.275480726501 22505.961123051704 0 0 0 0 5473899.0811440945 9249221.6552597284 0 9249221.6552597284 -23192372.137257576 0 0 0 0 3864297.2266801852 -366909.11821371736 0 -366909.11821371736 -2585956.5226623481 0 0 0 0 5212135.2154922485 -2665599.5924658775 0 -2665599.5924658775 -1700112.5699174404 0 0 0 0 11003561.686141968 -354370.17250359058 0 -354370.17250359058 -2324298.429551363 0 0 0 0 6024707.8664932251 78672.907681167126 0 78672.907681167126 -3807671.6859974861 0 0 0 0 9770075.3668212891 -1246712.6185154915 0 -1246712.6185154915 -3351440.0731693506 0 0 0 0 4443263.864402771 -743023.11353349686 0 -743023.11353349686 -1082706.4303373694 0 0 0 0 2820214.7922058105 -166061.38868352771 0 -166061.38868352771 -413372.53711265326 0 0 0 0 3926376.2137031555 397524.32779812813 0 397524.32779812813 -423331.85071703792 0 0 0 0 2823106.8483810425 -1446379.9004797339 0 -1446379.9004797339 -1185144.1997485757 0 0 0 0 4943291.4078535866 -533010.5300158516 0 -533010.5300158516 1047908.8639113689 0 0 0 0 1383467.1737937927 2491453.213329101 0 2491453.213329101 4410788.3301737588 0 0 0 0 16200275.148164749 -20031099.960891247 0 -20031099.960891247 19961044.70541954 0 0 0 0 3652580.4387555122 11687176.025588989 0 11687176.025588989 11799080.341501236 0 0 0 0 6571271.59340904 334380.22742948285 0 334380.22742948285 6241943.8651692886 0 0 0 0 698155.51868471666 382012.44262504647 0 382012.44262504647 -149327.66952414764 0 0 0 0 6313640.8568935394 -18118055.004583359 0 -18118055.004583359 58399720.548256397 0 0 0 0 5942775.6057705879 -11763396.166643143 0 -11763396.166643143 64033307.620721817 0 0 0 0 8893482.2256520391 -5085593.9654169083 0 -5085593.9654169083 15831738.378551483 0 0 0 0 7390624.3193917274 -36563680.463773727 0 -36563680.463773727 68093141.899391174 0 0 0 0 30934879.951293945 -3278390.8286018372 0 -3278390.8286018372 2582411.2672743797 0 0 0 0 3901192.2341307579 -357339.81627452397 0 -357339.81627452397 1184552.5559212936 0 0 0 0 159167.9032640612 159700.52270294121 0 159700.52270294121 230912.32347171148 0 0 0 0 25795071.78229174 60062622.196239948 0 60062622.196239948 192087897.36640835 0 0 0 0 2976861.6688883523 285812.63953154837 0 285812.63953154837 -642061.27589073614 0 0 0 0 2238184.7230205536 -1525772.5144035816 0 -1525772.5144035816 2020510.9124517441 0 0 0 0 -639076.75104057789 -1891015.4927910268 0 -1891015.4927910268 2622230.7156701088 0 0 0 0 -2082397.8396651039 1413969.1420274456 0 1413969.1420274456 2183567.4494326049 0 0 0 0 1115232.7254333496 -2654502.9503219128 0 -2654502.9503219128 5707149.9566869736 0 0 0 0 2380765.5621175766 1712756.2978226542 0 1712756.2978226542 3083446.9655885696 0 0 0 0 1942221.6519385651 714332.68477443885 0 714332.68477443885 5067467.5817727018 0 0 0 0 2088449.4002380371 2176548.644097805 0 2176548.644097805 4551354.0456857681 0 0 0 0 5703446.466129303 -105932.75469636917 0 -105932.75469636917 4061981.062100172 0 0 0 0 4002024.0124702454 1728306.3961277008 0 1728306.3961277008 5677354.4943656921 0 0 0 0 4270197.1908054352 2934997.8025781512 0 2934997.8025781512 3579368.4119701385 0 0 0 0 1309992.4565296173 1231000.9670076817 0 1231000.9670076817 3273096.7040302278 0 0 0 0 1634309.5178971291 3126005.1216612696 0 3126005.1216612696 -2647962.8380115665 0 0 0 0 3429562.8446292877 111457.90659378842 0 111457.90659378842 334632.93392463401 0 0 0 0 879380.97148323059 -14247467.286142826 0 -14247467.286142826 4240607.8124665022 0 0 0 0 2140689.1776960124 -179594.27571888315 0 -179594.27571888315 8680454.3574993685 0 0 0 0 -779798.44715976715 -7862118.8515236974 0 -7862118.8515236974 4456776.9570388794 0 0 0 0 1897203.470331192 -12290025.092395782 0 -12290025.092395782 6265960.4244062901 0 0 0 0 27402.384309768677 -14029048.630274296 0 -14029048.630274296 6009425.6171222925 0 0 0 0 -1420962.6970472336 578600.80549049377 0 578600.80549049377 2853970.7402534485 0 0 0 0 7332904.7919540405 16064065.974052429 0 16064065.974052429 22968685.089595318 0 0 0 0 8387243.9233722901 5558451.5571642378 0 5558451.5571642378 9928317.5501754154 0 0 0 0 -17738922.889795303 -9220787.0126800537 0 -9220787.0126800537 1576988.5032653809 0 0 0 0 414764.71336364746 25181218.438730478 0 25181218.438730478 11510483.404576302 0 0 0 0 2836370.275718689 26016161.751718611 0 26016161.751718611 5355184.9776799083 0 0 0 0 9276025.8745689392 28160686.933808327 0 28160686.933808327 12437919.589577675 0 0 0 0 6637494.4387830393 3988199.7905059401 0 3988199.7905059401 12408026.250809232 0 0 0 0 1233859.8692905903 -7980615.0584549904 0 -7980615.0584549904 8689745.2982778549 0 0 0 0 7956518.3974609375 -6178575.6081094742 0 -6178575.6081094742 -12925146.666882992 0 0 0 0 7357704.4826067612 1687458.3706629246 0 1687458.3706629246 8354970.5216146298 0 0 0 0 22116907.861951828 16212878.076496005 0 16212878.076496005 -13547801.621036172 0 0 0 0 16660331.507503033 12921666.710720539 0 12921666.710720539 -4972299.4586663246 0 0 0 0 9906580.1922836304 12206550.124846458 0 12206550.124846458 -7630936.8953154087 0 0 0 0 36042110.879750848 27603290.112305235 0 27603290.112305235 1397127.331788063 0 0 0 0 36558895.506596833 3154796.4570748843 0 3154796.4570748843 -5502257.3024692535 0 0 0 0 6015306.2639350891 6215867.826480031 0 6215867.826480031 -5764401.7003758252 0 0 0 0 8380620.6005797386 6671586.5752649307 0 6671586.5752649307 28523248.744559288 0 0 0 0 -2107728.3270645738 -12093697.563918591 0 -12093697.563918591 20865569.943140984 0 0 0 0 -14333325.332791328 8595181.3758840561 0 8595181.3758840561 59223429.86066246 0 0 0 0 -8747800.4769487381 7250281.7717924118 0 7250281.7717924118 59540409.787778854 0 0 0 0 19193449.671456814 21134803.148874283 0 21134803.148874283 47577314.283554196 0 0 0 0 -12754282.348929882 18357308.235360146 0 18357308.235360146 84062025.467128754 0 0 0 0 16589030.594602585 15177398.953499794 0 15177398.953499794 46414498.12447381 0 0 0 0 46410246.302904487 49746112.571348667 0 49746112.571348667 85750224.190313339 0 0 0 0 13982615.506552696 -153472.0769777298 0 -153472.0769777298 13248726.510689735 0 0 0 0 8500793.8929855824 -16237237.793476105 0 -16237237.793476105 15608617.918251038 0 0 0 0 9204840.3588571548 -11528317.891860962 0 -11528317.891860962 3863918.8951039314 0 0 0 0 19954807.057545662 -8186603.4770636559 0 -8186603.4770636559 20969175.134185791 0 0 0 0 27896526.778454065 -10096008.648498416 0 -10096008.648498416 19319455.207271576 0 0 0 0 15851811.304088593 -9239152.0074043274 0 -9239152.0074043274 35996749.552047729 0 0 0 0 70556126.274612427 -3226806.7517929077 0 -3226806.7517929077 36407704.086628735 0 0 0 0 13928031.824548721 -4447397.2620630264 0 -4447397.2620630264 36758130.023337841 0 0 0 0 2407024.4677906036 -12958736.677336693 0 -12958736.677336693 42058323.371728897 0 0 0 0 -639455.56481170654 -6094322.2626371384 0 -6094322.2626371384 36963812.71113205 0 0 0 0 1332449.8232784271 -17363625.903985023 0 -17363625.903985023 27544467.540654182 0 0 0 0 -2059971.3157742023 -14987715.994072199 0 -14987715.994072199 26139006.071588516 0 0 0 0 -529090.51902103424 -19148702.70802021 0 -19148702.70802021 23700056.572049618 0 0 0 0 10517592.33434391 -21491340.034613609 0 -21491340.034613609 26700143.069973946 0 0 0 0 3247456.4347267151 -12809699.525238991 0 -12809699.525238991 17135099.215936661 0 0 0 0 3971476.6350440979 -17206930.943325043 0 -17206930.943325043 14309955.366165161 0 0 0 0 455752.35214805603 -15466633.076724052 0 -15466633.076724052 15068584.525491714 0 0 0 0 31329785.858485699 13333532.974343777 0 13333532.974343777 3581234.9390087128 0 0 0 0 27534384.091509342 7739375.7004151344 0 7739375.7004151344 -15824857.631346703 0 0 0 0 31035327.862125874 17856840.710016251 0 17856840.710016251 7680825.6703076363 0 0 0 0 1110975.7354490757 8526290.1220076084 0 8526290.1220076084 53083196.437885284 0 0 0 0 6155660.141315937 -10769062.705115795 0 -10769062.705115795 37475779.91272068 0 0 0 0 16670894.053558707 -17650945.88822186 0 -17650945.88822186 82694946.760164261 0 0 0 0 60753839.927980423 51614663.318964958 0 51614663.318964958 57384512.807729244 0 0 0 0 34949674.220871925 19608497.465410233 0 19608497.465410233 4683960.2879629135 0 0 0 0 30920103.115136385 13902699.663019419 0 13902699.663019419 16759982.816450119 0 0 0 0 -1705260.0318436623 -3504155.180211544 0 -3504155.180211544 -6483463.9709663391 0 0 0 0 -79185.697909453243 224038.54731459322 0 224038.54731459322 72024.122519346885 0 0 0 0 16147073.44936347 -8002418.6365580559 0 -8002418.6365580559 4758046.4903309345 0 0 0 0 62651121.109181255 5960326.8752672076 0 5960326.8752672076 -4240875.3986434937 0 0 0 0 126638.0835060227 24269.150136059267 0 24269.150136059267 -76302.105690341443 0 0 0 0 -6147422.3204488754 -8809494.7991390228 0 -8809494.7991390228 118330127.32138777 0 0 0 0 -7444058.0083042979 -18658040.132903814 0 -18658040.132903814 56002929.456132889 0 0 0 0 -17373155.942017913 2415144.3720210791 0 2415144.3720210791 56887494.189193726 0 0 0 0 -7737390.6867523193 1397987.4499015808 0 1397987.4499015808 12417953.449188232 0 0 0 0 -20939889.056470633 -2776892.9572024345 0 -2776892.9572024345 58236307.644678116 0 0 0 0 341732.97757092235 78622.622278108029 0 78622.622278108029 50064.211598403286 0 0 0 0 -35809836.020101786 3069503.852200985 0 3069503.852200985 34207262.311355591 0 0 0 0 -20295915.237630844 22430957.72084713 0 22430957.72084713 13439378.571909457 0 0 0 0 12766772.248340726 -7684324.7356741428 0 -7684324.7356741428 -5851714.8923015594 0 0 0 0 11823982.219079971 -20351075.027576447 0 -20351075.027576447 7164990.7721300125 0 0 0 0 -95242.491881066031 251754.03774734586 0 251754.03774734586 192435.97241539601 0 0 0 0 -20378060.493151665 -7029927.2489829063 0 -7029927.2489829063 5281608.3081364632 0 0 0 0 34109613.256975651 16889968.645540714 0 16889968.645540714 645827.48575592041 0 0 0 0 15008667.20994854 5427482.6334996223 0 5427482.6334996223 2632886.9533456564 0 0 0 0 31544587.89107275 23939704.358814001 0 23939704.358814001 23349541.922539711 0 0 0 0 57756732.376363277 -6116083.3112611771 0 -6116083.3112611771 10866288.999956131 0 0 0 0 89579009.607595861 72002676.294389576 0 72002676.294389576 59040136.53755188 0 0 0 0 78641324.99353385 71784826.280796528 0 71784826.280796528 64462635.410979748 0 0 0 0 75641415.321509853 87823408.489629 0 87823408.489629 116892429.74270058 0 0 0 0 15767968.784833074 26145336.686128497 0 26145336.686128497 134863169.67978668 0 0 0 0 51803384.251681328 26979260.321174383 0 26979260.321174383 73384845.292480469 0 0 0 0 51189018.988287687 22305091.639955521 0 22305091.639955521 116557170.16316271 0 0 0 0 35321264.753866911 4734183.4017505646 0 4734183.4017505646 47821258.215885162 0 0 0 0 10633431.881939888 341021.99807357788 0 341021.99807357788 96270235.816248894 0 0 0 0 -4063137.7832098007 -18282562.017421722 0 -18282562.017421722 77189335.609806061 0 0 0 0 -7288817.6231887341 -9504500.4259688854 0 -9504500.4259688854 53593960.047773361 0 0 0 0 -15387994.122573376 -11558707.687597275 0 -11558707.687597275 53805630.440217972 0 0 0 0 -8898550.4994559288 2299284.1097679138 0 2299284.1097679138 33386280.293123245 0 0 0 0 -5635447.3196742535 -6337448.5318026543 0 -6337448.5318026543 1584814.8728752136 0 0 0 0 2706885.7468028069 14137558.827731133 0 14137558.827731133 29034438.451253414 0 0 0 0 92516968.87677598 35800412.490410805 0 35800412.490410805 12843741.506093025 0 0 0 0 2254772.2554583549 -853280.61293506622 0 -853280.61293506622 49319693.441397667 0 0 0 0 166275756.44154048 61972184.765661716 0 61972184.765661716 -31549321.122990608 0 0 0 0 9127421.0161785483 -8592688.0697442293 0 -8592688.0697442293 -7668065.1471099854 0 0 0 0 -15823574.522895813 49868114.306030273 0 49868114.306030273 -9349190.8080893755 0 0 0 0 348229.15404685505 87906.557717711898 0 87906.557717711898 -13726.287045745179 0 0 0 0 1141457.4173787236 12074065.497266054 0 12074065.497266054 -7071400.9064407349 0 0 0 0 42855273.845406294 11722596.602163792 0 11722596.602163792 -9514650.2261140347 0 0 0 0 11872065.906482697 19651718.169307709 0 19651718.169307709 49679742.264722824 0 0 0 0 167775.1752825469 41844.463576477254 0 41844.463576477254 -21553.932360230014 0 0 0 0 44860936.816298723 125353943.73859739 0 125353943.73859739 137154064.45417404 0 0 0 0 122700282.62514955 137737995.80637181 0 137737995.80637181 96101243.290341377 0 0 0 0 95379811.256460905 95670843.424568176 0 95670843.424568176 40008100.654758453 0 0 0 0 96150661.70651342 84486033.14214173 0 84486033.14214173 24484500.673595428 0 0 0 0 95834862.16430068 65877812.950556755 0 65877812.950556755 55394682.353312969 0 0 0 0 44804859.600918233 -4147361.3104257584 0 -4147361.3104257584 -15812857.123737335 0 0 0 0 114132.80671769257 31731.909437778173 0 31731.909437778173 -105541.59209410055 0 0 0 0 26494306.592200853 16865461.176808119 0 16865461.176808119 11128164.836440086 0 0 0 0 154364154.00639725 -7323907.2124409676 0 -7323907.2124409676 -129125530.93214989 0 0 0 0 179605584.68958127 -49188833.719594002 0 -49188833.719594002 -107166985.84336281 0 0 0 0 200582839.77858043 86222739.476485729 0 86222739.476485729 -13756929.934466198 0 0 0 0 135939151.32915509 132090478.72678185 0 132090478.72678185 74057752.025344372 0 0 0 0 -26200065.522504866 9700499.2542543411 0 9700499.2542543411 6661280.9806261063 0 0 0 0 -28604591.225392744 11061644.564382076 0 11061644.564382076 28630462.403284073 0 0 0 0 11898762.965684913 -48574250.60253191 0 -48574250.60253191 20745320.491892338 0 0 0 0 -79692113.936082259 -39018491.66693449 0 -39018491.66693449 24169789.029218674 0 0 0 0 -37895110.930802554 -19503329.479876518 0 -19503329.479876518 -6110863.6896877289 0 0 0 0 -14716593.993015587 14961581.79389286 0 14961581.79389286 8975987.1448364258 0 0 0 0 -1531812.3064999534 1605762.6808624712 0 1605762.6808624712 9232720.8832196053 0 0 0 0 -58608411.776756167 50577779.731145501 0 50577779.731145501 -11695233.55934906 0 0 0 0 918460.82021225872 -3715681.256300834 0 -3715681.256300834 1870167.8943590906 0 0 0 0 -1381768.2041819065 2311979.2840919886 0 2311979.2840919886 1619519.6391348571 0 0 0 0 124480.42146444321 -594285.77180671692 0 -594285.77180671692 -60875.795202255249 0 0 0 0 -108419030.76313165 33135221.866744995 0 33135221.866744995 3573951.9683179855 0 0 0 0 702162.11998483026 -990908.94723214419 0 -990908.94723214419 2943372.0843477538 0 0 0 0 5009327.5664181709 -1726930.3244147301 0 -1726930.3244147301 6529739.5835418701 0 0 0 0 -154467978.49126518 -424559772.39843178 0 -424559772.39843178 -175788666.71627426 0 0 0 0 -261949961.00827754 -43080025.572135925 0 -43080025.572135925 -3638133.0524637699 0 0 0 0 -152040049.33432657 -239296246.9222815 0 -239296246.9222815 -215835479.05142212 0 0 0 0 -281692995.88828546 45848160.959013581 0 45848160.959013581 -31643470.141347885 0 0 0 0 375764225.47957957 -56669376.600769997 0 -56669376.600769997 -423690342.25629425 0 0 0 0 -106704359.19294518 -18301669.57867825 0 -18301669.57867825 10170140.073496819 0 0 0 0 -18567508.308988705 320157711.71430635 0 320157711.71430635 940476121.42784023 0 0 0 0 495085567.86724567 -361465468.00575542 0 -361465468.00575542 164422348.73650169 0 0 0 0 -340776160.41164327 44769858.471652031 0 44769858.471652031 169551587.05650353 0 0 0 0 -7485152.6274909973 3166754.389837265 0 3166754.389837265 7680499.0124740601 0 0 0 0 -860980.85508062202 -1330141.0578837991 0 -1330141.0578837991 8312534.5545381336 0 0 0 0 243143471.92958093 134515302.05079269 0 134515302.05079269 -22378336.906085014 0 0 0 0 618425701.81418562 275199217.0146246 0 275199217.0146246 -159463059.65725803 0 0 0 0 1131421.7350623563 12685.312686720397 0 12685.312686720397 -282909.18093356653 0 0 0 0 127782973.73229718 298560509.25138855 0 298560509.25138855 664004346.54492188 0 0 0 0 54835688.606755495 89870079.85889864 0 89870079.85889864 124940161.68337584 0 0 0 0 15982141.627474785 3158528.2841128111 0 3158528.2841128111 25632668.535414219 0 0 0 0 15921927.491194725 5860834.7283883989 0 5860834.7283883989 719585.84786358476 0 0 0 0 210372026.84364218 108817575.7409766 0 108817575.7409766 -21545092.34209013 0 0 0 0 200724254.53674519 220107513.39426386 0 220107513.39426386 9538191.9424607754 0 0 0 0 204136251.710006 154595609.7693311 0 154595609.7693311 -88810544.131773949 0 0 0 0 248683540.82466674 150185286.88035846 0 150185286.88035846 -102179665.17016411 0 0 0 0 414497798.71557617 -131807958.62977338 0 -131807958.62977338 -161456.18360519409 0 0 0 0 625568606.05981958 257747578.59988141 0 257747578.59988141 -91060622.69956398 0 0 0 0 -80083882.450576782 323255657.29832077 0 323255657.29832077 136825395.68515885 0 0 0 0 245843804.63364422 132916590.8773486 0 132916590.8773486 -198182099.66028452 0 0 0 0 -9338598.6519870758 267033.03008460999 0 267033.03008460999 7011269.5536003113 0 0 0 0 -232073306.27956855 133971767.15888166 0 133971767.15888166 -66625775.434714317 0 0 0 0 -766581.5341091156 -3011907.3989315033 0 -3011907.3989315033 4284280.8345565796 0 0 0 0 -406364.98421521258 -818617.71788418374 0 -818617.71788418374 6105212.232224497 0 0 0 0 -7415155.6192235947 -2723219.6179642677 0 -2723219.6179642677 8402739.9845428467 0 0 0 0 -2875680.3501815796 -9798202.1086826324 0 -9798202.1086826324 4137441.1908626556 0 0 0 0 930619.39836406708 -7467440.5558815002 0 -7467440.5558815002 6554727.0881919861 0 0 0 0 -3026514.1303100586 -1932511.5026512146 0 -1932511.5026512146 950894.01179885864 0 0 0 0 554233070.40555453 80200941.20690918 0 80200941.20690918 -22123880.232158184 0 0 0 0 232951880.16695905 288805640.91711909 0 288805640.91711909 -145208917.21366319 0 0 0 0 75429161.341211796 91098963.011021495 0 91098963.011021495 56012010.645547867 0 0 0 0 -461326.36404983822 167902.39575205589 0 167902.39575205589 499554.33430039318 0 0 0 0 202274750.98752093 212881351.5583111 0 212881351.5583111 10205984.132369757 0 0 0 0 72560.559314313199 -523301.00752375234 0 -523301.00752375234 448257.46266310103 0 0 0 0 345089952.50725162 62205878.982547402 0 62205878.982547402 208826934.45164442 0 0 0 0 194467962.56774807 320959248.53480649 0 320959248.53480649 189045860.0347271 0 0 0 0 427641392.01720762 299782061.35555363 0 299782061.35555363 28404395.408488512 0 0 0 0 4018239.423216939 9652279.8952966332 0 9652279.8952966332 169509333.98038912 0 0 0 0 841930.54918360116 -2260351.319225518 0 -2260351.319225518 3555044.2860816121 0 0 0 0 310816852.36336958 172261068.24648646 0 172261068.24648646 129211585.69000673 0 0 0 0 -494675.95316113438 -69740.43283914635 0 -69740.43283914635 744492.06837949832 0 0 0 0 -6128058.0810203552 75082239.913078308 0 75082239.913078308 184082335.66063881 0 0 0 0 98435808.755990028 119289175.42371297 0 119289175.42371297 157787304.47028029 0 0 0 0 247486277.36664122 -102781596.0204685 0 -102781596.0204685 51779685.638915062 0 0 0 0 63752096.465308428 260490754.09016919 0 260490754.09016919 75831635.932094544 0 0 0 0 -4946674.3107384443 -4249348.9350950122 0 -4249348.9350950122 9782522.0475230217 0 0 0 0 -1928582.9932246208 3046946.8056585789 0 3046946.8056585789 11912283.717340648 0 0 0 0 -773486.22612404823 5072726.743339777 0 5072726.743339777 4063279.1064596176 0 0 0 0 -30657510.500757456 -50033180.231852055 0 -50033180.231852055 101005650.05429316 0 0 0 0 147080662.70249128 98145448.676651478 0 98145448.676651478 -22314769.5247612 0 0 0 0 -1828989.8894366499 724978.78223488736 0 724978.78223488736 2064794.1726656805 0 0 0 0 64143931.397098541 145283906.94586921 0 145283906.94586921 74274512.69716835 0 0 0 0 -40988830.257552147 -23361137.264673233 0 -23361137.264673233 56147361.459779739 0 0 0 0 -50258861.665192604 -20026224.214727402 0 -20026224.214727402 55570815.332273483 0 0 0 0 -46230778.377654076 -7568483.3508167267 0 -7568483.3508167267 36272378.059926987 0 0 0 0 -48001661.513040066 -1410209.4038176537 0 -1410209.4038176537 20171435.698383331 0 0 0 0 -52835787.463456154 -7873641.8401389122 0 -7873641.8401389122 37429019.878578186 0 0 0 0 -56682537.332037926 -7062659.367729187 0 -7062659.367729187 50391528.719326019 0 0 0 0 -48193211.640628576 26024726.800679445 0 26024726.800679445 2562143.5509471893 0 0 0 0 -39220542.772803783 9100451.8436050415 0 9100451.8436050415 29626240.151258469 0 0 0 0 -51928753.524011135 28912286.004302979 0 28912286.004302979 55994821.597648621 0 0 0 0 -71074274.811441422 61607430.73688221 0 61607430.73688221 466950.5862891674 0 0 0 0 -69599084.0664711 10727010.648562431 0 10727010.648562431 41066045.780826569 0 0 0 0 -67465961.60381937 -7209066.344268918 0 -7209066.344268918 100099005.47390938 0 0 0 0 -106209556.79696655 45910055.066255569 0 45910055.066255569 120861015.3414669 0 0 0 0 -103282892.07308006 47877519.24702549 0 47877519.24702549 96310362.578435898 0 0 0 0 -201118099.74214363 -53891776.799210072 0 -53891776.799210072 259484128.35214233 0 0 0 0 52805783.016671181 -144796191.88430595 0 -144796191.88430595 147092366.12932873 0 0 0 0 260046.68758179853 -1158780.5789401522 0 -1158780.5789401522 2162671.8100015009 0 0 0 0 126565615.3062439 -33739821.190589428 0 -33739821.190589428 2180068.5030040741 0 0 0 0 94981545.225263596 225358483.14863849 0 225358483.14863849 217036108.7880125 0 0 0 0 -34329448.846613884 179722307.74648362 0 179722307.74648362 243128693.91057777 0 0 0 0 16664251.219896317 1105341.8943462372 0 1105341.8943462372 3425161.0307468772 0 0 0 0 -3296437.7580977678 -6888682.9063522816 0 -6888682.9063522816 10458161.35251236 0 0 0 0 32762091.428163528 -53255265.904351234 0 -53255265.904351234 33273562.287944794 0 0 0 0 -50118380.505613849 -47565908.74995923 0 -47565908.74995923 55911344.95759201 0 0 0 0 41586787.040021896 -9883022.8891336918 0 -9883022.8891336918 -2182347.7455368042 0 0 0 0 -9085456.6608610153 -17819383.196835518 0 -17819383.196835518 12176921.931436539 0 0 0 0 1121419.3727064133 -20161316.036714554 0 -20161316.036714554 12668543.603931427 0 0 0 0 13177774.124562263 -11626514.904636383 0 -11626514.904636383 6305202.6683721542 0 0 0 0 6545478.1072254181 -2239704.1692276001 0 -2239704.1692276001 5572830.5446252823 0 0 0 0 11394311.275555611 -10716126.778800964 0 -10716126.778800964 5844145.602519989 0 0 0 0 -824030.11964607239 -6890356.516623497 0 -6890356.516623497 16218646.859819412 0 0 0 0 10339730.937706947 -26584635.566462517 0 -26584635.566462517 22912925.704182625 0 0 0 0 12808740.465862751 -15844615.492004633 0 -15844615.492004633 10432997.462059021 0 0 0 0 31152035.769169807 137384.6454000473 0 137384.6454000473 3665971.0121247768 0 0 0 0 -81684712.248799324 -14719404.400733948 0 -14719404.400733948 34648649.377333164 0 0 0 0 -30776959.817707062 14665922.654415131 0 14665922.654415131 6805125.8028392792 0 0 0 0 -57011590.363512039 -4332152.0330104828 0 -4332152.0330104828 37728352.011632919 0 0 0 0 -41339530.364058912 -20979553.474116564 0 -20979553.474116564 14871687.551208496 0 0 0 0 -41497111.618951797 -22774328.483409882 0 -22774328.483409882 23150316.828752518 0 0 0 0 -60632277.808561325 -20540048.730405807 0 -20540048.730405807 27956115.861444473 0 0 0 0 -72576830.185115814 -38304501.159973145 0 -38304501.159973145 15805425.769442558 0 0 0 0 -100935380.49980736 38291469.204890251 0 38291469.204890251 136204465.12226486 0 0 0 0 17565.733010097872 117008.71145048644 0 117008.71145048644 279178.97798060882 0 0 0 0 -97251.400586163858 213387.68491138006 0 213387.68491138006 1049214.691819553 0 0 0 0 -48661159.681920052 -9656763.2563419342 0 -9656763.2563419342 69804704.249429703 0 0 0 0 -31115616.466080666 -35165586.99810791 0 -35165586.99810791 -9722397.0512294769 0 0 0 0 -68757544.493637741 -70496554.769381344 0 -70496554.769381344 -46341612.889019012 0 0 0 0 -76887702.446666539 -739345.29224312305 0 -739345.29224312305 8890579.4143371582 0 0 0 0 -16111558.123752594 -38191963.915007114 0 -38191963.915007114 -41979388.466676712 0 0 0 0 -57449381.339463472 -4013687.8947072029 0 -4013687.8947072029 350719.42365264893 0 0 0 0 -18511675.249629974 -34092746.697284698 0 -34092746.697284698 -19072667.468327522 0 0 0 0 -22504914.391358376 -23330021.492937088 0 -23330021.492937088 -12596327.486904144 0 0 0 0 -18660542.287508011 -22269825.362281799 0 -22269825.362281799 -23016822.949195862 0 0 0 0 -24729271.712303162 -26968350.856521606 0 -26968350.856521606 -2865899.5897941589 0 0 0 0 -128510923.20099068 -5063886.5800666809 0 -5063886.5800666809 192723595.00937843 0 0 0 0 -152105.15590919345 245240.7774372003 0 245240.7774372003 420212.22805674444 0 0 0 0 19774043.985335827 -36171777.457396507 0 -36171777.457396507 23844723.255592346 0 0 0 0 -20583031.471912384 -29380536.041061401 0 -29380536.041061401 -2056174.1435813904 0 0 0 0 -39693832.537752151 -17324039.656454086 0 -17324039.656454086 -2115764.0948104858 0 0 0 0 16217019.966308594 -4324657.9867973328 0 -4324657.9867973328 -1437715.3351783752 0 0 0 0 -883741.71590211336 -756835.00098808017 0 -756835.00098808017 2701542.9497964643 0 0 0 0 -3075950.3055114746 -458795.82387638092 0 -458795.82387638092 7974617.7549743652 0 0 0 0 -1683447.1389961243 -3886256.0160140991 0 -3886256.0160140991 5871836.5987949371 0 0 0 0 -1601706.5297832489 975810.07682037354 0 975810.07682037354 9334109.0363140106 0 0 0 0 -576250.30325603485 -4971407.145357132 0 -4971407.145357132 43185659.355427742 0 0 0 0 -185260.22937217494 4531.3863726849668 0 4531.3863726849668 1156706.2131132667 0 0 0 0 -24131485.395628095 -18823532.268631935 0 -18823532.268631935 -1264511.9210166931 0 0 0 0 -14622635.642230988 -7191501.220539093 0 -7191501.220539093 10442936.754030466 0 0 0 0 -7304976.3361644745 -4867242.028093338 0 -4867242.028093338 10135654.508773804 0 0 0 0 -7253013.3332967758 -2436636.9372577667 0 -2436636.9372577667 12311547.47829628 0 0 0 0 -1766259.8525466919 -273637.16830062866 0 -273637.16830062866 10794360.164915085 0 0 0 0 -7695628.5882310867 -2858433.3094434738 0 -2858433.3094434738 9672419.7676849365 0 0 0 0 -1556270.8132157326 -511388.11635875702 0 -511388.11635875702 12046131.736600876 0 0 0 0 -3628752.0371670723 118537.86881923676 0 118537.86881923676 15551552.185535431 0 0 0 0 -1008535.4996467684 -454240.05621421011 0 -454240.05621421011 2446565.8441744256 0 0 0 0 -2165399.1973695755 3021084.3107624054 0 3021084.3107624054 13354958.691002846 0 0 0 0 3863982.0516824722 -3474758.6316423416 0 -3474758.6316423416 3429656.4538021088 0 0 0 0 -11536333.512773514 -12447090.532504082 0 -12447090.532504082 994798.87290048599 0 0 0 0 -6381037.8268661499 -736482.2322511673 0 -736482.2322511673 6855397.8624801636 0 0 0 0 -1024316.411301136 -135233.02412509918 0 -135233.02412509918 5772509.0549468994 0 0 0 0 -3843772.4920539856 63732750.110124588 0 63732750.110124588 -71436870.778149843 0 0 0 0 42914826.389860153 -159939051.44422293 0 -159939051.44422293 -43497045.069190979 0 0 0 0 -162050260.2826376 93022369.655444622 0 93022369.655444622 161983732.48561478 0 0 0 0 -40540790.100194931 80900025.516571045 0 80900025.516571045 -16667562.383512497 0 0 0 0 -376145.82449208805 -67719.20709093567 0 -67719.20709093567 796948.86507859314 0 0 0 0 -23900977.708938599 -31638070.234958649 0 -31638070.234958649 -8347818.3535223007 0 0 0 0 -98400120.151529312 -28701300.274974823 0 -28701300.274974823 21889530.889123917 0 0 0 0 -30577995.502531052 -8672135.7663574219 0 -8672135.7663574219 26254022.32609129 0 0 0 0 -134137051.2730782 48237772.186717033 0 48237772.186717033 55346348.912647247 0 0 0 0 -8897769.3428068161 54749024.671875 0 54749024.671875 41326391.094074249 0 0 0 0 -4822177.8410863876 20509869.519062042 0 20509869.519062042 19273714.453529358 0 0 0 0 -58165924.196810246 22803484.03623867 0 22803484.03623867 28525954.306835175 0 0 0 0 -15369105.314169407 67410.478164672852 0 67410.478164672852 16127899.405799866 0 0 0 0 -27209566.937119961 -7247963.68400383 0 -7247963.68400383 14696556.900262833 0 0 0 0 -16020577.694721222 1115863.0880680084 0 1115863.0880680084 14440595.526584625 0 0 0 0 -14171190.87788868 2828800.8002433777 0 2828800.8002433777 15687348.274641037 0 0 0 0 8541863.731408596 9734939.6600522995 0 9734939.6600522995 10726405.406721115 0 0 0 0 -12218521.181999087 13645816.124539375 0 13645816.124539375 13983011.819580078 0 0 0 0 -4984397.1048965454 6100005.5981283188 0 6100005.5981283188 16059484.8524189 0 0 0 0 -4383698.2713730335 5667775.9139318466 0 5667775.9139318466 12130683.245220184 0 0 0 0 -11407534.011063576 3717217.4078731537 0 3717217.4078731537 13862321.985372543 0 0 0 0 1445485.7321337461 5869268.9603766799 0 5869268.9603766799 7407584.8815612793 0 0 0 0 -8850683.338804245 1779662.1149787903 0 1779662.1149787903 10846225.512615919 0 0 0 0 -46901073.581175804 -5788979.5807933807 0 -5788979.5807933807 30103542.742683411 0 0 0 0 855084.00123882294 13124880.41931057 0 13124880.41931057 15167692.045994997 0 0 0 0 -2875064.4563356079 919687.17808380909 0 919687.17808380909 8807013.5400758591 0 0 0 0 -28986845.602663755 21771800.535104752 0 21771800.535104752 -21954823.153754234 0 0 0 0 -6970872.8980408311 4268441.0099058151 0 4268441.0099058151 27191923.619029999 0 0 0 0 -15193154.224087238 -7520364.8021202087 0 -7520364.8021202087 10579317.537948608 0 0 0 0 -27648477.601424232 13004871.699901581 0 13004871.699901581 31479166.485935211 0 0 0 0 -22234763.453545809 -15335345.066835403 0 -15335345.066835403 30800649.887098789 0 0 0 0 -34669606.024163723 -20490400.551336288 0 -20490400.551336288 -9352833.7454676628 0 0 0 0 -22089160.867364645 -13802582.92877388 0 -13802582.92877388 18632585.362003326 0 0 0 0 -31879693.305852413 -10068167.733213425 0 -10068167.733213425 25074262.211774826 0 0 0 0 -10501603.357023239 5682248.463766098 0 5682248.463766098 4787791.2376461029 0 0 0 0 -17092511.171768188 -2087910.4549427032 0 -2087910.4549427032 8121492.648888588 0 0 0 0 -11165477.462743759 1806497.3931121826 0 1806497.3931121826 9133088.5677032471 0 0 0 0 -21771213.94550705 -681319.56560707092 0 -681319.56560707092 12469469.035827637 0 0 0 0 -17869405.185754776 3371324.9788913727 0 3371324.9788913727 13138399.589683533 0 0 0 0 -23677445.558255911 3324886.0612840652 0 3324886.0612840652 13521588.885555267 0 0 0 0 -1814036.7910586533 20260.354941958678 0 20260.354941958678 10714199.31333182 0 0 0 0 -58027993.594681546 23084301.27622059 0 23084301.27622059 -4654027.8820381165 0 0 0 0 100864.22554376481 34035.607208993984 0 34035.607208993984 -87239.191358945332 0 0 0 0 -57245177.191873431 32552518.288505077 0 32552518.288505077 22165622.570693016 0 0 0 0 -6705065.1155829728 2139376.8156504631 0 2139376.8156504631 34773311.912508011 0 0 0 0 -15701738.107122421 -1394292.5601100922 0 -1394292.5601100922 12974062.985615969 0 0 0 0 -15717653.859203339 -736161.41032791138 0 -736161.41032791138 9489415.784108907 0 0 0 0 -16385005.997716904 434600.69711875916 0 434600.69711875916 13197811.001683831 0 0 0 0 -13147657.243757248 2184445.3543233871 0 2184445.3543233871 12315839.239521027 0 0 0 0 -18449839.289319992 3912671.5247268677 0 3912671.5247268677 9615180.037727356 0 0 0 0 -34612152.632454067 10538777.380155325 0 10538777.380155325 18233213.907201767 0 0 0 0 -1568430.0753522548 711314.94308256567 0 711314.94308256567 10017321.525868945 0 0 0 0 -11866338.195950508 -1949179.7856190205 0 -1949179.7856190205 7481488.5677680969 0 0 0 0 -18038030.517852962 -6735209.431599617 0 -6735209.431599617 16351733.754350662 0 0 0 0 190243.34873195729 59365.698552106507 0 59365.698552106507 -168342.08665452106 0 0 0 0 326276.81567543373 -11491303.113629073 0 -11491303.113629073 13388355.250785828 0 0 0 0 27102498.373578459 -22874727.940161705 0 -22874727.940161705 4522864.3339285851 0 0 0 0 2254837.3634870388 8601114.4555333853 0 8601114.4555333853 -3794644.4270896912 0 0 0 0 -16704714.535479724 7753352.073091507 0 7753352.073091507 -1777142.1213264465 0 0 0 0 22317169.63041839 -10425219.91651535 0 -10425219.91651535 -8078655.3981528282 0 0 0 0 39034893.502476931 10034383.059617996 0 10034383.059617996 29181143.003808975 0 0 0 0 39744105.517648995 8597913.959590435 0 8597913.959590435 31467811.670863152 0 0 0 0 21174343.213461578 -17720857.100708008 0 -17720857.100708008 2181919.4992818832 0 0 0 0 22157029.450395167 -24732141.287435055 0 -24732141.287435055 10981102.298408508 0 0 0 0 29712508.489308715 -11044063.542531967 0 -11044063.542531967 13068314.777711868 0 0 0 0 15714823.522767186 -21876862.163253784 0 -21876862.163253784 21195973.776069403 0 0 0 0 -13262578.739444971 -10758961.790224075 0 -10758961.790224075 14411430.410052299 0 0 0 0 34196176.062652916 -29150743.185593605 0 -29150743.185593605 11997874.918693542 0 0 0 0 35822530.759839475 -47815689.100624084 0 -47815689.100624084 44540345.728992462 0 0 0 0 56747245.315242916 33556159.656062126 0 33556159.656062126 51172961.426805377 0 0 0 0 -3649145.2164003402 -21694054.548303604 0 -21694054.548303604 33478625.450042725 0 0 0 0 7386549.2305628657 -14296956.791805744 0 -14296956.791805744 -5993094.2506608963 0 0 0 0 -3427313.8921343684 7446146.9388828278 0 7446146.9388828278 35855244.795455933 0 0 0 0 998702.4392469991 -10936483.524517298 0 -10936483.524517298 15204413.165302277 0 0 0 0 25839124.505173743 12587010.735943794 0 12587010.735943794 34472948.135925293 0 0 0 0 15944558.082573652 -12541302.850824833 0 -12541302.850824833 8659544.509147644 0 0 0 0 28663396.654409759 -21206689.160903692 0 -21206689.160903692 19618345.700000763 0 0 0 0 38906103.885280624 -17400509.514770508 0 -17400509.514770508 8020207.2664072514 0 0 0 0 42407441.796534479 30558310.902019024 0 30558310.902019024 70214539.333618164 0 0 0 0 100010468.67886871 -13454565.333896637 0 -13454565.333896637 20325143.993147612 0 0 0 0 9878517.0499527752 -18407936.45391655 0 -18407936.45391655 83664885.600488663 0 0 0 0 10771324.332185566 -14710055.167816162 0 -14710055.167816162 32625355.538944244 0 0 0 0 12083771.46281302 938604.1189365387 0 938604.1189365387 41819868.205135345 0 0 0 0 6915372.2136687636 10224029.174256325 0 10224029.174256325 44353136.268871307 0 0 0 0 -2058185.6020036936 -2054221.4465637207 0 -2054221.4465637207 28749550.610106468 0 0 0 0 198392.9098546505 -19413287.530927658 0 -19413287.530927658 40752669.398439169 0 0 0 0 -8090087.696516782 -11151482.734137535 0 -11151482.734137535 34859190.741958618 0 0 0 0 1373945.8043965101 -24614578.385559082 0 -24614578.385559082 24550823.720754623 0 0 0 0 -7618660.4473829865 -15719200.301002502 0 -15719200.301002502 19036949.542984009 0 0 0 0 20643309.088536024 -28236480.02252388 0 -28236480.02252388 15303622.663938522 0 0 0 0 1707386.6940632164 -22472023.669925451 0 -22472023.669925451 38231143.383583069 0 0 0 0 -87836.760885907468 -756158.31752742315 0 -756158.31752742315 302919.83040468954 0 0 0 0 67315448.218325585 26895340.181324482 0 26895340.181324482 20698801.73784256 0 0 0 0 39673175.404204622 -37671828.651110649 0 -37671828.651110649 35051567.472232819 0 0 0 0 -157163.6743330819 -67337.136357399402 0 -67337.136357399402 391966.24983153399 0 0 0 0 25378472.549645055 -15842005.635601282 0 -15842005.635601282 2609036.6230583191 0 0 0 0 16886493.438736126 -19710244.771010399 0 -19710244.771010399 -60923144.154222488 0 0 0 0 -24706370.281362921 68168035.821247101 0 68168035.821247101 151620189.45681381 0 0 0 0 -4775341.691000402 154097.97601759434 0 154097.97601759434 3805644.6082472801 0 0 0 0 -1309988.8022301691 651833.4802661516 0 651833.4802661516 3548554.3556551784 0 0 0 0 -4921558.0545610189 -10840472.537633896 0 -10840472.537633896 10284608.571752548 0 0 0 0 -1635128.2520961442 -2787565.013445273 0 -2787565.013445273 2810767.561989211 0 0 0 0 2951193.5694385767 -15033496.009073496 0 -15033496.009073496 10931035.118980408 0 0 0 0 11632617.994071841 -7826418.8726596832 0 -7826418.8726596832 2405262.1538491249 0 0 0 0 -871461.04729856632 -2509871.4705019733 0 -2509871.4705019733 1822478.7756285123 0 0 0 0 4458177.0767576098 -17815923.34121418 0 -17815923.34121418 10702794.664697647 0 0 0 0 413495.60728581843 117471.21367919235 0 117471.21367919235 -93143.755065701436 0 0 0 0 -32739781.019916207 42667807.052696109 0 42667807.052696109 -11175449.879101753 0 0 0 0 -11189656.57616058 39696220.794425488 0 39696220.794425488 -35355366.045040131 0 0 0 0 -2756642.3455912471 -22863128.364759445 0 -22863128.364759445 -2320584.0330181122 0 0 0 0 -27839484.184628338 13519003.428500175 0 13519003.428500175 92965660.117233276 0 0 0 0 45835357.966752023 47616921.364171982 0 47616921.364171982 -47781359.466712952 0 0 0 0 191328.23503750755 45203.115042648977 0 45203.115042648977 -53893.84817173006 0 0 0 0 -30731631.288914792 3117800.0442199707 0 3117800.0442199707 67238545.504383087 0 0 0 0 -15308768.942587465 -29654437.873215437 0 -29654437.873215437 68932232.454593658 0 0 0 0 -3094283.6162220985 11213610.159811974 0 11213610.159811974 27703930.032032013 0 0 0 0 -24165186.625609994 -4239430.4562273026 0 -4239430.4562273026 57737011.494492531 0 0 0 0 -3006417.673863044 15107503.446469113 0 15107503.446469113 17566424.084976196 0 0 0 0 15257600.992837086 64201465.038490295 0 64201465.038490295 78081568.590890884 0 0 0 0 22311771.108489051 13363368.930721283 0 13363368.930721283 5278056.3899803162 0 0 0 0 4839445.0554307699 1903650.1342999935 0 1903650.1342999935 3094883.6937255859 0 0 0 0 1451573.0314536281 -5903169.0902471542 0 -5903169.0902471542 -40415.326404571533 0 0 0 0 5423150.2221955955 -316978.76810264587 0 -316978.76810264587 3008266.8111724854 0 0 0 0 3058087.6849378347 -4631279.3890810013 0 -4631279.3890810013 17282063.090755939 0 0 0 0 -4102041.9460881352 1941502.4063929319 0 1941502.4063929319 3153660.3016177416 0 0 0 0 -204353.01729012208 2981333.3070217436 0 2981333.3070217436 5226435.7385924142 0 0 0 0 -3711721.9950830489 1227552.8313812017 0 1227552.8313812017 3800487.4758152962 0 0 0 0 -2435062.7354349568 -945068.36540384591 0 -945068.36540384591 4322762.367978096 0 0 0 0 -2565054.8234265447 113786.92802794278 0 113786.92802794278 1628740.0993418694 0 0 0 0 -1448748.3750402704 126937.73460738349 0 126937.73460738349 4127622.387430158 0 0 0 0 -35859916.088972449 -13461753.627734184 0 -13461753.627734184 2257901.9985027313 0 0 0 0 99071086.31026724 47730687.554965019 0 47730687.554965019 -81256561.193664551 0 0 0 0 6487647.3959617019 -28684082.38233757 0 -28684082.38233757 -33704025.372024536 0 0 0 0 -1404940.3014480472 -4688428.1060085297 0 -4688428.1060085297 1304953.9450931549 0 0 0 0 -1714220.4788658619 1368927.1274051666 0 1368927.1274051666 3666775.9528671764 0 0 0 0 -652420.46910810471 1766333.7134222984 0 1766333.7134222984 3658822.5018860437 0 0 0 0 -1720288.935619086 1310379.2875158638 0 1310379.2875158638 3928610.8309559822 0 0 0 0 -4205862.8212146759 99380.52485704422 0 99380.52485704422 3912195.0560727119 0 0 0 0 -1404002.8391332626 1007019.8972988129 0 1007019.8972988129 4188280.6856923103 0 0 0 0 -165055.6909744516 21608.74176700809 0 21608.74176700809 2850268.202086559 0 0 0 0 -2455544.2049398422 1988348.298422575 0 1988348.298422575 3341207.5345375538 0 0 0 0 -4462479.4200720787 2826434.930519104 0 2826434.930519104 409262.32615756989 0 0 0 0 -2603588.1736767292 2939488.4478421211 0 2939488.4478421211 2774617.2203662395 0 0 0 0 -2436048.5937523842 2070494.2475028038 0 2070494.2475028038 1306491.9931130409 0 0 0 0 -102280.87717284367 38660.021623099106 0 38660.021623099106 3229148.649265225 0 0 0 0 -172533.80209387478 2627245.4878658908 0 2627245.4878658908 209784.87951100059 0 0 0 0 -1624996.0651888847 2714613.6739563942 0 2714613.6739563942 -347957.93878221512 0 0 0 0 -1368615.1692804247 -766057.69590908848 0 -766057.69590908848 3904704.3348722458 0 0 0 0 2837322.4370365143 5886640.3274993896 0 5886640.3274993896 -2637001.6274027824 0 0 0 0 -1081165.7937028408 3407683.836025238 0 3407683.836025238 24721.60489988327 0 0 0 0 6328161.6996200085 7087020.8390445709 0 7087020.8390445709 -1162123.7214670181 0 0 0 0 -4147754.8883381486 6176209.5759162903 0 6176209.5759162903 1619935.3306274414 0 0 0 0 4987365.0239081383 3600690.1686470509 0 3600690.1686470509 -915826.47816085815 0 0 0 0 774399.53219628334 7412352.9753375053 0 7412352.9753375053 3229542.9373025894 0 0 0 0 -205846.7437115272 414214.76591323415 0 414214.76591323415 245435.37883580266 0 0 0 0 -3539840.60095644 4815665.5614293814 0 4815665.5614293814 7862246.5391044617 0 0 0 0 -2170454.7048740387 5504511.8208932877 0 5504511.8208932877 6709636.347345829 0 0 0 0 -2916637.1131663173 6283560.2093930244 0 6283560.2093930244 5960200.1418590546 0 0 0 0 -1569151.7195761204 3664190.4084830284 0 3664190.4084830284 6558269.6113100052 0 0 0 0 614143.89705109596 3272767.4267625809 0 3272767.4267625809 2424594.9762134552 0 0 0 0 2054259.8178948038 3900785.0337278629 0 3900785.0337278629 6363986.8551272061 0 0 0 0 -2002171.1021780968 4613188.0950388908 0 4613188.0950388908 906523.72481775284 0 0 0 0 720368.41426831484 3290067.9458804131 0 3290067.9458804131 1215579.3585987091 0 0 0 0 -4846592.7039723396 8576081.7083415985 0 8576081.7083415985 20919536.653335571 0 0 0 0 448953.59891464724 4319530.5544150583 0 4319530.5544150583 9158921.3643176537 0 0 0 0 -2414148.8727476597 12597392.154711723 0 12597392.154711723 7104122.7040252686 0 0 0 0 -3189307.0918135643 10058545.694803238 0 10058545.694803238 21367276.038269043 0 0 0 0 -9287724.7111186981 14484293.48283577 0 14484293.48283577 30605560.019187927 0 0 0 0 -4856362.2252931017 2244603.9373847358 0 2244603.9373847358 11974667.452983296 0 0 0 0 -7136880.4606796503 11032146.37746191 0 11032146.37746191 21203350.38892746 0 0 0 0 -6400529.3600296974 8542032.3000473976 0 8542032.3000473976 22794041.371360779 0 0 0 0 -14405460.335038185 7531808.3730249405 0 7531808.3730249405 9727226.0965385437 0 0 0 0 -48542225.079991817 -9080675.4171478748 0 -9080675.4171478748 25937351.09120369 0 0 0 0 -2580446.4493786171 -1215537.0616356302 0 -1215537.0616356302 11609655.006017305 0 0 0 0 -13483614.654519081 5659866.4426994324 0 5659866.4426994324 11038529.175071061 0 0 0 0 -41614936.003903091 -1437405.7626110613 0 -1437405.7626110613 25109196.206367493 0 0 0 0 -40947753.572505862 -16212292.114656091 0 -16212292.114656091 27213949.955581665 0 0 0 0 -22890506.207885981 -13487917.82875824 0 -13487917.82875824 24749626.070392609 0 0 0 0 -13419815.833233595 -19453104.668172836 0 -19453104.668172836 23505570.10675621 0 0 0 0 -8773608.3784856796 -13941358.027341366 0 -13941358.027341366 23661030.985908508 0 0 0 0 -25511611.730160952 -16203232.266361237 0 -16203232.266361237 27599593.303438187 0 0 0 0 -33023431.155817866 1379385.3075358868 0 1379385.3075358868 15610197.990779877 0 0 0 0 -22894309.029046059 -10505113.507900238 0 -10505113.507900238 19726329.953121185 0 0 0 0 -31239061.326506376 -13320303.541601181 0 -13320303.541601181 25763747.891683578 0 0 0 0 -18346301.002836943 -12876501.668830872 0 -12876501.668830872 19928649.940925598 0 0 0 0 -27539126.083371401 -7188203.4354763031 0 -7188203.4354763031 20223186.245262146 0 0 0 0 -2778070.2840132713 2780628.7671606541 0 2780628.7671606541 2874406.5906596184 0 0 0 0 -15909315.322004557 -6280610.4583969116 0 -6280610.4583969116 15193433.900642395 0 0 0 0 -1000657.2049360598 2125487.8120489786 0 2125487.8120489786 11711955.923911519 0 0 0 0 -13988990.794754386 -8430727.3240623474 0 -8430727.3240623474 17156651.551673889 0 0 0 0 -4817421.0701173171 -7514004.4305989891 0 -7514004.4305989891 15168665.314594269 0 0 0 0 -6950963.2306489944 -19148150.80669117 0 -19148150.80669117 18379999.490684986 0 0 0 0 -7515893.7393798828 -13209579.188154221 0 -13209579.188154221 15677850.640052795 0 0 0 0 -3090320.9399204254 3130912.6627554893 0 3130912.6627554893 3846309.2058486938 0 0 0 0 5710070.7854156494 1395712.0353240967 0 1395712.0353240967 23464182.75431633 0 0 0 0 -296230.09557148191 3042279.2313337768 0 3042279.2313337768 1174586.6993051746 0 0 0 0 -19660751.968482137 -3476764.1732902527 0 -3476764.1732902527 2860932.7523612976 0 0 0 0 -1126610.9513596005 -83491.580976767233 0 -83491.580976767233 10111142.025359083 0 0 0 0 -329859.11088606145 118762.09636229696 0 118762.09636229696 801659.220997978 0 0 0 0 -846183.38134479523 -11525271.21698761 0 -11525271.21698761 -1083467.4047775269 0 0 0 0 -3723582.352750055 2964797.4283428718 0 2964797.4283428718 10228918.684714951 0 0 0 0 -2935661.0294522643 745406.86860752106 0 745406.86860752106 2107784.4877853394 0 0 0 0 -2217032.3001827756 715267.20378432749 0 715267.20378432749 6839491.2109226473 0 0 0 0 -27308091.031673789 -74399330.949633121 0 -74399330.949633121 47922489.895557404 0 0 0 0 139495694.0143218 -2767646.5356750488 0 -2767646.5356750488 32856308.532132149 0 0 0 0 16103048.795811176 -25317954.75315094 0 -25317954.75315094 75430436.617183685 0 0 0 0 -45458280.745368004 37505228.294113159 0 37505228.294113159 27110390.556115866 0 0 0 0 -41261.414288630884 114978.22119786555 0 114978.22119786555 106654.78660688316 0 0 0 0 157588468.05601954 -19497326.07047987 0 -19497326.07047987 -8605637.6592597961 0 0 0 0 474484.50617730618 12188973.279514313 0 12188973.279514313 47082621.399227142 0 0 0 0 66774878.605156898 -98011671.371095657 0 -98011671.371095657 10441456.747609615 0 0 0 0 18455220.205559611 -45123885.100957036 0 -45123885.100957036 38100902.846432686 0 0 0 0 -85519.622284091573 226411.13831332338 0 226411.13831332338 220331.51813581306 0 0 0 0 45691293.205873489 -30820501.58275938 0 -30820501.58275938 -9621471.1221089363 0 0 0 0 -10209917.715889335 -3310653.2403043509 0 -3310653.2403043509 15136232.099489212 0 0 0 0 55883555.242560148 43138662.327575207 0 43138662.327575207 20375327.656344414 0 0 0 0 77149313.833737731 80516333.434777737 0 80516333.434777737 38843551.758050919 0 0 0 0 218361340.97586679 125573768.76160431 0 125573768.76160431 52438035.916128159 0 0 0 0 247121142.08433557 -22176353.848430157 0 -22176353.848430157 44267556.748784542 0 0 0 0 94146963.258606911 71763398.602648735 0 71763398.602648735 23057144.566137671 0 0 0 0 75197046.732952356 53055753.439811707 0 53055753.439811707 17183475.29451561 0 0 0 0 -15835992.461878419 -1055019.5396327972 0 -1055019.5396327972 44245632.816452026 0 0 0 0 210861.76781761035 54947.750629882328 0 54947.750629882328 -50577.665644385386 0 0 0 0 111722497.79432076 30963681.839070559 0 30963681.839070559 -78696563.59095192 0 0 0 0 96230011.422316253 120113833.49422967 0 120113833.49422967 82424005.447900772 0 0 0 0 128214628.89290679 115443746.76880407 0 115443746.76880407 41507947.957881212 0 0 0 0 51390198.857218027 35334639.144039869 0 35334639.144039869 81385560.953988075 0 0 0 0 139652997.08347678 91164352.170835018 0 91164352.170835018 65241702.689052582 0 0 0 0 137359856.1309371 117915111.7230258 0 117915111.7230258 54507359.362495422 0 0 0 0 2563191.0788830519 82188346.238947392 0 82188346.238947392 141747123.40017033 0 0 0 0 128570019.80933061 131503264.86309278 0 131503264.86309278 70770930.160293579 0 0 0 0 82434649.022451878 39064543.02276516 0 39064543.02276516 98881231.726629525 0 0 0 0 76740365.360721171 55311480.570701599 0 55311480.570701599 60063915.219985962 0 0 0 0 2385852.8562645912 6364842.8267049789 0 6364842.8267049789 68151296.371229172 0 0 0 0 -468460.27137196064 31324856.497704506 0 31324856.497704506 -23665883.030797958 0 0 0 0 15533080.537539601 -10957346.363625526 0 -10957346.363625526 14260881.422848701 0 0 0 0 -18084904.507026196 47634780.077073097 0 47634780.077073097 -49142815.408500671 0 0 0 0 434265.12658700749 126851.71323618991 0 126851.71323618991 -91071.901784981601 0 0 0 0 -20745981.980438471 46488971.485660076 0 46488971.485660076 57103207.065011978 0 0 0 0 1834487.6962593198 -25456722.352834702 0 -25456722.352834702 24779526.803817749 0 0 0 0 -15815488.486752391 -6135566.3407440186 0 -6135566.3407440186 75623912.857215881 0 0 0 0 15903.643857077463 313023.82881897152 0 313023.82881897152 228719.60022861417 0 0 0 0 20218035.250846565 -21608481.258063316 0 -21608481.258063316 17196037.956308365 0 0 0 0 -24440.869138658047 4613213.7811889648 0 4613213.7811889648 2849304.3345928192 0 0 0 0 -6274469.7081806064 1032583.7823367119 0 1032583.7823367119 5045920.2326469421 0 0 0 0 -8302.0726638483466 922125.76068436168 0 922125.76068436168 773567.92750210967 0 0 0 0 1990628.1855996847 2865412.9971990585 0 2865412.9971990585 -1023484.1486949921 0 0 0 0 437910.36259644199 113436.6773458661 0 113436.6773458661 -487735.38726544799 0 0 0 0 -988530.36768472195 -419666.3037352562 0 -419666.3037352562 -1776529.4771289825 0 0 0 0 8077218.3687367141 24683655.606110811 0 24683655.606110811 51359894.318557739 0 0 0 0 1926261.6716066599 -2772220.1550359726 0 -2772220.1550359726 2838372.6302013397 0 0 0 0 -1079743.5740594864 7294211.7747478485 0 7294211.7747478485 25584905.81938839 0 0 0 0 134526.93528866768 -2616767.9583244324 0 -2616767.9583244324 -3036942.7593765259 0 0 0 0 12101522.608783126 644773.78811693192 0 644773.78811693192 -9018113.7455768585 0 0 0 0 17765817.942428231 2732365.3879642487 0 2732365.3879642487 -8117508.5687961578 0 0 0 0 9051200.850977838 838580.52058672905 0 838580.52058672905 18125455.242883682 0 0 0 0 13120933.126260996 101539.19176578522 0 101539.19176578522 18046989.936474323 0 0 0 0 5463816.3913142681 -8847974.5247716904 0 -8847974.5247716904 59312658.328048706 0 0 0 0 40498368.958628893 15024499.642067909 0 15024499.642067909 52727656.082651138 0 0 0 0 -14842638.131477207 -8774011.5907893181 0 -8774011.5907893181 57363140.765785217 0 0 0 0 5711357.2043962479 -11165786.945875168 0 -11165786.945875168 48238959.978780746 0 0 0 0 26461369.916870594 3656080.2673840523 0 3656080.2673840523 24573543.901266098 0 0 0 0 19238589.711699694 27946434.83802855 0 27946434.83802855 88919938.103040695 0 0 0 0 106399772.59644213 150749233.46939266 0 150749233.46939266 146127377.01084518 0 0 0 0 76467.342522358595 443140.2782138054 0 443140.2782138054 237406.82642976381 0 0 0 0 -44072483.65830493 -34509552.393533707 0 -34509552.393533707 106185773.18324757 0 0 0 0 684766730.21259594 80114075.796741605 0 80114075.796741605 40951976.353157043 0 0 0 0 -12550753.55629921 56735522.287650108 0 56735522.287650108 193972202.73259211 0 0 0 0 -3006842.8906322718 22620227.315985441 0 22620227.315985441 1040618.6049261093 0 0 0 0 34102731.46500802 1055340.3134298325 0 1055340.3134298325 -2945613.1506824493 0 0 0 0 -30436993.152485847 9042434.5299329758 0 9042434.5299329758 3659480.5274090767 0 0 0 0 145844.11961188377 1201916.4056186625 0 1201916.4056186625 791619.31559233367 0 0 0 0 676207221.54527688 -159964383.20860195 0 -159964383.20860195 -83592275.57736969 0 0 0 0 133032779.59805441 -156370315.43949509 0 -156370315.43949509 175032342.78912163 0 0 0 0 234748414.60191822 -23689493.308509827 0 -23689493.308509827 106672634.94958115 0 0 0 0 375018848.79954958 67086817.80355835 0 67086817.80355835 24526998.257987022 0 0 0 0 106159682.52975512 -3979225.892583847 0 -3979225.892583847 44020855.314014435 0 0 0 0 137399799.00246358 194432301.09954262 0 194432301.09954262 -118001489.07153511 0 0 0 0 124371398.68400443 3421534.6379191875 0 3421534.6379191875 -190349954.35407448 0 0 0 0 -55169096.02661562 64294144.354578972 0 64294144.354578972 13810274.740478039 0 0 0 0 189966924.57982588 118800348.64727211 0 118800348.64727211 64171079.573041916 0 0 0 0 43347881.546958923 13952564.185279846 0 13952564.185279846 17652084.634595037 0 0 0 0 7925820.9562625885 37904917.206483841 0 37904917.206483841 85131291.715417862 0 0 0 0 -81777430.422590256 -50093408.090003967 0 -50093408.090003967 118567218.83026695 0 0 0 0 15313719.523885608 10413777.294533968 0 10413777.294533968 180921691.22701454 0 0 0 0 191450068.80205393 97565283.927033424 0 97565283.927033424 237969897.40796375 0 0 0 0 124086741.00655746 -37051108.293259621 0 -37051108.293259621 105299384.57697582 0 0 0 0 166678597.47477674 -63553002.15102005 0 -63553002.15102005 148390871.92067337 0 0 0 0 17571637.190565586 -52987264.139533997 0 -52987264.139533997 122352309.86646461 0 0 0 0 21903926.656238556 26084000.048276901 0 26084000.048276901 126754438.07296562 0 0 0 0 2308252.2762138462 97474.13519517798 0 97474.13519517798 423440.80069151707 0 0 0 0 -31624868.306401253 64976506.218244553 0 64976506.218244553 -61149603.367790222 0 0 0 0 -98459.766778945923 -35130125.301380157 0 -35130125.301380157 72081745.747461319 0 0 0 0 -55403375.708751678 16581596.975933075 0 16581596.975933075 20623800.3019104 0 0 0 0 -76759804.921933174 65481661.079837799 0 65481661.079837799 61717399.454254389 0 0 0 0 -32128885.011436462 -79470203.724376678 0 -79470203.724376678 127700909.3425827 0 0 0 0 343340968.18818378 -126779007.8443222 0 -126779007.8443222 -62363044.798061371 0 0 0 0 648604310.33126616 57614854.833194733 0 57614854.833194733 5480652.7924871445 0 0 0 0 574163828.03493869 44780767.320194244 0 44780767.320194244 -32672073.319656372 0 0 0 0 308864131.84489346 -141915501.97536469 0 -141915501.97536469 -15000842.037158489 0 0 0 0 231911636.86235952 -16970873.150954247 0 -16970873.150954247 38502744.550880432 0 0 0 0 105125645.67098045 -57802851.348228455 0 -57802851.348228455 66590689.58807373 0 0 0 0 242501487.74257708 -26727615.888523102 0 -26727615.888523102 3833394.6579742432 0 0 0 0 85570728.142934084 -39586731.186637878 0 -39586731.186637878 34066496.133918762 0 0 0 0 242053274.19171575 32363978.440338477 0 32363978.440338477 18833663.943847656 0 0 0 0 422273482.87738895 -17436698.874702454 0 -17436698.874702454 -31881159.698577881 0 0 0 0 195703298.74990702 -6231173.1957168579 0 -6231173.1957168579 -24178868.419939041 0 0 0 0 325573406.95484495 29571397.720863342 0 29571397.720863342 -19118009.804077148 0 0 0 0 178211185.7931594 32158041.761322975 0 32158041.761322975 10745821.911560059 0 0 0 0 105620160.43685246 16268931.193347931 0 16268931.193347931 23244018.41513443 0 0 0 0 22890713.366846085 9638026.0503005981 0 9638026.0503005981 25711960.955144882 0 0 0 0 69604303.472961426 8635759.5543556213 0 8635759.5543556213 38226550.345069885 0 0 0 0 -10887055.40712738 -38652581.140201569 0 -38652581.140201569 34828270.933105469 0 0 0 0 -46231885.468055725 15019386.606853485 0 15019386.606853485 17737706.03931427 0 0 0 0 -45917053.645271301 20705418.638828278 0 20705418.638828278 46098537.919944763 0 0 0 0 -51325346.196331024 23324560.779125214 0 23324560.779125214 11219779.276504517 0 0 0 0 -48622523.520355225 -18020046.075019836 0 -18020046.075019836 2805751.4589500427 0 0 0 0 -47964419.06332016 -13760292.090076447 0 -13760292.090076447 29805505.36857605 0 0 0 0 -41510428.652484894 -26784241.962020874 0 -26784241.962020874 2427222.0038642883 0 0 0 0 -31882676.172901154 -39869138.137985229 0 -39869138.137985229 20008790.917599678 0 0 0 0 -34119513.712669373 -8615591.3007087708 0 -8615591.3007087708 35890963.861406326 0 0 0 0 -19984212.645922214 26898969.175007284 0 26898969.175007284 44441243.729824066 0 0 0 0 -19072470.139890671 40645615.049934387 0 40645615.049934387 2973354.7487716675 0 0 0 0 -12228536.687799454 3488895.5970783234 0 3488895.5970783234 29756880.933484077 0 0 0 0 -20214520.04409647 -4708356.6174354553 0 -4708356.6174354553 61871783.360179901 0 0 0 0 -361923.90084229072 -275500.37605607603 0 -275500.37605607603 803305.58940209646 0 0 0 0 54302359.497005463 31073558.101804733 0 31073558.101804733 73429617.62786895 0 0 0 0 198647062.988868 107533296.3051281 0 107533296.3051281 -304084789.67483139 0 0 0 0 205392902.24250531 2968.2983741760254 0 2968.2983741760254 27651122.886535645 0 0 0 0 100767290.07452059 27969324.303640366 0 27969324.303640366 -19181039.953121185 0 0 0 0 -76644.951214192202 -189632.59937446937 0 -189632.59937446937 580710.76024872111 0 0 0 0 160779962.55510306 69523147.437976837 0 69523147.437976837 29302293.160346985 0 0 0 0 92756575.385653734 -9257411.2967758179 0 -9257411.2967758179 -60957412.760162354 0 0 0 0 290138371.85862935 97627945.383907318 0 97627945.383907318 -15974996.176111221 0 0 0 0 270809792.87801611 -50395799.331306458 0 -50395799.331306458 29448105.738898277 0 0 0 0 336074584.44627476 81204198.069282532 0 81204198.069282532 -33329396.13444519 0 0 0 0 -13268921.424663782 8725439.7580791712 0 8725439.7580791712 2388552.4502792358 0 0 0 0 648584923.87520528 11429595.450218678 0 11429595.450218678 -140070471.12997055 0 0 0 0 89211.67866373391 1838952.6615116964 0 1838952.6615116964 1758271.2117389282 0 0 0 0 340318404.85025358 265392191.99562073 0 265392191.99562073 -163183078.41828156 0 0 0 0 1568872.3107908964 6182487.7599964142 0 6182487.7599964142 -2742569.2694091797 0 0 0 0 -2183905.858684063 12043120.733215332 0 12043120.733215332 -988825.30694293976 0 0 0 0 -675049.49528264999 7352455.4939956665 0 7352455.4939956665 -2864782.4869346619 0 0 0 0 -5320160.6363346577 2948225.0230007172 0 2948225.0230007172 1071019.5450935364 0 0 0 0 -1043833.265586853 3572057.8423976898 0 3572057.8423976898 837942.38297748566 0 0 0 0 -1129597.6870803833 3032529.5894775391 0 3032529.5894775391 3699202.2731399536 0 0 0 0 -1612835.6044173241 4623324.950176239 0 4623324.950176239 3064827.1504745483 0 0 0 0 1180244025.0343313 -982634427.0664196 0 -982634427.0664196 258457207.36410308 0 0 0 0 906161.88031436829 1058371.5017914032 0 1058371.5017914032 -1274123.4126035813 0 0 0 0 -1881414.5846050978 4626217.2070035934 0 4626217.2070035934 4227662.0214424133 0 0 0 0 320309742.42916286 96792206.190861702 0 96792206.190861702 19439242.498222351 0 0 0 0 -121736.82028008215 2266139.2268233458 0 2266139.2268233458 3214930.4772085268 0 0 0 0 301707772.05348396 93898069.771160126 0 93898069.771160126 25836147.22858429 0 0 0 0 373401694.83592117 99234656.274105072 0 99234656.274105072 -4902679.9544830322 0 0 0 0 365071857.52102327 122440427.93161011 0 122440427.93161011 55823397.221511841 0 0 0 0 333920192.82900143 151027023.12374115 0 151027023.12374115 119318463.64142609 0 0 0 0 -166097106.78351068 192338729.40991592 0 192338729.40991592 301455097.47202301 0 0 0 0 124421.29865963204 235680.87446828163 0 235680.87446828163 -67753.401052711532 0 0 0 0 2009936.9129276276 239386.16756439209 0 239386.16756439209 -9369211.9469223022 0 0 0 0 205744980.70068169 36898807.196998596 0 36898807.196998596 -69125480.264610291 0 0 0 0 559296586.75919902 159592325.71011734 0 159592325.71011734 8842219.8709564209 0 0 0 0 -19399.878634887049 106644.14666541805 0 106644.14666541805 689363.47715633363 0 0 0 0 436900294.25154471 233436468.06877518 0 233436468.06877518 107235472.02539062 0 0 0 0 754395763.16923499 228339176.79430771 0 228339176.79430771 -8544250.2914886475 0 0 0 0 -39936.667506819707 -602409.15485467564 0 -602409.15485467564 1366829.9593455717 0 0 0 0 388135699.80509663 -397140706.39791679 0 -397140706.39791679 222401980.20671082 0 0 0 0 -91456475.949943542 935275177.74242783 0 935275177.74242783 1620017.7700252533 0 0 0 0 437029213.54266572 -129948219.6502521 0 -129948219.6502521 48045289.787967682 0 0 0 0 -1638127028.1407661 1174193818.3108902 0 1174193818.3108902 103309499.07421255 0 0 0 0 -188227007.67650223 -34343159.903579712 0 -34343159.903579712 209963723.69342422 0 0 0 0 -102072357.17332935 -411855422.56785583 0 -411855422.56785583 803488444.13666916 0 0 0 0 91143798.536570549 -261133128.43128395 0 -261133128.43128395 201750179.89582062 0 0 0 0 -45756295.237318993 -171064047.89448547 0 -171064047.89448547 318232453.53979874 0 0 0 0 -71881517.918879867 -72066373.233031273 0 -72066373.233031273 97145100.499954224 0 0 0 0 7966789.0911407471 -211143455.65263748 0 -211143455.65263748 201869801.97951889 0 0 0 0 -5799155.4610347748 -120152541.90156555 0 -120152541.90156555 2814683.7400988936 0 0 0 0 -128854924.47211277 65518162.888439178 0 65518162.888439178 6317022.9591827393 0 0 0 0 -68955889.864340782 -35258147.412656784 0 -35258147.412656784 164210208.552845 0 0 0 0 -124991045.98403883 90627332.524051666 0 90627332.524051666 79888248.146089554 0 0 0 0 -117367597.07438698 68957762.614311218 0 68957762.614311218 -44915941.046985626 0 0 0 0 -265381295.98834229 415228783.21486664 0 415228783.21486664 -78608473.629901886 0 0 0 0 -108784047.06386948 31747665.445116043 0 31747665.445116043 264850614.09502411 0 0 0 0 -438200876.30867004 111324186.63051224 0 111324186.63051224 628436440.16520214 0 0 0 0 3033119.2809865475 4718809.8593835831 0 4718809.8593835831 -677338.74711990356 0 0 0 0 3086900.6953020692 4746522.9703555107 0 4746522.9703555107 -1346076.1827449799 0 0 0 0 854910.42488661292 1696386.9640524574 0 1696386.9640524574 -1532840.088383724 0 0 0 0 2546119.538438797 7130188.7552490234 0 7130188.7552490234 -4823824.8574390411 0 0 0 0 5071076.5665649176 5805495.9026813507 0 5805495.9026813507 -4204480.218536377 0 0 0 0 6568024.0996925235 2806121.2416534424 0 2806121.2416534424 -1682754.5144996643 0 0 0 0 872239.12690544128 4859412.5669059753 0 4859412.5669059753 -635932.24274730682 0 0 0 0 2369208.497672081 -1912240.6876440048 0 -1912240.6876440048 -2815340.5063486099 0 0 0 0 1138729.3735592365 47530.847870349884 0 47530.847870349884 -1688892.2482757568 0 0 0 0 9408763.2634300496 2017895.4333956242 0 2017895.4333956242 -19268890.616069794 0 0 0 0 -7969170.4595353603 76184336.186006546 0 76184336.186006546 -243177358.2391367 0 0 0 0 -13134026.769860916 11683975.234102249 0 11683975.234102249 13879509.571949005 0 0 0 0 -15285.448408186436 6019225.6697044373 0 6019225.6697044373 3882855.991147995 0 0 0 0 -375012.02990240016 1504437.4180217874 0 1504437.4180217874 4285787.4522388736 0 0 0 0 -334246.23986659374 2331110.0656095808 0 2331110.0656095808 -1060001.2542592306 0 0 0 0 -2473692.819354713 2563453.7640371323 0 2563453.7640371323 1979609.4187083244 0 0 0 0 -356206.6814696957 -46849.481868463103 0 -46849.481868463103 3626174.9845640007 0 0 0 0 -1756135.5149219036 2412403.4425315857 0 2412403.4425315857 3949665.4124422073 0 0 0 0 -1883973.4243992567 1726793.1740217209 0 1726793.1740217209 1713595.843421936 0 0 0 0 -1740861.5595012531 670002.91391062737 0 670002.91391062737 668707.11297988892 0 0 0 0 -5513486.4959589839 1407583.5105077028 0 1407583.5105077028 11085209.506580353 0 0 0 0 -5388111.4269637465 2116348.5668828487 0 2116348.5668828487 6843051.8415184021 0 0 0 0 -718198.15259538125 -127402.36658725096 0 -127402.36658725096 4267049.5992360152 0 0 0 0 -2721360.1612480879 735532.5097360611 0 735532.5097360611 5917343.4591369629 0 0 0 0 -3016127.4852817059 -3976371.5192184448 0 -3976371.5192184448 4331555.6511545181 0 0 0 0 -4837559.0623526573 -2614903.6385250092 0 -2614903.6385250092 10386370.087173462 0 0 0 0 -3659747.6814430952 -859451.27703475952 0 -859451.27703475952 6578005.2762489319 0 0 0 0 19085.338447477967 140515.3945375497 0 140515.3945375497 2367390.9135297704 0 0 0 0 -158200666.71023887 55752211.584285736 0 55752211.584285736 41181178.091896057 0 0 0 0 -3703267.9313697815 -3754169.9361801147 0 -3754169.9361801147 7613184.5923500061 0 0 0 0 21766900.764825404 46014491.448098183 0 46014491.448098183 12620009.41878891 0 0 0 0 119518123.53012991 -56597481.909431458 0 -56597481.909431458 -1255770.4610538483 0 0 0 0 -39558309.261392593 5401180.5950622559 0 5401180.5950622559 53226525.498806 0 0 0 0 -316550.76171733538 331559.71356579475 0 331559.71356579475 888439.19419285003 0 0 0 0 -39566199.598353386 4427216.5647392273 0 4427216.5647392273 17140469.618431091 0 0 0 0 -43357.413320940919 125617.45145007037 0 125617.45145007037 575416.01140716346 0 0 0 0 -1478693.147591114 24042876.587726593 0 24042876.587726593 -1342759.0433883667 0 0 0 0 10265442.538551569 7150839.344244957 0 7150839.344244957 13592927.277236938 0 0 0 0 -1372594.0683983066 1608322.4808811843 0 1608322.4808811843 2133714.8016763227 0 0 0 0 6127057.1091065407 5097291.2073402405 0 5097291.2073402405 4435785.3900985718 0 0 0 0 10824703.555800386 31156395.254329205 0 31156395.254329205 84972612.18163681 0 0 0 0 2961510.1470282078 -10372481.479492188 0 -10372481.479492188 30624451.708591461 0 0 0 0 -2066787.3180608749 6349632.6345176697 0 6349632.6345176697 33786465.321499348 0 0 0 0 8710061.5748076886 13422680.367177248 0 13422680.367177248 14396767.241355896 0 0 0 0 -53560893.246192455 -38267143.055110931 0 -38267143.055110931 17589383.774023056 0 0 0 0 -101617212.69740653 -2076745.5616607666 0 -2076745.5616607666 102437643.73178101 0 0 0 0 -17251030.479003429 -47560548.055236816 0 -47560548.055236816 121931881.42778206 0 0 0 0 -311397.36944917071 501528.52975912858 0 501528.52975912858 541656.90524906665 0 0 0 0 -10896024.950562656 292165595.36545706 0 292165595.36545706 151940895.76224899 0 0 0 0 -87927206.945641875 -51500550.624137878 0 -51500550.624137878 127307565.72474957 0 0 0 0 -139733881.8455728 -288808215.7512393 0 -288808215.7512393 640071938.97408295 0 0 0 0 103028548.80560246 -203321964.34556293 0 -203321964.34556293 214619356.72055435 0 0 0 0 86385984.523884356 -229951966.83154464 0 -229951966.83154464 504002377.83883286 0 0 0 0 7378199.8337401152 -14790486.343387604 0 -14790486.343387604 23684541.623033047 0 0 0 0 -214280.65170177101 -250258.83137147408 0 -250258.83137147408 584125.53357949667 0 0 0 0 6134368.3367782831 -10123971.008928299 0 -10123971.008928299 25304377.458236694 0 0 0 0 -26624043.599130698 -28251300.751429558 0 -28251300.751429558 647435851.88534737 0 0 0 0 -436575872.08963722 -20498693.188905716 0 -20498693.188905716 2206854846.5299053 0 0 0 0 136054911.94052792 -428532323.82913589 0 -428532323.82913589 990115541.05462646 0 0 0 0 -376800435.1272068 165197574.35106182 0 165197574.35106182 1563624585.2815666 0 0 0 0 -41133633.278262675 32106747.316736221 0 32106747.316736221 424380296.4217577 0 0 0 0 -178962.31342794714 83667.146904010326 0 83667.146904010326 394112.47003244702 0 0 0 0 34511660.651162148 -14948413.102617264 0 -14948413.102617264 -130326744.21815491 0 0 0 0 6957821.0250563622 141534866.71854973 0 141534866.71854973 102528844.30241394 0 0 0 0 -8007898.0985593796 -110327215.32322502 0 -110327215.32322502 210548374.09192657 0 0 0 0 56534802.868641376 88975191.338726044 0 88975191.338726044 -169715848.91315269 0 0 0 0 -971278.9113367747 32347.984559395816 0 32347.984559395816 1055491.0671759145 0 0 0 0 -338085654.94023943 357759499.81148052 0 357759499.81148052 2199848419.4399929 0 0 0 0 589640050.11940265 448819165.16423035 0 448819165.16423035 343944313.43539238 0 0 0 0 -1247241.2957022977 -58313.341167527484 0 -58313.341167527484 1317306.0164761646 0 0 0 0 514281618.59551156 -716546796.02643204 0 -716546796.02643204 967110038.41227341 0 0 0 0 -1601911.6679537294 794924.77800711384 0 794924.77800711384 3212998.0847811173 0 0 0 0 -3289588.7620637417 -383729.06209754944 0 -383729.06209754944 -9210375.5012779236 0 0 0 0 -12120023.822062016 -38015711.76448822 0 -38015711.76448822 -25290837.720619202 0 0 0 0 -293916.11021223688 599618.50990780722 0 599618.50990780722 -199099.40143222921 0 0 0 0 -216063547.98592424 74419824.250419617 0 74419824.250419617 157213481.17100525 0 0 0 0 362560375.19478917 9444780.0006141663 0 9444780.0006141663 30170140.908723831 0 0 0 0 318554161.11573696 -277358008.46809959 0 -277358008.46809959 215454006.86149162 0 0 0 0 -14756341.316259861 -7051195.9021835327 0 -7051195.9021835327 443098702.93856049 0 0 0 0 -2229130.7866311073 -256004745.34797478 0 -256004745.34797478 270524692.14469719 0 0 0 0 59891914.178678036 -224449527.46488667 0 -224449527.46488667 131138910.51522827 0 0 0 0 79033.363548649562 -101922.14943957492 0 -101922.14943957492 738984.62116428558 0 0 0 0 206913810.29483092 172320580.51737595 0 172320580.51737595 -1344806.2543678284 0 0 0 0 23743278.706937313 -212906763.9070797 0 -212906763.9070797 181586693.67095947 0 0 0 0 93247663.066837281 -184040693.62803763 0 -184040693.62803763 80361039.701225281 0 0 0 0 -18075980.051497102 83400.984333992004 0 83400.984333992004 6222635.9440422058 0 0 0 0 -130640.86828798306 92659.473758876324 0 92659.473758876324 5342.3406651383266 0 0 0 0 -35297796.805382729 -197684858.92230988 0 -197684858.92230988 226010551.25451279 0 0 0 0 -17826854.678872824 -219044171.25534439 0 -219044171.25534439 184495892.7773056 0 0 0 0 134433823.85816574 -136801618.47534943 0 -136801618.47534943 128541471.63674545 0 0 0 0 62437090.621329308 60151843.184204102 0 60151843.184204102 -33657959.554048538 0 0 0 0 -43659849.713454247 520462.34019851685 0 520462.34019851685 20651512.551261902 0 0 0 0 -297481797.69350553 -100120089.19341469 0 -100120089.19341469 230939995.46162415 0 0 0 0 96167553.307550311 405710331.49339676 0 405710331.49339676 432081596.1937027 0 0 0 0 518845991.96272445 -511245134.43984985 0 -511245134.43984985 408011428.26198447 0 0 0 0 -202468.78484510368 -1754396.9533919957 0 -1754396.9533919957 3730691.2670166083 0 0 0 0 -2042873.1370605014 265348.72841503564 0 265348.72841503564 3262726.2471384816 0 0 0 0 2046548.7683982849 14905632.498123169 0 14905632.498123169 -6861452.9975280762 0 0 0 0 5142445.0380821228 -7334650.333398819 0 -7334650.333398819 -3755265.3234443665 0 0 0 0 235161799.65786842 43251392.289571762 0 43251392.289571762 -120502337.26699448 0 0 0 0 5833155.6692558974 -341773569.60698509 0 -341773569.60698509 671961379.99997711 0 0 0 0 -207350012.50996357 18633373.957323074 0 18633373.957323074 1033834298.8115311 0 0 0 0 -296532800.86408633 -342330563.83078766 0 -342330563.83078766 2202189524.2395239 0 0 0 0 -56027441.710029148 837681885.28597832 0 837681885.28597832 2268839794.2110367 0 0 0 0 -212727901.24480486 -25699161.710659981 0 -25699161.710659981 668856788.66578674 0 0 0 0 -563430.29276045982 89999.438450574409 0 89999.438450574409 2964308.6636757366 0 0 0 0 -45925006.172317386 50569063.538531303 0 50569063.538531303 654739024.00504684 0 0 0 0 20809186.09779191 -54151051.732118607 0 -54151051.732118607 -52136625.513492584 0 0 0 0 -428913402.09446836 -10179234.314014435 0 -10179234.314014435 74443412.00378418 0 0 0 0 384947537.29189003 -204509635.64238739 0 -204509635.64238739 -214642490.25463867 0 0 0 0 -371384957.00169349 122848362.25066376 0 122848362.25066376 371498831.0676918 0 0 0 0 460476492.07264113 -1023922964.5825272 0 -1023922964.5825272 758765397.48447418 0 0 0 0 -94636.198221743631 -108760.32052885043 0 -108760.32052885043 1197575.8585055545 0 0 0 0 246792796.73844916 -1337626365.0135098 0 -1337626365.0135098 1175123935.1156311 0 0 0 0 -72443814.688377663 -789636912.4553833 0 -789636912.4553833 2260246510.413579 0 0 0 0 68780820.30184637 -314346812.87991333 0 -314346812.87991333 1250647279.2739885 0 0 0 0 194754961.83248484 -558067793.63257599 0 -558067793.63257599 1363708959.7246761 0 0 0 0 278410778.64373612 65773321.808124542 0 65773321.808124542 107443230.74295044 0 0 0 0 354203206.11731076 178698310.07596016 0 178698310.07596016 -183628928.29403687 0 0 0 0 -170414414.51384795 270539573.88737106 0 270539573.88737106 -201209823.5540638 0 0 0 0 -414472.99944620894 -136694.91722536739 0 -136694.91722536739 568383.37620293489 0 0 0 0 -70208447.383124292 472584878.42534256 0 472584878.42534256 206091827.74356461 0 0 0 0 448874332.10904813 341862839.36891365 0 341862839.36891365 -63670876.859169006 0 0 0 0 -161919016.5751003 -14510036.517408371 0 -14510036.517408371 257003109.24920273 0 0 0 0 865897.61823960161 -133484.48329959344 0 -133484.48329959344 84045.886373921763 0 0 0 0 -2189335.6730294824 427148876.45756721 0 427148876.45756721 944908796.8131485 0 0 0 0 21569516.674992919 323142947.62113571 0 323142947.62113571 72934480.735618591 0 0 0 0 119036434.44513535 187034419.89406204 0 187034419.89406204 260784198.85466766 0 0 0 0 5546508.3899989128 -4723826.2392326593 0 -4723826.2392326593 6900184.9240322113 0 0 0 0 -488784.4213142395 -228763.88558030128 0 -228763.88558030128 8801400.6314949393 0 0 0 0 347643.46028614044 2494215.7194828987 0 2494215.7194828987 1383928.0330581665 0 0 0 0 2665906.9934824109 -6870455.7757312953 0 -6870455.7757312953 17134033.148925543 0 0 0 0 271724.40294826031 -2653673.7157686949 0 -2653673.7157686949 21569177.888420701 0 0 0 0 12176890.976940632 -23067067.827940524 0 -23067067.827940524 22427470.871944405 0 0 0 0 -34198251.737609625 -33223635.406594336 0 -33223635.406594336 53544275.316564083 0 0 0 0 -762969.17669987679 -692884.82112577558 0 -692884.82112577558 12696688.6184026 0 0 0 0 11391676.017412901 -11126266.349288106 0 -11126266.349288106 2808025.6068980396 0 0 0 0 -1588693.2335113436 1098952.1711077059 0 1098952.1711077059 4663078.4615291366 0 0 0 0 6500075.0130002499 4274946.518576622 0 4274946.518576622 1860084.443447113 0 0 0 0 -42852983.064987183 20295446.732938051 0 20295446.732938051 136097712.28380692 0 0 0 0 -23871862.465881944 -61612420.607890248 0 -61612420.607890248 31500569.40961358 0 0 0 0 1808355.323928833 5076356.9087431431 0 5076356.9087431431 3988512.7490882874 0 0 0 0 -188427.07910572842 2135419.8069873685 0 2135419.8069873685 6576972.7958485726 0 0 0 0 -7388416.6305508316 3708643.3912149668 0 3708643.3912149668 21978088.751052737 0 0 0 0 4282074.1668155193 705123.27870059013 0 705123.27870059013 523863.419298172 0 0 0 0 -247337.91911494359 684429.18358272093 0 684429.18358272093 -513018.08041825145 0 0 0 0 4045464.5857205391 3313197.2207689285 0 3313197.2207689285 206111.18772888184 0 0 0 0 5317713.6265211105 806004.1342420578 0 806004.1342420578 4809952.612827301 0 0 0 0 1938488.4640293121 4389640.4341754913 0 4389640.4341754913 9649946.2459926605 0 0 0 0 1996665.7009664178 3684316.1844586134 0 3684316.1844586134 4538751.2172584534 0 0 0 0 -349656.98288378539 344832.32385777571 0 344832.32385777571 1419189.6791533313 0 0 0 0 -1977038.8360812664 -3419495.7922455668 0 -3419495.7922455668 6602938.0318303108 0 0 0 0 17317424.795784712 12309470.226916075 0 12309470.226916075 8440571.075676918 0 0 0 0 113258805.16886687 13180423.581829071 0 13180423.581829071 -43185800.203197479 0 0 0 0 -6099.6368817574403 722.76337548560696 0 722.76337548560696 17863.814672401058 0 0 0 0 -182994.09149199922 368408.71951439511 0 368408.71951439511 1741139.7627092681 0 0 0 0 -437909.42282247543 1535514.2391149998 0 1535514.2391149998 -292800.63065910339 0 0 0 0 -2765686.6400341988 2490630.8960340619 0 2490630.8960340619 2916763.3617076874 0 0 0 0 24335358.631418347 22800691.965633869 0 22800691.965633869 -1163654.6857662201 0 0 0 0 -411083.80884695961 906409.60179511644 0 906409.60179511644 545025.02950341743 0 0 0 0 -23743122.969696581 40866192.733886003 0 40866192.733886003 11796590.234946251 0 0 0 0 4056679.8800134659 6901618.1265201569 0 6901618.1265201569 5816313.3835086823 0 0 0 0 -25490375.529425494 -569763.95437733084 0 -569763.95437733084 14771409.177182198 0 0 0 0 -1703586.3131036421 1289514.3764244616 0 1289514.3764244616 5535929.5754414108 0 0 0 0 4395520.0110068321 6066850.7121982574 0 6066850.7121982574 4326798.4980010986 0 0 0 0 1846408.4978662729 -1088138.6315872669 0 -1088138.6315872669 2395739.5930604935 0 0 0 0 3072565.7182440162 -3625726.3438417912 0 -3625726.3438417912 7375211.5531787872 0 0 0 0 -1952287.5079723597 2275735.8215056658 0 2275735.8215056658 10316261.31178093 0 0 0 0 -2203794.103508532 3253215.2417366505 0 3253215.2417366505 9676898.0183124542 0 0 0 0 -2035495.581507802 4941092.359600544 0 4941092.359600544 5117111.803768158 0 0 0 0 -1618819.1500752494 3544735.6315870285 0 3544735.6315870285 8600142.1063690186 0 0 0 0 -2733115.7553711273 5252019.4920139313 0 5252019.4920139313 6602560.1253743172 0 0 0 0 -2948932.6144872904 1958361.699072361 0 1958361.699072361 5706101.2379245758 0 0 0 0 -191451.12519747703 846138.70300554845 0 846138.70300554845 2340030.2470790073 0 0 0 0 198342.97469854355 -510615.1916217804 0 -510615.1916217804 2115818.0950717926 0 0 0 0 102294.22245502472 2647776.7733039856 0 2647776.7733039856 5451935.0712013245 0 0 0 0 1500565.870475769 7043740.8643369675 0 7043740.8643369675 -2122626.3569836617 0 0 0 0 -160253.78686962533 -6091.7593478388153 0 -6091.7593478388153 221927.60446344898 0 0 0 0 -1142971.0671569109 1753083.2639583349 0 1753083.2639583349 1679944.4526491165 0 0 0 0 -629174.21199893951 1016107.9352741241 0 1016107.9352741241 3582179.6325321794 0 0 0 0 237136.46841073036 817004.63629263639 0 817004.63629263639 1951636.0937671661 0 0 0 0 -1131467.143666029 -204445.60682964325 0 -204445.60682964325 767100.23189210892 0 0 0 0 -802752.32263827324 1206343.9862598181 0 1206343.9862598181 2492116.4429886341 0 0 0 0 -898015.10858535767 1047959.9571397305 0 1047959.9571397305 2420939.2002614737 0 0 0 0 1883104.4692127705 -8506.8701953887939 0 -8506.8701953887939 2166158.1308543682 0 0 0 0 -4796948.2752096653 -3694273.4335975647 0 -3694273.4335975647 1002358.5089517236 0 0 0 0 -427384.08607280254 -3756796.4291115403 0 -3756796.4291115403 5375724.5077505112 0 0 0 0 3225783.2090517282 176263.97281694412 0 176263.97281694412 2180994.6324651241 0 0 0 0 -2737056.5933036208 2228124.4526906013 0 2228124.4526906013 5186432.8874974251 0 0 0 0 -1005654.9554088116 2969814.6200700998 0 2969814.6200700998 5359914.3222355247 0 0 0 0 64997.423662300258 1398771.4594674341 0 1398771.4594674341 2250726.7038660632 0 0 0 0 -831314.2033905983 -5992689.7748010755 0 -5992689.7748010755 -2925638.0727877617 0 0 0 0 -151390.45701594307 8156.0129396745469 0 8156.0129396745469 614150.3691417271 0 0 0 0 29627.739001512527 2362460.7723305225 0 2362460.7723305225 4170779.4348993301 0 0 0 0 78161.674273520708 1324872.419143796 0 1324872.419143796 2174460.1627845764 0 0 0 0 -229813.99001095179 917417.75522358669 0 917417.75522358669 4193556.1581555936 0 0 0 0 -3561774.8550660387 -6645635.0100107193 0 -6645635.0100107193 2207326.6632528305 0 0 0 0 -195527.54754042625 6856378.2731742859 0 6856378.2731742859 3341058.5171504021 0 0 0 0 -38476.086857898801 -454088.33196789905 0 -454088.33196789905 3764447.455168189 0 0 0 0 -1394054.0384876728 -1234347.0853347778 0 -1234347.0853347778 5010796.9247162342 0 0 0 0 2238050.3953700066 -5736111.0041670799 0 -5736111.0041670799 -22554983.304033279 0 0 0 0 -4445059.9332439899 -8541898.4601802826 0 -8541898.4601802826 -8595725.7027106285 0 0 0 0 -6330913.7696807384 -303253.82632732391 0 -303253.82632732391 4108136.1776537895 0 0 0 0 1154242.9885530472 -1759682.6811041832 0 -1759682.6811041832 -4863268.4693857431 0 0 0 0 -7106846.4417629242 -6528114.1074018478 0 -6528114.1074018478 -2759895.4847084284 0 0 0 0 -4372312.9253730774 -6203028.6446065903 0 -6203028.6446065903 -11000477.528096914 0 0 0 0 -64039.191775569736 -258647.52659618016 0 -258647.52659618016 75523.421796066221 0 0 0 0 1542507.8135713041 2248812.9578733444 0 2248812.9578733444 1336867.3956813812 0 0 0 0 1279784.8210047781 -2462550.146030426 0 -2462550.146030426 2310014.2674922943 0 0 0 0 -1515402.7282759622 -34758.351780891418 0 -34758.351780891418 285186.96313667297 0 0 0 0 1165198.5701522827 -233786.37303423882 0 -233786.37303423882 -61746.352129936218 0 0 0 0 -340203.54006373324 -689460.81484363228 0 -689460.81484363228 8990839.0758981705 0 0 0 0 -79468.364803207514 69112.192156436853 0 69112.192156436853 203997.24728951696 0 0 0 0 -1901025.5616645813 314886.14024066925 0 314886.14024066925 996195.70594024658 0 0 0 0 -92293.287571083609 862325.66251439089 0 862325.66251439089 3243029.1666223975 0 0 0 0 -1381410.8499215543 -1890075.3536434174 0 -1890075.3536434174 367457.91657942533 0 0 0 0 1623461.0963125229 2674393.3892173767 0 2674393.3892173767 2674772.5428085327 0 0 0 0 -642007.16553175449 -240401.34802627563 0 -240401.34802627563 1037371.4092597961 0 0 0 0 -1100004.3099973788 -509010.07552722795 0 -509010.07552722795 2903940.2779127862 0 0 0 0 456791.2969976216 1366539.3725415943 0 1366539.3725415943 1155154.726299597 0 0 0 0 -1604658.303352356 412820.25071334839 0 412820.25071334839 1505204.5728759766 0 0 0 0 424526.52948742511 -976401.0025319386 0 -976401.0025319386 2410864.4161505671 0 0 0 0 -1399107.4927416248 349772.98444414971 0 349772.98444414971 6818079.4412326617 0 0 0 0 -121797010.0275982 11685777.464198709 0 11685777.464198709 5271025.4623584747 0 0 0 0 46973.455082643515 -754654.173763167 0 -754654.173763167 4727949.8156288369 0 0 0 0 -1828318.8566712737 82988195.139591455 0 82988195.139591455 1275925.6103348359 0 0 0 0 95966537.945281148 -56354677.489572287 0 -56354677.489572287 -21338580.207517624 0 0 0 0 -9054504.7137615681 -45629833.238704801 0 -45629833.238704801 71305776.525647059 0 0 0 0 -46994716.008725047 -877458.82138335705 0 -877458.82138335705 64225415.013623238 0 0 0 0 -8660540.772352159 23161789.043208957 0 23161789.043208957 -13374470.179081865 0 0 0 0 -956257.80751371826 -18682016.826578815 0 -18682016.826578815 -11698994.751174927 0 0 0 0 213841.22072201181 133191.16154409453 0 133191.16154409453 -266105.05648644298 0 0 0 0 -1424637.1417058706 10869916.332748413 0 10869916.332748413 1364858.5656700134 0 0 0 0 -171223.13863440586 1704566.417910873 0 1704566.417910873 6905067.4267339213 0 0 0 0 -416230.51895332336 6055353.2830162048 0 6055353.2830162048 4295531.0367736816 0 0 0 0 -1843772.7217154503 4211474.2309799194 0 4211474.2309799194 2291598.0198488235 0 0 0 0 -535042.31310415268 8832697.7122116089 0 8832697.7122116089 13421061.461128235 0 0 0 0 -2689821.4838736057 -4340438.883651495 0 -4340438.883651495 24869785.906720832 0 0 0 0 -7161740.8466659784 -2838960.9033527374 0 -2838960.9033527374 39442587.795288801 0 0 0 0 -1276514.3589293957 2757018.8268344402 0 2757018.8268344402 11237163.67711091 0 0 0 0 551173.44270294905 -1930837.3127298057 0 -1930837.3127298057 4492269.6738481522 0 0 0 0 -9248209.9777669907 1033231.7975891829 0 1033231.7975891829 23881456.349997044 0 0 0 0 6837714.3240401745 -11740278.004351437 0 -11740278.004351437 26813472.166945904 0 0 0 0 -10580888.292110801 295775.511916399 0 295775.511916399 31649156.810747385 0 0 0 0 -5571441.884701252 5413025.6084369421 0 5413025.6084369421 2216537.6653441191 0 0 0 0 -17382287.690407157 23681739.609368443 0 23681739.609368443 -18019740.457267314 0 0 0 0 -2878862.8362368345 -2738865.0968148112 0 -2738865.0968148112 30500549.278661013 0 0 0 0 -195897.27662318203 379783.48570851615 0 379783.48570851615 483533.87226871966 0 0 0 0 1425322.9277920723 5385468.4870063663 0 5385468.4870063663 25024379.786103904 0 0 0 0 3017730.744515419 11509369.072453678 0 11509369.072453678 36812495.958336659 0 0 0 0 47129.885952530021 1169844.137558758 0 1169844.137558758 2174375.2540818579 0 0 0 0 -2827451.6360771358 6387598.6539013386 0 6387598.6539013386 -4763206.5234962553 0 0 0 0 810108.55904226622 411505.29169208708 0 411505.29169208708 -976970.01654995023 0 0 0 0 2533055.6423237324 1265337.6974924803 0 1265337.6974924803 -4603998.537432909 0 0 0 0 -4615425.8992089182 -20690.831966340542 0 -20690.831966340542 8468457.3957443237 0 0 0 0 -558478.23294417106 988411.32932614372 0 988411.32932614372 6640306.9290279206 0 0 0 0 -1602633.981546402 -2352834.3832893372 0 -2352834.3832893372 9742080.1697120667 0 0 0 0 -1381310.7911968604 1012563.5434324741 0 1012563.5434324741 2088427.5434932709 0 0 0 0 -1352902.1308239475 642785.47667336464 0 642785.47667336464 2185711.1363868713 0 0 0 0 -501871.11405401246 -374412.25518682343 0 -374412.25518682343 1856768.2757136759 0 0 0 0 -477395.20332195889 3347700.2588934479 0 3347700.2588934479 1800243.0923109883 0 0 0 0 -1284374.7900412083 2552550.115105629 0 2552550.115105629 14406738.486801147 0 0 0 0 -5407709.0100984573 5416525.8920631409 0 5416525.8920631409 16043495.947483063 0 0 0 0 -351411.30523291614 1393435.7540728375 0 1393435.7540728375 6723505.2823040038 0 0 0 0 -8020346.8714082241 7875611.9771442413 0 7875611.9771442413 6849179.1814308167 0 0 0 0 -7781249.9748642445 2486662.7316474915 0 2486662.7316474915 12484193.50031662 0 0 0 0 -4421197.3778362274 -694003.29829978943 0 -694003.29829978943 10598635.402650833 0 0 0 0 -4648231.8591306508 -1266855.2614005506 0 -1266855.2614005506 12810295.311458588 0 0 0 0 -2927296.914981842 -4043488.7991943359 0 -4043488.7991943359 9926297.1095428467 0 0 0 0 -1139505.1394648552 -7317702.5189800262 0 -7317702.5189800262 16002959.950376034 0 0 0 0 -5073992.6237037778 -1569288.5969524384 0 -1569288.5969524384 15345023.765720367 0 0 0 0 8647688.5868293047 -12900486.272893906 0 -12900486.272893906 15909977.961746216 0 0 0 0 -1914555.0541000366 -4450004.5243968964 0 -4450004.5243968964 17036821.871259212 0 0 0 0 -2146991.4289218187 -3597825.2525119781 0 -3597825.2525119781 21681612.247238159 0 0 0 0 1179257.5589346886 -4769670.9808692932 0 -4769670.9808692932 7404153.3424634933 0 0 0 0 3626828.4223117828 -5928530.956161499 0 -5928530.956161499 7782227.0301208496 0 0 0 0 -118865.49564409256 -6109744.8270339966 0 -6109744.8270339966 8336573.515089035 0 0 0 0 -2735472.4593372345 -3859727.2773790359 0 -3859727.2773790359 9501721.8028793335 0 0 0 0 -4074870.3096385002 -3405429.7704753876 0 -3405429.7704753876 9588451.9213829041 0 0 0 0 -1914761.313202858 -4729720.1295852661 0 -4729720.1295852661 10083073.878196716 0 0 0 0 -2450660.7570850849 -3150794.4679222107 0 -3150794.4679222107 7611418.9669189453 0 0 0 0 -378095.34319114685 -5110154.7723689079 0 -5110154.7723689079 7452368.823135376 0 0 0 0 -5033170.5139007568 -2691631.4551620483 0 -2691631.4551620483 8081088.7126159668 0 0 0 0 1426125.2060155869 -5326867.0589466095 0 -5326867.0589466095 6852101.900182724 0 0 0 0 -1268248.7984548807 -3658938.5992007256 0 -3658938.5992007256 7589536.0508499146 0 0 0 0 522112.73615193367 38291.127735137939 0 38291.127735137939 880998.53540039062 0 0 0 0 379336572.30532819 -708743026.44517517 0 -708743026.44517517 1334350063.2590485 0 0 0 0 815420.86687980779 -278666.42843410792 0 -278666.42843410792 2046011.9254977973 0 0 0 0 670235.30732441903 3415109.1132496493 0 3415109.1132496493 3528996.5217166413 0 0 0 0 254003669.53238466 -839683299.40583563 0 -839683299.40583563 2294799428.2061005 0 0 0 0 -572313.79775316641 -841825.74898020411 0 -841825.74898020411 1376766.6917043291 0 0 0 0 273782.61007601023 622291.91043281555 0 622291.91043281555 3456256.4956605434 0 0 0 0 -59388.4241810807 299908.09736947226 0 299908.09736947226 3135731.5942413528 0 0 0 0 1045731.3351521492 1565183.7538137436 0 1565183.7538137436 4358625.3808269501 0 0 0 0 -137104.16261810064 -95960.180082321167 0 -95960.180082321167 6121567.210609436 0 0 0 0 28673.116260434486 7361.3936975654215 0 7361.3936975654215 -29791.986925716978 0 0 0 0 631650.23093037563 -603082.91926645534 0 -603082.91926645534 4351809.6388338469 0 0 0 0 -501909.80129889026 200597.30361700058 0 200597.30361700058 1197389.8866901398 0 0 0 0 -3373641.1148104668 -5360925.6588616371 0 -5360925.6588616371 5768775.9423370361 0 0 0 0 -32838.405896037468 -126539.18205388077 0 -126539.18205388077 256085.15603195375 0 0 0 0 102879.03988689184 1026059.9178180695 0 1026059.9178180695 4319928.80349195 0 0 0 0 24188499.729108091 276244950.1454277 0 276244950.1454277 2205048799.3559513 0 0 0 0 31555.114458332162 540353.89452594682 0 540353.89452594682 3769681.9108912847 0 0 0 0 -38391546.996121608 152044142.49041367 0 152044142.49041367 2186406783.0690012 0 0 0 0 17863.330212384462 1107781.4488420486 0 1107781.4488420486 4252442.4018650055 0 0 0 0 988761.36608046945 709117.65661802189 0 709117.65661802189 5227860.6993090175 0 0 0 0 -42621878.430953197 148011906.86196518 0 148011906.86196518 2203208471.9868679 0 0 0 0 177582.35533202169 467814.00988240167 0 467814.00988240167 3585923.6990823071 0 0 0 0 788874.12078219652 969639.36469507217 0 969639.36469507217 3784355.0797386169 0 0 0 0 102697.43696202338 1018994.9086899757 0 1018994.9086899757 4134888.8468589783 0 0 0 0 46377332.52861663 -309541260.26025391 0 -309541260.26025391 2064025111.8299809 0 0 0 0 -142621.66618227959 583791.87650299072 0 583791.87650299072 4164286.8843536377 0 0 0 0 1111911.2134757163 153980.74008091365 0 153980.74008091365 -560485.6767184562 0 0 0 0 -54154657.523144491 -4114444.1000957489 0 -4114444.1000957489 2186925659.6258073 0 0 0 0 -206768.2818467617 872374.23410320282 0 872374.23410320282 4136069.7210922241 0 0 0 0 7107950.9723691717 2196097.819378376 0 2196097.819378376 1792971.6416139603 0 0 0 0 166850.34417331219 1337319.4775214195 0 1337319.4775214195 3485043.2570838928 0 0 0 0 -209658.9459586672 279012.29497374315 0 279012.29497374315 2971008.5764333 0 0 0 0 432927271.33037072 941835958.52944231 0 941835958.52944231 2204686531.7130098 0 0 0 0 457753.27542279084 1528914.1460675267 0 1528914.1460675267 3503342.1734505212 0 0 0 0 1141543.0645141199 165089.92531183234 0 165089.92531183234 490688.30330047966 0 0 0 0 -179710.67707431316 940528.50995540619 0 940528.50995540619 3938885.8761863708 0 0 0 0 291518.20194449002 671071.62273754505 0 671071.62273754505 1527356.7273839335 0 0 0 0 -413269.8242893219 322588.16506838799 0 322588.16506838799 1758522.0678572655 0 0 0 0 158777055.44107533 -58517594.830740362 0 -58517594.830740362 -148004093.39696938 0 0 0 0 203642.97873303248 951993.41144310078 0 951993.41144310078 4370152.8503949428 0 0 0 0 1143719.8928252803 2213850.1705279369 0 2213850.1705279369 3914661.0232002023 0 0 0 0 992116.45589649677 629797.14243650436 0 629797.14243650436 1147766.0543622971 0 0 0 0 739305.38383406401 1727433.7853746414 0 1727433.7853746414 3498270.9392471313 0 0 0 0 -77842.271050930023 731092.09775161743 0 731092.09775161743 4287547.7664661407 0 0 0 0 -125636.5179432132 773527.93102280621 0 773527.93102280621 4557677.6642802274 0 0 0 0 900055.42612231523 568594.71436983347 0 568594.71436983347 4187873.9729194641 0 0 0 0 -261427.36687161028 80083.477837085724 0 80083.477837085724 1773168.9179946184 0 0 0 0 -51561944.419018745 -16345915.172744334 0 -16345915.172744334 1934058.9286309481 0 0 0 0 -29952343.786382675 113922310.9336898 0 113922310.9336898 -34659125.716233626 0 0 0 0 79344.703203639016 976818.86333663797 0 976818.86333663797 1642141.2863841096 0 0 0 0 -209007.27207411977 559215.86160634737 0 559215.86160634737 657931.11241479916 0 0 0 0 44317367.873061717 -313235038.30474597 0 -313235038.30474597 311605140.31327492 0 0 0 0 29296450.46073103 86631373.577530205 0 86631373.577530205 24011774.679930072 0 0 0 0 -63751732.034250736 36325608.010451458 0 36325608.010451458 -45978559.000073642 0 0 0 0 -84479587.796426773 22296349.140823007 0 22296349.140823007 113009541.69023919 0 0 0 0 17293099.632183552 96082629.696596801 0 96082629.696596801 -4950791.6540760398 0 0 0 0 -108455.48048488601 115194.58825712546 0 115194.58825712546 444092.97240264673 0 0 0 0 -19012608.008786678 -44516745.258497238 0 -44516745.258497238 172456041.784468 0 0 0 0 70110056.578305602 -33721910.918523461 0 -33721910.918523461 6860547.3358035088 0 0 0 0 -21841694.268265709 4278131.3526398968 0 4278131.3526398968 10506765.79227221 0 0 0 0 -27807086.625505805 -13233721.640608877 0 -13233721.640608877 5796812.8510644436 0 0 0 0 -53101369.71044898 27445232.337936193 0 27445232.337936193 3066842.0483343601 0 0 0 0 -291626.46520471573 -2749391.3745117188 0 -2749391.3745117188 8917771.3857288361 0 0 0 0 14393296.703219414 11362471.965118408 0 11362471.965118408 14211530.999656677 0 0 0 0 13849438.94788149 5278114.9122034907 0 5278114.9122034907 9072882.0374698639 0 0 0 0 12815672.12514925 24130788.883796468 0 24130788.883796468 7416954.2365086675 0 0 0 0 150253564.22066009 86265675.776944369 0 86265675.776944369 -161005969.67645931 0 0 0 0 -8681226.9360411167 -7684649.574283937 0 -7684649.574283937 24296051.577204496 0 0 0 0 649922.53448810475 402532.85262659553 0 402532.85262659553 -861407.45620622206 0 0 0 0 3908741.0076313019 1678572.939081192 0 1678572.939081192 4972040.5065841675 0 0 0 0 -1345017.8535506034 915305.85158082424 0 915305.85158082424 3852893.3549728403 0 0 0 0 -118812145.99703979 213786608.22571054 0 213786608.22571054 -121791433.5423612 0 0 0 0 -152257.48463745893 2411686.272617477 0 2411686.272617477 6306059.376991909 0 0 0 0 4262308.8434724808 4350480.2909345627 0 4350480.2909345627 11476970.563206673 0 0 0 0 11798438.139038086 11997655.70010376 0 11997655.70010376 18642739.480606079 0 0 0 0 -86624.514468093636 142290.89988996729 0 142290.89988996729 329150.16621651012 0 0 0 0 34107474.436566353 34326618.033261776 0 34326618.033261776 -1848335.5332001746 0 0 0 0 -414128.34442012274 2705737.903284288 0 2705737.903284288 7319609.3845519237 0 0 0 0 -76845523.628325462 -60859850.902027756 0 -60859850.902027756 -20128821.418127738 0 0 0 0 7644936.7655682564 4198313.1175384521 0 4198313.1175384521 10714926.491156578 0 0 0 0 5485251.3814086914 4390929.3409795761 0 4390929.3409795761 15366590.28959465 0 0 0 0 6080298.5890295506 -1612286.1196005344 0 -1612286.1196005344 9722882.4004154205 0 0 0 0 -708013.44611641765 -1642637.725212425 0 -1642637.725212425 2265214.3133525848 0 0 0 0 575388.85981787741 1541526.105294764 0 1541526.105294764 628414.8821978569 0 0 0 0 348627182.95521468 904510969.17873728 0 904510969.17873728 1666778218.5508389 0 0 0 0 100040.44671964645 -809733.821641922 0 -809733.821641922 564850.90155202895 0 0 0 0 -824894.73417437077 -166063.05991389454 0 -166063.05991389454 3077555.4964203639 0 0 0 0 -548619.28376638889 178024.21128368378 0 178024.21128368378 3044782.8822306395 0 0 0 0 927803530.96496129 1052250889.8696361 0 1052250889.8696361 1196301793.3466368 0 0 0 0 1618999.2391679985 1283002.4517030837 0 1283002.4517030837 930163.10462944431 0 0 0 0 371657.9114677906 -713519.99945068359 0 -713519.99945068359 1748429.3939933777 0 0 0 0 -876180.80116164684 -367937.61427164078 0 -367937.61427164078 1657921.0504336357 0 0 0 0 -442779.81469118595 868414.02126264572 0 868414.02126264572 1145927.3310306296 0 0 0 0 507913781.47202241 1225753834.1686699 0 1225753834.1686699 2685365538.4576445 0 0 0 0 -13313.552650995727 47045.791988588579 0 47045.791988588579 158928.08515798295 0 0 0 0 615613522.29309464 892654182.75533068 0 892654182.75533068 1968369412.6560593 0 0 0 0 129170876.90995583 711788384.04659617 0 711788384.04659617 2032522610.4990902 0 0 0 0 245290471.95728528 866912444.43954253 0 866912444.43954253 2204750180.2346072 0 0 0 0 352661942.1461069 868672594.06026351 0 868672594.06026351 1968793677.7961364 0 0 0 0 118185843.23718287 626696754.90104878 0 626696754.90104878 1772855135.2143025 0 0 0 0 -128753611.35155904 359336304.80715513 0 359336304.80715513 1886115818.3528957 0 0 0 0 -78164817.122742221 573692604.36206162 0 573692604.36206162 2204623383.6537304 0 0 0 0 212484116.97076261 472415062.65908575 0 472415062.65908575 1343017623.7237167 0 0 0 0 315456877.91809922 651458864.64992619 0 651458864.64992619 1383722688.9145794 0 0 0 0 345441028.7921679 744421389.12381864 0 744421389.12381864 1517634280.3566461 0 0 0 0 365497787.71853077 737101965.21381569 0 737101965.21381569 1480635423.1900873 0 0 0 0 327274830.34856886 663233646.14518166 0 663233646.14518166 1349124506.5207691 0 0 0 0 -366366.07940186164 -513222.61692720919 0 -513222.61692720919 2823113.7729666354 0 0 0 0 228462755.86139888 576971802.06114423 0 576971802.06114423 1714738992.8932385 0 0 0 0 -560770062.26113355 -325813116.27869463 0 -325813116.27869463 1201819105.8703842 0 0 0 0 -230259783.73630083 99845848.90391767 0 99845848.90391767 1420855722.5014305 0 0 0 0 -477390724.28555465 102262319.02631855 0 102262319.02631855 2204284663.3314276 0 0 0 0 -57063137.926316738 329100913.38106632 0 329100913.38106632 1485325449.9408069 0 0 0 0 -396315211.97986668 220005327.81505239 0 220005327.81505239 1337965802.279458 0 0 0 0 -424443985.37526643 -299752778.50666475 0 -299752778.50666475 -29206091.844282359 0 0 0 0 -239353731.1516006 1198549530.3472662 0 1198549530.3472662 -60816233.381940842 0 0 0 0 -202184453.57494894 9784901.3653831482 0 9784901.3653831482 798901422.14955139 0 0 0 0 90887586.162973523 869999746.72418404 0 869999746.72418404 349644715.44133377 0 0 0 0 107938113.77407321 738621051.46521187 0 738621051.46521187 1331219108.3401432 0 0 0 0 -202688.17860493451 88235.304013811983 0 88235.304013811983 613907.82058603852 0 0 0 0 -510002156.26664448 656664494.14575863 0 656664494.14575863 497245444.71844673 0 0 0 0 -109136563.58721486 445760678.24103928 0 445760678.24103928 -71547130.447788239 0 0 0 0 -220753740.15652442 388129843.22201443 0 388129843.22201443 725704085.05340958 0 0 0 0 389821731.47762084 -154920993.50173187 0 -154920993.50173187 433925275.31485796 0 0 0 0 217520001.63136649 -641924376.80792809 0 -641924376.80792809 1367377646.0570974 0 0 0 0 70990386.042286634 112154758.21613693 0 112154758.21613693 1363577625.9207578 0 0 0 0 63512.963479356607 329062.01880877977 0 329062.01880877977 648262.6712191198 0 0 0 0 -5521322.3491399288 2263537.5673756599 0 2263537.5673756599 16875688.514420509 0 0 0 0 877816.56108004204 930464.60615825467 0 930464.60615825467 315320.25188640738 0 0 0 0 7282094.7982759476 4649601.4419107437 0 4649601.4419107437 8289139.1564778388 0 0 0 0 334627688.66765398 637880982.15927649 0 637880982.15927649 1323252264.5897555 0 0 0 0 -392687.09828916949 257782.5420698002 0 257782.5420698002 1745899.9466189239 0 0 0 0 325482452.96026045 636691311.96210623 0 636691311.96210623 1354902501.1441813 0 0 0 0 300943362.57686359 415375268.68045998 0 415375268.68045998 959348434.97529221 0 0 0 0 -3491522.4210160375 23039619.429792881 0 23039619.429792881 -15152816.477722168 0 0 0 0 6529941.572157383 36684906.857422829 0 36684906.857422829 -9576327.6643419266 0 0 0 0 13915532.546058416 68093815.137972832 0 68093815.137972832 -329714167.57574844 0 0 0 0 -171084843.47110415 109842319.46574974 0 109842319.46574974 238651299.30288506 0 0 0 0 -142594953.34508055 67686684.860813141 0 67686684.860813141 69553053.526189804 0 0 0 0 -36111816.962511539 3273032.5221691132 0 3273032.5221691132 12249383.139457226 0 0 0 0 -56799991.023912907 53384384.148993492 0 53384384.148993492 -507295.44280290604 0 0 0 0 -5394778.9580967426 37963230.122419357 0 37963230.122419357 1972886.2427692413 0 0 0 0 -37017091.209132195 18595291.586727142 0 18595291.586727142 8721007.955009073 0 0 0 0 13005140.386620522 15209859.565538406 0 15209859.565538406 -5655753.3320608139 0 0 0 0 -1187112.6740545034 -5149850.2889118195 0 -5149850.2889118195 12849927.034662247 0 0 0 0 -54251125.320084691 -29848554.912086487 0 -29848554.912086487 5585683.6664829254 0 0 0 0 592349.51114082336 3658986.3288698196 0 3658986.3288698196 5693321.7785682678 0 0 0 0 1813897.9449853897 3823975.9780292511 0 3823975.9780292511 6281011.3240737915 0 0 0 0 651750.3662405014 1668296.4162960052 0 1668296.4162960052 3553025.4413032532 0 0 0 0 -828593.93039370666 909277.55021140061 0 909277.55021140061 1674007.6793801738 0 0 0 0 192794.06697720732 1363596.7210652474 0 1363596.7210652474 3685227.08334172 0 0 0 0 3417923.0410766602 4669130.5892753601 0 4669130.5892753601 2185532.8311014175 0 0 0 0 2628540.7321128845 5983308.1755161285 0 5983308.1755161285 6606085.9827861786 0 0 0 0 1845381.1486532688 308609.62874984741 0 308609.62874984741 375625.86498451233 0 0 0 0 -140752.77796713708 329456.47064994299 0 329456.47064994299 137246.36639525369 0 0 0 0 -291502605.96334577 -233628293.88277161 0 -233628293.88277161 68122948.565080643 0 0 0 0 1942859.0962810516 4393886.762752533 0 4393886.762752533 6000516.0785493851 0 0 0 0 101130.96890649275 1449676.7695043688 0 1449676.7695043688 3354114.8153810147 0 0 0 0 -147589759.23739454 -212944344.04837847 0 -212944344.04837847 -48605559.057659149 0 0 0 0 -243288826.69193393 5474120.9409008026 0 5474120.9409008026 71940161.12858963 0 0 0 0 -111559236.85482693 12615033.364934921 0 12615033.364934921 -60034501.422218919 0 0 0 0 -145746602.9948765 -18484449.594151497 0 -18484449.594151497 200966918.17941284 0 0 0 0 -43708801.941249669 106995771.10719943 0 106995771.10719943 315779713.94960022 0 0 0 0 -37742602.716183186 -102675098.87185478 0 -102675098.87185478 329593708.23653209 0 0 0 0 -61836126.209083676 43245646.760944366 0 43245646.760944366 143821747.30436707 0 0 0 0 225104977.05839348 -89254798.920412064 0 -89254798.920412064 107658931.59025955 0 0 0 0 -49528228.096275449 -34203708.804649353 0 -34203708.804649353 90676139.351846695 0 0 0 0 -177996011.3136853 -126906524.63462281 0 -126906524.63462281 182942831.13705063 0 0 0 0 129975937.8668499 22124261.992052078 0 22124261.992052078 509489837.71854603 0 0 0 0 466364650.48507494 394405802.49788225 0 394405802.49788225 484585480.20141411 0 0 0 0 169191644.06452227 107304865.37384796 0 107304865.37384796 319586278.81744957 0 0 0 0 186411784.41054678 177928581.69670236 0 177928581.69670236 417696823.09641266 0 0 0 0 238214751.8817687 -34393265.00605011 0 -34393265.00605011 251972578.52621841 0 0 0 0 170953703.87883317 -32695475.532053947 0 -32695475.532053947 -94390587.002616882 0 0 0 0 281293815.9712255 36565816.849854469 0 36565816.849854469 65089643.931928635 0 0 0 0 94478071.778037786 10634636.896297455 0 10634636.896297455 74847298.803304672 0 0 0 0 -68189920.228190541 -170559889.93078423 0 -170559889.93078423 41353577.185747147 0 0 0 0 -77817415.255396843 -42125980.711011887 0 -42125980.711011887 149756439.91305447 0 0 0 0 -65328225.991672039 -68584672.261680603 0 -68584672.261680603 -68416889.645427704 0 0 0 0 128588205.17198884 -66194601.075129747 0 -66194601.075129747 -96956629.825374603 0 0 0 0 -103840106.6639154 -23025616.54915905 0 -23025616.54915905 -109103874.91893005 0 0 0 0 -213913681.33413172 -234968705.96052361 0 -234968705.96052361 -298929021.45471954 0 0 0 0 -261655674.55248785 -42559689.868615031 0 -42559689.868615031 -13254999.838279724 0 0 0 0 -56091.185905777325 -23113.42027952848 0 -23113.42027952848 -47964.922674416564 0 0 0 0 -127592.77140811607 3960459.993857557 0 3960459.993857557 2050447.3986964477 0 0 0 0 790121.20211529732 13107543.620714188 0 13107543.620714188 1191774.2833786011 0 0 0 0 -161533911.68509662 -32281217.873500824 0 -32281217.873500824 -8490733.5390377045 0 0 0 0 -7687612.8266923428 -72311559.402990341 0 -72311559.402990341 -175141619.33159256 0 0 0 0 26131695.076642752 -122471418.106884 0 -122471418.106884 -122961533.03310013 0 0 0 0 -113382701.64462781 -129773887.24075317 0 -129773887.24075317 -90444382.445994377 0 0 0 0 91138336.581901789 -11342020.090265036 0 -11342020.090265036 -86485464.937095642 0 0 0 0 29589492.670928836 -59165986.898239136 0 -59165986.898239136 -98238084.185147524 0 0 0 0 84035214.284100413 -2298604.9207816124 0 -2298604.9207816124 -79227989.169324875 0 0 0 0 -697972.22762751579 -5745189.81295681 0 -5745189.81295681 -32188190.711711884 0 0 0 0 3783571.6719306707 -3252202.7137622833 0 -3252202.7137622833 -79217986.338527441 0 0 0 0 5543827.3398247957 3310689.788424015 0 3310689.788424015 5062058.1173934937 0 0 0 0 -662875.90412400756 5229110.1274981275 0 5229110.1274981275 2192692.5884682839 0 0 0 0 -20296400.387083292 -31824201.069401741 0 -31824201.069401741 -48016404.198467255 0 0 0 0 1502520.957285285 1741266.9572658539 0 1741266.9572658539 7137410.5346870422 0 0 0 0 5526492.7236669064 3142948.6210021973 0 3142948.6210021973 4197964.0312957764 0 0 0 0 -10474579.161150217 -43088746.590608597 0 -43088746.590608597 -42816578.95337677 0 0 0 0 5210478.4919023514 3205866.4362277985 0 3205866.4362277985 5519879.318983078 0 0 0 0 6318749.9406980276 5262909.4718847275 0 5262909.4718847275 5776853.2136001587 0 0 0 0 5088445.5217741728 2944572.2914466858 0 2944572.2914466858 5326777.4688186646 0 0 0 0 1663761.3690857887 8422693.4545574188 0 8422693.4545574188 5683889.4158325195 0 0 0 0 2430102.0250473022 15078617.323406219 0 15078617.323406219 9083962.7130254507 0 0 0 0 12334469.610334873 7815834.7434310913 0 7815834.7434310913 4993793.0018959045 0 0 0 0 2076515.7026472092 9358578.0716400146 0 9358578.0716400146 6245670.7080612183 0 0 0 0 -4451712.9238083363 12379466.300260544 0 12379466.300260544 5128008.9943008423 0 0 0 0 -3871998.7012577057 5514882.6865291595 0 5514882.6865291595 6747545.6135444641 0 0 0 0 1494436.6505937576 13601683.782382965 0 13601683.782382965 237099.07659912109 0 0 0 0 2847927.1269884109 14694783.771533966 0 14694783.771533966 5044773.5274715424 0 0 0 0 2023061.357624054 11846744.591197968 0 11846744.591197968 3523460.6322402954 0 0 0 0 -743061.60754394531 13325359.793718338 0 13325359.793718338 9168098.7826347351 0 0 0 0 -1318506.8081941605 679336.06868553162 0 679336.06868553162 7635908.5295791626 0 0 0 0 -5556446.3042755127 3313430.6276531219 0 3313430.6276531219 7476044.1368255615 0 0 0 0 1668733.0703544617 3845847.1660957336 0 3845847.1660957336 6950058.6691856384 0 0 0 0 -4918633.4679478407 9005346.0413665771 0 9005346.0413665771 6979231.0727920532 0 0 0 0 -1932436.1376152039 11203011.498199463 0 11203011.498199463 7872465.8808898926 0 0 0 0 1477299.4618844986 8495392.1610794067 0 8495392.1610794067 6761717.7410640717 0 0 0 0 1954569.0047264099 11773360.371245384 0 11773360.371245384 4815829.3232574463 0 0 0 0 3873054.9645357132 8238475.6686401367 0 8238475.6686401367 3867787.6692085266 0 0 0 0 1286312.7894697189 9762409.5183830261 0 9762409.5183830261 2975494.2572822571 0 0 0 0 2909733.3254327774 6254689.9294071198 0 6254689.9294071198 4926895.2119255066 0 0 0 0 2652298.7603650093 7011111.7532234192 0 7011111.7532234192 2802233.400428772 0 0 0 0 4206844.7190666199 4989576.8130245209 0 4989576.8130245209 4643745.9339332581 0 0 0 0 895574.42190170288 7207537.5151481628 0 7207537.5151481628 4702147.0833129883 0 0 0 0 2226689.2522711754 4837847.0685763359 0 4837847.0685763359 4467260.5381393433 0 0 0 0 2894384.0202178955 6164185.6459293365 0 6164185.6459293365 4593991.3781700134 0 0 0 0 4850806.9821190834 5912785.1806564331 0 5912785.1806564331 3264315.1759109497 0 0 0 0 -413768.1560166243 342523.55766313337 0 342523.55766313337 685529.41972440667 0 0 0 0 -2014309.2184299231 700561.38043785095 0 700561.38043785095 7046039.8307924271 0 0 0 0 4536316.3514976501 8185485.0626888275 0 8185485.0626888275 1449016.0600967407 0 0 0 0 3164820.780216217 10175564.897605896 0 10175564.897605896 -282863.58531284332 0 0 0 0 2551426.3905234337 4137307.6278533936 0 4137307.6278533936 3599860.2429151535 0 0 0 0 -2127084.3632695675 -12918207.25701046 0 -12918207.25701046 8268372.1923065186 0 0 0 0 -117571.66299050557 148378.64752927981 0 148378.64752927981 691560.94842432858 0 0 0 0 1649558.8594622612 4971071.3030166626 0 4971071.3030166626 4888328.5027418137 0 0 0 0 -13238916.926308751 -11072384.059455872 0 -11072384.059455872 -445382.16132736206 0 0 0 0 -948660.07007639739 -681688.88450559042 0 -681688.88450559042 1580374.2720658779 0 0 0 0 -13447618.398773193 1646326.6270475388 0 1646326.6270475388 9145635.2279510498 0 0 0 0 -60938387.554505467 106991471.93994236 0 106991471.93994236 -64047505.843933582 0 0 0 0 -1390721.4512967383 -423916.52173204161 0 -423916.52173204161 4104806.5992457676 0 0 0 0 241347.90814742629 3814335.0988500523 0 3814335.0988500523 7556377.9824832473 0 0 0 0 15179973.716432154 14959825.846127987 0 14959825.846127987 -50900028.406209946 0 0 0 0 -8256692.9422105551 28564067.445453167 0 28564067.445453167 -58741364.302846909 0 0 0 0 77116345.195321202 11972219.808381081 0 11972219.808381081 -67628043.403707027 0 0 0 0 48652448.783625662 45793115.836848736 0 45793115.836848736 -85732089.697910309 0 0 0 0 66428158.830152154 86823020.066967964 0 86823020.066967964 -93269953.473733902 0 0 0 0 -67586746.992816448 -4092500.2405061722 0 -4092500.2405061722 88914028.845488548 0 0 0 0 104315107.10788345 -3334668.1772756577 0 -3334668.1772756577 131982705.68845367 0 0 0 0 134501753.93351653 103055534.17737949 0 103055534.17737949 54830825.476421356 0 0 0 0 -5890527.0550479889 -109615477.40026093 0 -109615477.40026093 350793741.17872906 0 0 0 0 32367750.560995132 138788993.1822834 0 138788993.1822834 292835996.23811722 0 0 0 0 166011866.9380002 -2183627.958070755 0 -2183627.958070755 432645958.84088135 0 0 0 0 -47193414.695273876 -215349312.80172157 0 -215349312.80172157 146251989.57786298 0 0 0 0 -47218536.629219532 9061795.3534927368 0 9061795.3534927368 30862132.076667786 0 0 0 0 -141181.87040654404 2836929.4587984141 0 2836929.4587984141 7896130.4424019679 0 0 0 0 -158545297.11450416 182213010.0424726 0 182213010.0424726 45892040.080862045 0 0 0 0 12998756.343021035 -38972809.580646992 0 -38972809.580646992 47270272.504295349 0 0 0 0 -180113.24665485148 -178254.19476544205 0 -178254.19476544205 383163.06639454514 0 0 0 0 -8128502.6634478569 14732232.673454285 0 14732232.673454285 66622651.430374146 0 0 0 0 -5524336.340274334 -1819862.527929306 0 -1819862.527929306 1553904.9988174438 0 0 0 0 1341685.9296984673 33111577.482852936 0 33111577.482852936 -3592122.8563127518 0 0 0 0 4678877.4497218728 11102433.015756845 0 11102433.015756845 -2382391.9473724365 0 0 0 0 -5394311.408223629 5070581.393535614 0 5070581.393535614 -10895616.338287354 0 0 0 0 -29015132.290284634 28374350.746908188 0 28374350.746908188 2998964.1116065979 0 0 0 0 -102797.97602123224 61866.817232624162 0 61866.817232624162 235123.48464414384 0 0 0 0 -96933615.390781343 -172005862.38640404 0 -172005862.38640404 352925323.47068024 0 0 0 0 24779358.539007425 -4558960.0896854401 0 -4558960.0896854401 11833647.705581665 0 0 0 0 -550787.83159680478 1956656.7606666735 0 1956656.7606666735 7655598.4640684109 0 0 0 0 -102636442.53178832 -272848435.15740633 0 -272848435.15740633 481111698.00133514 0 0 0 0 -96124951.297156036 -291294403.35004044 0 -291294403.35004044 508622426.58641434 0 0 0 0 52496109.180894434 -197728635.62626266 0 -197728635.62626266 235560381.67618561 0 0 0 0 408512435.95771515 -585018384.9375 0 -585018384.9375 306745948.27835178 0 0 0 0 51055261.047968976 -313051601.48590279 0 -313051601.48590279 694259412.96636963 0 0 0 0 16859077.707270205 -395392998.25702572 0 -395392998.25702572 557568319.78710175 0 0 0 0 296045635.64440596 -373340374.22544479 0 -373340374.22544479 600037148.40247917 0 0 0 0 -120172919.8863225 -283259769.06925464 0 -283259769.06925464 569993866.75972366 0 0 0 0 -83651670.175013781 -335008131.25477695 0 -335008131.25477695 539091956.88698959 0 0 0 0 -45785617.377361178 -312893967.33126831 0 -312893967.33126831 449083772.06510353 0 0 0 0 -112578636.69378698 -317953051.53427887 0 -317953051.53427887 667891128.78430176 0 0 0 0 72112814.203233093 -353571020.69716263 0 -353571020.69716263 576771857.68092346 0 0 0 0 101154362.12478998 -297297877.52155685 0 -297297877.52155685 679553082.20129395 0 0 0 0 1292710.8398722769 2541719.235496887 0 2541719.235496887 3765018.1936310995 0 0 0 0 277880961.50733173 -399991022.84331894 0 -399991022.84331894 689073978.06391144 0 0 0 0 244700212.4543969 -311594237.84471321 0 -311594237.84471321 635221736.36211395 0 0 0 0 217355212.75723195 -365681566.7489624 0 -365681566.7489624 776549663.79232788 0 0 0 0 105985067.36286804 -293022026.88403893 0 -293022026.88403893 856408740.30834579 0 0 0 0 289520493.6878323 -364382095.80335617 0 -364382095.80335617 784016273.21737862 0 0 0 0 422309799.2412073 -704124690.07764387 0 -704124690.07764387 843698710.35011292 0 0 0 0 756473960.29360187 -900183813.31583405 0 -900183813.31583405 920627891.58699799 0 0 0 0 173356.04283039243 243791.43557317881 0 243791.43557317881 -163942.67454160191 0 0 0 0 248825729.04988116 -356208258.57517719 0 -356208258.57517719 955235656.92728424 0 0 0 0 283346329.45858097 -413760818.82666016 0 -413760818.82666016 616237062.63452911 0 0 0 0 -7097393.4600971937 -67828432.827225685 0 -67828432.827225685 919880194.83618736 0 0 0 0 -93298219.623897672 -141285830.07432175 0 -141285830.07432175 381816782.75616074 0 0 0 0 -95613941.332499504 -133843259.3652935 0 -133843259.3652935 592022006.59963226 0 0 0 0 -120030425.02122307 -313492547.44094753 0 -313492547.44094753 584728991.50199294 0 0 0 0 -108581042.95788884 -303695517.74003029 0 -303695517.74003029 499928406.45474815 0 0 0 0 -116496089.75023925 -306826226.31250095 0 -306826226.31250095 534890634.27875519 0 0 0 0 -111026242.07599032 -289911445.78998375 0 -289911445.78998375 516596783.31633377 0 0 0 0 -182290578.66491032 -157895113.97131443 0 -157895113.97131443 463491634.92682004 0 0 0 0 84574834.525155425 -209865018.03656054 0 -209865018.03656054 466417806.36044312 0 0 0 0 -451933400.79871917 126424907.42534132 0 126424907.42534132 911765084.18325806 0 0 0 0 4833.6317462331499 644918.75382335461 0 644918.75382335461 1428762.8748031305 0 0 0 0 -193457320.07416666 -330305802.87388897 0 -330305802.87388897 497009039.0435791 0 0 0 0 306881031.00760901 -762667585.66625595 0 -762667585.66625595 1041003863.3287811 0 0 0 0 -32605.527104026383 305936.50428200653 0 305936.50428200653 772768.39797444548 0 0 0 0 148526463.53184742 -883110463.4013319 0 -883110463.4013319 2601041695.0858936 0 0 0 0 -582123549.64900923 -361652950.21347487 0 -361652950.21347487 2204880444.5969133 0 0 0 0 10975512.079824492 -104890533.68802357 0 -104890533.68802357 1427031881.9419136 0 0 0 0 20123324.247781396 -10171272.134613037 0 -10171272.134613037 998290609.82817268 0 0 0 0 199722311.7005145 -371074026.42112589 0 -371074026.42112589 1152711796.334034 0 0 0 0 183648010.07331061 -308042354.45476341 0 -308042354.45476341 761212773.94788742 0 0 0 0 77922009.436269313 -257308945.30487633 0 -257308945.30487633 747856744.89480972 0 0 0 0 199671340.41758588 -287043217.01039219 0 -287043217.01039219 756397854.46383667 0 0 0 0 -42772324.125280619 -123946323.0636158 0 -123946323.0636158 772498146.34980965 0 0 0 0 -13326949.226164669 -110886945.51167011 0 -110886945.51167011 21890820.588888168 0 0 0 0 85870198.834839612 -204353330.11066628 0 -204353330.11066628 565287846.49151921 0 0 0 0 44234761.337573349 -33139674.272084236 0 -33139674.272084236 545262599.51598167 0 0 0 0 -311286314.22518128 518135158.27933121 0 518135158.27933121 1340588114.1597061 0 0 0 0 -268221935.6038979 670709904.56104279 0 670709904.56104279 244310744.46018791 0 0 0 0 479317039.20297211 124337964.6664505 0 124337964.6664505 2205602744.1511955 0 0 0 0 -322491145.6367923 61990902.538047791 0 61990902.538047791 2209007150.3284388 0 0 0 0 -237769041.13132185 -16924998.517536163 0 -16924998.517536163 1400137394.6710224 0 0 0 0 -195173131.65813029 -382737635.32543087 0 -382737635.32543087 2205007879.4767303 0 0 0 0 252953008.88657689 -435510650.44263363 0 -435510650.44263363 839511247.55806351 0 0 0 0 171360005.86943984 -297853640.05696487 0 -297853640.05696487 1004853211.4923086 0 0 0 0 486684.21015622432 2321242.2843645345 0 2321242.2843645345 4064234.9092124272 0 0 0 0 239444617.12125722 -627570734.9414711 0 -627570734.9414711 1222076222.9868393 0 0 0 0 465662421.57574278 -1098664163.1611633 0 -1098664163.1611633 2201189287.805644 0 0 0 0 871769.65831201139 2348049.3553069802 0 2348049.3553069802 -951121.32301632315 0 0 0 0 217718108.18167937 58315101.002612829 0 58315101.002612829 -29224743.055164337 0 0 0 0 1776119.441116381 1084797.7398507157 0 1084797.7398507157 311917.45430725813 0 0 0 0 -371148981.45391762 384310288.89121056 0 384310288.89121056 2201510394.0228996 0 0 0 0 158246953.52059358 183328920.35617065 0 183328920.35617065 821686110.86040115 0 0 0 0 2836464.7293366306 1125714673.362915 0 1125714673.362915 1011590028.9273834 0 0 0 0 -67008.031018540292 317711.41352468461 0 317711.41352468461 -110012.11703589559 0 0 0 0 -136399824.05463976 -147850936.18356705 0 -147850936.18356705 512032224.4772377 0 0 0 0 -139762183.42664564 -12863497.077008247 0 -12863497.077008247 82247980.729995728 0 0 0 0 -449984.85863819573 2816391.1677850517 0 2816391.1677850517 854639.65417259932 0 0 0 0 20927629.150171876 -19712296.566290855 0 -19712296.566290855 22081691.366008759 0 0 0 0 -363138.57777625613 599256.0846131593 0 599256.0846131593 3419113.5623824089 0 0 0 0 -690423.05225396156 3371690.7167778015 0 3371690.7167778015 -423133.45304489136 0 0 0 0 -129365.84312614799 3782336.7281103134 0 3782336.7281103134 -1164826.2497062683 0 0 0 0 1010100.7995340228 1610007.0565509796 0 1610007.0565509796 -1805020.3685150146 0 0 0 0 -413180.0506952951 1865809.5440480837 0 1865809.5440480837 1122126.3845949005 0 0 0 0 146234.80191224813 1078700.9025917053 0 1078700.9025917053 -784116.73196744919 0 0 0 0 -220336.53989040852 1567447.8393764496 0 1567447.8393764496 -1388644.6739349365 0 0 0 0 -4250301.662788868 3501970.7336959839 0 3501970.7336959839 -4740031.0585365295 0 0 0 0 -135409.33353918791 1331735.6115436554 0 1331735.6115436554 -4641562.8857650757 0 0 0 0 412143.28660252242 381866.12134196935 0 381866.12134196935 -641680.97032744437 0 0 0 0 15662783.312859297 17353005.804653168 0 17353005.804653168 -9964191.5473861694 0 0 0 0 -5131191.6237641126 18635806.240961432 0 18635806.240961432 -7121070.9087677002 0 0 0 0 23219112.088917971 -5769362.9243297577 0 -5769362.9243297577 -9244278.3063659668 0 0 0 0 5001547.5337765217 15038086.428825378 0 15038086.428825378 -17439132.547151566 0 0 0 0 -6571153.7156844139 4206239.1170482635 0 4206239.1170482635 -242011.40956878662 0 0 0 0 -1339021.7658064365 4824843.4864397049 0 4824843.4864397049 -3366565.6716194153 0 0 0 0 5069423.1963522434 4045035.1375846863 0 4045035.1375846863 -13698100.087436676 0 0 0 0 1306620.9375635462 1208762.9247084032 0 1208762.9247084032 -2025541.0932117887 0 0 0 0 -159285892.48199916 -114083086.28132248 0 -114083086.28132248 1560110260.8533936 0 0 0 0 69000852.074952602 -120217664.96239853 0 -120217664.96239853 740622490.85960388 0 0 0 0 -59357250.760701001 286894552.98193598 0 286894552.98193598 1218506973.0422745 0 0 0 0 -262745.99830955558 -5604.2802933957428 0 -5604.2802933957428 362433.99130196916 0 0 0 0 -309948277.81583613 660198577.92660141 0 660198577.92660141 1639489619.4673042 0 0 0 0 -373461376.95006335 299318644.52799225 0 299318644.52799225 1943263684.3907318 0 0 0 0 -533897340.75215685 895210007.00412178 0 895210007.00412178 2201142362.583168 0 0 0 0 -89554415.814323127 546688088.63684273 0 546688088.63684273 799634084.33163452 0 0 0 0 -83318008.503308281 621821029.0695591 0 621821029.0695591 1157744673.3932953 0 0 0 0 -100380786.08163118 115060789.60773849 0 115060789.60773849 939768861.23851776 0 0 0 0 -11857313.436704993 339510379.28113556 0 339510379.28113556 720341509.61408615 0 0 0 0 36345080.364072442 86299094.658657074 0 86299094.658657074 289161116.90295029 0 0 0 0 165987005.39540744 -80795544.163796902 0 -80795544.163796902 66545104.781047821 0 0 0 0 426223606.80075002 492883219.64587402 0 492883219.64587402 554536147.70046616 0 0 0 0 716483249.96933484 1416750096.2788773 0 1416750096.2788773 1197568534.0393486 0 0 0 0 864403215.62478364 571639751.24311638 0 571639751.24311638 -279995740.60023499 0 0 0 0 809722.84113378078 337012.5796278026 0 337012.5796278026 18195.727649448905 0 0 0 0 4770430.3011071831 -624669518.41988373 0 -624669518.41988373 2204687609.4590254 0 0 0 0 -30486345.741950434 -421720474.17181015 0 -421720474.17181015 1039448210.5901947 0 0 0 0 -138443776.98833847 103872267.07533073 0 103872267.07533073 -69133044.860048294 0 0 0 0 -145782414.06986618 57404463.729249954 0 57404463.729249954 173916201.76364136 0 0 0 0 9106277.9811899662 -140954263.96465302 0 -140954263.96465302 152887543.21992564 0 0 0 0 -106190369.97942245 -8339986.5039367676 0 -8339986.5039367676 5716554.9031219482 0 0 0 0 -43730616.396887302 -45094500.168117523 0 -45094500.168117523 -47254007.449203491 0 0 0 0 3104606.3880181313 -85420810.393218994 0 -85420810.393218994 -12557506.589752197 0 0 0 0 -228760.78755275271 -160794.44900536723 0 -160794.44900536723 23407.161188270897 0 0 0 0 63487082.694945455 -42331338.973215103 0 -42331338.973215103 -324834279.16986847 0 0 0 0 -7031346.9246604443 -35519606.590833664 0 -35519606.590833664 -104377872.60656357 0 0 0 0 18412023.672503181 -7396486.800003171 0 -7396486.800003171 32680573.952888489 0 0 0 0 10395630.884029984 -141382118.69504929 0 -141382118.69504929 30698626.383247375 0 0 0 0 114845406.93746012 -18161170.159286499 0 -18161170.159286499 84066073.164672852 0 0 0 0 4175730.4338595569 37019154.872617722 0 37019154.872617722 334632972.38152313 0 0 0 0 97678463.784393549 -79404447.273422241 0 -79404447.273422241 322511676.80408859 0 0 0 0 -38348099.469680965 225299123.16803074 0 225299123.16803074 49511213.619018555 0 0 0 0 19454366.64637965 -96879645.00005722 0 -96879645.00005722 122842275.20310211 0 0 0 0 -37706636.042250425 -112032081.977211 0 -112032081.977211 -71008011.898529053 0 0 0 0 -17709956.552369833 -104408911.53835678 0 -104408911.53835678 -4928106.0837521553 0 0 0 0 -129009.72593240289 53595.881731544621 0 53595.881731544621 66788.091988094151 0 0 0 0 80118922.751986802 328513692.13409185 0 328513692.13409185 -65562266.331573486 0 0 0 0 90640250.214659214 48401371.1140728 0 48401371.1140728 -130579099.88774109 0 0 0 0 4410528.2197736502 29446095.469091415 0 29446095.469091415 -14356573.444999695 0 0 0 0 43128479.019458532 -253071330.49472809 0 -253071330.49472809 -140795739.01528168 0 0 0 0 36044174.313029766 -20263490.054714203 0 -20263490.054714203 55535289.05355072 0 0 0 0 206283400.18487453 -128398343.72880936 0 -128398343.72880936 71963085.484680176 0 0 0 0 -23880735.980044782 64012240.578982353 0 64012240.578982353 653190985.11528015 0 0 0 0 15337452.216557942 -1039953.9438562393 0 -1039953.9438562393 20098760.63961792 0 0 0 0 16690162.629754603 -15603672.656293869 0 -15603672.656293869 25456801.539608002 0 0 0 0 109993730.27257751 35875093.232797384 0 35875093.232797384 14526727.967433929 0 0 0 0 87382891.45843184 -74058367.473081112 0 -74058367.473081112 -29774362.821060181 0 0 0 0 -11597824.389642939 -24940555.566823959 0 -24940555.566823959 19734599.13571167 0 0 0 0 -126359101.70699568 -51358973.044248581 0 -51358973.044248581 41358340.88684082 0 0 0 0 -18737859.810718238 -34516138.754226685 0 -34516138.754226685 23854795.081534386 0 0 0 0 -36235716.923377365 -4831823.3893890381 0 -4831823.3893890381 28554501.369613647 0 0 0 0 -16957221.989042073 1135231.2108440399 0 1135231.2108440399 6780461.2058029175 0 0 0 0 -92705466.380101472 56277904.963610172 0 56277904.963610172 -26903001.805747986 0 0 0 0 -24412505.64960888 6824615.712978363 0 6824615.712978363 8568252.4571266174 0 0 0 0 -20156500.361189961 12505939.510978699 0 12505939.510978699 -5655850.1458206177 0 0 0 0 -838659.51650423603 -320834.00659815967 0 -320834.00659815967 247190.17982860468 0 0 0 0 -267001.83571898035 493843.60638855724 0 493843.60638855724 396877.77418147027 0 0 0 0 -17792080.666901946 5097019.362613678 0 5097019.362613678 1835447.5210990906 0 0 0 0 -21007393.076505274 5162204.1056098938 0 5162204.1056098938 7899958.7973861694 0 0 0 0 -9711478.5683268607 -21626007.583715439 0 -21626007.583715439 14913849.328421593 0 0 0 0 -91815.407704515237 170842.87282426725 0 170842.87282426725 142389.30881168507 0 0 0 0 25343684.386204123 39342225.178695679 0 39342225.178695679 46984674.078083038 0 0 0 0 -10730442.466199592 8093686.6025848389 0 8093686.6025848389 34778594.622722626 0 0 0 0 -6370965.5024069827 21686018.973674774 0 21686018.973674774 69290624.229315281 0 0 0 0 -18757856.957323223 -20233045.098805428 0 -20233045.098805428 31305747.287055969 0 0 0 0 -23315900.566608615 -17470298.421066284 0 -17470298.421066284 61152356.330604553 0 0 0 0 -16552820.235051066 -14862335.149299622 0 -14862335.149299622 28235361.149887085 0 0 0 0 -18111482.510340691 -9814095.8696517944 0 -9814095.8696517944 54196349.006881714 0 0 0 0 -3320899.8932771087 -241839.9855632782 0 -241839.9855632782 28008128.731117249 0 0 0 0 -9798631.8456687927 -1369259.0996208191 0 -1369259.0996208191 35508719.910007477 0 0 0 0 -422849.67495906353 -1551933.4279441833 0 -1551933.4279441833 35187319.600616455 0 0 0 0 4008862.9259098768 -157141.31435966492 0 -157141.31435966492 21773572.236572266 0 0 0 0 20305541.699751109 -644727.42899084091 0 -644727.42899084091 -2603745.954914093 0 0 0 0 160681.05743585085 -33681.402034401894 0 -33681.402034401894 -142928.68332115002 0 0 0 0 -6363297.2183976173 13090326.172031403 0 13090326.172031403 91138732.613037109 0 0 0 0 -25317059.658734798 6770144.2596321106 0 6770144.2596321106 112814663.0571022 0 0 0 0 37249719.03905344 32930022.632949829 0 32930022.632949829 24530577.403911591 0 0 0 0 20769024.364982694 5504458.7859277725 0 5504458.7859277725 -1840873.8779830933 0 0 0 0 24682220.044041395 31425102.401901245 0 31425102.401901245 14956436.225811005 0 0 0 0 12228096.376507998 16717552.087215424 0 16717552.087215424 -10950870.293006897 0 0 0 0 12161492.854921341 -1044876.9064102173 0 -1044876.9064102173 -5437784.8990969658 0 0 0 0 105815.86143100262 -2600665.3440361023 0 -2600665.3440361023 1716059.5802078247 0 0 0 0 -1295343.5353243351 434657.61337852478 0 434657.61337852478 -1536755.6792919636 0 0 0 0 334416.4883506606 39173.267931128852 0 39173.267931128852 -318363.2777272258 0 0 0 0 -353247.19184839725 1613697.3576641083 0 1613697.3576641083 -995272.97078132629 0 0 0 0 6140563.2841633558 11837325.238431931 0 11837325.238431931 13426121.065605164 0 0 0 0 1699363.760432899 6503030.5865402222 0 6503030.5865402222 17528674.995754242 0 0 0 0 -547827.12477111816 18303933.446971893 0 18303933.446971893 50120820.533058167 0 0 0 0 -4403940.9453312755 9018848.2489509583 0 9018848.2489509583 54540790.950519562 0 0 0 0 -8602961.9857062101 -1419558.6307067871 0 -1419558.6307067871 27619394.627609253 0 0 0 0 -9137305.3354321718 5344638.1622238159 0 5344638.1622238159 69914229.084427834 0 0 0 0 13243933.483776689 -8606416.2982883453 0 -8606416.2982883453 -7813639.134021759 0 0 0 0 4184326.9214236736 6357988.5208377838 0 6357988.5208377838 21886138.665788651 0 0 0 0 7156606.9424816966 6004101.3884868622 0 6004101.3884868622 21570573.388328552 0 0 0 0 25977776.313476562 40604880.262401581 0 40604880.262401581 54311749.891326904 0 0 0 0 -2379566.5866754055 9838835.0238132477 0 9838835.0238132477 22112059.733947754 0 0 0 0 -31194325.599092484 39467288.878124237 0 39467288.878124237 24569969.983734131 0 0 0 0 -9092926.7337217331 -17258269.748661041 0 -17258269.748661041 7789805.9678401947 0 0 0 0 47496846.007187486 2400425.8733882904 0 2400425.8733882904 12548716.692337036 0 0 0 0 -12298599.143414259 -8805363.0388183594 0 -8805363.0388183594 10448394.087802887 0 0 0 0 -247231.38666118548 -166529.46234973613 0 -166529.46234973613 1551151.4756554153 0 0 0 0 19974494.577156782 -24175449.879371643 0 -24175449.879371643 -3150929.4922447205 0 0 0 0 -86289.766103387577 -16839.063267366029 0 -16839.063267366029 116669.77424014732 0 0 0 0 2452153.5997540951 15714675.985183716 0 15714675.985183716 27657158.278672218 0 0 0 0 -649708.01323127747 -34511297.694385529 0 -34511297.694385529 -2831472.4390029907 0 0 0 0 -2989058.6202872992 8033009.8933067322 0 8033009.8933067322 31333615.741519928 0 0 0 0 -9341962.8610089421 -336607.04052448273 0 -336607.04052448273 22270702.819713593 0 0 0 0 7910221.5953754187 2649177.0841617584 0 2649177.0841617584 -2049132.8033370972 0 0 0 0 -141401.04380578367 -246746.55648383964 0 -246746.55648383964 940597.16015840508 0 0 0 0 204435.67841109633 763752.03224754333 0 763752.03224754333 14061651.327205658 0 0 0 0 -3332494.9562675953 -2200184.8006095886 0 -2200184.8006095886 14046415.678075314 0 0 0 0 197472.77589519322 559591.08222651482 0 559591.08222651482 8354072.4796180725 0 0 0 0 -1128531.6845412254 -2208936.4894046783 0 -2208936.4894046783 13424260.663877964 0 0 0 0 113585.70525687397 -152255.87145807408 0 -152255.87145807408 -61114.413330579177 0 0 0 0 391530.12511993945 1228720.4747490883 0 1228720.4747490883 6156431.4273529053 0 0 0 0 -1872884.4411560297 3188538.9410705566 0 3188538.9410705566 -1945848.6541290283 0 0 0 0 -365303.82599341869 4655035.2602615356 0 4655035.2602615356 -524097.90875244141 0 0 0 0 1974.3170609489316 -6373.0380290579051 0 -6373.0380290579051 -2546.4608416799456 0 0 0 0 -17545344.325061202 -7701640.1519737244 0 -7701640.1519737244 65185403.512321472 0 0 0 0 -16145998.557871461 -16459771.663694382 0 -16459771.663694382 22285277.489494324 0 0 0 0 -14033890.700488567 -9085122.2484779358 0 -9085122.2484779358 -5569597.4582176208 0 0 0 0 -209948.33024670824 -34095.465058060363 0 -34095.465058060363 247690.30820159614 0 0 0 0 33979876.667709649 29775616.655734062 0 29775616.655734062 10178692.13640213 0 0 0 0 9724112.2916291952 33690920.750501633 0 33690920.750501633 83877059.603729248 0 0 0 0 25120218.038367748 -15083404.73273468 0 -15083404.73273468 -17031062.280887604 0 0 0 0 4003281.2827830315 8625190.3640365601 0 8625190.3640365601 13998855.466939926 0 0 0 0 -10097327.33328554 -4655943.2094259262 0 -4655943.2094259262 20492046.592636108 0 0 0 0 -8276529.416331172 -5428912.0289382935 0 -5428912.0289382935 14054314.436016083 0 0 0 0 -6711283.6766151786 4928859.3259792328 0 4928859.3259792328 20675429.188369751 0 0 0 0 -10728442.776448846 1306219.826084137 0 1306219.826084137 32309903.845352173 0 0 0 0 -7899296.7454307685 -16518.609023571014 0 -16518.609023571014 16396526.401016235 0 0 0 0 -19660.418220374413 -107611.22768142167 0 -107611.22768142167 162697.33686096186 0 0 0 0 -11063861.221893132 -760936.07427787781 0 -760936.07427787781 23100300.585018158 0 0 0 0 -2485100.0761828423 1059699.1093082428 0 1059699.1093082428 20178960.744522095 0 0 0 0 743545.79309761524 890708.92064476013 0 890708.92064476013 17433359.783367157 0 0 0 0 -66533.693067108718 -227242.31717035826 0 -227242.31717035826 507683.68194684538 0 0 0 0 20438573.177853532 -1344906.4022684097 0 -1344906.4022684097 337958.2688331604 0 0 0 0 -1005782.1881967783 -203743.46500015259 0 -203743.46500015259 17939110.377047777 0 0 0 0 120303.94818756686 -142818.04782731086 0 -142818.04782731086 -84230.334858037531 0 0 0 0 408587.85671769828 -35366.234393119812 0 -35366.234393119812 12654557.603488922 0 0 0 0 4022334.2555126771 3018286.4424343109 0 3018286.4424343109 -5789780.1630535126 0 0 0 0 -3501956.3211552501 461861.94663238525 0 461861.94663238525 5733440.8940124512 0 0 0 0 -2242409.3981348649 -1217496.2345581055 0 -1217496.2345581055 2959898.8590507507 0 0 0 0 1031029.4722063243 -2657895.0519256592 0 -2657895.0519256592 16239653.030068398 0 0 0 0 -2718071.6494436264 -4722742.6636428833 0 -4722742.6636428833 24978530.860481262 0 0 0 0 59991.436894671671 -69846.36815224681 0 -69846.36815224681 -46957.730610398576 0 0 0 0 -430247.41824680567 2014046.7338123322 0 2014046.7338123322 -6078530.674282074 0 0 0 0 -7105154.7976037264 -3906119.081237793 0 -3906119.081237793 -2426228.5656256676 0 0 0 0 650403.41907548904 2028348.7521400452 0 2028348.7521400452 -828948.15942287445 0 0 0 0 -11737137.879814029 -3369638.2488079071 0 -3369638.2488079071 13544403.413318634 0 0 0 0 1000336.949023217 -1493644.8934812546 0 -1493644.8934812546 6379705.4827194214 0 0 0 0 -9634240.8904802799 -2443139.8641834259 0 -2443139.8641834259 6411716.7002410889 0 0 0 0 -2745554.0462234393 6127013.7164621353 0 6127013.7164621353 18839387.957653046 0 0 0 0 -2588763.8257019594 -1671926.6091957092 0 -1671926.6091957092 11285633.014015198 0 0 0 0 -59401.839309074421 -156375.41974940151 0 -156375.41974940151 52044.172497598454 0 0 0 0 6117213.7861807048 1239457.1049194336 0 1239457.1049194336 14143522.605290413 0 0 0 0 5019262.5980071127 15279410.60213089 0 15279410.60213089 25658428.646186829 0 0 0 0 4632221.6217911579 3137864.5023059845 0 3137864.5023059845 5055097.8379364014 0 0 0 0 -27171.783140896459 -84343.540330524556 0 -84343.540330524556 28130.471194614191 0 0 0 0 -3839712.5702284873 2111191.6214790344 0 2111191.6214790344 23175067.437110901 0 0 0 0 4501281.275870204 -6426627.3142929077 0 -6426627.3142929077 5736881.4340062682 0 0 0 0 -11673329.797120333 -16595897.316902161 0 -16595897.316902161 50653351.311073303 0 0 0 0 11233728.024094045 -2596537.499546051 0 -2596537.499546051 9335903.5612258911 0 0 0 0 15771051.452067494 25014779.108264923 0 25014779.108264923 45727471.561004639 0 0 0 0 15153163.154450774 23671322.726650238 0 23671322.726650238 37467977.249303818 0 0 0 0 3411271.6136329323 17696224.23046875 0 17696224.23046875 43601357.988212585 0 0 0 0 12256889.656907789 22064237.615905762 0 22064237.615905762 36576254.012252808 0 0 0 0 5778113.5902104378 19908647.273561478 0 19908647.273561478 39985493.367610931 0 0 0 0 15836622.455406956 12997842.739254951 0 12997842.739254951 34755812.384338379 0 0 0 0 -3541363.9139110148 11266044.339578629 0 11266044.339578629 35401666.230918884 0 0 0 0 1379450.1081877947 6602544.9714870453 0 6602544.9714870453 29070048.696334839 0 0 0 0 12752141.405726552 12833419.768924713 0 12833419.768924713 25217513.869888306 0 0 0 0 4433002.578905642 15874805.891057968 0 15874805.891057968 56813787.0325737 0 0 0 0 3912800.9072898626 7298073.9570541382 0 7298073.9570541382 35074801.18365097 0 0 0 0 -1611998.6378690004 16106020.309980392 0 16106020.309980392 21036002.769485474 0 0 0 0 324619.9924864769 890173.64702677727 0 890173.64702677727 19876127.714172363 0 0 0 0 504208.11765193939 23076430.117418289 0 23076430.117418289 42637777.302001953 0 0 0 0 -432697.8748896122 22930629.61284256 0 22930629.61284256 43435554.299812317 0 0 0 0 -900050.70180094242 19331520.050165176 0 19331520.050165176 22014126.886156082 0 0 0 0 4023380.0559564829 14650704.832258224 0 14650704.832258224 26390874.224552155 0 0 0 0 21374929.664359897 40653203.37111187 0 40653203.37111187 32258681.960197449 0 0 0 0 -6343446.2006754875 39552639.733604431 0 39552639.733604431 55489827.040110588 0 0 0 0 -4251310.0011792183 31855134.672206879 0 31855134.672206879 31852980.368355751 0 0 0 0 11602567.019419193 11518676.671634674 0 11518676.671634674 20682314.825019836 0 0 0 0 1920075.226275444 26542365.766181946 0 26542365.766181946 36371567.71273613 0 0 0 0 -15974834.147071838 28374320.452014923 0 28374320.452014923 37811043.907432556 0 0 0 0 -74390.293817672267 -8311.0543309226632 0 -8311.0543309226632 187110.29288049415 0 0 0 0 -4626608.0591989756 279733.57129669189 0 279733.57129669189 -1117448.8828687668 0 0 0 0 9054084.1617510021 19752737.206915855 0 19752737.206915855 29958190.317222595 0 0 0 0 10812297.029578686 17834671.701377869 0 17834671.701377869 30857652.193664551 0 0 0 0 1107020.0498347282 29430479.280731201 0 29430479.280731201 48874151.570449829 0 0 0 0 -3943110.3115098476 1875004.2203178406 0 1875004.2203178406 1721366.0594291687 0 0 0 0 -9784376.8496446609 -11576882.831279755 0 -11576882.831279755 6174680.2667198181 0 0 0 0 940074.92082172632 2241595.2142829895 0 2241595.2142829895 -1338902.5677719116 0 0 0 0 -41345.110266350646 -532.53092231974006 0 -532.53092231974006 80297.194770263508 0 0 0 0 28708188.948127389 49992294.99943161 0 49992294.99943161 73714762.223144531 0 0 0 0 12717318.6820997 16392452.453048706 0 16392452.453048706 77877949.306106567 0 0 0 0 16249194.052136898 16126605.6901474 0 16126605.6901474 46444753.090248108 0 0 0 0 25443675.075657427 12937889.963819504 0 12937889.963819504 43366075.28012085 0 0 0 0 3405088.3632137775 20517735.713996887 0 20517735.713996887 44433031.092716217 0 0 0 0 28535509.368483745 30769621.324036807 0 30769621.324036807 39694194.160705566 0 0 0 0 4484105.2186022997 25555554.382953644 0 25555554.382953644 65448309.33026886 0 0 0 0 3571377.2562381774 18154937.648989677 0 18154937.648989677 46977682.28024292 0 0 0 0 949449.15533927083 9183344.1459164619 0 9183344.1459164619 37669314.537937164 0 0 0 0 15660091.994117916 14929912.985649109 0 14929912.985649109 36539822.752559662 0 0 0 0 11128556.63507092 20828665.392475128 0 20828665.392475128 44060236.31042552 0 0 0 0 -3037581.7538731098 14063577.936857224 0 14063577.936857224 37699835.104188919 0 0 0 0 -6466003.0463727713 21571.056852340698 0 21571.056852340698 26167274.46200943 0 0 0 0 -4144695.7108615637 10442174.754213333 0 10442174.754213333 38503829.556625366 0 0 0 0 -3492201.0299586505 5162107.238198638 0 5162107.238198638 23681714.954036713 0 0 0 0 -6340421.8853368759 5518504.7096157074 0 5518504.7096157074 27918694.068778992 0 0 0 0 -4711662.159568429 3021903.3170814514 0 3021903.3170814514 23840650.190235138 0 0 0 0 -2978177.4354362488 9808657.0994968414 0 9808657.0994968414 23745704.751878738 0 0 0 0 -718118.54140686989 9386413.076259613 0 9386413.076259613 18332402.75479126 0 0 0 0 -10081435.445573181 9047348.8772642612 0 9047348.8772642612 38529518.70998764 0 0 0 0 -8607758.6574420929 3870238.815864563 0 3870238.815864563 22842970.363830566 0 0 0 0 -6789523.6325297356 6483528.5663948059 0 6483528.5663948059 26156489.266235352 0 0 0 0 -4963600.3549977541 1707413.3757400513 0 1707413.3757400513 8591689.7434921265 0 0 0 0 -10117716.367993116 3843964.88539505 0 3843964.88539505 22937581.397321701 0 0 0 0 -5951512.6512210369 5554219.996216774 0 5554219.996216774 12254410.516906738 0 0 0 0 275501.10519677133 -31688.484844188206 0 -31688.484844188206 -25379.917476297822 0 0 0 0 15591749.955520004 21802789.49751091 0 21802789.49751091 -9523525.1995391846 0 0 0 0 107233.24212040345 -31583.021673261188 0 -31583.021673261188 -19291.570729278494 0 0 0 0 -36562033.805522442 -950976.15010261536 0 -950976.15010261536 41607643.396453857 0 0 0 0 -10265686.317452908 12150816.916360855 0 12150816.916360855 20824069.928123474 0 0 0 0 3665015.8859455585 -16405813.462192535 0 -16405813.462192535 58457772.645494461 0 0 0 0 7524826.9049332142 -3520098.038608551 0 -3520098.038608551 29182694.491676331 0 0 0 0 -10817216.881063223 -2684312.7035827637 0 -2684312.7035827637 23380953.240867615 0 0 0 0 131374989.69102669 4199123.0144195557 0 4199123.0144195557 29719162.968032837 0 0 0 0 401104.41056457907 11533.398375050165 0 11533.398375050165 -11348.74792237021 0 0 0 0 -51068946.067900181 26568365.949859619 0 26568365.949859619 17906013.030163765 0 0 0 0 -10159704.806071542 22380476.546514988 0 22380476.546514988 78842411.394290924 0 0 0 0 51290663.774811983 44047633.910270691 0 44047633.910270691 34743654.323139191 0 0 0 0 -234090.913219927 -220094.03604192252 0 -220094.03604192252 44167.394449470565 0 0 0 0 -466835.22170138359 9750388.4607810974 0 9750388.4607810974 16413907.858989716 0 0 0 0 8765669.0544555187 19684295.641622543 0 19684295.641622543 25647391.269882202 0 0 0 0 -673263.44380250096 -856838.52295190783 0 -856838.52295190783 29711.455820381641 0 0 0 0 12750869.444351196 10950384.661523819 0 10950384.661523819 12045610.152950287 0 0 0 0 8268765.4054290503 12449611.34805131 0 12449611.34805131 12072940.054443359 0 0 0 0 1426622.5464100838 6173692.7807254791 0 6173692.7807254791 -32681963.54094696 0 0 0 0 -2264546.4900765419 8838455.2400741577 0 8838455.2400741577 -4361629.2675590515 0 0 0 0 -30464715.135469079 8982127.3828873634 0 8982127.3828873634 36670033.510780334 0 0 0 0 25928977.918105125 87893310.765167236 0 87893310.765167236 73732741.658546448 0 0 0 0 -51194540.698446274 -5902304.0705490112 0 -5902304.0705490112 156505504.2412281 0 0 0 0 -7384.001202583313 -24849573.348186493 0 -24849573.348186493 43485705.054050446 0 0 0 0 -1391737.1597748995 37962023.541722298 0 37962023.541722298 12849739.696651459 0 0 0 0 31506495.999932766 23402878.195432663 0 23402878.195432663 195446.70513343811 0 0 0 0 10052344.631311417 -23945971.405620575 0 -23945971.405620575 -33176527.427735746 0 0 0 0 -9221199.3630517423 -116362058.4973197 0 -116362058.4973197 -73395448.999504089 0 0 0 0 -1684226.4563750103 -509167.08450425742 0 -509167.08450425742 6992563.6034973282 0 0 0 0 -125845912.00177562 16236057.46518147 0 16236057.46518147 150964921.02735138 0 0 0 0 192589306.10037231 -17408760.38835144 0 -17408760.38835144 -119049094.88838577 0 0 0 0 8587886.3503234126 14485821.710417159 0 14485821.710417159 -1941998.3661766052 0 0 0 0 -116679198.6583252 -99666326.334171295 0 -99666326.334171295 18844577.864173889 0 0 0 0 -10882518.924814224 -12960524.83322525 0 -12960524.83322525 -15947755.903160095 0 0 0 0 -2022093.9367017581 1870.7128106625751 0 1870.7128106625751 7491546.1377553418 0 0 0 0 -34841211.052947998 30245421.770454407 0 30245421.770454407 52726576.593269348 0 0 0 0 32142480.601357937 58483600.260036469 0 58483600.260036469 48099803.101428986 0 0 0 0 36170981.153148651 46873820.134428978 0 46873820.134428978 62193979.962905884 0 0 0 0 49855995.51408577 65359994.66209507 0 65359994.66209507 40150988.46787262 0 0 0 0 8702915.3642196655 26158730.387786865 0 26158730.387786865 67741631.64242363 0 0 0 0 60843840.938238859 45908752.115627289 0 45908752.115627289 35465160.863601685 0 0 0 0 -12199293.792589188 7971225.6534996033 0 7971225.6534996033 61727967.013749123 0 0 0 0 -23845577.073787689 28125051.654003143 0 28125051.654003143 29424029.437187195 0 0 0 0 -75329882.003527641 -69420478.057044983 0 -69420478.057044983 115151094.90475464 0 0 0 0 -5985385.5639247894 -197847358.64697266 0 -197847358.64697266 42821396.329948425 0 0 0 0 -166857307.09228134 -73916935.000728607 0 -73916935.000728607 78525278.019683838 0 0 0 0 -141423404.72656536 11016755.116127014 0 11016755.116127014 59689831.848648071 0 0 0 0 259695046.62504387 36634985.283660889 0 36634985.283660889 -13073168.130775452 0 0 0 0 237696.64475192805 4307.3260029051453 0 4307.3260029051453 -9014.4109428706579 0 0 0 0 48214612.793376923 63558812.932806015 0 63558812.932806015 79497961.37953186 0 0 0 0 81579405.310025692 90685350.411724091 0 90685350.411724091 62048991.466957092 0 0 0 0 226972592.77278805 -51750588.581291199 0 -51750588.581291199 -28205880.960922241 0 0 0 0 -172807.07010988693 394471.63741932018 0 394471.63741932018 597134.24083805829 0 0 0 0 72512983.338859558 72732281.0431633 0 72732281.0431633 39329742.199899673 0 0 0 0 6188300.5520396233 -20324023.844978333 0 -20324023.844978333 18717188.901718378 0 0 0 0 -22602649.44519043 -25769936.089286804 0 -25769936.089286804 49293606.519332886 0 0 0 0 62704443.643846512 -30720262.906707764 0 -30720262.906707764 18995991.726412058 0 0 0 0 -7972265.4804296494 -105498602.39994049 0 -105498602.39994049 73258349.704086304 0 0 0 0 -72885399.219873428 -15558771.26839447 0 -15558771.26839447 50589768.347579956 0 0 0 0 4056602.9713573456 -7186412.7984657288 0 -7186412.7984657288 14270487.765701294 0 0 0 0 -4360232.9904522896 -8213753.6060752869 0 -8213753.6060752869 22547805.223602295 0 0 0 0 -226071.35014939308 -16967111.52856636 0 -16967111.52856636 23455269.286270142 0 0 0 0 -6168111.1267211437 -6022625.9111413956 0 -6022625.9111413956 20014309.637207031 0 0 0 0 3108572.95870924 603165.51062774658 0 603165.51062774658 6500546.9086799622 0 0 0 0 23142671.445754528 -7612345.5370864868 0 -7612345.5370864868 8857875.9586486816 0 0 0 0 -565929.20350465889 1233830.5466193184 0 1233830.5466193184 1835205.1995785385 0 0 0 0 814355.41655320814 2423811.7424815265 0 2423811.7424815265 2122770.4233694226 0 0 0 0 1199548.4717545509 1746734.0968589783 0 1746734.0968589783 591330.66751670837 0 0 0 0 -1793430.1755084991 1883336.1573343277 0 1883336.1573343277 750598.17805671692 0 0 0 0 33566.092167764902 2011647.2599816322 0 2011647.2599816322 4347578.480796814 0 0 0 0 923131.96606492996 4491505.6537971497 0 4491505.6537971497 3450723.7606811523 0 0 0 0 1440707.1043092548 3002506.976035919 0 3002506.976035919 2112381.0430600867 0 0 0 0 -483090.28437328339 7426194.4722290039 0 7426194.4722290039 4711888.1250987053 0 0 0 0 -12007284.086331844 10055343.618408203 0 10055343.618408203 16332987.062210083 0 0 0 0 100348.16504716873 8803365.5334281921 0 8803365.5334281921 892979.66147613525 0 0 0 0 -5169943.8431596756 -754819.57468032837 0 -754819.57468032837 17456322.097412109 0 0 0 0 -3617980.0356383324 -3309927.3028945923 0 -3309927.3028945923 21560103.923706055 0 0 0 0 -273905.54742240906 -62776.341323852539 0 -62776.341323852539 3856586.3013916016 0 0 0 0 11078397.531392097 52537260.404045105 0 52537260.404045105 54431937.982532024 0 0 0 0 -14814135.501590729 21613760.299097061 0 21613760.299097061 22145845.68491745 0 0 0 0 61798555.422371864 21431220.647884369 0 21431220.647884369 -6906545.6752243042 0 0 0 0 590898.31244786875 141238.64828087203 0 141238.64828087203 -687690.539108105 0 0 0 0 -37876.253417327185 4297823.9797652606 0 4297823.9797652606 341294.26972075924 0 0 0 0 8559118.2827348709 12189856.435764313 0 12189856.435764313 4735319.516166687 0 0 0 0 15527030.587139606 17402852.542697906 0 17402852.542697906 1500313.9644165039 0 0 0 0 3705969.2494096756 22521644.068920135 0 22521644.068920135 21700709.102612495 0 0 0 0 53466.744208812714 8776690.3666381836 0 8776690.3666381836 1540903.5636665225 0 0 0 0 4083627.12855196 15405101.912290573 0 15405101.912290573 4495877.9031524658 0 0 0 0 -870258.19010591111 5756502.1712056743 0 5756502.1712056743 1207663.3270514198 0 0 0 0 -4507096.9721375704 3194208.4775295258 0 3194208.4775295258 4192833.2399215698 0 0 0 0 -8021944.7560671568 -2100553.4104466438 0 -2100553.4104466438 6950708.6396636963 0 0 0 0 9396468.5482552052 3223726.0494995117 0 3223726.0494995117 4119482.9180450439 0 0 0 0 16213815.988341331 2972156.5814361572 0 2972156.5814361572 16689624.28515625 0 0 0 0 -17715612.821649075 5226772.6570243835 0 5226772.6570243835 17122455.642124176 0 0 0 0 -408430.86194055097 -150790.00384901883 0 -150790.00384901883 910612.41437727306 0 0 0 0 9367902.9392185211 -10491555.881191254 0 -10491555.881191254 5726605.3083572388 0 0 0 0 1032201.8671481609 -3671664.2578163147 0 -3671664.2578163147 5743808.183380127 0 0 0 0 2424506.9415510297 -11326929.310744286 0 -11326929.310744286 6746367.9508209229 0 0 0 0 17588156.785439253 -5145188.1114997864 0 -5145188.1114997864 4755328.1510314941 0 0 0 0 -23712363.671477795 3604131.3077602386 0 3604131.3077602386 5079390.8187828064 0 0 0 0 -96931.349529711879 28961.302392907441 0 28961.302392907441 229753.66679006163 0 0 0 0 -1738421.0109949112 1399985.4594345093 0 1399985.4594345093 6950564.0152778625 0 0 0 0 -1651112.2399442347 1508608.6182719455 0 1508608.6182719455 6286952.9624434859 0 0 0 0 -1978907.4773899913 5214624.0285978317 0 5214624.0285978317 6435602.046295166 0 0 0 0 -2184242.2281017303 5612635.944540143 0 5612635.944540143 5863248.5782852173 0 0 0 0 427196.85330843925 3658119.2372875214 0 3658119.2372875214 11979374.944530487 0 0 0 0 -119855.89778715372 433129.98556900024 0 433129.98556900024 1245120.4822311401 0 0 0 0 -159205.50621528731 785573.93024560064 0 785573.93024560064 2736805.0312914848 0 0 0 0 -891224.7938709259 423191.86408615112 0 423191.86408615112 1218028.4052734375 0 0 0 0 -867317.27993236925 1419961.3809485617 0 1419961.3809485617 3131817.767395203 0 0 0 0 633460.75111341476 4619725.2467651367 0 4619725.2467651367 6064579.970085144 0 0 0 0 296678.66591278929 1679885.9421012499 0 1679885.9421012499 2605446.5633614901 0 0 0 0 -252521.79328231077 399657.98495968943 0 399657.98495968943 429180.22532062978 0 0 0 0 -14730791.665919781 6965040.8891601562 0 6965040.8891601562 7671287.095123291 0 0 0 0 2461920.510997057 187140.13640117645 0 187140.13640117645 2698819.780418396 0 0 0 0 2042502.2353482246 3769237.2750396729 0 3769237.2750396729 3489264.5321884155 0 0 0 0 3238293.2031202316 8340737.1455459595 0 8340737.1455459595 11008646.07195282 0 0 0 0 4808092.968498826 418699.16963195801 0 418699.16963195801 2870618.3572006226 0 0 0 0 2562054.0643501282 6443384.7544612885 0 6443384.7544612885 9078169.1663284302 0 0 0 0 1877969.2548007965 3140891.0043716431 0 3140891.0043716431 15950008.779338837 0 0 0 0 19382.389052138431 97876.981327692512 0 97876.981327692512 408426.20603267668 0 0 0 0 -621050.87494375696 -13731.115545548499 0 -13731.115545548499 2227748.4748268942 0 0 0 0 -3139698.5582990646 4730205.4831581116 0 4730205.4831581116 25415376.022735596 0 0 0 0 5376817.0536565781 4032941.3781280518 0 4032941.3781280518 4812555.0899085999 0 0 0 0 18176157.187372394 3318317.036901474 0 3318317.036901474 2654221.5986404419 0 0 0 0 10313410.393969297 8045871.164604187 0 8045871.164604187 5879337.0410919189 0 0 0 0 -15092241.575507879 25445968.875080109 0 25445968.875080109 13597030.459472656 0 0 0 0 5811414.9765510559 -2480011.634437561 0 -2480011.634437561 11351576.465164185 0 0 0 0 -53079.98800474219 120832.42157267127 0 120832.42157267127 185992.00910336524 0 0 0 0 331987.13780235418 2332438.5453411294 0 2332438.5453411294 3479764.041687056 0 0 0 0 -166063.36510353669 -151407.60267372616 0 -151407.60267372616 2333151.305709823 0 0 0 0 -125558.82790565491 -192826.84427261353 0 -192826.84427261353 2502689.1170959473 0 0 0 0 -1510459.891025662 2494241.4041584497 0 2494241.4041584497 4874369.8567832643 0 0 0 0 -311234.84753241291 1273647.8048082592 0 1273647.8048082592 3307711.1811357988 0 0 0 0 -450957.09075221419 341551.9012966156 0 341551.9012966156 1532122.0817565918 0 0 0 0 2026127.6208181381 5410450.8724136353 0 5410450.8724136353 11572173.447242737 0 0 0 0 -407577.24646002054 306966.76774215698 0 306966.76774215698 1555186.4395065308 0 0 0 0 -184535.39319141349 -109925.58758975007 0 -109925.58758975007 1044511.4101382941 0 0 0 0 -321221.94956594706 124766.96853399277 0 124766.96853399277 1529115.0209236145 0 0 0 0 -141502.89655685425 222713.61178588867 0 222713.61178588867 1409624.1117134094 0 0 0 0 -454807.68582558632 -416.0789737701416 0 -416.0789737701416 609959.12246704102 0 0 0 0 -41695.189185142517 149740.67523956299 0 149740.67523956299 1403773.3726215363 0 0 0 0 -92918.957049235702 74631.459155380726 0 74631.459155380726 1447938.231048584 0 0 0 0 666797.78486875049 2561210.0158011499 0 2561210.0158011499 3775534.425961405 0 0 0 0 -108937.48965731132 225227.71867140383 0 225227.71867140383 3754696.7281486411 0 0 0 0 1591.6606208870653 5154.0468675531447 0 5154.0468675531447 -10993.376018992625 0 0 0 0 2800411.6268465519 38904848.921230316 0 38904848.921230316 24206399.763254166 0 0 0 0 -650193.32582813571 1062257.1329012332 0 1062257.1329012332 3021948.0512327477 0 0 0 0 -518797.89016377926 -124322.67176437378 0 -124322.67176437378 845647.64387512207 0 0 0 0 67258509.207612991 -9968856.3986358643 0 -9968856.3986358643 -55795318.160552979 0 0 0 0 -123761992.15350246 -73915684.676567078 0 -73915684.676567078 -32019087.000541687 0 0 0 0 -29882.031936981715 17774.553489517421 0 17774.553489517421 121038.40329092555 0 0 0 0 821451.59696674347 6199899.8801651001 0 6199899.8801651001 -944867.20610046387 0 0 0 0 22507.626789458329 1745763.7984310156 0 1745763.7984310156 1654384.9371149084 0 0 0 0 662150.92177983222 463379.03428019118 0 463379.03428019118 -898046.47307444736 0 0 0 0 -4780808.4562563896 9751590.9025878906 0 9751590.9025878906 25766440.488647461 0 0 0 0 7430747.5337734222 25775207.25843811 0 25775207.25843811 33987543.375827789 0 0 0 0 -1933095.9110879898 16699174.108169556 0 16699174.108169556 25195866.64781189 0 0 0 0 41404112.827505112 38431569.54863739 0 38431569.54863739 18182573.462135315 0 0 0 0 -437403.87659072876 1421149.0190391541 0 1421149.0190391541 486591.44940757751 0 0 0 0 -3501452.1409683824 -144461.87620472908 0 -144461.87620472908 -6526455.9968795776 0 0 0 0 -111106.94191074371 930892.43982696533 0 930892.43982696533 -181993.84477233887 0 0 0 0 -160281.73223584291 324907.89659546502 0 324907.89659546502 4706708.0528209805 0 0 0 0 1915786.7813246525 1191587.1034458377 0 1191587.1034458377 -556883.8638631925 0 0 0 0 1372568.2545399666 106179.34830856323 0 106179.34830856323 241750.958984375 0 0 0 0 -143504.54194074869 1490712.3700437546 0 1490712.3700437546 329859.87117004395 0 0 0 0 340761.56625545287 2381615.8419776 0 2381615.8419776 5140789.7030735929 0 0 0 0 -390788.89262563782 56369.417892592028 0 56369.417892592028 2463540.9550025663 0 0 0 0 -736525.68858690746 1591572.0717149619 0 1591572.0717149619 2112878.7244794033 0 0 0 0 -5423639.9867582321 -5919751.4339561462 0 -5919751.4339561462 352739.94277191162 0 0 0 0 9842267.1776509285 8619825.0738563538 0 8619825.0738563538 -23208341.684047699 0 0 0 0 -1933420.1713701487 435876.90430545807 0 435876.90430545807 10457797.471359253 0 0 0 0 -4050860.7031879425 26260407.154167175 0 26260407.154167175 -1295371.7770996094 0 0 0 0 -14414198.170615911 21511393.659715652 0 21511393.659715652 24041758.11895752 0 0 0 0 -10623187.190971851 -83285.141380310059 0 -83285.141380310059 38897608.239631653 0 0 0 0 -2085827.2116384506 5045428.8232040405 0 5045428.8232040405 6074299.3943405151 0 0 0 0 11087028.88607645 7673557.8928565979 0 7673557.8928565979 20836820.092658997 0 0 0 0 4851105.2394461632 -12234544.027065277 0 -12234544.027065277 25984055.059986115 0 0 0 0 1812124.5775022507 10782841.075798035 0 10782841.075798035 16984024.888053894 0 0 0 0 -3844239.6748859882 1728714.4169273376 0 1728714.4169273376 18490708.037086487 0 0 0 0 -2761864.1215143204 7707862.9209518433 0 7707862.9209518433 23087618.636245728 0 0 0 0 7531300.376563549 10947654.889720917 0 10947654.889720917 23695849.256573677 0 0 0 0 3108854.1955506802 9235121.6339206696 0 9235121.6339206696 28627237.096954346 0 0 0 0 11124935.992944717 9365209.6192321777 0 9365209.6192321777 28629259.569842577 0 0 0 0 5339118.1333816051 -5940761.0382270813 0 -5940761.0382270813 13317038.093013763 0 0 0 0 18346064.349257231 5291529.3790054321 0 5291529.3790054321 30765952.156257629 0 0 0 0 21473218.428849757 10939397.515642643 0 10939397.515642643 24683126.013557434 0 0 0 0 -4598107.8116147518 -8421097.8048477173 0 -8421097.8048477173 122354199.88094902 0 0 0 0 10327163.685270548 -9914874.9734210968 0 -9914874.9734210968 64535978.589538574 0 0 0 0 10921765.132755518 16031013.19956398 0 16031013.19956398 49498852.494995117 0 0 0 0 8241676.4600177407 -1811065.9461894035 0 -1811065.9461894035 44521100.079154968 0 0 0 0 827044.61209154129 635441.04054832458 0 635441.04054832458 47971394.472854614 0 0 0 0 2428937.1723959446 10432560.043506622 0 10432560.043506622 44496851.007240295 0 0 0 0 -803484.61903333664 -3789452.497833252 0 -3789452.497833252 37694252.826967239 0 0 0 0 -4535963.2513800859 4400681.1418123245 0 4400681.1418123245 36032379.854721069 0 0 0 0 -15491084.381776333 5523726.5227813721 0 5523726.5227813721 39007881.429344177 0 0 0 0 -15225852.232408524 -4305712.5142021179 0 -4305712.5142021179 37019441.285102844 0 0 0 0 -7755769.9532990456 -3126648.0497398376 0 -3126648.0497398376 37157272.602947235 0 0 0 0 -6325932.675418973 -5790611.5017414093 0 -5790611.5017414093 25602602.882873535 0 0 0 0 -9940015.1204380989 213072.95321655273 0 213072.95321655273 33353988.458122253 0 0 0 0 1147928.317880705 12539223.569467425 0 12539223.569467425 30628446.067886353 0 0 0 0 -13420987.650825024 5987639.026473999 0 5987639.026473999 32037620.311693192 0 0 0 0 1446436.3977622986 302846.10508728027 0 302846.10508728027 21045188.328575134 0 0 0 0 -6062561.7287554741 637142.47773361206 0 637142.47773361206 26686876.037643433 0 0 0 0 -7114869.7231144905 1617558.0957393646 0 1617558.0957393646 25121254.548583984 0 0 0 0 1494354.4570975304 18704419.717494965 0 18704419.717494965 11336768.26688385 0 0 0 0 20988980.016196728 9623251.3800888062 0 9623251.3800888062 -457708.12393856049 0 0 0 0 -59240823.552432537 4252461.437171936 0 4252461.437171936 35332073.802078247 0 0 0 0 -11864749.416350842 13605855.280467987 0 13605855.280467987 -3172527.2535705566 0 0 0 0 336570.35795116035 434263.57907216484 0 434263.57907216484 -360913.92135342583 0 0 0 0 -31732359.35764432 -43949329.076133728 0 -43949329.076133728 -12061844.839736938 0 0 0 0 10512252.933453083 -2293252.6575622559 0 -2293252.6575622559 19509269.448760986 0 0 0 0 11890645.802583218 9570739.9942550659 0 9570739.9942550659 -1550660.584602356 0 0 0 0 13498870.110104561 19298038.490829468 0 19298038.490829468 24993260.656763554 0 0 0 0 4460433.1873579025 14739591.991453171 0 14739591.991453171 24280603.476776123 0 0 0 0 3465501.7034490108 5669342.8831768036 0 5669342.8831768036 26978771.227546692 0 0 0 0 2551626.5232391357 6271882.3778915405 0 6271882.3778915405 31192111.732862473 0 0 0 0 -4304803.6100358963 -2935974.9578418732 0 -2935974.9578418732 19497284.228843689 0 0 0 0 -61937.737167644802 -20455246.752923965 0 -20455246.752923965 33647972.2797966 0 0 0 0 -18761141.037985869 -8410827.6916732788 0 -8410827.6916732788 90430923.47441864 0 0 0 0 4588.1069344635753 325050.85177137097 0 325050.85177137097 274731.95369088277 0 0 0 0 -52378422.247639187 -55010584.04101181 0 -55010584.04101181 34240040.617141724 0 0 0 0 125946025.79359265 61208589.215072632 0 61208589.215072632 -23728320.597305298 0 0 0 0 24560191.117071569 6521806.2656116486 0 6521806.2656116486 23489709.720184326 0 0 0 0 -13403624.014158972 299217.17293548584 0 299217.17293548584 -8265265.9894332886 0 0 0 0 -104134887.53760718 -23926177.375959396 0 -23926177.375959396 50101816.158370972 0 0 0 0 3237487.4030828476 18157687.118267059 0 18157687.118267059 7231666.7556390762 0 0 0 0 2839.9160553839033 1063201.9421847509 0 1063201.9421847509 822602.82740952075 0 0 0 0 32281136.227819949 31830301.288131237 0 31830301.288131237 3072256.1725006104 0 0 0 0 -72486957.815273285 26699490.560470581 0 26699490.560470581 33063518.559867859 0 0 0 0 -66174.255921606833 2292866.5462303963 0 2292866.5462303963 1416831.8003161959 0 0 0 0 -8746326.1986248195 8359826.6153106689 0 8359826.6153106689 11178905.396903992 0 0 0 0 -18621526.634748816 15937080.06778717 0 15937080.06778717 8241673.221206665 0 0 0 0 -17560474.568458453 43819129.210643768 0 43819129.210643768 -1450947.5850906372 0 0 0 0 30667372.680968851 110071665.77834702 0 110071665.77834702 130244670.19712448 0 0 0 0 3426316.357327383 15514900.765113831 0 15514900.765113831 30796467.425186157 0 0 0 0 -12869587.89089573 -11295936.757017136 0 -11295936.757017136 86312965.519058228 0 0 0 0 174033551.60578689 121326131.73389244 0 121326131.73389244 44689506.041252136 0 0 0 0 625032.51685656491 130227453.3522892 0 130227453.3522892 972230050.48725128 0 0 0 0 165645172.96134001 16257938.308819294 0 16257938.308819294 63329082.97052002 0 0 0 0 -278976996.57851011 656772307.0360775 0 656772307.0360775 2199399721.6920853 0 0 0 0 -113569830.38352036 99490915.725013733 0 99490915.725013733 805509511.6848259 0 0 0 0 830616090.09591067 1240060053.7656822 0 1240060053.7656822 1038826583.7081718 0 0 0 0 325904591.44997603 -460803327.60492039 0 -460803327.60492039 501065986.92645264 0 0 0 0 -302476.74877687445 235343.04802369419 0 235343.04802369419 1481778.9566823915 0 0 0 0 107598610.45484579 157720945.2806778 0 157720945.2806778 405323596.49594116 0 0 0 0 -427416.36814767274 -319298.54316436383 0 -319298.54316436383 3334351.852520369 0 0 0 0 -70131581.525755167 56589463.105167389 0 56589463.105167389 -48483745.019287109 0 0 0 0 -6770511.0256309509 -7140156.4086799622 0 -7140156.4086799622 12204703.473791495 0 0 0 0 -15758934.78847307 -43815422.997764587 0 -43815422.997764587 558373571.11754608 0 0 0 0 127956256.7363798 17611336.025699615 0 17611336.025699615 -200135097.81634521 0 0 0 0 -113742.69177283777 107759.3515762724 0 107759.3515762724 408975.0194213108 0 0 0 0 -19262525.880847331 38904453.857506514 0 38904453.857506514 -41663490.539276123 0 0 0 0 -15233506.747792244 77493853.099807739 0 77493853.099807739 70114507.845611572 0 0 0 0 -1090006.7137308121 4189863.722366333 0 4189863.722366333 -253634.76246643066 0 0 0 0 -12169.068922863167 1170698.4226000644 0 1170698.4226000644 4476253.5270023765 0 0 0 0 -36687779.099877119 -26325891.01448822 0 -26325891.01448822 -19564284.8565979 0 0 0 0 250584772.0344553 7547221.5764007568 0 7547221.5764007568 -42301983.906448364 0 0 0 0 -786427.5674616904 2190085.7801000439 0 2190085.7801000439 1376918.0298937338 0 0 0 0 -64778107.019226551 108477895.50589371 0 108477895.50589371 61075066.73336792 0 0 0 0 -65115159.168582976 29789810.917871475 0 29789810.917871475 43022987.285049438 0 0 0 0 -167885430.66529655 -51023003.404647827 0 -51023003.404647827 -12497302.218139648 0 0 0 0 -101568.1498620123 78662.997655842453 0 78662.997655842453 188038.00557210296 0 0 0 0 -1748003.5402573347 -95272282.369102478 0 -95272282.369102478 48209402.684036255 0 0 0 0 -22171355.939689219 32807647.730529785 0 32807647.730529785 41694412.682357788 0 0 0 0 -37468.012732073985 -241153.30368808564 0 -241153.30368808564 4468159.7920928337 0 0 0 0 -35354315.420698166 10649906.363395691 0 10649906.363395691 7477254.1201903 0 0 0 0 -6790549.6537616253 -9160136.7850418091 0 -9160136.7850418091 -127862835.95500183 0 0 0 0 72715701.598644137 166014900.41169739 0 166014900.41169739 -22494106.019386292 0 0 0 0 209253262.24342883 30744305.420978546 0 30744305.420978546 -154946334.24131966 0 0 0 0 -108521089.97410703 -42181175.95699501 0 -42181175.95699501 29944495.593910217 0 0 0 0 699756.50081484485 -316659.54610927124 0 -316659.54610927124 3071983.6574757248 0 0 0 0 -77069051.366588473 -228384872.13405609 0 -228384872.13405609 546290934.0533905 0 0 0 0 -30664741.005405746 672908385.46790886 0 672908385.46790886 2203087390.7731628 0 0 0 0 -132020131.12710088 114282133.15439606 0 114282133.15439606 506734761.46493959 0 0 0 0 -236217394.20935723 -254818663.37823677 0 -254818663.37823677 2200510664.0342102 0 0 0 0 86629311.847004473 -768883153.41033554 0 -768883153.41033554 1454108568.6156921 0 0 0 0 -481585297.59866071 -350386468.61262512 0 -350386468.61262512 2200364819.7076454 0 0 0 0 598464588.58197963 -443453868.8696804 0 -443453868.8696804 27300884.563163757 0 0 0 0 528404.66634723439 273955.13876846246 0 273955.13876846246 1811905.9391114004 0 0 0 0 -50156532.266593933 78268754.124011993 0 78268754.124011993 268690888.6764698 0 0 0 0 -10923416.472144961 -379722752.02859497 0 -379722752.02859497 727086093.39391327 0 0 0 0 224770665.42308363 83976081.031696796 0 83976081.031696796 5509697.0667190552 0 0 0 0 137535800.93506965 -157161589.16412926 0 -157161589.16412926 46987861.242073059 0 0 0 0 31801829.22484386 49430670.514772415 0 49430670.514772415 -69656153.930084229 0 0 0 0 -28787017.668748856 7545504.3158874512 0 7545504.3158874512 -14731661.831701279 0 0 0 0 -8123520.2103831768 1278244.5226516724 0 1278244.5226516724 -7405963.7771269083 0 0 0 0 -93349.021514130058 2573861.0969194192 0 2573861.0969194192 1180242.8471988782 0 0 0 0 -39160189.104207456 5926494.8234634399 0 5926494.8234634399 23456782.357192993 0 0 0 0 -19161606.375699669 67972088.306996346 0 67972088.306996346 45195649.175163269 0 0 0 0 416038.25785064691 2493089.5642257035 0 2493089.5642257035 1129295.366959139 0 0 0 0 259565873.33724403 -85155059.140991211 0 -85155059.140991211 29324411.783065796 0 0 0 0 23296354.076584339 73002249.092590332 0 73002249.092590332 26360429.617843628 0 0 0 0 98566333.362986505 -25331187.457220078 0 -25331187.457220078 -119022150.43264008 0 0 0 0 -15584781.090769023 -4733328.5109094046 0 -4733328.5109094046 -22027313.558509827 0 0 0 0 29806.057034098136 -65073.981544705108 0 -65073.981544705108 145315.51674666256 0 0 0 0 27042737.174887657 -17757880.261573792 0 -17757880.261573792 -2805931.2154998779 0 0 0 0 -161484.68940007873 515076.07509924145 0 515076.07509924145 452233.28850477934 0 0 0 0 10709116.834119797 76615.070068359375 0 76615.070068359375 -21895229.845870972 0 0 0 0 1136736.8544296026 124112377.83828354 0 124112377.83828354 8807568.4280090332 0 0 0 0 12580992.93847084 -33894919.418777466 0 -33894919.418777466 15043150.303344727 0 0 0 0 10120669.840345383 -34043023.512657166 0 -34043023.512657166 48218346.929870605 0 0 0 0 -20266628.547694236 -35960103.50250721 0 -35960103.50250721 8565274.0343017578 0 0 0 0 -72780.651533214957 -145552.45756502356 0 -145552.45756502356 599402.36333736032 0 0 0 0 -21976471.21563983 -17951677.369838715 0 -17951677.369838715 9679699.8102416992 0 0 0 0 -9711685.9145535231 -3747905.4274368286 0 -3747905.4274368286 27935841.546936035 0 0 0 0 35517457.042754084 16378955.660228729 0 16378955.660228729 14271656.312805176 0 0 0 0 -25974671.879857779 6300696.5897140503 0 6300696.5897140503 23242607.253227234 0 0 0 0 22859.85712522082 78429.453688338399 0 78429.453688338399 133021.39690222964 0 0 0 0 91738000.282851815 51853395.450820923 0 51853395.450820923 -13623096.774246216 0 0 0 0 17065760.284698486 22984220.90920639 0 22984220.90920639 -112597.79013061523 0 0 0 0 5294480.7028665543 44805066.559448242 0 44805066.559448242 32857030.070175171 0 0 0 0 2990412.2705950737 15628936.244300842 0 15628936.244300842 -982039.2788476944 0 0 0 0 -339982.46916937828 1633707.6807518005 0 1633707.6807518005 27306507.47526741 0 0 0 0 -15905812.076395631 20611793.29313755 0 20611793.29313755 13413830.432937622 0 0 0 0 -27294.311432019516 135230.64116775896 0 135230.64116775896 475636.51365434006 0 0 0 0 -594625.16103023163 593039.24807326496 0 593039.24807326496 763094.10222642869 0 0 0 0 -48106799.966233253 -10614901.249004364 0 -10614901.249004364 8230363.8858261108 0 0 0 0 -16545937.902415633 49049906.819330215 0 49049906.819330215 37892665.137458801 0 0 0 0 -1643442.5572831631 2692521.1473426819 0 2692521.1473426819 811961.17581939697 0 0 0 0 -9430078.6146181822 12507497.377117157 0 12507497.377117157 -13887126.489585876 0 0 0 0 -27877728.285667062 21517493.376014709 0 21517493.376014709 9940538.9648590088 0 0 0 0 -431200.87188381731 -409354.65514340531 0 -409354.65514340531 1897002.7214585356 0 0 0 0 -32144760.815809369 -79367581.121801376 0 -79367581.121801376 15299523.515197754 0 0 0 0 -9392313.7137191296 18505575.294929504 0 18505575.294929504 957845.96759033203 0 0 0 0 -914144.86673359538 1188209.1754695661 0 1188209.1754695661 4924001.2686744519 0 0 0 0 -54362518.564841509 14118688.607902527 0 14118688.607902527 7683498.0796813965 0 0 0 0 50740239.09141016 51744096.530654907 0 51744096.530654907 61691560.127502441 0 0 0 0 -3378483.3058609962 1785869.2033843994 0 1785869.2033843994 15591891.843330383 0 0 0 0 214659426.47888207 -146022345.55229187 0 -146022345.55229187 -20123239.152770996 0 0 0 0 -6761479.5471081734 -12145349.760658264 0 -12145349.760658264 86102731.981079102 0 0 0 0 -4519838.4158196449 -4182711.0089874268 0 -4182711.0089874268 43551693.961128235 0 0 0 0 -12850943.259171247 25909087.181274414 0 25909087.181274414 7444949.4176483154 0 0 0 0 -7487254.3810157776 -16914021.109283447 0 -16914021.109283447 -6448315.9326095581 0 0 0 0 32207130.593826294 38234366.565063477 0 38234366.565063477 50139982.581237793 0 0 0 0 -259107.6148223877 5171685.8018951416 0 5171685.8018951416 7845693.024312973 0 0 0 0 -828821.57508358127 431325.01757527329 0 431325.01757527329 2017107.4549911432 0 0 0 0 -1244432.9201881289 -15867297.943559647 0 -15867297.943559647 27181073.462814331 0 0 0 0 37834769.427583158 47909901.800788879 0 47909901.800788879 26626157.419418335 0 0 0 0 41145.948975086212 3070054.2253875732 0 3070054.2253875732 8321473.0630493164 0 0 0 0 26375977.700998306 10987832.747344971 0 10987832.747344971 15368171.207038879 0 0 0 0 39006092.127803564 26876769.840389252 0 26876769.840389252 5140427.6056213379 0 0 0 0 -5125184.490126133 19608107.264282227 0 19608107.264282227 34280815.296813965 0 0 0 0 -1882121.3249966502 23465336.476882935 0 23465336.476882935 11861923.059890747 0 0 0 0 -60363427.39160037 -501001.19578552246 0 -501001.19578552246 17103369.004007816 0 0 0 0 -71979576.553025007 -16124543.471302032 0 -16124543.471302032 24019254.312286377 0 0 0 0 -41573223.890470624 -15141049.835323334 0 -15141049.835323334 22929658.679138184 0 0 0 0 -60600336.6177001 -27753499.894348145 0 -27753499.894348145 -26089810.457138062 0 0 0 0 -62150057.978312492 3382158.8270568848 0 3382158.8270568848 5533794.3445968628 0 0 0 0 -64766056.517762661 3267598.230506897 0 3267598.230506897 34484699.279968262 0 0 0 0 -48979790.672417402 6686195.1664733887 0 6686195.1664733887 26521351.781070709 0 0 0 0 -49133065.628662109 -4488483.0702209473 0 -4488483.0702209473 1136039.3677215576 0 0 0 0 -56114740.107422113 8127161.2628707886 0 8127161.2628707886 31520715.524120331 0 0 0 0 -32189705.672358513 34971817.300918579 0 34971817.300918579 -11849022.909005165 0 0 0 0 2131351.0363602638 14233133.548454285 0 14233133.548454285 -15309776.899253845 0 0 0 0 -419229.16532568028 117525.38962647226 0 117525.38962647226 786879.68622080982 0 0 0 0 -60417685.512215137 14607497.175178528 0 14607497.175178528 22532052.541915894 0 0 0 0 -62175280.176883698 27468299.467521667 0 27468299.467521667 -12562225.101165771 0 0 0 0 3101243.9504761696 2754023.8071861267 0 2754023.8071861267 -1980122.7186126709 0 0 0 0 2257112.3457077872 1182654.2601187229 0 1182654.2601187229 2038124.2526550293 0 0 0 0 -1598993.4255537987 3586228.6141395569 0 3586228.6141395569 -12680613.012874126 0 0 0 0 327173.99292778969 4489681.0872459412 0 4489681.0872459412 1926174.7483673096 0 0 0 0 -268425.24923365912 -273701.23987320485 0 -273701.23987320485 263132.13369793072 0 0 0 0 10525115.133708715 -32314500.308015823 0 -32314500.308015823 -33619252.08039856 0 0 0 0 -64605920.039824486 -25447112.866889954 0 -25447112.866889954 -4939378.552482605 0 0 0 0 -45010124.846672535 -47568510.532218933 0 -47568510.532218933 -55618152.881881714 0 0 0 0 133327.23478651047 -4991659.5750637054 0 -4991659.5750637054 -423426.58050537109 0 0 0 0 -46965096.17403996 -5956305.5028829575 0 -5956305.5028829575 10007627.867805481 0 0 0 0 -4480451.7632703781 118278.14291000366 0 118278.14291000366 -3924924.5601882935 0 0 0 0 -23423428.277226448 -2879329.3236579895 0 -2879329.3236579895 924010.62101745605 0 0 0 0 -61540.741762185324 2124927.82900701 0 2124927.82900701 4471866.1329672337 0 0 0 0 -914948.05566438602 -923520.42994952761 0 -923520.42994952761 928673.91800046898 0 0 0 0 -4270485.0346384048 -385591.97755432129 0 -385591.97755432129 -2708695.9598999023 0 0 0 0 -10739086.382852554 -1911839.2904243469 0 -1911839.2904243469 11620837.045665741 0 0 0 0 -206486.73568940163 4234794.9222106934 0 4234794.9222106934 5728125.3554534912 0 0 0 0 3288128.7951641083 1587511.7303924561 0 1587511.7303924561 2249601.7401123047 0 0 0 0 3856.3036202132935 64492.372994517908 0 64492.372994517908 214110.53718981519 0 0 0 0 34023647.619238853 29334105.141021729 0 29334105.141021729 21776324.812561035 0 0 0 0 40573567.516675949 16027348.656845093 0 16027348.656845093 7698113.0334472656 0 0 0 0 17342040.882362366 13354234.562194824 0 13354234.562194824 9986350.7207489014 0 0 0 0 38496027.865403175 18112155.210250854 0 18112155.210250854 5880953.634552002 0 0 0 0 39971104.368936539 -12487728.251174927 0 -12487728.251174927 33686049.816986084 0 0 0 0 43550671.645248473 12158547.202787399 0 12158547.202787399 -2123131.5067749023 0 0 0 0 11749814.816783905 4384602.4921112061 0 4384602.4921112061 25884351.191574097 0 0 0 0 -513910.83924296871 890817.45033275429 0 890817.45033275429 2107790.6830157153 0 0 0 0 7165463.7944526672 11205362.542312622 0 11205362.542312622 15926499.194366455 0 0 0 0 -1807249.0352434218 91061.286840438843 0 91061.286840438843 465142.28094482422 0 0 0 0 -505834.6321887339 1410290.9964294685 0 1410290.9964294685 4558584.7222659215 0 0 0 0 14460410.495812654 -3639743.0413703918 0 -3639743.0413703918 772804.15258789062 0 0 0 0 -848889.59635345731 812077.25818963069 0 812077.25818963069 3000555.6597072762 0 0 0 0 -737805.52118017536 -346383.67662131879 0 -346383.67662131879 2031914.4208139554 0 0 0 0 -303878.68318540719 1091749.7881958894 0 1091749.7881958894 584905.98343814164 0 0 0 0 -7277705.8062573411 5644098.0432682037 0 5644098.0432682037 -2452861.7693710327 0 0 0 0 -264090.76612102985 -4908496.3702793121 0 -4908496.3702793121 -1848943.6508331299 0 0 0 0 58578804.093133926 -26747899.053619385 0 -26747899.053619385 22495068.027648926 0 0 0 0 70660842.675890207 -8742258.8565864563 0 -8742258.8565864563 3803858.1177978516 0 0 0 0 281726.35070800781 1930214.7322387695 0 1930214.7322387695 7872132.1895446777 0 0 0 0 -1805132.6812620163 5922074.167930603 0 5922074.167930603 4118754.4143562317 0 0 0 0 -330781.31017451244 239717.04519921076 0 239717.04519921076 2321979.4759074058 0 0 0 0 597178.75111246109 1324163.2598876953 0 1324163.2598876953 1997542.8671875 0 0 0 0 -11762597.922474384 -1714071.3321990967 0 -1714071.3321990967 800164.18055725098 0 0 0 0 -3189796.0404889584 -4454524.5404863358 0 -4454524.5404863358 -3290171.0029296875 0 0 0 0 -5529482.6275444031 1610737.8239898682 0 1610737.8239898682 5287015.005317688 0 0 0 0 5625231.8531115055 -7940776.3752422333 0 -7940776.3752422333 1419007.8123626709 0 0 0 0 12947.607589165156 -26871.385744343512 0 -26871.385744343512 -46112.289900990203 0 0 0 0 9370673.5146589279 5491784.7276382446 0 5491784.7276382446 12012297.101013184 0 0 0 0 9838473.7345172241 8927924.2967760563 0 8927924.2967760563 -45707029.804122925 0 0 0 0 9135714.3358898908 14595425.029619217 0 14595425.029619217 -5929887.7321853638 0 0 0 0 516562.33939003944 995140.7135848999 0 995140.7135848999 2128041.1729869843 0 0 0 0 199325.06633928622 858335.4083515862 0 858335.4083515862 378939.86990173161 0 0 0 0 -3187740.4915786386 5342096.2383041382 0 5342096.2383041382 -2493033.3768844604 0 0 0 0 -3084561.9253440797 20420790.957756042 0 20420790.957756042 203294.37433624268 0 0 0 0 -8076668.2626342773 -2354949.5327415466 0 -2354949.5327415466 -52652326.948558807 0 0 0 0 -283185.74089672009 257528.5100660086 0 257528.5100660086 1546896.9565549716 0 0 0 0 -15153893.882802069 16530247.139636993 0 16530247.139636993 3748021.2224731445 0 0 0 0 109727184.82766151 -14755197.3881073 0 -14755197.3881073 -12611417.251571655 0 0 0 0 -19215868.419018507 7523894.9410190582 0 7523894.9410190582 3554029.6170501709 0 0 0 0 -307179.55194525188 196651.61063382588 0 196651.61063382588 1471265.4960519373 0 0 0 0 -3760789.640738979 -2270718.7260460854 0 -2270718.7260460854 -7258321.9777603149 0 0 0 0 64726136.423504829 84688313.577964783 0 84688313.577964783 82763383.758338928 0 0 0 0 -168822013.07703936 -47883384.227554321 0 -47883384.227554321 155654466.69146919 0 0 0 0 -142557020.06572193 -47180429.290878296 0 -47180429.290878296 98736008.903381348 0 0 0 0 -68322666.814070225 27662925.316207886 0 27662925.316207886 173618687.62462616 0 0 0 0 -12234279.365296364 7337466.2504615784 0 7337466.2504615784 10457781.076080322 0 0 0 0 -23026108.438688278 21482017.214172363 0 21482017.214172363 9653323.6464233398 0 0 0 0 -81043284.966913715 -769303.848487854 0 -769303.848487854 8881514.5183258057 0 0 0 0 126648988.17145681 35510270.800361633 0 35510270.800361633 -8124706.6010437012 0 0 0 0 51789176.023804188 48990396.85458374 0 48990396.85458374 -4918461.0997085571 0 0 0 0 58327418.503249168 717563.9870300293 0 717563.9870300293 -11226776.875930786 0 0 0 0 50864978.887541771 18466971.464881897 0 18466971.464881897 -11668058.217872381 0 0 0 0 33573968.800543308 6798540.6618804932 0 6798540.6618804932 -3999109.8139343262 0 0 0 0 -16932886.639683366 16899799.560401917 0 16899799.560401917 -4184439.4893035889 0 0 0 0 -25839504.266502142 38604241.619522095 0 38604241.619522095 -45388461.109069824 0 0 0 0 24061473.071790218 31724744.786087036 0 31724744.786087036 -17518752.333572388 0 0 0 0 -32164954.754592896 32018310.963407516 0 32018310.963407516 1461975.5612182617 0 0 0 0 19398397.713888645 19628186.098617554 0 19628186.098617554 -2147299.7088546753 0 0 0 0 -44556890.536487013 5354650.0503253937 0 5354650.0503253937 6376710.599609375 0 0 0 0 -53595488.957811713 23699877.782035828 0 23699877.782035828 7367062.3268127441 0 0 0 0 -19840568.788651466 3125073.5753860474 0 3125073.5753860474 10000028.419185638 0 0 0 0 -10334686.404624224 28582373.704725266 0 28582373.704725266 9550380.455657959 0 0 0 0 37953143.748101234 16699869.42137146 0 16699869.42137146 2212788.1862030029 0 0 0 0 23311816.52188158 27445847.651313782 0 27445847.651313782 -843649.21365356445 0 0 0 0 -21212482.793412417 -26353699.045051098 0 -26353699.045051098 8015097.7284545898 0 0 0 0 -891701.44176264375 413153.52127705235 0 413153.52127705235 5793701.5684492141 0 0 0 0 -158878989.76501322 -22001291.093597412 0 -22001291.093597412 30994823.396522522 0 0 0 0 -101637117.74905157 -49914698.722579956 0 -49914698.722579956 9557668.9477844238 0 0 0 0 -124613905.99131751 6188102.3871383667 0 6188102.3871383667 28815108.643035889 0 0 0 0 -76139130.95697844 -22770453.717948914 0 -22770453.717948914 17847438.676669598 0 0 0 0 -99759563.563120008 17417051.760810852 0 17417051.760810852 13197792.216056824 0 0 0 0 -125029990.39373188 54067442.13338089 0 54067442.13338089 -32036440.473602295 0 0 0 0 -63164751.035796881 18046254.958999634 0 18046254.958999634 3681620.5697021484 0 0 0 0 -659344.2345957408 1950172.2192518949 0 1950172.2192518949 1557880.0067017786 0 0 0 0 1272017.7624621391 24664963.632602692 0 24664963.632602692 9842182.3246842623 0 0 0 0 -820689.5935703537 -326108.67158594215 0 -326108.67158594215 6310245.2368762903 0 0 0 0 -172319254.53978693 -117119755.94284821 0 -117119755.94284821 72528373.966583252 0 0 0 0 -125740563.11855143 -98533182.409963608 0 -98533182.409963608 -28181530.846603394 0 0 0 0 -67005695.325365663 -3041588.0218200684 0 -3041588.0218200684 -96889915.896438599 0 0 0 0 -7619077.3725984097 987564.29076004028 0 987564.29076004028 6113242.4080963135 0 0 0 0 -15296507.57277777 -179578460.26996052 0 -179578460.26996052 67416178.625671387 0 0 0 0 -191620560.21187615 -100888046.19637299 0 -100888046.19637299 75250712.815185547 0 0 0 0 821572.43362114672 1250647.4036573209 0 1250647.4036573209 2470721.223308594 0 0 0 0 2357977.7031898499 2609111.5023651123 0 2609111.5023651123 1815481.3888106346 0 0 0 0 15531713.584162593 -31181018.304517746 0 -31181018.304517746 110792152.99859619 0 0 0 0 -33657.198411721154 111469.46358530736 0 111469.46358530736 374888.3504478205 0 0 0 0 221340551.29974747 -96410084.517654419 0 -96410084.517654419 -582387530.25340271 0 0 0 0 -150535556.59291923 -89377118.586326599 0 -89377118.586326599 98884198.497024536 0 0 0 0 -158505298.47977871 -31246819.511878967 0 -31246819.511878967 -254522287.26446533 0 0 0 0 -25973.85822261899 23850.132674835622 0 23850.132674835622 95076.35242905248 0 0 0 0 -52182119.02190733 428872239.17940521 0 428872239.17940521 -1462085438.2615192 0 0 0 0 -204857140.70067847 -197844098.53440094 0 -197844098.53440094 560772930.20211792 0 0 0 0 -328257.82129122916 1367679.48503586 0 1367679.48503586 4231161.4178105537 0 0 0 0 1538374.9504900575 1717818.4418811798 0 1717818.4418811798 855994.06408691406 0 0 0 0 -281945309.29112673 48052078.316268921 0 48052078.316268921 139181998.74287033 0 0 0 0 -119499049.25089681 -14241069.879581451 0 -14241069.879581451 162213658.19763947 0 0 0 0 2689773.0944959223 1682990.6639671326 0 1682990.6639671326 -521114.24726867676 0 0 0 0 -104112846.63123238 -63731131.32591629 0 -63731131.32591629 11436950.097557068 0 0 0 0 8529.7456829642761 1728749.8871649296 0 1728749.8871649296 -499109.49824110791 0 0 0 0 3079821.1234141588 2576715.0894889832 0 2576715.0894889832 850056.36535644531 0 0 0 0 -177281855.72480381 99303538.803073883 0 99303538.803073883 547398842.44102859 0 0 0 0 -10430871.834867269 19158280.471277237 0 19158280.471277237 -11764645.949790955 0 0 0 0 75.027306735340971 560320.67840563436 0 560320.67840563436 -125879.48599076271 0 0 0 0 -42567.965899665782 321173.84138836106 0 321173.84138836106 1641959.9223725703 0 0 0 0 503067041.71820736 811144561.21854305 0 811144561.21854305 1377622664.0149002 0 0 0 0 471339361.34455401 657521557.17327118 0 657521557.17327118 720377213.32262421 0 0 0 0 10469249.672154404 148632259.84086609 0 148632259.84086609 1015109343.9757233 0 0 0 0 -102768405.08959447 80229258.762401581 0 80229258.762401581 2206475052.9020386 0 0 0 0 85320692.390015841 501150897.67104912 0 501150897.67104912 2392988480.4127197 0 0 0 0 1243208963.4530137 -1038353099.4423981 0 -1038353099.4423981 3101792279.1036758 0 0 0 0 -604562698.30555415 55930014.120494843 0 55930014.120494843 1268689114.6988373 0 0 0 0 -753311418.17547476 -84788724.544532776 0 -84788724.544532776 2219130009.1026573 0 0 0 0 -312581998.52918267 -217015696.83633137 0 -217015696.83633137 1727872626.8951797 0 0 0 0 -330645910.98009658 -149815846.54362392 0 -149815846.54362392 1563046813.9524994 0 0 0 0 33269064.607955001 -627215121.4644928 0 -627215121.4644928 2204552982.7036538 0 0 0 0 838847683.93637383 28147351.648720741 0 28147351.648720741 2491975414.4446335 0 0 0 0 -3205.8478946699925 -176797.27773134824 0 -176797.27773134824 457946.69670599513 0 0 0 0 229829456.09008181 -966857190.64379692 0 -966857190.64379692 1260942150.7965622 0 0 0 0 219769937.50772133 107418700.65847397 0 107418700.65847397 -135376571.56196976 0 0 0 0 368981565.45288265 -627048159.3991127 0 -627048159.3991127 705853238.16240692 0 0 0 0 -252264012.28776598 -433329670.27421951 0 -433329670.27421951 1760510926.9358687 0 0 0 0 -255538251.0113436 -375415454.41566801 0 -375415454.41566801 1568465329.4304733 0 0 0 0 313955174.27391922 -222665109.58030128 0 -222665109.58030128 72366714.65139389 0 0 0 0 105517058.19691253 112231542.31221771 0 112231542.31221771 11870616.298260689 0 0 0 0 -174089427.28226909 145157325.60848045 0 145157325.60848045 60247846.269607544 0 0 0 0 -37145232.28396225 115288048.13282013 0 115288048.13282013 65800946.43545723 0 0 0 0 -104557.58503061264 -140878.49906827125 0 -140878.49906827125 1132361.7512402199 0 0 0 0 52948018.515796676 55916101.006856441 0 55916101.006856441 68982971.929916382 0 0 0 0 -84996096.832618415 21256214.601325274 0 21256214.601325274 625272.89302062988 0 0 0 0 9060707.5862278938 -3299486.3558235168 0 -3299486.3558235168 -7648888.0593109131 0 0 0 0 -12442476.441970825 95617403.359340668 0 95617403.359340668 29002634.294723511 0 0 0 0 67362355.032120705 14667003.292346954 0 14667003.292346954 -68262084.159759521 0 0 0 0 27009.574623946566 105453.24979412649 0 105453.24979412649 206962.10987859219 0 0 0 0 -175301.15831983264 436251.84795275889 0 436251.84795275889 932654.27595005184 0 0 0 0 -18279935.252159238 -121957233.6545105 0 -121957233.6545105 -114718719.0467186 0 0 0 0 -44533734.585170269 -37291083.427013397 0 -37291083.427013397 -44762947.5991745 0 0 0 0 6503156.5312142372 542285.20995330811 0 542285.20995330811 11799739.952106476 0 0 0 0 41270363.924014926 -36187517.449281693 0 -36187517.449281693 -72876745.599090576 0 0 0 0 88104197.033723593 -60965233.590209961 0 -60965233.590209961 -107769971.85073853 0 0 0 0 90340133.479065418 -20306645.722648621 0 -20306645.722648621 -215561518.55935669 0 0 0 0 -36093840.522741318 78964451.262451172 0 78964451.262451172 -140974151.54443359 0 0 0 0 17524905.013217211 -50614028.050502777 0 -50614028.050502777 108607870.72637939 0 0 0 0 60773357.7762537 24673168.511657715 0 24673168.511657715 13319229.250045776 0 0 0 0 29523.33215548913 41054.015265537426 0 41054.015265537426 254799.5395587869 0 0 0 0 810496.3865647316 8380506.2266616821 0 8380506.2266616821 31932914.625011444 0 0 0 0 -54435841.257761717 -16146599.166721344 0 -16146599.166721344 -14710758.757499695 0 0 0 0 -1139533.8320837021 -7847633.8728179932 0 -7847633.8728179932 21337812.84330368 0 0 0 0 -846882.84683322906 -175733.51444244385 0 -175733.51444244385 18350457.94569397 0 0 0 0 -5325885.4570524693 -1651766.7053985596 0 -1651766.7053985596 35469944.714752197 0 0 0 0 -6313980.2943282127 -8462947.5446739197 0 -8462947.5446739197 32955458.076568604 0 0 0 0 26987537.302911282 20606175.092105865 0 20606175.092105865 -22742457.665435791 0 0 0 0 -101722860.6274503 -139854842.2817812 0 -139854842.2817812 225556813.57410431 0 0 0 0 -54826.103996545484 91606.691126908176 0 91606.691126908176 904419.02943871357 0 0 0 0 -138034572.33002758 106255397.12463379 0 106255397.12463379 95607936.215278625 0 0 0 0 37075965.925916582 -96566678.195923328 0 -96566678.195923328 153732714.43439484 0 0 0 0 178963275.61741865 -92022548.842274666 0 -92022548.842274666 85179533.908248901 0 0 0 0 -134562535.12213731 57565911.830356598 0 57565911.830356598 226852735.95767212 0 0 0 0 1523674.0441977978 -58136127.867523193 0 -58136127.867523193 300157535.48292923 0 0 0 0 -1691407.0948137194 127791935.70847845 0 127791935.70847845 584933025.69694519 0 0 0 0 -21387673.466765881 -296828679.64250755 0 -296828679.64250755 713498789.07357025 0 0 0 0 -17861051.581430197 39167793.835811615 0 39167793.835811615 457388641.57517242 0 0 0 0 -319078013.11935997 -125907745.08462143 0 -125907745.08462143 1457214000.7362413 0 0 0 0 -141355493.39930844 35691067.74066925 0 35691067.74066925 987181102.47543716 0 0 0 0 -262295377.74325609 -172684602.04722214 0 -172684602.04722214 1075219218.5672798 0 0 0 0 -129389047.87437129 -20123419.013832092 0 -20123419.013832092 652016388.8606472 0 0 0 0 37655472.081951618 253635143.06587982 0 253635143.06587982 361420815.43651199 0 0 0 0 -361195202.79406893 178073433.71294212 0 178073433.71294212 1798283156.3973618 0 0 0 0 -94680157.666712761 404773909.27790833 0 404773909.27790833 1319042522.8364334 0 0 0 0 148600857.33401749 688598069.75432873 0 688598069.75432873 1322304193.0713043 0 0 0 0 15922316.2932446 174133836.97244263 0 174133836.97244263 1414974737.1025333 0 0 0 0 -205423778.73831257 -132973595.65792656 0 -132973595.65792656 1864076365.325592 0 0 0 0 -191563.77213394421 13481.357680797577 0 13481.357680797577 358555.22516384954 0 0 0 0 -595167227.56797898 -197001387.11467361 0 -197001387.11467361 2204836453.0408311 0 0 0 0 -25713048.398415465 132274721.40084076 0 132274721.40084076 2205270461.5523682 0 0 0 0 407549819.11847544 67980305.173202515 0 67980305.173202515 1992249903.158597 0 0 0 0 -11310116.71661254 144493059.79680252 0 144493059.79680252 2214724251.9400063 0 0 0 0 -450966.08369984425 32129.297042721882 0 32129.297042721882 671494.98525869602 0 0 0 0 14180466.368124645 142267701.09856606 0 142267701.09856606 2204702363.9762268 0 0 0 0 -39892.617867170309 4272.1029757903889 0 4272.1029757903889 457920.93085920624 0 0 0 0 143328693.50778508 693104668.66812277 0 693104668.66812277 1752692007.2900314 0 0 0 0 -18382.377726917723 -36810.850680821575 0 -36810.850680821575 526354.07974500768 0 0 0 0 251188299.16145515 277094099.01049805 0 277094099.01049805 2116794253.806366 0 0 0 0 -464481753.15885973 119918292.97759247 0 119918292.97759247 2507517973.8605576 0 0 0 0 -249076056.17269993 -63816891.707862854 0 -63816891.707862854 212025990.71612549 0 0 0 0 -46673959.719607234 -358739877.24581146 0 -358739877.24581146 681454413.86034393 0 0 0 0 5647443.005081296 160695770.88668823 0 160695770.88668823 375676353.90870667 0 0 0 0 14206409.267044235 210329623.41741323 0 210329623.41741323 2110538771.8763809 0 0 0 0 -50872544.604447365 227732569.2728653 0 227732569.2728653 1941548439.6765709 0 0 0 0 -117935357.27230573 -227121482.63395691 0 -227121482.63395691 1483784579.9193878 0 0 0 0 43533084.764982939 -81586479.468040466 0 -81586479.468040466 1281918335.601181 0 0 0 0 -59525576.399416924 -135396396.29631042 0 -135396396.29631042 1290640650.3522243 0 0 0 0 76624567.844472647 -218615419.02012634 0 -218615419.02012634 547723454.28672791 0 0 0 0 116340063.33000731 -87425237.813957214 0 -87425237.813957214 554231922.21713495 0 0 0 0 223917345.39089108 -99225062.768216133 0 -99225062.768216133 -181276579.19981384 0 0 0 0 56174504.895953894 184513517.88097763 0 184513517.88097763 -147252750.07152987 0 0 0 0 38671497.770296693 12717939.496054649 0 12717939.496054649 -133488818.8351593 0 0 0 0 -57284348.862587452 -89269178.463592529 0 -89269178.463592529 -60388165.020767212 0 0 0 0 -16746904.691180229 59080146.268768311 0 59080146.268768311 -78650877.718315125 0 0 0 0 -62584.77950757814 -6878.5476960387314 0 -6878.5476960387314 1068653.5064643547 0 0 0 0 -149406924.19590867 95013039.6010952 0 95013039.6010952 -49910286.745063782 0 0 0 0 -133415094.135777 -59062785.515296936 0 -59062785.515296936 65826396.300315857 0 0 0 0 -80544125.041654229 12178517.94712925 0 12178517.94712925 -32176666.261039734 0 0 0 0 138136631.35764217 -11520233.374710083 0 -11520233.374710083 -72656510.222946167 0 0 0 0 6386776.9510117769 12364368.93094635 0 12364368.93094635 -142815007.0188036 0 0 0 0 -249723.29791943717 152451.46795063652 0 152451.46795063652 101677.55938371457 0 0 0 0 6453991.7948865145 9244221.7551615238 0 9244221.7551615238 -6476491.7797470093 0 0 0 0 28352744.140970588 15351917.462100983 0 15351917.462100983 15439673.013530731 0 0 0 0 26082710.881880403 4455467.6706619263 0 4455467.6706619263 3624362.1246376038 0 0 0 0 -80123.124478880753 45557.103538735304 0 45557.103538735304 1064559.9845875036 0 0 0 0 -369133.42885409063 227844.49503178429 0 227844.49503178429 193677.88895525597 0 0 0 0 -4961931.0500284433 6240356.6508026123 0 6240356.6508026123 -5502120.4198265076 0 0 0 0 -51963328.377618611 -25438143.226833344 0 -25438143.226833344 -8639239.9840774536 0 0 0 0 -43208662.335507393 -21771736.928806305 0 -21771736.928806305 -24463913.154753685 0 0 0 0 -10287958.794674873 -33133487.806358337 0 -33133487.806358337 -19777322.241092682 0 0 0 0 -43547495.958361149 -24335974.202350616 0 -24335974.202350616 -7708462.1466064453 0 0 0 0 185580.80253176979 158290.91676452942 0 158290.91676452942 721084.31526133604 0 0 0 0 -5621126.2582211494 1396592.6935272217 0 1396592.6935272217 -352463.66516113281 0 0 0 0 7284606.3516619205 5499123.979549408 0 5499123.979549408 5333320.2227706909 0 0 0 0 2917821.3330793381 4009160.6852416992 0 4009160.6852416992 6339788.1424407959 0 0 0 0 7942635.1500395536 -7659107.7210693359 0 -7659107.7210693359 -15771947.46257019 0 0 0 0 -661885.54764830857 192306.66782861389 0 192306.66782861389 1179831.0662312359 0 0 0 0 -17232066.95345521 -10310509.762401581 0 -10310509.762401581 4179199.2297706604 0 0 0 0 -9597415.3021860123 -10531927.358779907 0 -10531927.358779907 1393321.9954624176 0 0 0 0 -16119968.427138388 -18294883.646303415 0 -18294883.646303415 -12067888.284469604 0 0 0 0 -9084541.1696196795 -11482912.165342331 0 -11482912.165342331 -6240317.3539581299 0 0 0 0 -42395522.399746895 -17986935.975246429 0 -17986935.975246429 -9333784.5685577393 0 0 0 0 -24991278.47101593 -29864276.773040771 0 -29864276.773040771 -11689694.723754883 0 0 0 0 -22091930.50797677 -18053907.64799881 0 -18053907.64799881 -6947192.4796028137 0 0 0 0 142295.24696850777 3071767.8771781921 0 3071767.8771781921 32198537.200172424 0 0 0 0 -163527.16775001062 -91885.523928016424 0 -91885.523928016424 645432.06654861756 0 0 0 0 -32722142.452438593 -22543825.52450943 0 -22543825.52450943 -6642356.9350738525 0 0 0 0 -31556116.422281265 -25496925.264034271 0 -25496925.264034271 -12760237.279025078 0 0 0 0 -24505582.269727707 -33732785.161436081 0 -33732785.161436081 -29357209.270454407 0 0 0 0 -23218360.834650517 -16045643.990814209 0 -16045643.990814209 -16669565.923126221 0 0 0 0 -23740324.111876231 -20617722.765032947 0 -20617722.765032947 -6515799.3020248413 0 0 0 0 15495120.9221524 30348347.356505394 0 30348347.356505394 39949005.889923096 0 0 0 0 -43650853.584923744 -41002919.774555206 0 -41002919.774555206 -24301663.450380325 0 0 0 0 -112839.41553055408 -66383.54394778423 0 -66383.54394778423 397539.68518616632 0 0 0 0 16022018.780258954 30378503.613162041 0 30378503.613162041 34857531.223899841 0 0 0 0 15787187.084233284 26551918.517940521 0 26551918.517940521 27401523.336078644 0 0 0 0 20229157.795809031 17964098.292808533 0 17964098.292808533 32535068.818382263 0 0 0 0 6427573.2550348938 8807796.4027242661 0 8807796.4027242661 36870371.042137146 0 0 0 0 7722781.4079873562 5495140.8068275452 0 5495140.8068275452 28873198.016273499 0 0 0 0 -4764260.7590413094 7202569.346572876 0 7202569.346572876 32319042.771259308 0 0 0 0 17501695.42314291 14052729.503105164 0 14052729.503105164 15337899.395998001 0 0 0 0 12652909.164859653 13183455.762336731 0 13183455.762336731 34101606.854362488 0 0 0 0 28665360.090160131 29721501.77989769 0 29721501.77989769 37282982.456138611 0 0 0 0 1795.3644171248234 34181.247851861524 0 34181.247851861524 23896.590480342507 0 0 0 0 -14514734.249778986 2954055.214099884 0 2954055.214099884 28314109.930538177 0 0 0 0 2605361.966532588 6285738.7536582947 0 6285738.7536582947 24449641.328056335 0 0 0 0 -1799284.06240201 10284526.386501312 0 10284526.386501312 30761249.258289814 0 0 0 0 7990845.5443301201 22529460.041950226 0 22529460.041950226 35319592.251525879 0 0 0 0 4847683.5149741173 22655648.417413712 0 22655648.417413712 38198466.622032166 0 0 0 0 20272053.470730066 25433365.002725601 0 25433365.002725601 42303674.867614746 0 0 0 0 39552078.119288445 31280636.34879303 0 31280636.34879303 42783418.013526917 0 0 0 0 14308015.780613661 30128299.645317078 0 30128299.645317078 43451704.199050903 0 0 0 0 16539274.987865925 21904368.660636902 0 21904368.660636902 41720486.076581955 0 0 0 0 5045292.1027023792 22429211.416152954 0 22429211.416152954 46650392.80651474 0 0 0 0 16457969.35903443 29349488.584857523 0 29349488.584857523 54196186.651260376 0 0 0 0 17751882.910153866 13340473.15612793 0 13340473.15612793 30746215.622211456 0 0 0 0 16935495.338433266 14046230.070278168 0 14046230.070278168 52299411.44985199 0 0 0 0 24983617.3178339 20040169.493125916 0 20040169.493125916 46839240.06325531 0 0 0 0 6080354.5163071156 15850223.720378876 0 15850223.720378876 28481386.437847137 0 0 0 0 -5239326.6583957672 6577356.9392166138 0 6577356.9392166138 31989397.897562027 0 0 0 0 3452956.462054193 20864607.461187363 0 20864607.461187363 27113154.890953064 0 0 0 0 -3020951.9401606321 2914906.2972831726 0 2914906.2972831726 11896777.255172729 0 0 0 0 52163.637751246657 647330.11116119067 0 647330.11116119067 23289.201435446739 0 0 0 0 40212873.063401602 22415207.033777356 0 22415207.033777356 2298614.7270126343 0 0 0 0 -8760440.0009617805 3438805.1006298065 0 3438805.1006298065 15905184.624635696 0 0 0 0 1195898.395917654 5695751.7656002045 0 5695751.7656002045 -480584.5945892334 0 0 0 0 3468266.8590071201 2847685.8281898499 0 2847685.8281898499 330815.92962551117 0 0 0 0 -16531968.472082615 17325064.521282196 0 17325064.521282196 -2036042.5454969406 0 0 0 0 807200.86946988106 8445844.216506958 0 8445844.216506958 -3701954.2145895958 0 0 0 0 -7736206.0533120632 14108728.099798203 0 14108728.099798203 16241245.532310486 0 0 0 0 -9812667.7374029458 -403402.31537461281 0 -403402.31537461281 16609236.594444275 0 0 0 0 -35825715.737074792 3117700.6668224335 0 3117700.6668224335 17908581.550224304 0 0 0 0 -18908458.599490047 -15978551.816320419 0 -15978551.816320419 -8570529.1178808212 0 0 0 0 -15442124.585184097 9221422.2220726013 0 9221422.2220726013 -16334969.597668648 0 0 0 0 -50134616.061033845 620717.76713371277 0 620717.76713371277 40771133.299224854 0 0 0 0 -27853395.448614478 -22665153.818371773 0 -22665153.818371773 -2204234.2196121216 0 0 0 0 -214366.32594984243 121936.41511019971 0 121936.41511019971 628759.51347484533 0 0 0 0 -7568249.4360308647 1820310.8594207764 0 1820310.8594207764 9621319.3597793579 0 0 0 0 -3921478.0930621624 1677570.282169342 0 1677570.282169342 6058163.5786781311 0 0 0 0 -2679277.399282217 23442901.378213882 0 23442901.378213882 18226499.234493256 0 0 0 0 -38630715.868432999 -30907236.985961914 0 -30907236.985961914 -14530474.232055664 0 0 0 0 -50025911.762952328 -25773182.613185883 0 -25773182.613185883 -8395061.8523178101 0 0 0 0 -6652743.5320310593 -1344096.0536994934 0 -1344096.0536994934 2929798.7267303467 0 0 0 0 -104744.49889909694 50818.833805190399 0 50818.833805190399 124755.12335481867 0 0 0 0 -50089328.216751575 -24903397.654987335 0 -24903397.654987335 4787218.1205444336 0 0 0 0 -17202792.344702005 4317835.8445701599 0 4317835.8445701599 16386257.067876816 0 0 0 0 -37789.627305206668 -90668.001803845167 0 -90668.001803845167 29638.133392753312 0 0 0 0 -3503535.9829064608 8074890.6827201843 0 8074890.6827201843 6485020.5057449341 0 0 0 0 -23706051.854636908 73576.47060585022 0 73576.47060585022 23172126.799911499 0 0 0 0 -186584.14630578266 87653.434045888018 0 87653.434045888018 233069.06613319926 0 0 0 0 -29112085.146752149 -3839519.8346238136 0 -3839519.8346238136 18281697.351860046 0 0 0 0 -25476857.300342798 6941023.6179046631 0 6941023.6179046631 6014755.9920482635 0 0 0 0 -9867107.0251822472 -5468090.6163482666 0 -5468090.6163482666 1165741.1944885254 0 0 0 0 -21259093.387003303 -1399874.0521945953 0 -1399874.0521945953 13999746.413249969 0 0 0 0 -7414741.9413599968 9987632.027671814 0 9987632.027671814 17316754.228023529 0 0 0 0 -11510759.788260102 10970904.119775772 0 10970904.119775772 31741789.961540222 0 0 0 0 1479356.2544126511 -6066902.1735610962 0 -6066902.1735610962 10586480.276527405 0 0 0 0 14908139.823594332 10791546.304870605 0 10791546.304870605 -3059448.2736968994 0 0 0 0 6223480.7521629333 14753621.477485657 0 14753621.477485657 2618647.498336792 0 0 0 0 1819154.959230423 14725011.059741974 0 14725011.059741974 1987574.3538360596 0 0 0 0 -4819353.0406808853 4905115.4351654053 0 4905115.4351654053 -8080679.3322048187 0 0 0 0 -11584932.426250339 2338979.6253395081 0 2338979.6253395081 14061909.284591675 0 0 0 0 -25386785.377217054 -9963249.8051223755 0 -9963249.8051223755 8602804.0013656616 0 0 0 0 -10366830.234235764 -860058.61121368408 0 -860058.61121368408 8169593.1470947266 0 0 0 0 -24773845.465986252 3758111.1271629333 0 3758111.1271629333 11740298.654594421 0 0 0 0 -14977100.074222565 -1601095.004524231 0 -1601095.004524231 7982771.4192199707 0 0 0 0 -10178669.358783245 3957639.2830657959 0 3957639.2830657959 9384945.4905166626 0 0 0 0 -8090098.6401796341 1947722.6093635559 0 1947722.6093635559 8897599.110458374 0 0 0 0 5009229.0513687134 4088472.6637496948 0 4088472.6637496948 6868197.0507659912 0 0 0 0 4907310.5828275681 4704966.7156143188 0 4704966.7156143188 5215098.9611740112 0 0 0 0 4599584.7099094391 9538201.7582473755 0 9538201.7582473755 9501807.025970459 0 0 0 0 -1770953.1286973953 4858191.0248260498 0 4858191.0248260498 8653670.0948791504 0 0 0 0 -2450834.0974802971 5985669.3975715637 0 5985669.3975715637 9349218.9280395508 0 0 0 0 -197873.43296742439 10471117.887928009 0 10471117.887928009 12219933.450439453 0 0 0 0 14076721.021371812 -10099900.642889082 0 -10099900.642889082 -562250.86534118652 0 0 0 0 18870404.008798599 4177030.9405899048 0 4177030.9405899048 8310879.0852050781 0 0 0 0 -11366.350782865782 -414737.4902982362 0 -414737.4902982362 3247.0617052335292 0 0 0 0 18430863.860294342 5122043.7618789673 0 5122043.7618789673 9191897.4931945801 0 0 0 0 -354146.27007722837 -2676415.3332852358 0 -2676415.3332852358 342928.23368448019 0 0 0 0 21428706.756923676 1423777.7624816895 0 1423777.7624816895 4155396.1589050293 0 0 0 0 -71921.191970238695 -40094.110504666809 0 -40094.110504666809 103615.33437288553 0 0 0 0 -1608861.7432451544 689849.21742177452 0 689849.21742177452 3229479.7447824292 0 0 0 0 -3062854.4025556557 86727.004065692425 0 86727.004065692425 1827346.6051635742 0 0 0 0 -4678678.8621218204 1114589.0282974243 0 1114589.0282974243 7207944.0074086189 0 0 0 0 7850055.5436415672 2874807.6753196716 0 2874807.6753196716 4099533.9000396729 0 0 0 0 -1302328.6360442643 3000516.3593319729 0 3000516.3593319729 4924933.8164413767 0 0 0 0 3082645.996254921 25020.854225158691 0 25020.854225158691 6953573.2474517822 0 0 0 0 -3295289.6189947128 3481464.9731750488 0 3481464.9731750488 7696423.0188369751 0 0 0 0 -7908302.945830822 2234627.8412322998 0 2234627.8412322998 7073576.4972572327 0 0 0 0 -3404868.5920499563 3954550.9422044754 0 3954550.9422044754 7211244.1676177979 0 0 0 0 -8164506.7714309692 2224546.8186607361 0 2224546.8186607361 8690777.4126968384 0 0 0 0 -7359611.6939315796 2734580.5138893127 0 2734580.5138893127 8527949.2328643799 0 0 0 0 -7282824.8526608944 1801618.1634063721 0 1801618.1634063721 8598883.531255722 0 0 0 0 -8588646.4809179306 2251777.1360912323 0 2251777.1360912323 8445991.6147766113 0 0 0 0 12062902.787793666 10973883.715655059 0 10973883.715655059 -6443056.4324569702 0 0 0 0 159126.33294715793 2300058.6675595795 0 2300058.6675595795 79660.273337258026 0 0 0 0 -694678.33758028108 371252.90156239737 0 371252.90156239737 2018625.3002636414 0 0 0 0 -1111664.3569531776 5017752.136746943 0 5017752.136746943 4444693.6119117737 0 0 0 0 281446.26408727886 2542684.1521907514 0 2542684.1521907514 7912948.6383909285 0 0 0 0 -4123755.6901407242 7978673.7417259216 0 7978673.7417259216 -5772172.1377229691 0 0 0 0 113287.74207925797 16653994.72883606 0 16653994.72883606 -6096697.3579773903 0 0 0 0 3467417.3473443985 17960265.721138 0 17960265.721138 -803725.58436584473 0 0 0 0 554540.30784404278 1518282.8655738831 0 1518282.8655738831 8124275.4741516113 0 0 0 0 -15374193.870395899 16614622.081653595 0 16614622.081653595 33848084.057418823 0 0 0 0 79313881.321828365 51889506.799640656 0 51889506.799640656 -3563734.2678146362 0 0 0 0 -17513186.238349438 -27304222.198181152 0 -27304222.198181152 -7245554.6549224854 0 0 0 0 -71022190.762890339 -10747081.834243774 0 -10747081.834243774 22804264.029109955 0 0 0 0 -31797115.173891783 84977748.176412582 0 84977748.176412582 32822828.152770996 0 0 0 0 -18653920.141461968 4128740.8029928207 0 4128740.8029928207 9624391.8572235107 0 0 0 0 -10063420.01304388 14392549.768699646 0 14392549.768699646 -3217686.9406738281 0 0 0 0 -6844062.638425827 -291456.70551681519 0 -291456.70551681519 8629506.5069732666 0 0 0 0 -3574344.3502511978 1751851.784740448 0 1751851.784740448 1051291.9110565186 0 0 0 0 -5133199.2130894661 8071444.9263687134 0 8071444.9263687134 5987548.3332901001 0 0 0 0 -206836.52755788458 231288.29138679104 0 231288.29138679104 311269.15964977071 0 0 0 0 4083428.3546209335 2426948.4192962646 0 2426948.4192962646 9747185.9012241364 0 0 0 0 -1047570.4613588635 -537007.53426280431 0 -537007.53426280431 5193479.7549097091 0 0 0 0 -319456.76251994207 190338.05700875912 0 190338.05700875912 5317925.4115625899 0 0 0 0 -1601269.5646400452 -418072.79788589478 0 -418072.79788589478 1130846.6315002441 0 0 0 0 -1183277.3231974738 -871797.53791249078 0 -871797.53791249078 6338328.0568450056 0 0 0 0 -169892.40053653717 -8739128.3510437012 0 -8739128.3510437012 -268123.3021697998 0 0 0 0 -1210641.7733184099 -4538050.6069459915 0 -4538050.6069459915 4903844.8868408203 0 0 0 0 589979.8332567215 -7578742.0027694702 0 -7578742.0027694702 195415.62557220459 0 0 0 0 -21853509.234632611 -26084514.771165848 0 -26084514.771165848 -22531725.290840149 0 0 0 0 740413.19457435608 -1066055.2950515747 0 -1066055.2950515747 12015331.732055664 0 0 0 0 -763281.02696156502 -14437666.061981201 0 -14437666.061981201 -6869864.8424682617 0 0 0 0 838842.57079768181 -2770108.9037189484 0 -2770108.9037189484 -8493426.8606567383 0 0 0 0 1197335.8087472916 -1966625.1161117554 0 -1966625.1161117554 -11435844.530990601 0 0 0 0 -16569507.349154472 -9943710.9552459717 0 -9943710.9552459717 3135517.3623275757 0 0 0 0 -757394.01726967352 -769076.50803529005 0 -769076.50803529005 8554749.0153150298 0 0 0 0 -564216.99016501196 243035.98484085314 0 243035.98484085314 1389249.4248555806 0 0 0 0 -136604913.43195844 -46145304.546730042 0 -46145304.546730042 -9505944.8007602692 0 0 0 0 -146165649.53133988 73194975.548080444 0 73194975.548080444 -4351762.3362121582 0 0 0 0 -242968965.09736377 76718094.996376038 0 76718094.996376038 32690917.61479187 0 0 0 0 -163812432.05645412 -205288354.26553726 0 -205288354.26553726 64269104.884799957 0 0 0 0 -79032978.753057361 -138844096.00495911 0 -138844096.00495911 8066041.8608703613 0 0 0 0 -272836799.62565166 -12471244.540657043 0 -12471244.540657043 131777970.99871826 0 0 0 0 -59980366.216473103 116649478.12022781 0 116649478.12022781 24486958.235111237 0 0 0 0 -4688355.6385688782 26057053.983703613 0 26057053.983703613 -7004285.7585067749 0 0 0 0 3987769.6591148376 22216175.267250061 0 22216175.267250061 -5335571.9616355896 0 0 0 0 6325247.7040781975 13741839.301121712 0 13741839.301121712 -16908956.169387817 0 0 0 0 -4112875.3333015442 -18315057.263320923 0 -18315057.263320923 -49306657.821456909 0 0 0 0 17864582.222446918 25212527.367767334 0 25212527.367767334 -80213935.797267914 0 0 0 0 177331038.10311219 149638370.81906891 0 149638370.81906891 211104064.57520294 0 0 0 0 44074364.027638257 13019555.714582443 0 13019555.714582443 71621326.905548096 0 0 0 0 92759360.352538049 82845771.983123779 0 82845771.983123779 25143844.174694061 0 0 0 0 73558951.888798118 -117865959.80487061 0 -117865959.80487061 -12582822.269441605 0 0 0 0 6949037.2701951535 -269517502.34760666 0 -269517502.34760666 158947300.77957153 0 0 0 0 344876025.29604614 -68560926.052513123 0 -68560926.052513123 -4427343.6425361633 0 0 0 0 361433663.12400091 9727475.7890300751 0 9727475.7890300751 -76637921.590499878 0 0 0 0 -56633404.431602955 137100619.04621887 0 137100619.04621887 411701205.0537796 0 0 0 0 -73151159.950111151 12641186.334445953 0 12641186.334445953 -72564197.113227844 0 0 0 0 -221880774.77728677 130114905.70736694 0 130114905.70736694 167557475.27073669 0 0 0 0 131985.98727131155 302771.51356780669 0 302771.51356780669 366576.04007573798 0 0 0 0 120021432.81902698 -131795652.82438469 0 -131795652.82438469 88820021.26385498 0 0 0 0 19421577.372911096 -16831082.04183197 0 -16831082.04183197 270460183.7818718 0 0 0 0 66096068.431612372 -46282813.230712891 0 -46282813.230712891 -39176850.623083115 0 0 0 0 14474753.740360379 100406977.00874329 0 100406977.00874329 13891550.683519363 0 0 0 0 17442504.113749146 -48352477.047325134 0 -48352477.047325134 -37732927.563201904 0 0 0 0 -4944.4224675017831 1035775.6388330248 0 1035775.6388330248 7614.7465905174613 0 0 0 0 -301123453.92362952 86999023.242687225 0 86999023.242687225 78084511.245536804 0 0 0 0 73541827.090154231 145787465.91856384 0 145787465.91856384 -171088728.16871643 0 0 0 0 18204928.997169316 -56480236.153076172 0 -56480236.153076172 42579312.575775146 0 0 0 0 -62585091.450695992 57984845.571418762 0 57984845.571418762 -9513846.6918182373 0 0 0 0 -99242602.708993375 -17895086.811973572 0 -17895086.811973572 -20205795.686813354 0 0 0 0 5520.0345097545724 3143235.8228066601 0 3143235.8228066601 -12084.326526012272 0 0 0 0 -130088734.37310135 33562525.817428589 0 33562525.817428589 19192454.440948486 0 0 0 0 1374030.3014752865 13936453.441665649 0 13936453.441665649 -8852559.9293060303 0 0 0 0 125465886.01838923 -22448413.285909653 0 -22448413.285909653 -30932340.96811676 0 0 0 0 315325.89349129616 880847.55837283656 0 880847.55837283656 1194716.0275031291 0 0 0 0 -21574729.745562077 32010837.122695923 0 32010837.122695923 199366651.13165283 0 0 0 0 -7431730.2850453854 7761205.1461029053 0 7761205.1461029053 30674229.979606628 0 0 0 0 20979816.839234352 36488506.940841675 0 36488506.940841675 8319271.0469245911 0 0 0 0 -7556550.9550797939 12902804.578178406 0 12902804.578178406 -2098443.84765625 0 0 0 0 -12067169.034894943 37729471.081665039 0 37729471.081665039 -5749025.9209594727 0 0 0 0 855670.69038885832 -15713714.806596756 0 -15713714.806596756 10443311.265663147 0 0 0 0 -58065212.362743199 16271011.266670227 0 16271011.266670227 -3334178.2016906738 0 0 0 0 -26830700.190212488 22578642.07188797 0 22578642.07188797 10669322.785652161 0 0 0 0 -17481518.908581864 28034650.635227203 0 28034650.635227203 -44537290.500694275 0 0 0 0 -805308.92657800554 -626243.42140680365 0 -626243.42140680365 1390239.9349533636 0 0 0 0 -13650487.408871174 -7299380.3284225464 0 -7299380.3284225464 10796281.735748291 0 0 0 0 -67614448.04876861 53021778.636230946 0 53021778.636230946 -9260081.3737640381 0 0 0 0 -63093518.279205322 21878290.224283218 0 21878290.224283218 -13403485.657173157 0 0 0 0 -40039175.370905519 46561076.220062256 0 46561076.220062256 1467753.0377674103 0 0 0 0 299520.22859335062 2359888.631919309 0 2359888.631919309 7667939.7817367688 0 0 0 0 -19588326.516101122 23509629.173841476 0 23509629.173841476 -2244475.4415740967 0 0 0 0 1249319.1244387627 16711062.90007019 0 16711062.90007019 -5316132.3996534348 0 0 0 0 -407676.04678678513 13702420.167991638 0 13702420.167991638 2863702.4191436768 0 0 0 0 6274203.0318365097 1422482.6533699036 0 1422482.6533699036 1253482.8153009415 0 0 0 0 -60620862.645074606 35048964.920700073 0 35048964.920700073 22234457.10308075 0 0 0 0 -30428722.912598133 7597210.5653839111 0 7597210.5653839111 18816865.92382431 0 0 0 0 -333572.83869060496 2659866.6664995672 0 2659866.6664995672 7110021.88446806 0 0 0 0 -80653542.094934464 -51486805.445178986 0 -51486805.445178986 91532129.297706604 0 0 0 0 3298069.9716124535 3463915.042755127 0 3463915.042755127 -49900630.962600708 0 0 0 0 11064271.57927227 25007508.308708191 0 25007508.308708191 14187153.341461182 0 0 0 0 19242688.320071936 5453992.8048171997 0 5453992.8048171997 30262970.798088074 0 0 0 0 7113260.2832174301 38404645.00869751 0 38404645.00869751 96369751.967103958 0 0 0 0 -2816212.4995955527 -12728154.521475792 0 -12728154.521475792 84474352.897827148 0 0 0 0 34880349.534557343 60515141.850982666 0 60515141.850982666 77990608.889259338 0 0 0 0 -51160.384757391177 -23318.649776751176 0 -23318.649776751176 142877.40695746616 0 0 0 0 -59216479.352548122 -60280542.588291168 0 -60280542.588291168 -56656889.449508667 0 0 0 0 -32736603.577773571 -54799097.335357666 0 -54799097.335357666 -44651734.846370697 0 0 0 0 -82674466.467836797 -29242294.605400562 0 -29242294.605400562 9215266.6932830811 0 0 0 0 -79863854.236566067 -54490831.040855408 0 -54490831.040855408 -30786804.124176025 0 0 0 0 -187961.80645346019 2149853.5649939766 0 2149853.5649939766 5811227.8449131269 0 0 0 0 -53747557.493286133 -13700188.404006958 0 -13700188.404006958 -14529404.170407295 0 0 0 0 -18848930.330826618 10092905.984578609 0 10092905.984578609 10057210.701194763 0 0 0 0 -5036774.1878414154 10302917.061515808 0 10302917.061515808 -2397731.7750325203 0 0 0 0 -4773673.2690494955 11938182.230793953 0 11938182.230793953 7466191.4923858643 0 0 0 0 -37913443.558797836 23950480.171100616 0 23950480.171100616 24713208.518161774 0 0 0 0 -70103134.051527262 16928497.23910141 0 16928497.23910141 20564798.091751099 0 0 0 0 -21516529.769598722 8350665.0064239502 0 8350665.0064239502 21845719.481582642 0 0 0 0 -10178183.319547951 -8351026.198059082 0 -8351026.198059082 44872521.993503571 0 0 0 0 -58412170.475058794 72643494.23626709 0 72643494.23626709 -24163552.77044487 0 0 0 0 11743758.890992969 -28353511.825752258 0 -28353511.825752258 29361192.920623779 0 0 0 0 3684.5883109742717 -122711.97252181638 0 -122711.97252181638 190740.74771429226 0 0 0 0 7973182.6563999653 -8821139.9544677734 0 -8821139.9544677734 4218961.0885620117 0 0 0 0 -17184280.326505005 13362209.417369843 0 13362209.417369843 15475104.21232605 0 0 0 0 -11487689.634833097 5923845.2667694092 0 5923845.2667694092 81145.724445343018 0 0 0 0 -51016364.702187568 12440231.40957284 0 12440231.40957284 15102726.142555237 0 0 0 0 -1043677.0020372854 2254018.5673807929 0 2254018.5673807929 4053561.028422229 0 0 0 0 5151681.8652749062 2596767.061460495 0 2596767.061460495 4421241.2626342773 0 0 0 0 -17529686.650271893 9872224.989616394 0 9872224.989616394 13735959.04593277 0 0 0 0 -35259865.393519402 -24954104.092895508 0 -24954104.092895508 10938765.652359009 0 0 0 0 -697812.08257980319 -639779.65595888905 0 -639779.65595888905 2379333.1451961659 0 0 0 0 -5329949.542424202 779855.8231010437 0 779855.8231010437 -15028043.485660076 0 0 0 0 -6791456.2637391388 5372438.8953876495 0 5372438.8953876495 -1114419.1174316406 0 0 0 0 -4801139.7267431021 2971665.1102523804 0 2971665.1102523804 839740.72994089127 0 0 0 0 2779882.3774330616 1985611.8694877625 0 1985611.8694877625 -10077891.019226074 0 0 0 0 2342658.7321288083 -3940004.281475544 0 -3940004.281475544 -16656903.330001831 0 0 0 0 -237907.0054774296 197186.12082695775 0 197186.12082695775 578515.04084617645 0 0 0 0 27828746.923486829 17204327.201141357 0 17204327.201141357 -14019333.628669739 0 0 0 0 8785477.3466170728 3300401.2111530304 0 3300401.2111530304 -21760065.403694153 0 0 0 0 -9305104.4431316257 20591847.836711884 0 20591847.836711884 -3766430.2738952637 0 0 0 0 12665988.495467186 11850875.60597229 0 11850875.60597229 -9824294.0343010426 0 0 0 0 -19621545.704182565 37880472.03130722 0 37880472.03130722 -1427888.6871948242 0 0 0 0 13795148.142803609 16555246.898590088 0 16555246.898590088 -8319787.8387870789 0 0 0 0 9784075.9848617911 9741866.3116416931 0 9741866.3116416931 17905240.270217896 0 0 0 0 75373389.572277129 12544628.53730011 0 12544628.53730011 16353187.450670242 0 0 0 0 -3195102.7344103605 -15921623.875253677 0 -15921623.875253677 -21912230.300247192 0 0 0 0 4356446.4908590019 15879101.774614334 0 15879101.774614334 110945206.99394989 0 0 0 0 24730824.780450165 29328737.116630554 0 29328737.116630554 64217304.777679443 0 0 0 0 48859986.827304602 24794242.766548157 0 24794242.766548157 -17171380.842987061 0 0 0 0 -1553551.3067439497 102782.3964138031 0 102782.3964138031 -17446499.128173828 0 0 0 0 -48182117.524938405 9067453.9414520264 0 9067453.9414520264 9140351.5604629517 0 0 0 0 -385880.67801848677 1097487.4524880964 0 1097487.4524880964 1050874.7426561378 0 0 0 0 90649.159858600062 1494055.4991121148 0 1494055.4991121148 3135869.3467203118 0 0 0 0 22937541.017307758 4746386.9239234924 0 4746386.9239234924 -14833144.474075317 0 0 0 0 59941691.954848051 -8830221.6393260956 0 -8830221.6393260956 -13420064.479660034 0 0 0 0 340254.7908453584 1323064.1066498226 0 1323064.1066498226 2091145.4549316838 0 0 0 0 -8501944.6030945778 6364892.1899108887 0 6364892.1899108887 -21103551.735057831 0 0 0 0 -29653380.518194735 53106034.20690155 0 53106034.20690155 10642456.549057007 0 0 0 0 12834638.589861274 21346960.794586182 0 21346960.794586182 -57621481.807319641 0 0 0 0 16521210.321533918 -189861590.0885849 0 -189861590.0885849 85405584.978061676 0 0 0 0 -75803974.530141085 -40306187.276111603 0 -40306187.276111603 308352635.36938477 0 0 0 0 20699061.537179053 -24943032.455036163 0 -24943032.455036163 87625642.724212646 0 0 0 0 27650942.489737958 45155233.119010925 0 45155233.119010925 130433758.38031006 0 0 0 0 -72633.250253071616 269090.07568366546 0 269090.07568366546 318507.00774027407 0 0 0 0 -17899687.157432377 10359293.149559021 0 10359293.149559021 176210869.85903883 0 0 0 0 -5017709.5625992417 -4047745.1424636841 0 -4047745.1424636841 174984538.69197083 0 0 0 0 -32215967.666222215 24885887.682540894 0 24885887.682540894 198110009.09567261 0 0 0 0 -16489730.146065474 852383.1756362915 0 852383.1756362915 -80471695.723751068 0 0 0 0 -5152079.1702826023 -40171878.144218445 0 -40171878.144218445 3240019.0311355591 0 0 0 0 -46788502.482171774 -22438039.380123138 0 -22438039.380123138 -3987333.0182495117 0 0 0 0 182528.65656780338 -24685.593482796103 0 -24685.593482796103 33156.386156083085 0 0 0 0 42104687.846166134 -67079096.517913818 0 -67079096.517913818 -118745482.29953003 0 0 0 0 18476681.671008587 -88019540.827705383 0 -88019540.827705383 -37167161.061065674 0 0 0 0 36155938.842428446 -83660853.825340271 0 -83660853.825340271 -92550785.601699829 0 0 0 0 64786926.187353015 -90461634.61907959 0 -90461634.61907959 -40760498.874313354 0 0 0 0 -3609438.2417565584 -36169852.52122879 0 -36169852.52122879 64077322.278831482 0 0 0 0 -3589988.696835015 -36257553.214074254 0 -36257553.214074254 -90247.985092163086 0 0 0 0 12266691.242397726 -56235927.48195076 0 -56235927.48195076 88699806.938369751 0 0 0 0 -35630966.723728053 -17791168.295128822 0 -17791168.295128822 16093216.439544678 0 0 0 0 -34776012.62897861 -4443632.881111145 0 -4443632.881111145 74241582.86856842 0 0 0 0 -19079995.479319572 16652758.375320435 0 16652758.375320435 25260901.024291992 0 0 0 0 -20517963.739137888 13248970.668579102 0 13248970.668579102 39006430.416564941 0 0 0 0 -5508249.094602704 19661367.671279907 0 19661367.671279907 51620255.176567078 0 0 0 0 -10447429.724788547 29890743.777786255 0 29890743.777786255 45253474.11971283 0 0 0 0 21429692.472085565 72748186.096321106 0 72748186.096321106 148014249.85014343 0 0 0 0 -6742047.7665090561 -2711926.63514328 0 -2711926.63514328 3928930.2603034973 0 0 0 0 -15637022.555244103 -8715402.3269219398 0 -8715402.3269219398 922369.82795715332 0 0 0 0 -23552949.167521 56628.984752655029 0 56628.984752655029 10339628.758247375 0 0 0 0 -15302697.138347149 -4009677.829284668 0 -4009677.829284668 11355909.79460907 0 0 0 0 -8052387.175668478 -13602533.897449493 0 -13602533.897449493 -22400636.486610413 0 0 0 0 -29436967.844556451 -20992527.080610275 0 -20992527.080610275 2522183.5966796875 0 0 0 0 -24846386.723474979 -13455909.664833069 0 -13455909.664833069 -3302536.3398742676 0 0 0 0 -3733275.7297105789 -4702883.5381526947 0 -4702883.5381526947 -5487945.0924377441 0 0 0 0 -18325320.516556799 13172406.844961166 0 13172406.844961166 4190962.9701385498 0 0 0 0 402350.38874648785 -103371.47514959052 0 -103371.47514959052 118787.29437756632 0 0 0 0 -19321028.201352954 -30098968.398193359 0 -30098968.398193359 -30252353.605026245 0 0 0 0 6677982.6906352043 -42764040.500015259 0 -42764040.500015259 105041561.71124268 0 0 0 0 87221244.158905864 -2487941.0341949463 0 -2487941.0341949463 27491991.338127136 0 0 0 0 -47099705.742804468 -66211845.898155212 0 -66211845.898155212 75781222.002532959 0 0 0 0 -37292349.365749359 -45893004.298038483 0 -45893004.298038483 104960005.79232788 0 0 0 0 -12221065.841641426 -76338316.378929138 0 -76338316.378929138 141815095.33399963 0 0 0 0 33221244.391985416 -51740493.801877975 0 -51740493.801877975 59026632.342514038 0 0 0 0 -26675565.993247628 58749378.999305725 0 58749378.999305725 227671871.37397003 0 0 0 0 80342.023147092463 -77574.226441992447 0 -77574.226441992447 73538.372783601284 0 0 0 0 3614174.7182449102 -5010225.8823471069 0 -5010225.8823471069 -12927236.755859375 0 0 0 0 -7962189.9350984618 -51580401.086013794 0 -51580401.086013794 110233317.08343124 0 0 0 0 -18148835.071339071 24041790.722801208 0 24041790.722801208 148866138.46076393 0 0 0 0 -1628351.6919631958 1299019.8759078979 0 1299019.8759078979 3195918.7352523804 0 0 0 0 219739.2879121296 -237711.82627637126 0 -237711.82627637126 214527.53676152974 0 0 0 0 -1072105.8904116154 -8500700.5457668304 0 -8500700.5457668304 -3908975.0086517334 0 0 0 0 3185645.1028912067 1764749.0234985352 0 1764749.0234985352 2007733.7427215576 0 0 0 0 1455162.653041482 5406149.0988311768 0 5406149.0988311768 -6038149.6302986145 0 0 0 0 -6019574.3037246466 -2602476.5797348022 0 -2602476.5797348022 9879925.4334259033 0 0 0 0 -3580888.3026974201 -184843.69784545898 0 -184843.69784545898 8007751.7801742554 0 0 0 0 418050.01732560724 -240977.89840391278 0 -240977.89840391278 266747.46562926657 0 0 0 0 -4676967.4534761906 -4385999.6246757507 0 -4385999.6246757507 -2119472.1670017242 0 0 0 0 -842.5326889393109 -3342.4722145156702 0 -3342.4722145156702 1260.7261816896498 0 0 0 0 -545802.35580301285 774655.72438049316 0 774655.72438049316 2314110.9031982422 0 0 0 0 -18904.617873124807 -601189.57428807928 0 -601189.57428807928 938042.11366400123 0 0 0 0 -2303528.0744124618 305148.28360366821 0 305148.28360366821 1070454.6407470703 0 0 0 0 -1078882.9212060273 1393332.3734893799 0 1393332.3734893799 1903498.5791239738 0 0 0 0 -6257617.9672279358 -3699697.0607872009 0 -3699697.0607872009 654295.89644241333 0 0 0 0 -1656226.5767501295 -2729834.4968848228 0 -2729834.4968848228 -1323691.1520690918 0 0 0 0 109966.97781725042 -837393.17627716064 0 -837393.17627716064 2016202.5098724365 0 0 0 0 638330.73641639482 -956725.56774902344 0 -956725.56774902344 1684240.6854705811 0 0 0 0 147846.50497716689 -1133533.2496795654 0 -1133533.2496795654 2496880.2404022217 0 0 0 0 305.66526228480569 20609.66369930096 0 20609.66369930096 -24877.861091352999 0 0 0 0 -171979.37605947629 405254.22660827637 0 405254.22660827637 169973.35664367676 0 0 0 0 989102.41118768079 -1908169.2838821411 0 -1908169.2838821411 2969379.6521682739 0 0 0 0 -888070.60265012877 122823.29232788086 0 122823.29232788086 290015.74644470215 0 0 0 0 -634501.62906742375 3377.4613333698362 0 3377.4613333698362 779078.94509822223 0 0 0 0 -1909599.056722641 364619.60433197021 0 364619.60433197021 2249340.4093933105 0 0 0 0 -217611.47446898744 -273296.35052490234 0 -273296.35052490234 72012.523727416992 0 0 0 0 -3041858.4658565521 415085.38456726074 0 415085.38456726074 3111106.3211212158 0 0 0 0 -3464299.8568267822 -1088612.0486755371 0 -1088612.0486755371 1388162.1227264404 0 0 0 0 -488189.27236819267 208954.63251495361 0 208954.63251495361 1738114.4212818146 0 0 0 0 -31521.61266569281 -398425.84523353912 0 -398425.84523353912 663292.94753762335 0 0 0 0 120869.48881729506 -339206.36795806885 0 -339206.36795806885 839137.24670410156 0 0 0 0 512444.50878787041 -1162717.316028595 0 -1162717.316028595 -51570.910339355469 0 0 0 0 -375.20198682144479 -555188.70513534546 0 -555188.70513534546 1297312.7160644531 0 0 0 0 516485.52762687765 -793386.84075927734 0 -793386.84075927734 591594.94995117188 0 0 0 0 312788.69333969988 -406535.93550872803 0 -406535.93550872803 1026544.9139556885 0 0 0 0 1268.7609661190129 45655.532477596775 0 45655.532477596775 -55532.657760724425 0 0 0 0 64660.535723724453 -700767.47447109222 0 -700767.47447109222 991552.49090576172 0 0 0 0 -240245.1945372698 -77907.006634946913 0 -77907.006634946913 651075.4342907276 0 0 0 0 -448.94363337749269 -25941.581390380859 0 -25941.581390380859 332154.31913757324 0 0 0 0 -7478.7891997918487 -470525.6733341217 0 -470525.6733341217 -7045281.6141738892 0 0 0 0 274780.25853137037 -286058.2774465885 0 -286058.2774465885 249247.53454832733 0 0 0 0 35455158.479830787 16438080.483131409 0 16438080.483131409 -7992132.4254148006 0 0 0 0 263380.90001188533 -402651.1860391181 0 -402651.1860391181 378926.31173025072 0 0 0 0 -1240556.6530928612 -2295012.8346710205 0 -2295012.8346710205 -201236.86598300934 0 0 0 0 -4453545.3635663986 -580428.51267242432 0 -580428.51267242432 2878927.6234512329 0 0 0 0 -4038781.3289813995 -1668695.857925415 0 -1668695.857925415 1887490.2930603027 0 0 0 0 4475.2310047118817 -16713927.98224926 0 -16713927.98224926 62918100.342178345 0 0 0 0 9325626.2957302574 -23117336.688245773 0 -23117336.688245773 -26818864.888122559 0 0 0 0 -13758.278332378279 -18684.101969163865 0 -18684.101969163865 169270.42541896179 0 0 0 0 -34329398.313789368 27281097.486270905 0 27281097.486270905 148659181.82632446 0 0 0 0 37063040.212867603 -54445097.458483696 0 -54445097.458483696 153335238.44464874 0 0 0 0 31889419.536172867 22831261.806720734 0 22831261.806720734 -6292799.5242156982 0 0 0 0 -56263.498022108623 -3026.9730519521981 0 -3026.9730519521981 418721.07974695787 0 0 0 0 -9006186.2452337742 -44550989.042133331 0 -44550989.042133331 -474267.90625095367 0 0 0 0 -37647850.059874237 -87484388.633896828 0 -87484388.633896828 -64412532.861625671 0 0 0 0 -66424551.172858395 26567740.003035069 0 26567740.003035069 173762165.9511261 0 0 0 0 -68612441.401498437 -87330121.9164505 0 -87330121.9164505 -18618417.153448105 0 0 0 0 74159450.36787197 1762115.9479484558 0 1762115.9479484558 -74859276.998109341 0 0 0 0 1723273.5913557913 44122406.405574799 0 44122406.405574799 80836577.023666382 0 0 0 0 -8165745.0243333653 -9358897.5711460114 0 -9358897.5711460114 7799886.6870651245 0 0 0 0 -19499999.053379804 -14314204.694533825 0 -14314204.694533825 43295545.254486084 0 0 0 0 -3113283.2921798285 23241055.159275055 0 23241055.159275055 26477642.146446228 0 0 0 0 -5290828.2395350058 -498228.18375396729 0 -498228.18375396729 4550157.6463623047 0 0 0 0 -30258.719761808978 102370.65142007498 0 102370.65142007498 31252.402958877385 0 0 0 0 2486475.1207995694 1044509.0468826294 0 1044509.0468826294 3374918.209564209 0 0 0 0 1754497.2804750185 -1985775.6582717896 0 -1985775.6582717896 7298606.8676300049 0 0 0 0 -3706519.7995361686 2010403.0727081299 0 2010403.0727081299 5865303.1551208496 0 0 0 0 -1073860.383493932 2955617.8158569336 0 2955617.8158569336 5653016.6379394531 0 0 0 0 -1759353.9438227434 -1473150.6396179199 0 -1473150.6396179199 -44812.34814453125 0 0 0 0 -310931.92446773499 730143.66484069824 0 730143.66484069824 2854569.1195526123 0 0 0 0 -935574.11329493299 -729692.11015319824 0 -729692.11015319824 3226704.3476257324 0 0 0 0 1136343.6625013184 -356868.90747070312 0 -356868.90747070312 1434112.8338623047 0 0 0 0 1002473.7466650642 -201821.4799041748 0 -201821.4799041748 3300678.6762695312 0 0 0 0 2136158.7827954199 -272915.04021453857 0 -272915.04021453857 1945560.0551147461 0 0 0 0 1789221.5657772049 764160.85003662109 0 764160.85003662109 3754144.6967086792 0 0 0 0 2314609.5934119001 278922.00509643555 0 278922.00509643555 2623714.1362457275 0 0 0 0 2256.38618279092 108003.19737243652 0 108003.19737243652 10424755.301681519 0 0 0 0 323602.71234420768 -3069680.1802139282 0 -3069680.1802139282 3804378.8260593414 0 0 0 0 -766557.47261202475 -2110695.4723777771 0 -2110695.4723777771 21051106.702804565 0 0 0 0 1165262.3577837287 -202782.24747276306 0 -202782.24747276306 8735492.0331726074 0 0 0 0 1815213.4017230812 -3252485.587562561 0 -3252485.587562561 20374928.691708945 0 0 0 0 -5336423.5615282934 -14207704.749011993 0 -14207704.749011993 15888722.350852966 0 0 0 0 539715.96507479344 -3944355.7542648315 0 -3944355.7542648315 20376018.739196777 0 0 0 0 5397303.5169157144 -1707131.634979248 0 -1707131.634979248 6129546.9301319122 0 0 0 0 18478768.789980788 -11204888.311149597 0 -11204888.311149597 -5665041.2955627441 0 0 0 0 18813582.080133177 22004616.293380737 0 22004616.293380737 22244367.491378784 0 0 0 0 -43901.921719041406 75375.145749441348 0 75375.145749441348 51563.751557413489 0 0 0 0 11522075.533220239 17406993.983869553 0 17406993.983869553 12537210.267730713 0 0 0 0 4422745.9720240794 9364644.6022338867 0 9364644.6022338867 9057124.9831848145 0 0 0 0 9649824.4592855796 4999724.5727615356 0 4999724.5727615356 -1681150.3783874512 0 0 0 0 12875666.332209036 11429688.914818764 0 11429688.914818764 5075733.2108459473 0 0 0 0 5006.2224479261786 17636690.691764832 0 17636690.691764832 30547478.208282471 0 0 0 0 1912243.1935756281 12901277.305267334 0 12901277.305267334 15351218.87437439 0 0 0 0 5445677.2032847898 10720926.704040527 0 10720926.704040527 8839628.4841918945 0 0 0 0 -3733389.7999860942 9708812.6009674072 0 9708812.6009674072 21086541.290821075 0 0 0 0 -3745522.3526227959 9892818.5908432007 0 9892818.5908432007 19148936.466362 0 0 0 0 -792772.95629066601 5634344.5687484741 0 5634344.5687484741 8495456.5080871582 0 0 0 0 582911.01501459256 5637262.9761352539 0 5637262.9761352539 5953423.4257965088 0 0 0 0 329737.23054772988 8128586.5427093506 0 8128586.5427093506 13252569.176567078 0 0 0 0 2050025.0749056111 4934280.4024162292 0 4934280.4024162292 6212275.2313537598 0 0 0 0 734229.86338601261 2307610.0887908936 0 2307610.0887908936 2643716.4872589111 0 0 0 0 616417.08332312852 2334630.5438232422 0 2334630.5438232422 3296595.6630706787 0 0 0 0 227075.88541502506 4568746.9859466553 0 4568746.9859466553 8735798.6500148773 0 0 0 0 -8470643.2151455786 -2571818.3063659668 0 -2571818.3063659668 5336584.1632385254 0 0 0 0 4227573.488831846 20740322.893703461 0 20740322.893703461 -3216690.2442650795 0 0 0 0 -143669.75996858752 257845.10581735033 0 257845.10581735033 135683.94848208129 0 0 0 0 -5435006.0056229159 1034057.3977470398 0 1034057.3977470398 3680009.6908874512 0 0 0 0 504603.70870074071 -1400521.0483856201 0 -1400521.0483856201 1533183.9125099182 0 0 0 0 -3324818.7507853806 -1231708.8557281494 0 -1231708.8557281494 -731362.62899780273 0 0 0 0 -281334.74500176212 545900.88378218422 0 545900.88378218422 216460.4459970817 0 0 0 0 1909940.8660911787 4207923.7811775208 0 4207923.7811775208 -2746324.3830413818 0 0 0 0 -369512.41752372729 2196005.3534927368 0 2196005.3534927368 -1467557.9600830078 0 0 0 0 -197060.58344905637 -956070.86957550049 0 -956070.86957550049 -2163339.0207328796 0 0 0 0 -461130.99976195302 1899342.598405838 0 1899342.598405838 3420310.7950439453 0 0 0 0 -916858.41661851946 2589902.5987701416 0 2589902.5987701416 2928973.0148620605 0 0 0 0 -1165909.0043707117 -697627.73127746582 0 -697627.73127746582 486996.35793304443 0 0 0 0 -716963.79699938698 757404.67364845797 0 757404.67364845797 1497047.0783746378 0 0 0 0 -2755007.3092193604 -1289393.786075592 0 -1289393.786075592 5567733.6322784424 0 0 0 0 251035.75152341276 86610.226909637451 0 86610.226909637451 -3281995.3565979004 0 0 0 0 -2096210.5399737116 590408.96918869019 0 590408.96918869019 1490166.5818939209 0 0 0 0 -552132.6873511204 305673.59750298038 0 305673.59750298038 714229.15260099247 0 0 0 0 -218914.32491308035 94489.675174679141 0 94489.675174679141 656165.4181313403 0 0 0 0 -1100937.669332169 -449935.07510375977 0 -449935.07510375977 -1747574.1404418945 0 0 0 0 -705816.50673138048 493535.41065624543 0 493535.41065624543 1028650.9603170976 0 0 0 0 -543471.05181419849 -30094.236709594727 0 -30094.236709594727 736933.80065917969 0 0 0 0 -435897.04436880862 399688.24268412474 0 399688.24268412474 527639.96224232763 0 0 0 0 -697084.73385316052 25959.568432804197 0 25959.568432804197 1315436.524475008 0 0 0 0 -483697.70685517788 -119350.75087738037 0 -119350.75087738037 530341.55683898926 0 0 0 0 -832700.01766508853 16143.295151416212 0 16143.295151416212 1663518.0660137832 0 0 0 0 -336019.95813108981 -388368.37585830688 0 -388368.37585830688 413741.68502807617 0 0 0 0 -231941.09008809179 -331125.19309997559 0 -331125.19309997559 1223630.0531711578 0 0 0 0 5548.0484978271597 -194277.75910069048 0 -194277.75910069048 1359322.6460781898 0 0 0 0 -185944.35956015787 -116258.6429901123 0 -116258.6429901123 1418198.2717571259 0 0 0 0 -38875.310217568476 17262.617317199707 0 17262.617317199707 1133112.2724456787 0 0 0 0 -96738.878332254404 333352.05133925471 0 333352.05133925471 100993.37474654987 0 0 0 0 -207406.39691156463 -10.163831846788526 0 -10.163831846788526 341671.05584371462 0 0 0 0 -1354465.8533045948 1443350.3173675537 0 1443350.3173675537 644273.33511352539 0 0 0 0 -136126.61687368841 -276680.31743621826 0 -276680.31743621826 1114411.1754822731 0 0 0 0 -246575.03198460946 -56334.278717041016 0 -56334.278717041016 1253940.8009796143 0 0 0 0 601820.77728189342 1536727.4789886475 0 1536727.4789886475 776215.70803833008 0 0 0 0 427333.86091284081 1029910.6585845947 0 1029910.6585845947 -694426.81294250488 0 0 0 0 262.4192384356362 -61824.934089660645 0 -61824.934089660645 1381947.2194671631 0 0 0 0 -357478.69922195358 -59991.848617553711 0 -59991.848617553711 3049190.6564464569 0 0 0 0 -362532.50857189158 -653737.88550567627 0 -653737.88550567627 798510.79730987549 0 0 0 0 -62723.258771466491 1385.1356319691986 0 1385.1356319691986 106553.56579225138 0 0 0 0 1126844.9257507455 499345.12090301514 0 499345.12090301514 1889446.4145259857 0 0 0 0 4425.8815603559242 -155334.81478160433 0 -155334.81478160433 1274023.0018227424 0 0 0 0 -132522.56232881773 -111345.40013885498 0 -111345.40013885498 1682663.220085144 0 0 0 0 -6242.1329702429575 -41167.673976898193 0 -41167.673976898193 1217340.7725982666 0 0 0 0 9945.4475926226005 -682891.784324646 0 -682891.784324646 900580.84901690483 0 0 0 0 7.5567396752957166 -639382.84792709351 0 -639382.84792709351 814976.01048278809 0 0 0 0 -324429.41040840629 -457532.99570465088 0 -457532.99570465088 1050915.7119293213 0 0 0 0 92875.074425149709 -489516.68752861023 0 -489516.68752861023 924471.57823181152 0 0 0 0 -305070.70654385956 -647182.98146057129 0 -647182.98146057129 864751.97244262695 0 0 0 0 -268690.07702578127 -419484.7594871521 0 -419484.7594871521 914585.12498474121 0 0 0 0 -29485.165225423058 -679149.98018264771 0 -679149.98018264771 724516.41525268555 0 0 0 0 -850658.76445166604 -396771.83905220032 0 -396771.83905220032 915401.31886291504 0 0 0 0 -465477.97711760749 -904207.11154556274 0 -904207.11154556274 694578.19882202148 0 0 0 0 171.97224273533288 -658296.19886779785 0 -658296.19886779785 691676.62887573242 0 0 0 0 -28779.440269139828 -696161.34267425537 0 -696161.34267425537 753032.92067718506 0 0 0 0 7359.6984018865041 -419220.83861541748 0 -419220.83861541748 1202376.9134521484 0 0 0 0 -524507.8591383514 -1174825.7820739746 0 -1174825.7820739746 463109.85259246826 0 0 0 0 75929.693406000617 -613611.85096359253 0 -613611.85096359253 560202.77981567383 0 0 0 0 -282049.64298825455 -593110.72294998169 0 -593110.72294998169 3345149.4619979858 0 0 0 0 -102427.29249220924 -173253.56551742554 0 -173253.56551742554 1114854.8648223877 0 0 0 0 17.780502068992892 -652063.88423146529 0 -652063.88423146529 1394276.4588546753 0 0 0 0 -85409.300402051304 -200696.91667175293 0 -200696.91667175293 2387712.1463866234 0 0 0 0 -6902758.5674430132 -3266550.9803218842 0 -3266550.9803218842 2021575.8631820679 0 0 0 0 -2893731.3749572039 -511160.08412742615 0 -511160.08412742615 2143561.9922866821 0 0 0 0 -74737.442640352572 -582480.16694079316 0 -582480.16694079316 1127169.9880777299 0 0 0 0 -7504054.0905742645 -3806611.0659790039 0 -3806611.0659790039 1957952.2808303833 0 0 0 0 -2394052.6141993203 -2057531.758102417 0 -2057531.758102417 2046059.7499514818 0 0 0 0 -5004535.8353917599 -3559377.3244667053 0 -3559377.3244667053 -296517.04565429688 0 0 0 0 -6275634.4186911583 645209.23650360107 0 645209.23650360107 2196602.5508766174 0 0 0 0 -2105292.0892051756 -1661846.2380461693 0 -1661846.2380461693 3099793.5695648193 0 0 0 0 -2553184.4395618439 3308023.5476531982 0 3308023.5476531982 8659232.2422027588 0 0 0 0 -14089349.16914463 -5347609.9198684692 0 -5347609.9198684692 5299143.6344451904 0 0 0 0 -1575222.5290916497 -874273.7299156189 0 -874273.7299156189 1112851.361000061 0 0 0 0 -162392.66145302507 -519181.50455696043 0 -519181.50455696043 1319552.7306093425 0 0 0 0 832585.40966820717 -6203577.8946685791 0 -6203577.8946685791 -1116657.725769043 0 0 0 0 -2755171.6220998764 -633833.06860351562 0 -633833.06860351562 1821482.1919218302 0 0 0 0 -215905.88055124859 348236.60909863841 0 348236.60909863841 120345.23833114654 0 0 0 0 -8236719.8978950977 6948173.6180496216 0 6948173.6180496216 6224796.2371826172 0 0 0 0 -84539.398676395416 1579960.7184333801 0 1579960.7184333801 -1011613.9376151562 0 0 0 0 -300902.47090048634 -363655.35242987052 0 -363655.35242987052 1515734.0287912562 0 0 0 0 -598581.20628543734 -80633.933105023578 0 -80633.933105023578 848377.5449566897 0 0 0 0 -2942604.5633332729 560529.42370891571 0 560529.42370891571 5715670.4624557495 0 0 0 0 -1273612.2361264229 3386089.9601745605 0 3386089.9601745605 8411695.4171028137 0 0 0 0 -140753.57031664933 -12734.800242559984 0 -12734.800242559984 222445.76584597491 0 0 0 0 1334444.2670078278 637189.60195922852 0 637189.60195922852 2358174.7580099106 0 0 0 0 279665.20456528664 -5958916.8226013184 0 -5958916.8226013184 1352467.0267887115 0 0 0 0 1070305.6914977729 -3271573.41614151 0 -3271573.41614151 5623524.126373291 0 0 0 0 1306130.3860487938 -4195769.1479072571 0 -4195769.1479072571 6495285.9006881714 0 0 0 0 2696214.3131473064 -390067.82669067383 0 -390067.82669067383 7340186.0601806641 0 0 0 0 114149.75513100624 7091026.5906848907 0 7091026.5906848907 12649581.870445251 0 0 0 0 -2483041.1079635322 878580.13710308075 0 878580.13710308075 12258537.893119812 0 0 0 0 3267290.3696520329 -1487697.7033843994 0 -1487697.7033843994 3626932.3611373901 0 0 0 0 -4335658.6767885685 423167.0651473999 0 423167.0651473999 3315090.7320241928 0 0 0 0 3920759.8924984336 3872536.7061078548 0 3872536.7061078548 -1288527.8240280151 0 0 0 0 -2072541.5909259319 7882979.9557952881 0 7882979.9557952881 -387078.38663482666 0 0 0 0 -9197318.1975756884 8323385.7339544296 0 8323385.7339544296 15085531.322128296 0 0 0 0 -1026140.539385438 10274947.47504425 0 10274947.47504425 3968933.1178588867 0 0 0 0 -11851589.419591069 600366.81677055359 0 600366.81677055359 4974059.7209777832 0 0 0 0 -624869.49547708035 4735624.0693511963 0 4735624.0693511963 6074216.4644546509 0 0 0 0 12028857.48029089 20652334.562202454 0 20652334.562202454 -16031378.952934265 0 0 0 0 4275794.3281651735 36399786.374511719 0 36399786.374511719 -19858749.265892029 0 0 0 0 7231852.7201576233 69447745.188774109 0 69447745.188774109 47673953.733002186 0 0 0 0 1261456.059889555 32838354.362220764 0 32838354.362220764 20337642.737594604 0 0 0 0 -1001225.2728910022 17998082.678363636 0 17998082.678363636 -4019676.4172668457 0 0 0 0 6133861.7977365255 -4225598.6066513062 0 -4225598.6066513062 -13487758.446575165 0 0 0 0 9170659.5043781996 18149050.11541748 0 18149050.11541748 -17018734.855163574 0 0 0 0 -15673070.402710497 -37229962.02822876 0 -37229962.02822876 -53545511.680030823 0 0 0 0 34605769.852352053 19281012.820640564 0 19281012.820640564 -88529375.305282593 0 0 0 0 6914382.0446544886 -6133330.4633140564 0 -6133330.4633140564 -16708535.968383789 0 0 0 0 -21461150.806942165 -12945128.301200867 0 -12945128.301200867 2420081.2908401489 0 0 0 0 -4352484.053496778 -6314649.73097229 0 -6314649.73097229 3529223.879234314 0 0 0 0 2733490.4802746773 60214.156597137451 0 60214.156597137451 -4604306.2279129028 0 0 0 0 1119412.7135593891 -1572480.9910850525 0 -1572480.9910850525 12241895.833889008 0 0 0 0 -1710979.8683630228 -9275664.0430831909 0 -9275664.0430831909 4819799.4727592468 0 0 0 0 -4201987.0840699449 -2058996.5626354218 0 -2058996.5626354218 11511935.741737366 0 0 0 0 3695382.2023777366 -3770516.9375648499 0 -3770516.9375648499 11719927.782745361 0 0 0 0 -1799715.2083929852 4619598.3605079651 0 4619598.3605079651 3575006.7959518433 0 0 0 0 2507077.9294822067 7595207.0200958252 0 7595207.0200958252 7749752.3281784058 0 0 0 0 1549879.920571126 4613926.6377487183 0 4613926.6377487183 3567087.913192749 0 0 0 0 5666131.07225357 3408509.2460403442 0 3408509.2460403442 1703727.6654906273 0 0 0 0 -1934872.500001587 4063487.7074127197 0 4063487.7074127197 1763860.2278213501 0 0 0 0 1586702.7079512421 2020535.3909497261 0 2020535.3909497261 7187820.2037506104 0 0 0 0 3510074.2214775942 3296653.4167976379 0 3296653.4167976379 -5965354.4267044067 0 0 0 0 -310050.22304340557 979216.69133448415 0 979216.69133448415 2014819.9900661814 0 0 0 0 -3802095.3613965511 -4971335.3428039551 0 -4971335.3428039551 20740614.205223083 0 0 0 0 -512175.85874506994 878914.49419976026 0 878914.49419976026 1627313.6493536232 0 0 0 0 312291.89121165872 -2309646.8895950317 0 -2309646.8895950317 -522359.73838806152 0 0 0 0 -967736.60479545593 -1945970.9033737183 0 -1945970.9033737183 11423381.251457214 0 0 0 0 2689713.4061322808 1739061.6111373901 0 1739061.6111373901 -7140962.1578547955 0 0 0 0 -2201476.6884127706 -1036160.603302002 0 -1036160.603302002 90914.276985168457 0 0 0 0 1760485.1556336135 559736.26596069336 0 559736.26596069336 65960.939742326736 0 0 0 0 -1367332.4983486086 -854168.7652015686 0 -854168.7652015686 6661136.9704971313 0 0 0 0 2586429.8867329359 1798252.1039199829 0 1798252.1039199829 978164.40280151367 0 0 0 0 -128365.1565720439 300825.22710418701 0 300825.22710418701 7953066.6931152344 0 0 0 0 4452677.7793357968 705604.86042022705 0 705604.86042022705 7969261.9100494385 0 0 0 0 -849349.85740370397 -733604.93680095673 0 -733604.93680095673 15770040.400360107 0 0 0 0 -555749.35391153675 1785402.7353692055 0 1785402.7353692055 14626094.655914307 0 0 0 0 3433405.2717608809 -1341047.413772583 0 -1341047.413772583 15997147.791477203 0 0 0 0 258219.02410894632 2696436.4880371094 0 2696436.4880371094 7933599.5077457428 0 0 0 0 -788084.42779066786 2191659.7406349182 0 2191659.7406349182 10931854.080245972 0 0 0 0 -2281172.3226822913 2852186.6882781982 0 2852186.6882781982 15905624.402975559 0 0 0 0 -1437054.1345382854 6659303.9471416473 0 6659303.9471416473 14268131.373474121 0 0 0 0 -6059588.8830420561 8179787.1182479858 0 8179787.1182479858 25875730.956634521 0 0 0 0 -3535911.9776303843 4890135.3927459717 0 4890135.3927459717 16517325.226318359 0 0 0 0 -3686132.5313534513 4721615.839307785 0 4721615.839307785 22933117.535583496 0 0 0 0 -6608741.9803503379 6808945.3760910034 0 6808945.3760910034 22668321.281355858 0 0 0 0 -1676464.7838540226 3854889.6520385742 0 3854889.6520385742 24271447.096446991 0 0 0 0 -1806337.6329152361 523369.25450134277 0 523369.25450134277 26058485.134140015 0 0 0 0 -5262959.7930691317 3988123.3683929443 0 3988123.3683929443 28141624.926300049 0 0 0 0 -1815605.489671615 5072299.1175136566 0 5072299.1175136566 36995391.244628906 0 0 0 0 17460078.265396908 1080158.1109924316 0 1080158.1109924316 12251832.650642395 0 0 0 0 -2029520.2116447538 138527.3614654541 0 138527.3614654541 47119529.064605713 0 0 0 0 8551637.251257211 -10132675.854690552 0 -10132675.854690552 36442518.600379944 0 0 0 0 7928103.0555711687 -5079822.9464492798 0 -5079822.9464492798 21658081.580482483 0 0 0 0 1183383.1730758436 6420376.6061515808 0 6420376.6061515808 15357802.899856567 0 0 0 0 -1386079.126067549 -21461826.804862976 0 -21461826.804862976 4259003.8719062805 0 0 0 0 2790634.1503017843 5783438.3199806213 0 5783438.3199806213 13800408.826446533 0 0 0 0 3100548.5737624392 4087868.3188972473 0 4087868.3188972473 8497618.5208892822 0 0 0 0 10294186.729587942 4603008.2063751221 0 4603008.2063751221 7952155.2507553101 0 0 0 0 4516674.9995483011 -2218978.9482650757 0 -2218978.9482650757 14768726.259094238 0 0 0 0 2740525.3203692436 1049365.1335554123 0 1049365.1335554123 17804084.513473511 0 0 0 0 -1249064.654452268 3226617.0666542053 0 3226617.0666542053 6389597.2609481812 0 0 0 0 -297844.37553732097 3060958.8179855347 0 3060958.8179855347 5006527.5293121338 0 0 0 0 -437772.56277134642 6592458.0899963379 0 6592458.0899963379 11782502.838066101 0 0 0 0 -2276325.4493724778 3664297.0613250732 0 3664297.0613250732 7940213.1025781631 0 0 0 0 -2445835.3404826839 -484118.23011398315 0 -484118.23011398315 6017710.3272018433 0 0 0 0 3613.3622713342265 93074.920091047883 0 93074.920091047883 417497.89640510082 0 0 0 0 -5323333.9701200053 777727.02921295166 0 777727.02921295166 12116770.213853836 0 0 0 0 -205597.77062231675 1051057.2259140015 0 1051057.2259140015 7020132.3685131073 0 0 0 0 -24147.728933078892 162013.15795785375 0 162013.15795785375 751439.80275519751 0 0 0 0 -294605.78540755599 1656468.5340690613 0 1656468.5340690613 3903153.755065918 0 0 0 0 14231896.863722503 24448682.26525116 0 24448682.26525116 63252612.207368851 0 0 0 0 111728279.71611869 95208266.231880188 0 95208266.231880188 78970163.615036011 0 0 0 0 82814841.303229555 99857444.457878113 0 99857444.457878113 149114707.66668701 0 0 0 0 158986429.07755119 131178462.19689178 0 131178462.19689178 106113921.89616394 0 0 0 0 40254.78262875208 199792.26219820906 0 199792.26219820906 65091.439988318831 0 0 0 0 -33122319.164456844 30673103.405082703 0 30673103.405082703 -47667538.240715027 0 0 0 0 75752.504605667098 -18181.185791611671 0 -18181.185791611671 -79907.66549176909 0 0 0 0 36005369.082193457 135874825.39904165 0 135874825.39904165 -205235089.59156036 0 0 0 0 -39426119.928245902 27000774.367908478 0 27000774.367908478 -11226540.410919189 0 0 0 0 473120.61411272752 2061597.4141095444 0 2061597.4141095444 137260.66619867086 0 0 0 0 20136860.982830286 114771944.90635681 0 114771944.90635681 103587777.08215332 0 0 0 0 6299345.698703289 108568724.76295471 0 108568724.76295471 286199720.58326721 0 0 0 0 -49198.380985420197 2469881.2219543457 0 2469881.2219543457 4756250.4155426025 0 0 0 0 152839.89823337272 2514733.9129333496 0 2514733.9129333496 4399364.9953155518 0 0 0 0 158212.7159235822 2683164.6941146851 0 2683164.6941146851 3871063.4735870361 0 0 0 0 -77338.390376888216 2791719.4949264526 0 2791719.4949264526 4524762.0912094116 0 0 0 0 827085.89448840171 3837759.9540100154 0 3837759.9540100154 116817.03843133152 0 0 0 0 265927.13055062294 3852518.3557662964 0 3852518.3557662964 3419722.8314743042 0 0 0 0 905096.27229323797 4694031.8617553711 0 4694031.8617553711 4317893.5994491577 0 0 0 0 -48544924.73328644 -18484287.372158051 0 -18484287.372158051 2450760.2422637939 0 0 0 0 57226536.098954976 55383801.168985367 0 55383801.168985367 54452578.875640869 0 0 0 0 149659412.79613638 144216344.0696106 0 144216344.0696106 99427449.88494873 0 0 0 0 37689921.983070612 -5220610.8367462158 0 -5220610.8367462158 50072284.400871277 0 0 0 0 9698045.6248681545 -81712667.585891724 0 -81712667.585891724 220254.86382293701 0 0 0 0 207685242.67893171 22814078.20072937 0 22814078.20072937 -129679768.44828796 0 0 0 0 -24510703.058042049 -1566628.0534667969 0 -1566628.0534667969 38464120.518997192 0 0 0 0 42004709.784383059 -13581431.214057922 0 -13581431.214057922 -47202964.179168701 0 0 0 0 30273963.53460139 14153007.721376419 0 14153007.721376419 17869923.606811523 0 0 0 0 502723.78437714122 131376.03020692989 0 131376.03020692989 -820540.15072284825 0 0 0 0 -387267.94721883535 17169695.447452545 0 17169695.447452545 -58883779.140167236 0 0 0 0 4784354.4541801214 4123604.1120357513 0 4123604.1120357513 -26828736.633789062 0 0 0 0 1192943.2427340571 3501425.8387249261 0 3501425.8387249261 119867.84404801019 0 0 0 0 -252091.4104503952 2029890.5016511716 0 2029890.5016511716 5250916.0477745309 0 0 0 0 2153.0891146659851 3216880.4229888916 0 3216880.4229888916 -2280098.6921269894 0 0 0 0 102866.53186697626 1366542.195405921 0 1366542.195405921 3864018.1111607803 0 0 0 0 -3236451.9805002213 2936175.895149231 0 2936175.895149231 15744885.349248171 0 0 0 0 81576.904075507075 4770061.5509605408 0 4770061.5509605408 5185124.2788543701 0 0 0 0 795932.98791723233 5319969.9929238549 0 5319969.9929238549 1926004.1468647532 0 0 0 0 -271392.19371956959 4500767.5777435303 0 4500767.5777435303 4999573.2239227295 0 0 0 0 325748.1117047593 4176147.9253845215 0 4176147.9253845215 5021243.299724102 0 0 0 0 -477711.73496590555 6712188.6798858643 0 6712188.6798858643 7405988.9359254837 0 0 0 0 -263151.32275761198 4552568.2782831192 0 4552568.2782831192 4077876.5387268066 0 0 0 0 -107228.29309313165 1114663.9337348789 0 1114663.9337348789 2722059.9275066331 0 0 0 0 -6862913.5515414476 1906338.5525817871 0 1906338.5525817871 25798101.357932806 0 0 0 0 1185478.1452046409 5599916.7241363525 0 5599916.7241363525 557051.06460475922 0 0 0 0 -571909.6466705054 -1695471.325668335 0 -1695471.325668335 15831837.76399231 0 0 0 0 -11100690.190064013 6043168.7877578735 0 6043168.7877578735 12187903.116203308 0 0 0 0 -1028390.7336707711 6781545.2869224548 0 6781545.2869224548 10618926.274642944 0 0 0 0 1431844.9836314544 4941370.7092323303 0 4941370.7092323303 8499835.1790466309 0 0 0 0 -1807991.2251155376 3231934.2153549194 0 3231934.2153549194 7600301.2183456421 0 0 0 0 -588555.5414949134 9243442.6439437866 0 9243442.6439437866 4179962.1255722046 0 0 0 0 -1400200.8658830523 7721219.5412521362 0 7721219.5412521362 3274291.5002212524 0 0 0 0 -337749.18786863185 430829.12877735961 0 430829.12877735961 571863.87015295401 0 0 0 0 -11383443.198731422 15528637.081760406 0 15528637.081760406 1232125.8466339111 0 0 0 0 835051.96674729616 3321430.5216327906 0 3321430.5216327906 5196205.460474629 0 0 0 0 -1979116.6700906754 6712582.7127761841 0 6712582.7127761841 8714030.0935516357 0 0 0 0 -2989566.3431957513 13197641.710250854 0 13197641.710250854 6493534.3904266357 0 0 0 0 -25910362.283255219 1898071.0093612671 0 1898071.0093612671 16222811.218490601 0 0 0 0 -15566742.292262614 -12001170.875396729 0 -12001170.875396729 -8794505.3080749512 0 0 0 0 -50487130.5010553 -26954756.891807556 0 -26954756.891807556 1431848.8401031494 0 0 0 0 -20803819.932535648 -28159292.886657715 0 -28159292.886657715 -117853565.27038574 0 0 0 0 -44319708.214043029 -351658.94167041779 0 -351658.94167041779 4638994.9557342529 0 0 0 0 -975388.0009330078 -268767.33209590428 0 -268767.33209590428 1366195.9439700097 0 0 0 0 -17847009.060245514 -9367026.8514556885 0 -9367026.8514556885 11917575.209831238 0 0 0 0 -538219.72358319792 -1059420.2714302745 0 -1059420.2714302745 7462199.390199475 0 0 0 0 -28684258.359859064 -72478839.589298725 0 -72478839.589298725 -96667963.112197876 0 0 0 0 9133697.4792208672 -85512153.773666382 0 -85512153.773666382 -93170726.232910156 0 0 0 0 -69327549.064923033 -27952708.251451492 0 -27952708.251451492 -56291596.743057251 0 0 0 0 57450683.574011862 20179326.208873749 0 20179326.208873749 -47124055.163391113 0 0 0 0 -38114236.852775663 10327809.633220673 0 10327809.633220673 -39570611.120567322 0 0 0 0 38917847.017193377 -41570799.706230164 0 -41570799.706230164 -114880907.59390259 0 0 0 0 -22847177.316383719 -250530.04106235504 0 -250530.04106235504 46670610.365386963 0 0 0 0 -8910646.1190404892 -17132289.792770386 0 -17132289.792770386 66829332.396972656 0 0 0 0 -42521877.14225769 46329822.207977295 0 46329822.207977295 37449518.636161804 0 0 0 0 200541.99919120854 980731.90716974775 0 980731.90716974775 -11458.808885654435 0 0 0 0 -29514688.179544687 6583693.7806825638 0 6583693.7806825638 128231464.27838898 0 0 0 0 -638430.97614059609 -1008788.1949092518 0 -1008788.1949092518 8111448.198762184 0 0 0 0 -11533809.784175456 -39833524.640386105 0 -39833524.640386105 108321628.79645538 0 0 0 0 27921156.505931854 -104698419.36597443 0 -104698419.36597443 227114950.50238037 0 0 0 0 35685254.591638803 -39381173.372228622 0 -39381173.372228622 44852536.9572258 0 0 0 0 67364367.504107714 22066832.592575073 0 22066832.592575073 -96985147.862503052 0 0 0 0 -17730126.399757802 -7147134.8406858444 0 -7147134.8406858444 24429443.215911865 0 0 0 0 51422.814686059952 -10594389.518606186 0 -10594389.518606186 43025142.150402069 0 0 0 0 13473946.082815647 -8078230.9656658173 0 -8078230.9656658173 4359945.1948242188 0 0 0 0 6923549.3315703869 4222184.3332500458 0 4222184.3332500458 981110.16972351074 0 0 0 0 1640694.7555670738 11509575.922851562 0 11509575.922851562 8615691.8633899689 0 0 0 0 -4790534.7382438183 6238934.6839084625 0 6238934.6839084625 6160223.931892395 0 0 0 0 729738.49441314302 3422835.6849840395 0 3422835.6849840395 -170285.69082595035 0 0 0 0 13713913.285494328 11980410.862991333 0 11980410.862991333 -8554636.1706199646 0 0 0 0 -10971820.039041221 19240041.5905056 0 19240041.5905056 25871524.297355652 0 0 0 0 -3289582.2107255459 5175238.353225708 0 5175238.353225708 6621410.1265563965 0 0 0 0 428379.02416453359 2968544.2895482024 0 2968544.2895482024 5164695.1267024782 0 0 0 0 -3993694.886544764 5619129.5874023438 0 5619129.5874023438 10265517.243408203 0 0 0 0 2055183.0143342316 5992572.2796936035 0 5992572.2796936035 5879395.75 0 0 0 0 -20432.59538217698 -3225.8888292275369 0 -3225.8888292275369 229219.38332184218 0 0 0 0 401619.75057816505 4379296.1112041473 0 4379296.1112041473 12737027.225307465 0 0 0 0 2845477.7994573116 3650585.5630283356 0 3650585.5630283356 987250.84226226807 0 0 0 0 -293521.43729346548 167842.08223659918 0 167842.08223659918 3718711.2512218584 0 0 0 0 5241138.1546192169 -1078939.9413948059 0 -1078939.9413948059 10673041.204977989 0 0 0 0 2080970.4144868851 5123723.9216327667 0 5123723.9216327667 19745787.528644562 0 0 0 0 -1337698.7503268719 5866560.9581851959 0 5866560.9581851959 20403571.637329102 0 0 0 0 2851122.5640300512 275553.69804000854 0 275553.69804000854 12396904.285709381 0 0 0 0 -172914.62061060523 77450.822777244262 0 77450.822777244262 2030533.4492584835 0 0 0 0 -4132182.0374563932 760278.38514328003 0 760278.38514328003 34868121.028659821 0 0 0 0 -5340053.9783244133 20482447.9324646 0 20482447.9324646 47185893.912086487 0 0 0 0 3296238.0409548283 29730705.340709686 0 29730705.340709686 39581909.269554138 0 0 0 0 -102432.33612804033 48913.293200781569 0 48913.293200781569 129046.96041236445 0 0 0 0 -22438198.029345036 -25270861.883680344 0 -25270861.883680344 -2024858.6220626831 0 0 0 0 -18473780.0978477 -7634536.4400615692 0 -7634536.4400615692 26753176.742742538 0 0 0 0 -13363873.118956089 16046648.070562363 0 16046648.070562363 35755704.628559113 0 0 0 0 -9679964.0478202105 17269249.521160126 0 17269249.521160126 35675104.923233032 0 0 0 0 -2265926.2556147575 17383982.510910034 0 17383982.510910034 28228096.464857101 0 0 0 0 2016286.5967701972 24506791.749057293 0 24506791.749057293 32298335.870780945 0 0 0 0 -6060157.1755378246 13507929.576057434 0 13507929.576057434 18423570.13496685 0 0 0 0 -13208062.026897311 12340668.775186539 0 12340668.775186539 29195195.026550293 0 0 0 0 -12644250.903677702 10593604.388408661 0 10593604.388408661 34177281.510679722 0 0 0 0 4110155.8893421888 13966925.080280304 0 13966925.080280304 27304399.289705276 0 0 0 0 -12500561.596614838 18895064.095375061 0 18895064.095375061 25927232.828062057 0 0 0 0 -11241489.770256072 10728848.967851639 0 10728848.967851639 26989409.108093262 0 0 0 0 -3657789.0519693047 14407169.328248978 0 14407169.328248978 15798600.186042786 0 0 0 0 -4834918.2112480402 9640691.7485351562 0 9640691.7485351562 21170018.006561279 0 0 0 0 -70812.21577337716 589.23749107588083 0 589.23749107588083 658719.73139059776 0 0 0 0 -1988849.3173151016 5994898.8371458054 0 5994898.8371458054 5619058.6606712341 0 0 0 0 -5019501.1542921066 7817065.1623954773 0 7817065.1623954773 28580317.716125488 0 0 0 0 -1814459.4500455856 1830687.8212509155 0 1830687.8212509155 24307380.591259003 0 0 0 0 -481909.03972911835 5569140.2591896057 0 5569140.2591896057 14139690.58430481 0 0 0 0 -244341.16093349457 4679320.0808296204 0 4679320.0808296204 13683139.434043884 0 0 0 0 2059636.6873735785 11958996.325547218 0 11958996.325547218 16827920.897758484 0 0 0 0 -646724.31754938816 469521.19366873708 0 469521.19366873708 2808957.5648045018 0 0 0 0 4029087.676005125 6768210.0576591492 0 6768210.0576591492 13393977.140449524 0 0 0 0 -800651.05105439539 1081874.5343234194 0 1081874.5343234194 2279777.7817744333 0 0 0 0 -241676.04857349396 6699933.0208358765 0 6699933.0208358765 19172088.993740082 0 0 0 0 279928.64740708144 4048090.0468784096 0 4048090.0468784096 -787258.73430640192 0 0 0 0 1419733.2604474723 14506568.41782093 0 14506568.41782093 20610517.533683777 0 0 0 0 266294.88693273067 2606861.2163543701 0 2606861.2163543701 11873024.405025482 0 0 0 0 274796.2961935997 -1309104.6329269409 0 -1309104.6329269409 -3692511.1772003174 0 0 0 0 -1736046.7448047739 869474.18733939994 0 869474.18733939994 7047453.9870364331 0 0 0 0 3071351.285410881 11206370.367088318 0 11206370.367088318 -5760983.9154968262 0 0 0 0 -5211887.7307240367 7536444.3867225647 0 7536444.3867225647 46565566.619277954 0 0 0 0 575539.44182419777 10428858.337943077 0 10428858.337943077 24167633.485702515 0 0 0 0 5106516.5536062717 1091773.2291870117 0 1091773.2291870117 51833025.82510376 0 0 0 0 -6226155.2947611809 19603528.982315063 0 19603528.982315063 25996929.007385254 0 0 0 0 -3100835.2589334697 5759298.7796859741 0 5759298.7796859741 28797373.13659668 0 0 0 0 -7786068.9248681068 13830407.761817932 0 13830407.761817932 50529162.831512451 0 0 0 0 9563698.1875576973 22329438.06438446 0 22329438.06438446 21247547.106254578 0 0 0 0 463891.93401865417 3998448.14308016 0 3998448.14308016 4068903.0994941574 0 0 0 0 -1134466.0971437693 9960193.6923179626 0 9960193.6923179626 -12408609.22379303 0 0 0 0 468450.59490156174 2330054.5087356567 0 2330054.5087356567 12023590.461608887 0 0 0 0 3804262.4500541687 5395409.5704975128 0 5395409.5704975128 4585718.5558242798 0 0 0 0 -17292954.003258586 21854209.06451416 0 21854209.06451416 25777642.976340294 0 0 0 0 -18302954.807968259 9500323.5556640625 0 9500323.5556640625 27895953.639411926 0 0 0 0 -222751.5869890399 -7377.151782412082 0 -7377.151782412082 507081.35251916759 0 0 0 0 14331632.328202128 23947666.366043091 0 23947666.366043091 -8784726.5792160034 0 0 0 0 -9187031.0478530526 26101611.406772614 0 26101611.406772614 34287130.05871582 0 0 0 0 697482.45525039767 3995619.5690254904 0 3995619.5690254904 3710173.7183384546 0 0 0 0 1863736.9269835949 -247319.34687042236 0 -247319.34687042236 -23618900.653906822 0 0 0 0 20348472.945447326 -133707.71284484863 0 -133707.71284484863 -26546468.718536377 0 0 0 0 3250584.6472421885 3497335.1422567368 0 3497335.1422567368 6827503.5383605957 0 0 0 0 -21687704.162133515 10077924.976821899 0 10077924.976821899 147840015.73932648 0 0 0 0 -9851867.1909633875 61152031.318000793 0 61152031.318000793 57274040.089828491 0 0 0 0 15810102.354628086 41674041.986534119 0 41674041.986534119 60824723.442249298 0 0 0 0 10196570.034330606 7956943.3678131104 0 7956943.3678131104 146879759.84390259 0 0 0 0 1891776.043397069 3759279.1894302368 0 3759279.1894302368 51306594.662506104 0 0 0 0 22359765.203203321 7217450.6751327515 0 7217450.6751327515 51875147.339271545 0 0 0 0 364379.11800024728 134510.31306027807 0 134510.31306027807 792001.14134678431 0 0 0 0 -7738467.1662681699 11228339.546482086 0 11228339.546482086 91586798.189430237 0 0 0 0 -19051380.025557518 -15039664.805725098 0 -15039664.805725098 123092006.36079407 0 0 0 0 75408333.146775484 -60217319.104942322 0 -60217319.104942322 136633221.48996735 0 0 0 0 169959.69227375736 16518.136199563742 0 16518.136199563742 232456.6855612807 0 0 0 0 195946332.96035501 51815895.063392639 0 51815895.063392639 -182956455.52374268 0 0 0 0 -65631198.553659439 -1845393.9757537842 0 -1845393.9757537842 312245994.33400726 0 0 0 0 52774844.963603981 23463776.108894348 0 23463776.108894348 34571543.595397949 0 0 0 0 -73327410.346043289 -8403737.9295539856 0 -8403737.9295539856 37055305.718070984 0 0 0 0 -43858032.087005541 79043297.413589001 0 79043297.413589001 -68363254.164093018 0 0 0 0 -29046638.921578407 8237502.2814025879 0 8237502.2814025879 13718739.618026733 0 0 0 0 405777.75164727727 341117.50675966963 0 341117.50675966963 1530873.5521213822 0 0 0 0 -8150094.6326855421 16989771.742023468 0 16989771.742023468 -30267195.062194824 0 0 0 0 -3167598.3264878988 -5237442.7714195251 0 -5237442.7714195251 66107012.403972626 0 0 0 0 -9060641.5940810442 14715471.138015747 0 14715471.138015747 56830225.260177612 0 0 0 0 6420242.2537352443 -2385545.0202178955 0 -2385545.0202178955 57669876.15776825 0 0 0 0 5007368.5706512928 -23574874.151039124 0 -23574874.151039124 88913940.110748291 0 0 0 0 -29301405.054599404 2161397.1865158081 0 2161397.1865158081 24049214.067012787 0 0 0 0 -12533903.279094458 -6558001.4242172241 0 -6558001.4242172241 28571368.737197876 0 0 0 0 -12325722.252833366 -1582209.7280006409 0 -1582209.7280006409 19695430.491928101 0 0 0 0 -12653651.015594125 6181312.6089477539 0 6181312.6089477539 28145899.52280426 0 0 0 0 -10778789.113264233 11091860.520124912 0 11091860.520124912 20867784.237976074 0 0 0 0 -31952844.323336124 15641386.581176758 0 15641386.581176758 10303600.481948853 0 0 0 0 -13305888.983280778 4494241.8675689697 0 4494241.8675689697 8274454.6778640747 0 0 0 0 -52217754.179938257 -4300217.2558059692 0 -4300217.2558059692 55978557.711532593 0 0 0 0 -43157979.91675365 11450856.042541504 0 11450856.042541504 19788261.793338776 0 0 0 0 -34673842.623976439 -28927088.836105347 0 -28927088.836105347 82896599.864097595 0 0 0 0 12822939.394947127 -22829008.189434052 0 -22829008.189434052 36204439.558570862 0 0 0 0 -18071434.187928945 -9721194.4868087769 0 -9721194.4868087769 32108620.295814514 0 0 0 0 -19105057.499490649 -22494134.376167297 0 -22494134.376167297 39593049.730438232 0 0 0 0 -23439928.446670055 -14078432.034103394 0 -14078432.034103394 27742992.98387146 0 0 0 0 3316467.8981550187 -15771783.148994446 0 -15771783.148994446 19691066.398208618 0 0 0 0 -28210091.77251666 -5659068.5277528763 0 -5659068.5277528763 36722915.566329956 0 0 0 0 -31834647.915737569 -12923781.819168091 0 -12923781.819168091 32542625.877716064 0 0 0 0 -31941788.506805062 -11017335.965141296 0 -11017335.965141296 30668939.475547791 0 0 0 0 -19807027.223239183 -9336196.8849105835 0 -9336196.8849105835 26290549.092285156 0 0 0 0 -33222982.088923275 -12499793.197624207 0 -12499793.197624207 30107259.243255615 0 0 0 0 -41072980.807566829 4121325.6402435303 0 4121325.6402435303 12674989.312774658 0 0 0 0 -16711702.671062589 9186740.2601470947 0 9186740.2601470947 13578042.415924072 0 0 0 0 -21998329.927992754 76974874.611968994 0 76974874.611968994 -296150.47602844238 0 0 0 0 -61821057.730946794 35509539.950637817 0 35509539.950637817 7405515.6398849487 0 0 0 0 -22281089.920864284 8967940.1768493652 0 8967940.1768493652 -4164414.20753479 0 0 0 0 -45486973.238370039 10915961.574630737 0 10915961.574630737 37835731.686035156 0 0 0 0 -13489.494571255254 -35734.84231073875 0 -35734.84231073875 -126329.83854611963 0 0 0 0 -90351507.55529134 88345069.280670166 0 88345069.280670166 2195831.1070556641 0 0 0 0 42794931.177213706 -87641658.976466179 0 -87641658.976466179 -156745526.4894104 0 0 0 0 -150362195.34077486 31085142.200630188 0 31085142.200630188 33961508.001895905 0 0 0 0 -13482734.107569396 43796034.507743835 0 43796034.507743835 -116061423.43588638 0 0 0 0 -66263929.216031164 -68666711.668952942 0 -68666711.668952942 17705710.288452148 0 0 0 0 -86091.471711016085 86570.676743537188 0 86570.676743537188 278565.15434168093 0 0 0 0 -17922335.767655134 84381539.470970154 0 84381539.470970154 -322244174.75626755 0 0 0 0 -21141024.994865894 2206588.0679893494 0 2206588.0679893494 44112298.455085754 0 0 0 0 557504.64065745985 2055629.247344641 0 2055629.247344641 771254.58848835062 0 0 0 0 -974005.34303343296 -1334535.9259855151 0 -1334535.9259855151 1188174.6104795691 0 0 0 0 13636.615251541138 796572.77053070068 0 796572.77053070068 3085901.3775558472 0 0 0 0 -2482165.4681715965 -4554640.7813110352 0 -4554640.7813110352 29514713.303390503 0 0 0 0 -21131221.450157434 -4993498.1898241043 0 -4993498.1898241043 33914015.873092651 0 0 0 0 5065138.7421162128 16392704.483009338 0 16392704.483009338 36348900.10308075 0 0 0 0 -1251378.740481792 -947229.95219812356 0 -947229.95219812356 1878013.7838082574 0 0 0 0 1548937.1430616379 15573240.73049736 0 15573240.73049736 35749736.78086853 0 0 0 0 -2518595.0435817242 -311080.27057647705 0 -311080.27057647705 32303639.510818481 0 0 0 0 -268551.3863068074 12916334.864714622 0 12916334.864714622 44434670.319137573 0 0 0 0 -501242.05812883377 1073136.2179641724 0 1073136.2179641724 3314543.5360450745 0 0 0 0 251856.05236673355 618850.94957065582 0 618850.94957065582 2258583.30128479 0 0 0 0 397201.350103467 2342047.4412134551 0 2342047.4412134551 1512473.5366489859 0 0 0 0 -3203490.5587484539 27399995.063747406 0 27399995.063747406 -90124319.179832458 0 0 0 0 -1408752.4447844028 15989673.847419739 0 15989673.847419739 -69180890.03717804 0 0 0 0 -9640627.0430963784 13060218.287380219 0 13060218.287380219 -57284965.364448547 0 0 0 0 -40300575.299176991 6500281.1108322144 0 6500281.1108322144 -58221923.063903809 0 0 0 0 -1229936.0875983983 7030844.0661268234 0 7030844.0661268234 -67120852.134674072 0 0 0 0 -8902774.2364489436 20420243.859725952 0 20420243.859725952 -35623182.511688232 0 0 0 0 14622544.713724256 19645216.356864929 0 19645216.356864929 -69258934.296165466 0 0 0 0 12778747.013552666 12124182.090419769 0 12124182.090419769 -32495740.518753052 0 0 0 0 -2533105.9070585966 3596065.2017555237 0 3596065.2017555237 -6552995.5154762268 0 0 0 0 -3942602.1089127064 27299680.12197876 0 27299680.12197876 -50811.88020324707 0 0 0 0 11360878.537166756 20552105.581250548 0 20552105.581250548 2714311.3235549927 0 0 0 0 -12119314.581986278 -29724940.158473969 0 -29724940.158473969 6538650.7294063568 0 0 0 0 -16625338.863102943 9261678.5877587795 0 9261678.5877587795 10540280.333770752 0 0 0 0 -39537326.873733997 33700846.02671051 0 33700846.02671051 -23621334.225353241 0 0 0 0 7766230.5656739296 -1534619.0993499756 0 -1534619.0993499756 -14450258.080839157 0 0 0 0 -39785179.022489674 -43907099.029761747 0 -43907099.029761747 -51937943.037139893 0 0 0 0 -37907.670279513986 -39333.980208443478 0 -39333.980208443478 -48066.370958629996 0 0 0 0 -54097936.977601953 67011364.085821152 0 67011364.085821152 -44380336.302276611 0 0 0 0 -19637912.368939839 -34244904.948648453 0 -34244904.948648453 16591076.944854736 0 0 0 0 -105342301.09486996 80769448.358009338 0 80769448.358009338 42021541.685394287 0 0 0 0 -14809436.047163308 53647236.489982605 0 53647236.489982605 -57140111.853027344 0 0 0 0 -91870203.017839134 148466390.14080811 0 148466390.14080811 -24438123.322631836 0 0 0 0 83949862.801265672 17954572.752544403 0 17954572.752544403 -50324212.929344177 0 0 0 0 2062934.6432516291 727048.3436050415 0 727048.3436050415 -40336376.717292786 0 0 0 0 -47430378.646275684 -11903157.323806763 0 -11903157.323806763 -5128752.3787536621 0 0 0 0 -2455.5515264110186 -67817.593480223353 0 -67817.593480223353 -8815.7757952809334 0 0 0 0 -12030.474703931257 -193563.68859327826 0 -193563.68859327826 -2326.2403413318098 0 0 0 0 89243689.380008325 -18071358.526069641 0 -18071358.526069641 -46397095.790691376 0 0 0 0 11274491.56815641 26539756.687507629 0 26539756.687507629 31599440.074317932 0 0 0 0 5822549.3778338432 -14856054.795038223 0 -14856054.795038223 16282039.50353241 0 0 0 0 43526654.060382888 -49154023.544048309 0 -49154023.544048309 -4300194.399887085 0 0 0 0 -44722805.077996507 -7003317.5659079552 0 -7003317.5659079552 44081284.935096741 0 0 0 0 39980614.766901232 -52868383.72158432 0 -52868383.72158432 5459378.2883453369 0 0 0 0 -30008.021985078602 -262849.830686923 0 -262849.830686923 19886.957610104233 0 0 0 0 22788579.678850524 3261942.4691543579 0 3261942.4691543579 528366.97210693359 0 0 0 0 41939952.604879588 -18718827.481071472 0 -18718827.481071472 -235473.32106018066 0 0 0 0 33935347.712293953 -25414707.089805603 0 -25414707.089805603 -598567.07520294189 0 0 0 0 9893518.6016939431 -27815777.952209473 0 -27815777.952209473 8507945.8623657227 0 0 0 0 -22488.27025656178 -24642.693510986865 0 -24642.693510986865 49200.15028408682 0 0 0 0 100156990.30882746 -60586841.558408737 0 -60586841.558408737 36849202.59828949 0 0 0 0 36146047.391187787 -37026579.046531677 0 -37026579.046531677 -96676995.665499687 0 0 0 0 57690749.310973674 -71944737.016654968 0 -71944737.016654968 8273092.5502102375 0 0 0 0 32711776.523882255 -63645162.825721741 0 -63645162.825721741 8496646.9670085907 0 0 0 0 92188765.73117128 30602710.384239197 0 30602710.384239197 64543349.955249786 0 0 0 0 39005101.69210045 -90487708.597938538 0 -90487708.597938538 107096810.96056366 0 0 0 0 26378589.176407009 -7382667.5048828125 0 -7382667.5048828125 45006815.190490723 0 0 0 0 28493231.956037164 -6322905.9908599854 0 -6322905.9908599854 -9674201.2724876404 0 0 0 0 2748707.748315081 24404780.349674225 0 24404780.349674225 5673723.1031455994 0 0 0 0 78829989.446042538 3626060.4199714661 0 3626060.4199714661 -319618.4010848999 0 0 0 0 41825461.99356319 10223561.644176483 0 10223561.644176483 5833136.0040817261 0 0 0 0 37760847.608395547 19930653.432323456 0 19930653.432323456 697460.34898376465 0 0 0 0 53401385.224763274 7560797.2146682739 0 7560797.2146682739 -2984218.06108284 0 0 0 0 40973740.25073994 23597579.413991928 0 23597579.413991928 960209.3687210083 0 0 0 0 36101872.368167713 34529910.362190247 0 34529910.362190247 2243796.9083871841 0 0 0 0 28579712.14937209 15805953.604604721 0 15805953.604604721 -11549281.741592407 0 0 0 0 62004715.862098686 35007229.435287476 0 35007229.435287476 -16283416.211414337 0 0 0 0 40336915.134258121 28887043.458454132 0 28887043.458454132 -13551721.261962891 0 0 0 0 38671273.97879988 892083.7542591095 0 892083.7542591095 -20440176.021881104 0 0 0 0 29129433.995364688 19861242.871803284 0 19861242.871803284 -35814787.162258148 0 0 0 0 10466620.426719777 -15800503.555793762 0 -15800503.555793762 -14426703.479438782 0 0 0 0 -26147229.942387611 57078676.630531311 0 57078676.630531311 -10617763.785234451 0 0 0 0 -4572522.2485777661 13399570.19235611 0 13399570.19235611 -20833972.454273224 0 0 0 0 -8990527.598041594 65560717.925645828 0 65560717.925645828 -41007565.909751892 0 0 0 0 50287.568150472522 33657.193259080872 0 33657.193259080872 -82538.806863851845 0 0 0 0 -4090164.1565024592 10367682.540378571 0 10367682.540378571 -2162122.2490997314 0 0 0 0 33243381.401213236 1194080.4978218079 0 1194080.4978218079 -9792255.4349060059 0 0 0 0 34360.647960069466 33883.626619122922 0 33883.626619122922 -11947.697376038879 0 0 0 0 -103301314.10100228 118444709.29539776 0 118444709.29539776 67117660.605178833 0 0 0 0 106044993.65396717 27517979.26738739 0 27517979.26738739 -1188394.6062927246 0 0 0 0 9282916.0352079794 16772449.595991135 0 16772449.595991135 -65370189.972991943 0 0 0 0 -21678182.354164124 -23234242.38130188 0 -23234242.38130188 1661138.2798919678 0 0 0 0 56820277.045351386 14922324.32806778 0 14922324.32806778 17211865.032394409 0 0 0 0 3745394.1896115094 -3679314.2009830475 0 -3679314.2009830475 118438028.4161377 0 0 0 0 72313651.91577816 -33753811.185600281 0 -33753811.185600281 80655177.747833252 0 0 0 0 56323144.211249724 79720611.617304802 0 79720611.617304802 280665079.25256348 0 0 0 0 48769880.796285212 19349409.360473633 0 19349409.360473633 55458345.030105591 0 0 0 0 69520511.785889462 141110450.59582782 0 141110450.59582782 62086946.566230774 0 0 0 0 -26436802.299977329 1977145.6968646049 0 1977145.6968646049 177422293.24271393 0 0 0 0 11288453.64854005 10670184.979667664 0 10670184.979667664 45129932.839544296 0 0 0 0 52852258.969045646 80255114.114509583 0 80255114.114509583 87360450.405730605 0 0 0 0 -3045813.5913788937 14610335.144134521 0 14610335.144134521 87671834.521652222 0 0 0 0 3352732.5827679373 20623810.829658508 0 20623810.829658508 60952473.026329041 0 0 0 0 199288.79550720379 9117915.4577884674 0 9117915.4577884674 38090867.38482666 0 0 0 0 18255246.686617523 26166558.267147064 0 26166558.267147064 23485049.408332825 0 0 0 0 25633423.113925092 39784831.619506836 0 39784831.619506836 46329183.917736053 0 0 0 0 31520689.6559157 30066613.542701721 0 30066613.542701721 22918709.971687317 0 0 0 0 39458146.157991037 43788675.425359726 0 43788675.425359726 26343067.594558716 0 0 0 0 27789699.523944471 40337136.232786179 0 40337136.232786179 25855222.323104858 0 0 0 0 570893.80458012223 12734008.463058472 0 12734008.463058472 7591909.8009986877 0 0 0 0 15996404.282432556 10072590.940757751 0 10072590.940757751 13438360.519302368 0 0 0 0 20472852.175019324 18917476.080799103 0 18917476.080799103 17199981.608888626 0 0 0 0 18870950.420570001 19184496.394359589 0 19184496.394359589 39890171.75352478 0 0 0 0 5293440.4284478575 4695976.9160690308 0 4695976.9160690308 41068379.252593994 0 0 0 0 7653828.4928370714 -1792913.8182754517 0 -1792913.8182754517 30862759.739830017 0 0 0 0 5541.7498268574818 31191.716429136693 0 31191.716429136693 133834.83568477444 0 0 0 0 9720168.1131387334 -8218840.8438339233 0 -8218840.8438339233 -8477523.7457962036 0 0 0 0 8072.8760587568941 -15652.195451308042 0 -15652.195451308042 24430.44050873816 0 0 0 0 -1050042.2820718624 -20043182.454174995 0 -20043182.454174995 6736226.3825912476 0 0 0 0 1597427.2691637622 14281947.317403793 0 14281947.317403793 24941556.417602539 0 0 0 0 523980.49276440591 16840005.459564209 0 16840005.459564209 39683282.117336273 0 0 0 0 -1864293.7469081059 6128377.7819824219 0 6128377.7819824219 10034553.358043313 0 0 0 0 -7573982.8152781837 6518830.8018951416 0 6518830.8018951416 25747006.881828308 0 0 0 0 15226.32831172791 -33573.999933935702 0 -33573.999933935702 52815.112390697002 0 0 0 0 -11474275.911509471 -8266811.3562240601 0 -8266811.3562240601 9742367.8012170792 0 0 0 0 -9385668.0660996549 -7317661.2646484375 0 -7317661.2646484375 10900082.364471436 0 0 0 0 9909421.5457056612 -519315.78496170044 0 -519315.78496170044 9611623.9716463089 0 0 0 0 -2576593.0336700045 9616815.7681484222 0 9616815.7681484222 34307193.342178345 0 0 0 0 4591436.149768725 -12273309.48948288 0 -12273309.48948288 54101360.269573212 0 0 0 0 26558304.396822795 -3659694.8223724365 0 -3659694.8223724365 30008371.161777496 0 0 0 0 5043099.2117679268 11068615.190873146 0 11068615.190873146 20770300.135559082 0 0 0 0 16037292.661288679 4153721.5705795288 0 4153721.5705795288 11617158.487556458 0 0 0 0 25365830.418767944 19665240.783985138 0 19665240.783985138 10125232.680686951 0 0 0 0 39925970.224718481 15028013.052116394 0 15028013.052116394 10452159.125763416 0 0 0 0 23648327.001690306 7729871.8621969223 0 7729871.8621969223 14356393.764389038 0 0 0 0 42592397.859147444 -5767425.1738815308 0 -5767425.1738815308 23759957.524452209 0 0 0 0 55223202.834432893 -25904543.300281525 0 -25904543.300281525 38059999.451286316 0 0 0 0 43032610.194414467 -11105203.109115601 0 -11105203.109115601 20155499.769363403 0 0 0 0 28310801.334932379 -25582533.676969528 0 -25582533.676969528 54839291.234794617 0 0 0 0 3552086.7809441388 -16516882.718452454 0 -16516882.718452454 60892749.646278381 0 0 0 0 104965214.86632107 -45912860.786601543 0 -45912860.786601543 32951801.497337341 0 0 0 0 33817059.034244731 -57518646.798707962 0 -57518646.798707962 114131371.69046783 0 0 0 0 -3479544.2876445949 19751021.170455933 0 19751021.170455933 118044225.85273671 0 0 0 0 9697546.4211005494 1659122.7705669403 0 1659122.7705669403 30205256.984298706 0 0 0 0 -29251.724208115134 -32800.645408220589 0 -32800.645408220589 156742.58766232932 0 0 0 0 27421.837014341145 -66189.643811685033 0 -66189.643811685033 112281.66281937808 0 0 0 0 976201.64525577426 275161.52307510376 0 275161.52307510376 38546150.713034868 0 0 0 0 -8947.7438194148635 -18202.22246536985 0 -18202.22246536985 103086.60261334199 0 0 0 0 -6012525.6342302002 5456946.2773685455 0 5456946.2773685455 65917154.709274292 0 0 0 0 -1324626.9907258451 -11575283.465707779 0 -11575283.465707779 57429334.32207489 0 0 0 0 2727457.4927349389 -16637926.690830231 0 -16637926.690830231 63582256.000990868 0 0 0 0 5236390.0076137483 -4947044.2030258179 0 -4947044.2030258179 36506087.267341614 0 0 0 0 -1154303.4515697882 -13257063.537017822 0 -13257063.537017822 57416841.037483215 0 0 0 0 603822.57379846741 -16965323.477099419 0 -16965323.477099419 63076955.714820862 0 0 0 0 9945756.182049619 -4778216.3174781799 0 -4778216.3174781799 47301955.793281555 0 0 0 0 8826751.173663903 -15535140.440446854 0 -15535140.440446854 54799364.2719841 0 0 0 0 -128877.3023264017 -6281595.2608795166 0 -6281595.2608795166 48783613.415901184 0 0 0 0 1303220.4044771381 -8468615.7744636536 0 -8468615.7744636536 48965778.430938721 0 0 0 0 -1457175.3672407288 2343907.4550209045 0 2343907.4550209045 45210617.657150269 0 0 0 0 1619815.1064876392 -7064448.5019302368 0 -7064448.5019302368 50437308.08782196 0 0 0 0 434773.02171328198 -1101881.1461701393 0 -1101881.1461701393 43384494.742759705 0 0 0 0 536746.55375527591 -2723056.1215438843 0 -2723056.1215438843 41646834.41210556 0 0 0 0 -1050272.1958273146 2094305.7132072449 0 2094305.7132072449 38835151.111618042 0 0 0 0 2448344.2579064295 -791011.636302948 0 -791011.636302948 35953797.452545166 0 0 0 0 -2086.4734379935762 -11106.36219002679 0 -11106.36219002679 60034.131993653718 0 0 0 0 -1924589.5873084986 5833555.3829116821 0 5833555.3829116821 24759233.369483948 0 0 0 0 -2020480.589872235 857273.01431274414 0 857273.01431274414 36431069.392883301 0 0 0 0 1034422.0207844153 1187919.8664550781 0 1187919.8664550781 34095073.39164114 0 0 0 0 -112.64795167195462 -4649.6842638812959 0 -4649.6842638812959 20361.119835093385 0 0 0 0 -1543365.8727719411 -907204.50042724609 0 -907204.50042724609 4636795.7699899673 0 0 0 0 901832.65649270872 90497.951660633087 0 90497.951660633087 35825990.815383911 0 0 0 0 -3197595.5934199085 -2979244.5079879761 0 -2979244.5079879761 43134706.151603699 0 0 0 0 -1350.6411907045467 -3130273.9048690796 0 -3130273.9048690796 35190170.517116547 0 0 0 0 887955.11620709859 -1366662.0459594727 0 -1366662.0459594727 43756642.737733841 0 0 0 0 -4439.3155002410103 -4650538.9268798828 0 -4650538.9268798828 47687301.431148529 0 0 0 0 865183.03188982233 -5436812.5240936279 0 -5436812.5240936279 46486454.32749939 0 0 0 0 2501.6802606157121 -4279334.325252533 0 -4279334.325252533 45880157.618209839 0 0 0 0 3664655.2695769733 -7210918.9484519958 0 -7210918.9484519958 34913367.878860474 0 0 0 0 1268614.251981928 -3909914.0487060547 0 -3909914.0487060547 52153773.6431427 0 0 0 0 9224573.3235555869 -15937753.929725051 0 -15937753.929725051 32718933.989784241 0 0 0 0 9320383.68351366 -14579128.199716568 0 -14579128.199716568 -7457464.8930511475 0 0 0 0 -4956879.6387805501 4578709.4349422455 0 4578709.4349422455 72360991.707771301 0 0 0 0 7067.4814889789068 -17451.627405108884 0 -17451.627405108884 29398.188350435346 0 0 0 0 4438832.2523353072 -11053987.995441437 0 -11053987.995441437 50796455.073352814 0 0 0 0 16870855.419002373 -2327297.0652313232 0 -2327297.0652313232 14917776.144805908 0 0 0 0 -11781843.093525179 2111990.4812700748 0 2111990.4812700748 24790729.568336487 0 0 0 0 1125332.5695693227 3258259.6686868668 0 3258259.6686868668 28353922.889579773 0 0 0 0 -2595839.3578356523 8906354.9275245667 0 8906354.9275245667 19929728.112686157 0 0 0 0 465131.50391124468 4457527.0537261963 0 4457527.0537261963 49855153.210784912 0 0 0 0 -2981307.8004146228 -4082487.5374336243 0 -4082487.5374336243 40354547.070831299 0 0 0 0 13926104.18421784 6134702.659778595 0 6134702.659778595 33975830.38028717 0 0 0 0 875.68321267918373 305022.96380615234 0 305022.96380615234 34317823.485305786 0 0 0 0 646183.80958704522 -7241928.9570007324 0 -7241928.9570007324 25493942.457782745 0 0 0 0 4001414.4138323269 -2788907.5663013458 0 -2788907.5663013458 35717297.235572815 0 0 0 0 -450660.42361450195 8778189.2609786987 0 8778189.2609786987 -5879773.1168394089 0 0 0 0 -1058796.6287059784 11949835.812232971 0 11949835.812232971 -625307.25196075439 0 0 0 0 6279463.7459878922 13121879.136043549 0 13121879.136043549 -655106.51930654049 0 0 0 0 -6278746.5448894501 13768103.378978729 0 13768103.378978729 4822898.220035553 0 0 0 0 -6489536.0440020561 13433475.587493896 0 13433475.587493896 5613594.5196990967 0 0 0 0 -7983472.3412284851 10576695.54076767 0 10576695.54076767 4581898.3168258667 0 0 0 0 -4255003.1953611374 10890092.620182037 0 10890092.620182037 347634.36121368408 0 0 0 0 -3933750.7941818237 10698510.171798706 0 10698510.171798706 -1234930.4751739502 0 0 0 0 -525752.85398709774 15285156.373549998 0 15285156.373549998 1521760.2473907471 0 0 0 0 -6118161.6769332886 9730817.6724853516 0 9730817.6724853516 633330.25762939453 0 0 0 0 32734623.521989822 -34192908.26909256 0 -34192908.26909256 -69010698.557987213 0 0 0 0 186595.71361967083 2904749.1476790896 0 2904749.1476790896 5603374.8489010138 0 0 0 0 -4483560.4046020508 10025962.066520691 0 10025962.066520691 686412.54250717163 0 0 0 0 -8551866.1668510437 9866618.0044670105 0 9866618.0044670105 -11935080.870624542 0 0 0 0 -2878845.6926689148 -4885163.6921310425 0 -4885163.6921310425 26232982.732528687 0 0 0 0 35271691.981231689 -155866172.92630768 0 -155866172.92630768 10524578.674744606 0 0 0 0 22243271.439277649 6086982.7547302246 0 6086982.7547302246 -7177435.4665002823 0 0 0 0 12550818.824240685 -1450858.9610404968 0 -1450858.9610404968 143860585.41113281 0 0 0 0 12101097.264484406 -187629.60011672974 0 -187629.60011672974 151120425.06298828 0 0 0 0 22320935.346651196 127145812.20918417 0 127145812.20918417 -11459755.849658966 0 0 0 0 -31868427.297470093 28917972.672576904 0 28917972.672576904 349117333.9214325 0 0 0 0 -8926962.9858474731 -211563830.11993408 0 -211563830.11993408 101721385.19894791 0 0 0 0 -72790178.092025757 -195144950.15666199 0 -195144950.15666199 272844235.70636559 0 0 0 0 -7584033.7644252777 2674438.5997161865 0 2674438.5997161865 -6033774.1519136429 0 0 0 0 -3822843.93409729 9541958.9977645874 0 9541958.9977645874 -300100.69140625 0 0 0 0 1314436.8135250486 4059146.358166419 0 4059146.358166419 6028367.3352368325 0 0 0 0 8839410.4971914291 4489444.0507221222 0 4489444.0507221222 -26304700.294960022 0 0 0 0 -4374562.8029669458 1500775.4960652962 0 1500775.4960652962 8549166.1742320899 0 0 0 0 -26174694.653591156 -13742113.4295578 0 -13742113.4295578 39360686.621985435 0 0 0 0 -1574094.6572883129 3605532.3346252441 0 3605532.3346252441 6733974.8199920654 0 0 0 0 -1005018.5791918432 5325221.6222268101 0 5325221.6222268101 4557312.4403938241 0 0 0 0 -3325320.2149639488 -53242.529274461791 0 -53242.529274461791 10916586.061916627 0 0 0 0 7212698.2184621692 -23526644.018916488 0 -23526644.018916488 -39838312.410514832 0 0 0 0 10596724.327279091 18324610.405097961 0 18324610.405097961 -8324113.7820358276 0 0 0 0 10201547.744916916 11560787.732398987 0 11560787.732398987 -21266429.775886536 0 0 0 0 442074.55470466614 11764769.542959213 0 11764769.542959213 6310862.7850456238 0 0 0 0 18907654.018945694 19750598.432611465 0 19750598.432611465 8018318.151889801 0 0 0 0 73390339.441421032 -24254599.318836212 0 -24254599.318836212 6894817.9663696289 0 0 0 0 -8115215.9503517151 4452058.6452827454 0 4452058.6452827454 -1019851.1777801514 0 0 0 0 -11116161.947712898 -7385042.8763332367 0 -7385042.8763332367 122883696.85503387 0 0 0 0 -7082067.48001194 2101529.2383232117 0 2101529.2383232117 89487750.166057587 0 0 0 0 43012843.839774847 57257081.749361038 0 57257081.749361038 63918833.019920349 0 0 0 0 -8548054.2096357346 -6941488.8123817444 0 -6941488.8123817444 34212900.432956696 0 0 0 0 -9906896.0450630188 12446153.759658813 0 12446153.759658813 53989435.436058044 0 0 0 0 -1038120.8505415916 20810480.709089279 0 20810480.709089279 11292523.242919922 0 0 0 0 -10759350.473317146 12645790.049980164 0 12645790.049980164 20726125.933162689 0 0 0 0 -9815185.8031482697 7126422.4822854996 0 7126422.4822854996 16537049.874069214 0 0 0 0 -12832514.368556023 5660310.4426460266 0 5660310.4426460266 22723035.026390076 0 0 0 0 -14729084.756279945 -147495.98160934448 0 -147495.98160934448 5728643.7403964996 0 0 0 0 20166799.56444931 27061601.533687592 0 27061601.533687592 14359824.806702614 0 0 0 0 -2604480.9139604568 6525392.5991096497 0 6525392.5991096497 9986651.0613384247 0 0 0 0 -13949716.067265511 6481572.2131385803 0 6481572.2131385803 6563790.3623809814 0 0 0 0 -1038755.9382021064 2701068.7404094785 0 2701068.7404094785 2131193.7986599244 0 0 0 0 -11332044.539725304 9293351.8155975342 0 9293351.8155975342 8964309.1638536453 0 0 0 0 -11534494.869076014 9559569.8600006104 0 9559569.8600006104 8614331.9751739502 0 0 0 0 107111.59025838424 2654733.4190182202 0 2654733.4190182202 9898265.9932982065 0 0 0 0 -34981182.426652908 58050373.480443954 0 58050373.480443954 28678115.934604645 0 0 0 0 3098048.6525154114 2151302.1483345032 0 2151302.1483345032 -16461839.622852325 0 0 0 0 10044561.511352062 -4678816.4672679901 0 -4678816.4672679901 -20275199.565921783 0 0 0 0 671006.629473601 726876.5518857562 0 726876.5518857562 -1006652.3014956377 0 0 0 0 -39240076.544107914 9635664.4315195084 0 9635664.4315195084 15337707.772033691 0 0 0 0 -21844146.681954384 3076887.2994432449 0 3076887.2994432449 10327929.200480461 0 0 0 0 -30839716.779600143 -13520266.721114159 0 -13520266.721114159 19216736.506385803 0 0 0 0 -2245514.7712945938 -3973858.8932218552 0 -3973858.8932218552 4359958.4667854309 0 0 0 0 -1949701.1426382065 -17288794.699072838 0 -17288794.699072838 -234982.97351741791 0 0 0 0 -429229.18164348602 3900212.8013162613 0 3900212.8013162613 13382747.200180054 0 0 0 0 -405610.95894486387 1831223.3646209144 0 1831223.3646209144 9162858.9223242477 0 0 0 0 -9176203.1827483177 14968535.226055145 0 14968535.226055145 -2701513.5160751343 0 0 0 0 -2532639.7214782536 -1159272.6230759621 0 -1159272.6230759621 14241731.646686554 0 0 0 0 4571080.0863361359 -9355874.4475717545 0 -9355874.4475717545 24220700.572816849 0 0 0 0 -233822.02700239746 336383.20768242935 0 336383.20768242935 3261036.5119195064 0 0 0 0 -4408947.8167057037 2456791.539522171 0 2456791.539522171 19678071.485744476 0 0 0 0 4044316.7675273418 1012324.6206922531 0 1012324.6206922531 8022262.8418159485 0 0 0 0 3910482.2062296867 539517.08563804626 0 539517.08563804626 11652772.587005615 0 0 0 0 18224749.455480576 -10458124.198534012 0 -10458124.198534012 3710313.473783493 0 0 0 0 12113854.318076134 28091615.350603104 0 28091615.350603104 12806142.533092499 0 0 0 0 -4464930.478209734 7047106.3287525177 0 7047106.3287525177 4774616.3238449097 0 0 0 0 2108684.3619861603 10272379.388916016 0 10272379.388916016 1347758.1049928665 0 0 0 0 -8929555.4916419983 8528254.0378837585 0 8528254.0378837585 1494992.9189605713 0 0 0 0 -762689.68618377903 544498.44055935089 0 544498.44055935089 1131376.5144757628 0 0 0 0 -8058136.156252861 13824988.076086044 0 13824988.076086044 603469.06197357178 0 0 0 0 -10897423.627262115 14684681.920883179 0 14684681.920883179 9789299.2618303299 0 0 0 0 -249113.88979384885 4952626.2982796682 0 4952626.2982796682 -1084819.2969380096 0 0 0 0 -852279.23609447479 5572755.0241279602 0 5572755.0241279602 2466597.5503044128 0 0 0 0 -176790.22970199585 6066984.7005157471 0 6066984.7005157471 -2592483.7894744873 0 0 0 0 707767.13341123261 3504255.3211876675 0 3504255.3211876675 824108.00627999566 0 0 0 0 -270655.63759529591 2975405.7742443085 0 2975405.7742443085 -317009.47023010254 0 0 0 0 91794.859354511718 2601110.9324728977 0 2601110.9324728977 2867846.2086285129 0 0 0 0 -1867917.924393177 -155820.47141265869 0 -155820.47141265869 2315478.1050777435 0 0 0 0 -340131.80391454697 1434350.9760036469 0 1434350.9760036469 -302843.65168881416 0 0 0 0 -453286.75303125381 1429265.6529197693 0 1429265.6529197693 1114768.6390609741 0 0 0 0 -350819.44020867348 802708.84455490112 0 802708.84455490112 162167.3226852417 0 0 0 0 -878121.72902425751 94037.354324953631 0 94037.354324953631 3861078.0969966832 0 0 0 0 306951.12963421433 670001.97916741949 0 670001.97916741949 9124201.3655834012 0 0 0 0 -566465.31511449814 1909522.2284431458 0 1909522.2284431458 1958493.1772675514 0 0 0 0 -47323278.929606438 6818241.2258358002 0 6818241.2258358002 -16940086.523803711 0 0 0 0 659471.88182396675 1821078.4138592463 0 1821078.4138592463 -1482813.1516422834 0 0 0 0 -264956.62020655791 683681.71946093906 0 683681.71946093906 2879814.8455832987 0 0 0 0 -389656.10122108459 4784012.3399887085 0 4784012.3399887085 1677528.2676086426 0 0 0 0 -395776.1203969717 689541.06509017944 0 689541.06509017944 677603.4005279541 0 0 0 0 -835506.07773180329 3994111.6036236044 0 3994111.6036236044 3262694.0646773577 0 0 0 0 -23088672.747207642 22860597.2293396 0 22860597.2293396 -20176495.038265228 0 0 0 0 -30981581.20523119 30963150.240718365 0 30963150.240718365 22645152.827514648 0 0 0 0 -1400519.0274734497 5434729.9854316711 0 5434729.9854316711 1148209.3085021973 0 0 0 0 -31680801.342761993 26593509.746923447 0 26593509.746923447 -211799.04555511475 0 0 0 0 1514227.6502197012 1592606.3928066366 0 1592606.3928066366 -1614015.8271419313 0 0 0 0 455859.84630203247 492196.80214691162 0 492196.80214691162 904439.40061914921 0 0 0 0 -1496179.9351790845 331538.13537070155 0 331538.13537070155 -533397.42189788818 0 0 0 0 -1085312.5883729141 3313414.2502246993 0 3313414.2502246993 2886924.8050950728 0 0 0 0 -538703.68083081266 1102557.0480822739 0 1102557.0480822739 4713570.6729471814 0 0 0 0 9012.9482755661011 7510481.2532596588 0 7510481.2532596588 2145872.7632808685 0 0 0 0 175802.19277940993 206703.93674819265 0 206703.93674819265 -265605.90140676312 0 0 0 0 15143345.062636137 6500413.6868858337 0 6500413.6868858337 -612205.82237243652 0 0 0 0 -2195986.9691319466 1695175.7684679031 0 1695175.7684679031 1325742.7281417847 0 0 0 0 -5046753.4660129547 4443449.8055648804 0 4443449.8055648804 8167034.4589824677 0 0 0 0 30939505.953432083 -4200024.5384063721 0 -4200024.5384063721 -3875295.1082000732 0 0 0 0 31071205.041475296 62726385.788244247 0 62726385.788244247 9066703.8576812744 0 0 0 0 -35190282.614835739 19165858.458660126 0 19165858.458660126 75679360.168510437 0 0 0 0 -22973798.668928146 -2666755.58938694 0 -2666755.58938694 114678593.19385529 0 0 0 0 14133542.684060216 -17949124.889246941 0 -17949124.889246941 25047259.470085144 0 0 0 0 -2372112.9527158737 4238137.4865779877 0 4238137.4865779877 24451695.051902771 0 0 0 0 -30873522.193784714 38176700.056007385 0 38176700.056007385 19622333.065860748 0 0 0 0 -452576.46558189392 2485448.8798046112 0 2485448.8798046112 -2430770.5362324715 0 0 0 0 1083724.7882738113 4087930.9082241058 0 4087930.9082241058 -3133405.3148565292 0 0 0 0 2108689.3798103333 5544404.0338058472 0 5544404.0338058472 -2494210.8495607376 0 0 0 0 -957102.07978057861 8027908.9327793121 0 8027908.9327793121 4243594.8049793243 0 0 0 0 5414430.7917275429 3174863.2674350739 0 3174863.2674350739 5218691.8076210022 0 0 0 0 6883682.8776979446 116056.24569702148 0 116056.24569702148 7017398.9215230942 0 0 0 0 6197589.0892953873 2808199.0994338989 0 2808199.0994338989 -622637.1851644516 0 0 0 0 9568057.1551065445 -3900466.8589868546 0 -3900466.8589868546 4601207.5959854126 0 0 0 0 3451486.7935442924 3235641.2077083588 0 3235641.2077083588 9151146.9867873192 0 0 0 0 3195482.0529704094 3431274.9201040268 0 3431274.9201040268 9130995.6623840332 0 0 0 0 -25211.278408906946 1226117.4692362323 0 1226117.4692362323 2825833.3545752326 0 0 0 0 -2227951.7335243225 12826991.875257492 0 12826991.875257492 13272060.856271744 0 0 0 0 -3622968.4578027725 1624704.0755252838 0 1624704.0755252838 22339909.887392044 0 0 0 0 -2675488.4734144211 180792.5582883358 0 180792.5582883358 5179163.7951469421 0 0 0 0 140037752.53220749 -49934078.545249939 0 -49934078.545249939 49936219.730014801 0 0 0 0 -146749.9758294113 582189.92406624835 0 582189.92406624835 1168149.3283048917 0 0 0 0 47936096.996656895 -107824301.44371033 0 -107824301.44371033 93554005.427154541 0 0 0 0 5558434.1766009331 51251156.17450428 0 51251156.17450428 159292415.22590637 0 0 0 0 -4015709.4859449863 4489750.6469287872 0 4489750.6469287872 -2392531.6075344086 0 0 0 0 -18775237.625805378 14946743.206560612 0 14946743.206560612 145297562.52228928 0 0 0 0 -36003.436262886389 72275.149799810722 0 72275.149799810722 256608.38105767872 0 0 0 0 1091725.678118401 121016.74312436534 0 121016.74312436534 -407728.78246666538 0 0 0 0 41008277.544109344 39912201.401500702 0 39912201.401500702 -29541840.964175701 0 0 0 0 85253930.041342735 -34650892.765631676 0 -34650892.765631676 67065510.482223511 0 0 0 0 4885283.0051937103 38926423.144430161 0 38926423.144430161 12689445.872623682 0 0 0 0 92558499.144639313 88646756.694388688 0 88646756.694388688 27220692.809616089 0 0 0 0 24572858.803553581 -18500793.842880249 0 -18500793.842880249 149611802.4440937 0 0 0 0 -207618336.88010228 38477887.338373303 0 38477887.338373303 106632708.91749573 0 0 0 0 409373394.18681335 115325569.4002676 0 115325569.4002676 -137316854.40528107 0 0 0 0 226363792.63007736 522523647.67704391 0 522523647.67704391 -142393039.27380991 0 0 0 0 -175216181.6184628 329379014.59672189 0 329379014.59672189 58986271.154541016 0 0 0 0 35459085.128595352 104969091.10406685 0 104969091.10406685 -29995224.456794739 0 0 0 0 4622167.755259037 -10179638.575960159 0 -10179638.575960159 4829125.3476409912 0 0 0 0 167738502.82268429 -72634234.656624794 0 -72634234.656624794 22342731.736335754 0 0 0 0 391770.72171226493 -2040.745203207247 0 -2040.745203207247 -156307.0649669983 0 0 0 0 -54934531.959889889 55609606.601613045 0 55609606.601613045 100051879.17092323 0 0 0 0 -73568231.355563641 -44934803.422040939 0 -44934803.422040939 190706007.37171555 0 0 0 0 316817342.91244316 -239516186.11119843 0 -239516186.11119843 -58946774.440299988 0 0 0 0 -1832131.9715568956 -584626.76003102213 0 -584626.76003102213 7011025.9814065471 0 0 0 0 -13388640.664284706 -15921841.404312134 0 -15921841.404312134 -25637113.410842896 0 0 0 0 -10962246.136115491 -2804659.2312002182 0 -2804659.2312002182 1963205.7012176514 0 0 0 0 -642179.39853692055 5654718.0567893982 0 5654718.0567893982 -21873248.959327698 0 0 0 0 8518013.4406189919 4514884.6999206543 0 4514884.6999206543 2278252.1084213257 0 0 0 0 5174811.6662424803 10309427.426264763 0 10309427.426264763 14066106.946075439 0 0 0 0 1748835.2196440697 3785173.5571498871 0 3785173.5571498871 7240505.4859924316 0 0 0 0 998284.56271457672 4562790.6889820099 0 4562790.6889820099 6468886.2805023193 0 0 0 0 -2561627.3148239814 -72706.152667472605 0 -72706.152667472605 7267589.8196888287 0 0 0 0 -736863.16635537148 1119625.0336589813 0 1119625.0336589813 6873183.84740448 0 0 0 0 -5055720.9873292446 -11319649.734024048 0 -11319649.734024048 -4963235.4101295471 0 0 0 0 72993980.469947815 -131565516.14875793 0 -131565516.14875793 103146746.6466217 0 0 0 0 -1020246.7508026118 -2090622.2139152384 0 -2090622.2139152384 -252855.96688430011 0 0 0 0 13802464.519373953 -30471981.506218165 0 -30471981.506218165 68696313.393688202 0 0 0 0 145909788.87498856 2380379.1033191681 0 2380379.1033191681 -65319067.835762024 0 0 0 0 602718.78563628462 577971.34718520718 0 577971.34718520718 -619786.80484755524 0 0 0 0 -646232.83125702804 -2199070.5426044492 0 -2199070.5426044492 -313315.45442287438 0 0 0 0 -72735358.475467682 67175587.725708008 0 67175587.725708008 2500550.607624054 0 0 0 0 146105501.92815208 186117481.33401108 0 186117481.33401108 -222843860.78084564 0 0 0 0 -2208398.6734676361 780288.2891960144 0 780288.2891960144 5478664.2691192627 0 0 0 0 -3700722.2085215133 709935.41991623677 0 709935.41991623677 7792196.9371673139 0 0 0 0 -13504161.380243778 -19134759.143978119 0 -19134759.143978119 -9785095.2936248779 0 0 0 0 14819955.322618484 -12941006.480407715 0 -12941006.480407715 -12822163.075046539 0 0 0 0 116969727.5280571 102627126.38768387 0 102627126.38768387 116040037.91744232 0 0 0 0 -270472.00125869596 -582103.39555163868 0 -582103.39555163868 -39238.651090683416 0 0 0 0 106389153.92714357 61011501.802562714 0 61011501.802562714 7996760.9853668213 0 0 0 0 -27602491.858560562 23550738.763549805 0 23550738.763549805 38852823.523666382 0 0 0 0 35476838.203420639 36510196.355199814 0 36510196.355199814 -1669435.1811199188 0 0 0 0 37925866.440191269 26768282.549613953 0 26768282.549613953 8704014.0945129395 0 0 0 0 -3757700.1582423449 2435121.340801239 0 2435121.340801239 6726231.8203468323 0 0 0 0 -977966.78010416031 3573036.1155052185 0 3573036.1155052185 6414812.3612155914 0 0 0 0 -1063800.9126036167 4725059.8040657043 0 4725059.8040657043 7838393.2883453369 0 0 0 0 -776061.84979599714 6215386.6932082176 0 6215386.6932082176 10767969.354614258 0 0 0 0 -507106.7854654789 4358254.7940006256 0 4358254.7940006256 8074326.8878612518 0 0 0 0 639759.87052169442 7329107.4900873899 0 7329107.4900873899 11749758.760059357 0 0 0 0 -844530.88357782364 5261216.1804294586 0 5261216.1804294586 13880760.014965057 0 0 0 0 -2446403.632652998 6234672.7520122528 0 6234672.7520122528 20097883.120447159 0 0 0 0 -2643680.1284261942 4676831.1327991486 0 4676831.1327991486 13546731.687999725 0 0 0 0 -2246162.254431963 4273228.2620201111 0 4273228.2620201111 11025992.294246674 0 0 0 0 -2392212.4072740078 5236201.9910583496 0 5236201.9910583496 13644253.800912857 0 0 0 0 -2290988.8360618353 4643070.1506652832 0 4643070.1506652832 7974694.9013748169 0 0 0 0 -11546648.905305147 1521035.8909187317 0 1521035.8909187317 13466569.504203796 0 0 0 0 -2711325.0056365132 4887296.9449481964 0 4887296.9449481964 14586519.569923401 0 0 0 0 -87327.365323499806 21317.119710882194 0 21317.119710882194 240696.41978959087 0 0 0 0 -10869060.244109392 -7818474.3489761353 0 -7818474.3489761353 -348785.28302764893 0 0 0 0 5162604.8893785477 12665674.129991531 0 12665674.129991531 30560692.768737793 0 0 0 0 -3180968.5436262526 -1009160.0874466896 0 -1009160.0874466896 4426340.0547065735 0 0 0 0 -2060514.3070597053 1269561.2963638306 0 1269561.2963638306 4757963.898311615 0 0 0 0 -6797792.0373051763 3705199.9260578156 0 3705199.9260578156 9551272.7302970886 0 0 0 0 -992587.24366688728 4242377.7148761749 0 4242377.7148761749 9510663.0251350403 0 0 0 0 -2563443.4045637846 5113602.2989730835 0 5113602.2989730835 8828607.4856667519 0 0 0 0 -584712.04176068306 5290705.7124557495 0 5290705.7124557495 8296694.860874176 0 0 0 0 -2180295.7482898831 5068763.93430233 0 5068763.93430233 8268498.0757026672 0 0 0 0 -1941297.3171442747 3748518.5408344269 0 3748518.5408344269 9254877.2680988312 0 0 0 0 20764315.09531951 29408751.083408356 0 29408751.083408356 25488526.505331039 0 0 0 0 4943797.4071752205 19644138.105079651 0 19644138.105079651 32435331.553627014 0 0 0 0 -2984272.6754273176 21156992.408168793 0 21156992.408168793 41396371.574481964 0 0 0 0 34195708.64782536 49817507.516597748 0 49817507.516597748 54083626.524279594 0 0 0 0 19705833.437079102 19928662.852270126 0 19928662.852270126 30368707.576396942 0 0 0 0 414215.98882798851 7766979.1744651794 0 7766979.1744651794 23578405.026809692 0 0 0 0 -2561290.3081018031 -8357332.2460956573 0 -8357332.2460956573 -134453.66265487671 0 0 0 0 -2414938.9829007387 13907153.319854736 0 13907153.319854736 20162931.935064316 0 0 0 0 -109801.86111533619 160286.83470479958 0 160286.83470479958 366613.54289438762 0 0 0 0 -196211.67021451431 105622.36599555705 0 105622.36599555705 674782.26914170757 0 0 0 0 -1174111.5122612417 2647392.1142616272 0 2647392.1142616272 7758191.2636909485 0 0 0 0 115467.10543495417 1058297.6686058044 0 1058297.6686058044 8527312.4962301254 0 0 0 0 -971225.59723961353 2732580.4311294556 0 2732580.4311294556 8686649.4643554688 0 0 0 0 892121.38818848133 1174699.4688568115 0 1174699.4688568115 9371600.234041214 0 0 0 0 -483239.40277389437 -455863.6287624836 0 -455863.6287624836 5134644.5258903503 0 0 0 0 -269969.8519950895 228590.44446438272 0 228590.44446438272 1154039.246153608 0 0 0 0 -308397.97859407385 504675.00205252692 0 504675.00205252692 1114849.5422957465 0 0 0 0 -4120420.6658503376 -7238486.133901 0 -7238486.133901 9889877.0393486023 0 0 0 0 -389400.17597148888 363960.61799895205 0 363960.61799895205 1839911.332165827 0 0 0 0 -10633.339751154184 391727.66882610321 0 391727.66882610321 8248910.3206710815 0 0 0 0 1091074.252345562 3048787.504486084 0 3048787.504486084 8861555.6910076141 0 0 0 0 -2061515.3359321356 14554132.004547119 0 14554132.004547119 9727148.1050796509 0 0 0 0 960038.67266666889 397982.73706054688 0 397982.73706054688 10456408.347808838 0 0 0 0 13864984.789302707 12507760.048315048 0 12507760.048315048 10800893.72429657 0 0 0 0 -2468054.8917881548 8945800.9527454376 0 8945800.9527454376 38795498.475379944 0 0 0 0 -111674.07015883923 1707968.0211753845 0 1707968.0211753845 11622191.65114975 0 0 0 0 -2176292.1954821348 8709266.8393249512 0 8709266.8393249512 32169532.134353638 0 0 0 0 -1240524.0078896284 1866148.6988334656 0 1866148.6988334656 12779295.82358551 0 0 0 0 11923.619055442861 4084427.1792084295 0 4084427.1792084295 33943.290896653314 0 0 0 0 -2135092.1350029707 7974114.4693832397 0 7974114.4693832397 31024019.223464966 0 0 0 0 -963583.23688369989 4371441.0090737343 0 4371441.0090737343 36171739.261802673 0 0 0 0 -1666675.6458742023 2457390.4620742798 0 2457390.4620742798 13841983.824333191 0 0 0 0 -252723.31910168275 4139532.3298945585 0 4139532.3298945585 832683.80226443103 0 0 0 0 -1050913.5636532307 9260667.4165802002 0 9260667.4165802002 30388948.270961761 0 0 0 0 -225969.63671886921 6544494.7453308105 0 6544494.7453308105 24217641.171154022 0 0 0 0 -4477602.660589397 3330001.1152744293 0 3330001.1152744293 28739632.971328735 0 0 0 0 742869.32652808726 569654.73876953125 0 569654.73876953125 7551240.3958435059 0 0 0 0 -3530713.413448751 -2020726.2554702759 0 -2020726.2554702759 17999956.704057693 0 0 0 0 -2149106.4347479939 2239939.97706604 0 2239939.97706604 22430428.231624603 0 0 0 0 569478.39455258846 -1831624.2175350189 0 -1831624.2175350189 13372095.339080811 0 0 0 0 317703.73699867725 7211122.8109283447 0 7211122.8109283447 30517693.292297363 0 0 0 0 -3806617.807631135 170.43541717529297 0 170.43541717529297 28670137.48443985 0 0 0 0 -1867998.6504577398 2215953.6226043701 0 2215953.6226043701 30703067.447357178 0 0 0 0 -1824977.3461814374 2604473.3074102402 0 2604473.3074102402 33888964.871887207 0 0 0 0 -1396092.6004164219 -4950583.798828125 0 -4950583.798828125 25631297.081039429 0 0 0 0 -1325123.7766710818 -4029783.8888092041 0 -4029783.8888092041 33237625.138397217 0 0 0 0 -1205992.2600640059 -2024463.273475647 0 -2024463.273475647 37632782.406440735 0 0 0 0 294338.57845983328 768595.49206677824 0 768595.49206677824 2623964.2031490691 0 0 0 0 -776423.08588004112 682019.16535186768 0 682019.16535186768 37401515.838783264 0 0 0 0 667937.26995307207 161972.00769424438 0 161972.00769424438 35532487.555351257 0 0 0 0 -4080010.3180162907 -2024485.6661071777 0 -2024485.6661071777 20167595.302739143 0 0 0 0 4196487.0281586647 6624283.5326194763 0 6624283.5326194763 21727081.835111618 0 0 0 0 -2010212.7150604725 3484124.601726532 0 3484124.601726532 30188517.611930847 0 0 0 0 -2076628.6246199608 3020109.3597068787 0 3020109.3597068787 8609372.8127174377 0 0 0 0 -3911024.0753731132 4271292.9369602203 0 4271292.9369602203 39396680.90977478 0 0 0 0 -757339.56015624024 4579408.3920575464 0 4579408.3920575464 2916494.893800484 0 0 0 0 -2552061.704420805 3900654.5903339386 0 3900654.5903339386 11771579.495113373 0 0 0 0 -3070846.8362523317 2646474.9556369781 0 2646474.9556369781 13618357.739795685 0 0 0 0 -509279.64018715749 4267519.4601596352 0 4267519.4601596352 1742256.1972726113 0 0 0 0 -1555927.5439562798 2511450.4469604492 0 2511450.4469604492 37447398.119420528 0 0 0 0 3791.1035561561584 8420144.8638496399 0 8420144.8638496399 26600003.829101562 0 0 0 0 1440977.3250645399 864466.58190536499 0 864466.58190536499 25002784.473754883 0 0 0 0 -3737861.7813357115 -264714.69046783447 0 -264714.69046783447 22697527.468536377 0 0 0 0 -933343.60917782784 -4072085.7976226807 0 -4072085.7976226807 7367805.5171432495 0 0 0 0 -1175893.2332965136 3810638.4564857483 0 3810638.4564857483 14670544.322818756 0 0 0 0 -1965763.1033642141 -575940.95578536578 0 -575940.95578536578 7348536.5215309747 0 0 0 0 -38073187.92374897 -17556782.517456055 0 -17556782.517456055 2608130.9142913818 0 0 0 0 886960.34959840775 6176776.1456413269 0 6176776.1456413269 18093750.379562378 0 0 0 0 -4102951.6241208315 -3377057.6948623657 0 -3377057.6948623657 11859080.600975037 0 0 0 0 -25250258.363556862 -70725521.066036224 0 -70725521.066036224 -15400562.538322449 0 0 0 0 -2253879.1186735989 -433567.69542377442 0 -433567.69542377442 8601922.9869119879 0 0 0 0 -42509313.223722458 -581642.39615821838 0 -581642.39615821838 69187887.609008789 0 0 0 0 -2606908.8576412201 7357738.0085372925 0 7357738.0085372925 -349781.51398181915 0 0 0 0 35000136.144765854 60701.654216766357 0 60701.654216766357 16020717.906936646 0 0 0 0 11264571.934789658 27920080.162834167 0 27920080.162834167 32701190.308364868 0 0 0 0 -12184154.737343788 -3054202.2212104797 0 -3054202.2212104797 12796654.707427979 0 0 0 0 20954932.323919296 52998144.7748909 0 52998144.7748909 18570891.52955246 0 0 0 0 -306678.88437894732 38991.028244306333 0 38991.028244306333 712927.16380865872 0 0 0 0 2058979.5077095032 22226876.846698761 0 22226876.846698761 51509295.476493835 0 0 0 0 607222.12353444099 32592163.168126106 0 32592163.168126106 -14458922.503311157 0 0 0 0 -29494196.533630371 11447390.496124268 0 11447390.496124268 23535913.33301115 0 0 0 0 -25460909.740591049 42353883.9099617 0 42353883.9099617 28150072.158653259 0 0 0 0 -4218645.6886558533 18859463.028278351 0 18859463.028278351 33794191.543052673 0 0 0 0 -38066273.724909425 45919841.863303661 0 45919841.863303661 13965365.904571533 0 0 0 0 -40336190.847049713 5906544.1405487061 0 5906544.1405487061 31548213.90655899 0 0 0 0 -5048716.6879227161 -4845667.5869140625 0 -4845667.5869140625 7823637.1868000031 0 0 0 0 -336693.3612520895 511211.81998141203 0 511211.81998141203 877394.70445964113 0 0 0 0 -2004342.9555959816 -544466.56487574615 0 -544466.56487574615 6645116.3485907726 0 0 0 0 -5331407.6780309677 3969830.3569087982 0 3969830.3569087982 8586283.2445411682 0 0 0 0 -2304492.6594363749 -168011.0940656662 0 -168011.0940656662 8154923.2253723145 0 0 0 0 3399509.3143806458 5126676.193113327 0 5126676.193113327 15624213.475521088 0 0 0 0 160998.56753414869 926925.81113560311 0 926925.81113560311 2099786.9871684723 0 0 0 0 -1332322.8709508858 -241805.61058282107 0 -241805.61058282107 3718531.0933632813 0 0 0 0 -3274009.5264930725 3199497.6097793579 0 3199497.6097793579 11320907.902801514 0 0 0 0 3144755.522680521 1434727.0320825577 0 1434727.0320825577 10135407.084945679 0 0 0 0 -9937245.8108739853 793603.61683654785 0 793603.61683654785 15994776.958999634 0 0 0 0 23504078.63338089 10247109.343460083 0 10247109.343460083 16892377.368272781 0 0 0 0 -12762611.577396393 1543825.6570358276 0 1543825.6570358276 36654187.544166565 0 0 0 0 -2911.7258319873363 205757.90987295285 0 205757.90987295285 705312.57659506565 0 0 0 0 3155032.3659191132 1593973.4784202576 0 1593973.4784202576 12410797.596168518 0 0 0 0 4959109.0065002441 6105121.0289840698 0 6105121.0289840698 8934574.842124939 0 0 0 0 12121924.399289131 8016892.9748153687 0 8016892.9748153687 8714073.8409881592 0 0 0 0 7682319.8711628914 -1975235.5325250626 0 -1975235.5325250626 2272803.5272369385 0 0 0 0 7719592.314781189 10434807.730316162 0 10434807.730316162 7523648.8705978394 0 0 0 0 -6273647.0724487305 -4385301.9735679626 0 -4385301.9735679626 25639495.294708252 0 0 0 0 -2005848.8598594433 85638.729463664815 0 85638.729463664815 3153682.3322591819 0 0 0 0 -4922940.7785849571 3533458.6231632233 0 3533458.6231632233 11454081.045295715 0 0 0 0 -6114701.0085639954 -291864.97272872925 0 -291864.97272872925 9896160.5197563171 0 0 0 0 -34019333.297622681 -58732438.120651245 0 -58732438.120651245 69074627.259059906 0 0 0 0 50788504.480175018 4773994.2537956238 0 4773994.2537956238 -6933620.3737869263 0 0 0 0 -257840.74851274444 385440.44660315756 0 385440.44660315756 683054.25867917016 0 0 0 0 -56414197.20741272 5439437.0524291992 0 5439437.0524291992 16474490.484779358 0 0 0 0 7823808.8990248591 24736047.748311549 0 24736047.748311549 28776241.085968018 0 0 0 0 28024272.291090012 31347015.771896362 0 31347015.771896362 27784388.611351013 0 0 0 0 -101111189.41529465 -106159462.47573853 0 -106159462.47573853 70691073.400650024 0 0 0 0 21126241.999763489 11122242.699604034 0 11122242.699604034 4836025.3202981949 0 0 0 0 -522847.74732792191 18746.996081024408 0 18746.996081024408 893070.27973817475 0 0 0 0 -57525238.558506012 6406943.4917678833 0 6406943.4917678833 56808127.843597412 0 0 0 0 50822706.861919403 122362956.31106567 0 122362956.31106567 180864901.34833527 0 0 0 0 145118038.61209869 -100543541.52108765 0 -100543541.52108765 88952751.610131264 0 0 0 0 -1167922.1236095428 38449080.43737793 0 38449080.43737793 98189204.876174927 0 0 0 0 -342980.24168012268 -94146.259790152311 0 -94146.259790152311 1006816.6251940951 0 0 0 0 -42330448.585596085 8526421.3127479553 0 8526421.3127479553 70916049.706199646 0 0 0 0 -42178188.725615501 -13637077.291484833 0 -13637077.291484833 38465181.590171814 0 0 0 0 -2195439.9274506569 -198732.81902217865 0 -198732.81902217865 1135002.3810577393 0 0 0 0 -9013746.6395821571 11213486.518346786 0 11213486.518346786 27698949.926834106 0 0 0 0 -159164.90500640869 1543953.7053985596 0 1543953.7053985596 -1908721.6517333984 0 0 0 0 -1441152.7283363342 1717221.1374588013 0 1717221.1374588013 -332199.09370422363 0 0 0 0 -971317.32272911072 999327.19990348816 0 999327.19990348816 748376.77890014648 0 0 0 0 -580542.1586856842 -1376985.8151741028 0 -1376985.8151741028 -2454099.6463012695 0 0 0 0 20771401.476922989 29594496.633651733 0 29594496.633651733 9974047.875328064 0 0 0 0 3928346.8024549484 13162135.620887756 0 13162135.620887756 8928617.9651489258 0 0 0 0 -2216312.3947105408 14716717.381664276 0 14716717.381664276 15642536.746200562 0 0 0 0 -2455562.5688686371 17476877.092506409 0 17476877.092506409 23348712.422964096 0 0 0 0 -5454876.4038772583 11482195.316505432 0 11482195.316505432 16122729.550186157 0 0 0 0 -2425357.2999973297 3830317.1135635376 0 3830317.1135635376 3403852.8556976318 0 0 0 0 -9995361.4942703247 4640726.4159049988 0 4640726.4159049988 24970360.137634277 0 0 0 0 -2788402.6162941456 4199311.4197540283 0 4199311.4197540283 24942505.105384827 0 0 0 0 -6781665.4671258926 14859309.798527718 0 14859309.798527718 35208913.502761841 0 0 0 0 -1958270.7984352112 7347817.2584648132 0 7347817.2584648132 5899041.7933197021 0 0 0 0 -8645115.511135757 8880028.6635837555 0 8880028.6635837555 6290847.4042205811 0 0 0 0 3409117.4708716869 5499245.5113220215 0 5499245.5113220215 -25160812.742874146 0 0 0 0 21896640.436749458 -11242658.789024353 0 -11242658.789024353 11580582.760167599 0 0 0 0 831802.58902901411 46199345.414717674 0 46199345.414717674 -6103921.2850799561 0 0 0 0 -17356349.836014748 -1396069.1401367188 0 -1396069.1401367188 11759368.535324097 0 0 0 0 -8423722.4070265293 11549889.115142822 0 11549889.115142822 47328728.092849731 0 0 0 0 15009963.183668852 20181120.737991333 0 20181120.737991333 27214127.454208374 0 0 0 0 -905044.71997094271 -1004390.6980983787 0 -1004390.6980983787 802323.94217522442 0 0 0 0 -6490606.8531317711 -3044431.0225753784 0 -3044431.0225753784 8461420.8252372742 0 0 0 0 12815402.749441624 -25598860.411857605 0 -25598860.411857605 19157913.32408905 0 0 0 0 -29410429.69361943 10193037.558590889 0 10193037.558590889 17948902.246536255 0 0 0 0 -19128241.558241844 -17455252.841407776 0 -17455252.841407776 38252199.995452881 0 0 0 0 -1478510.9494750849 -718244.13955873996 0 -718244.13955873996 2030652.9416540992 0 0 0 0 -3335499.8176660538 825403.55205535889 0 825403.55205535889 4944429.4219512939 0 0 0 0 -292478.31158698478 1973889.3316234164 0 1973889.3316234164 3820466.738030564 0 0 0 0 39671894.444506407 40927156.369015694 0 40927156.369015694 -11372943.172454834 0 0 0 0 -2243159.5928582717 -464404.85087023862 0 -464404.85087023862 2958724.8213272654 0 0 0 0 399719.32300186157 906179.58266448975 0 906179.58266448975 1558168.0805587769 0 0 0 0 -1650292.9046363831 -312642.73113250732 0 -312642.73113250732 4261449.7589988708 0 0 0 0 -1334014.4682552814 2204687.5764551219 0 2204687.5764551219 5639607.8571850024 0 0 0 0 -1862987.3399343491 2054749.497543335 0 2054749.497543335 2334459.4846572876 0 0 0 0 -2258784.290594101 603109.00604248047 0 603109.00604248047 3783731.2339248657 0 0 0 0 -562346.28520280495 91817.547984203324 0 91817.547984203324 2935386.3790200446 0 0 0 0 -4614832.9905894995 4228703.9943528175 0 4228703.9943528175 8638021.9436721802 0 0 0 0 148697.38828277588 699229.20065307617 0 699229.20065307617 1121943.6616821289 0 0 0 0 -819842.97226184281 1424663.4334049504 0 1424663.4334049504 2204790.6223778562 0 0 0 0 -16069035.522182465 11380017.102668762 0 11380017.102668762 86050324.588832855 0 0 0 0 21919444.2550354 -76793821.739486694 0 -76793821.739486694 -32445703.121002197 0 0 0 0 -97934114.092637062 78354686.719329834 0 78354686.719329834 48910983.122711182 0 0 0 0 55487905.765136719 39727297.948692322 0 39727297.948692322 -72431069.675186157 0 0 0 0 67163477.764043808 6429869.0908889771 0 6429869.0908889771 -7731787.7586669922 0 0 0 0 -455855.08610105515 613278.30732345581 0 613278.30732345581 874017.88398742676 0 0 0 0 -440921.82171958452 1764723.0044718226 0 1764723.0044718226 3208634.5987353064 0 0 0 0 15814724.081687927 5809862.319152832 0 5809862.319152832 23282066.231750488 0 0 0 0 81342.499858617783 739085.36342716217 0 739085.36342716217 2185588.5719985962 0 0 0 0 -1532015.0637239576 -183562.66694760229 0 -183562.66694760229 1622566.6152226925 0 0 0 0 -518926.19680786133 589352.73007202148 0 589352.73007202148 648226.52569580078 0 0 0 0 -298298.28121244488 1272238.9007354304 0 1272238.9007354304 2846771.6353013115 0 0 0 0 269302.15812380216 963363.80822513252 0 963363.80822513252 2874065.5619930457 0 0 0 0 -1772913.2699400615 -514231.30378738604 0 -514231.30378738604 1563303.5970488116 0 0 0 0 -393457.36575603485 563233.58360671997 0 563233.58360671997 1212706.5774917603 0 0 0 0 69612.420169830322 643566.89296722412 0 643566.89296722412 1224809.5243606567 0 0 0 0 -2040186.5124423865 -208914.4200097397 0 -208914.4200097397 3953385.846650267 0 0 0 0 1229184.1859092712 -208670.56847381592 0 -208670.56847381592 631405.80842208862 0 0 0 0 -528059.72345830116 956832.8013240695 0 956832.8013240695 2266886.5971117462 0 0 0 0 -1355913.8764854777 -603698.24376287125 0 -603698.24376287125 1718051.9717369946 0 0 0 0 -451887.84541249275 599389.01713752747 0 599389.01713752747 1711571.8119812012 0 0 0 0 2377432.6234966516 9233103.9212799072 0 9233103.9212799072 19317695.041870117 0 0 0 0 -592500.80074214935 814493.79289627075 0 814493.79289627075 3001544.1205272675 0 0 0 0 76590.810937704286 948201.38594615832 0 948201.38594615832 1652410.8581038825 0 0 0 0 -214018.09501302242 872430.06972980499 0 872430.06972980499 2246912.799041748 0 0 0 0 -188576.52637884527 425299.41437911429 0 425299.41437911429 616258.64918373618 0 0 0 0 -3151501.8161942959 10301369.671173096 0 10301369.671173096 37898518.072471619 0 0 0 0 -7600333.5708210468 9270031.2169265747 0 9270031.2169265747 57481159.050140381 0 0 0 0 687186.73716187477 24395246.977745056 0 24395246.977745056 -44511973.89850235 0 0 0 0 17161982.210902929 28854046.592590332 0 28854046.592590332 -63999376.328796387 0 0 0 0 5873003.8584986925 26890522.981987 0 26890522.981987 -84094856.654098511 0 0 0 0 -17718006.016458511 40630074.825958252 0 40630074.825958252 -64947018.866882324 0 0 0 0 187398.10914814658 2733090.5653663632 0 2733090.5653663632 2396032.0799455261 0 0 0 0 -17684388.375675201 23327421.194007874 0 23327421.194007874 -64620324.492279053 0 0 0 0 -870994.3899474144 53239061.183044434 0 53239061.183044434 -83052166.029815674 0 0 0 0 14464061.203859806 4881420.9802322388 0 4881420.9802322388 -110305412.5914917 0 0 0 0 -194941.55595408613 134394.44791681692 0 134394.44791681692 430432.12893305346 0 0 0 0 4592000.6084456444 41460942.113876343 0 41460942.113876343 -63232382.083053589 0 0 0 0 11084666.499008656 43110346.243667603 0 43110346.243667603 -63677434.450241089 0 0 0 0 -2367793.6370904446 42022426.813014984 0 42022426.813014984 -43035441.967651367 0 0 0 0 8211747.4944014549 30074234.507484436 0 30074234.507484436 -39362513.175783157 0 0 0 0 -14300709.475915432 67389255.196666718 0 67389255.196666718 -42696747.731697083 0 0 0 0 -54035632.761109352 56943658.95475769 0 56943658.95475769 -35581405.299545288 0 0 0 0 -2918429.7569773197 15019617.680953979 0 15019617.680953979 -31594874.465644836 0 0 0 0 528571.75044071302 2553066.8850871995 0 2553066.8850871995 2381227.2823153194 0 0 0 0 -7331168.1613922119 39901915.796318054 0 39901915.796318054 -44320701.06162262 0 0 0 0 -150451164.45445633 -67091940.388114929 0 -67091940.388114929 75047982.042793274 0 0 0 0 -13455534.728843689 2870678.6890163422 0 2870678.6890163422 9830449.7782182693 0 0 0 0 -1066902.6966849365 1463473.3003202323 0 1463473.3003202323 1922783.6574614523 0 0 0 0 -6733549.268330574 -5356609.5822486877 0 -5356609.5822486877 -248092.74736022949 0 0 0 0 -27082.204243091866 3038352.9810680989 0 3038352.9810680989 6565248.0569885895 0 0 0 0 49114.662725064438 2523181.3956722878 0 2523181.3956722878 6086856.3104706518 0 0 0 0 -49757135.30733633 8252867.5784635544 0 8252867.5784635544 17318289.365203857 0 0 0 0 -158547365.04818773 144000892.71825027 0 144000892.71825027 -80709012.279663086 0 0 0 0 14724170.311235428 72620466.272846222 0 72620466.272846222 -123464940.75694656 0 0 0 0 27814294.529093742 254987.66133880615 0 254987.66133880615 -60226529.634105682 0 0 0 0 17729105.597363949 71721302.173728943 0 71721302.173728943 -42232027.157459259 0 0 0 0 -63999871.585256934 30140184.507913589 0 30140184.507913589 -10848396.912773132 0 0 0 0 11504383.071246862 48451849.695861816 0 48451849.695861816 -16047148.076164246 0 0 0 0 144353.76558881649 -115514.47110286076 0 -115514.47110286076 -63722.761063463986 0 0 0 0 67393419.228773117 50871430.326278687 0 50871430.326278687 -21295365.788473129 0 0 0 0 20585574.365656614 43475893.806632996 0 43475893.806632996 -93868924.283092499 0 0 0 0 10693076.236636877 30464618.096347809 0 30464618.096347809 29147569.583362579 0 0 0 0 41719904.885455132 7852544.9071807861 0 7852544.9071807861 634018.35200881958 0 0 0 0 32907621.307881355 19258275.469726562 0 19258275.469726562 -43751333.161830902 0 0 0 0 9606673.2115320861 28977842.592973232 0 28977842.592973232 -13262954.092529297 0 0 0 0 6472993.7564725876 -12001757.869091034 0 -12001757.869091034 12390438.593418121 0 0 0 0 9064399.4737625122 -2069763.9146347046 0 -2069763.9146347046 1202337.3416557312 0 0 0 0 -149555.33678248664 -113080.54944472387 0 -113080.54944472387 215274.30579006113 0 0 0 0 -122376.34578245739 1148.2815853040665 0 1148.2815853040665 -118200.47384711821 0 0 0 0 -358444.30870628357 -404757.6393737793 0 -404757.6393737793 964132.27555465698 0 0 0 0 101918.66888046265 -308822.77991867065 0 -308822.77991867065 340725.75303649902 0 0 0 0 -424693.91446876526 -495865.1134262085 0 -495865.1134262085 81041.186752319336 0 0 0 0 -154378.51122283936 32479.908554077148 0 32479.908554077148 -227239.83318328857 0 0 0 0 -603342.93765743775 -23452.71606306918 0 -23452.71606306918 161349.73039895156 0 0 0 0 -551024.98670196533 26775.113655090332 0 26775.113655090332 255429.28147697449 0 0 0 0 244591.79091453552 -301822.83767700195 0 -301822.83767700195 -591499.64493560791 0 0 0 0 -478849.82053699484 -100611.84036661498 0 -100611.84036661498 209729.3324539084 0 0 0 0 161997.15468978882 273784.73612976074 0 273784.73612976074 435723.35258483887 0 0 0 0 739450.8906917572 -411875.80345916748 0 -411875.80345916748 -186220.36149597168 0 0 0 0 -1026215.3822631836 -739761.24156188965 0 -739761.24156188965 -246286.7880897522 0 0 0 0 -2811.2032534305472 5068.5855909474194 0 5068.5855909474194 5715.7699626237154 0 0 0 0 78954305.647598267 -38873497.593025208 0 -38873497.593025208 -83531682.465801239 0 0 0 0 81113.748439311981 -427137.27180671692 0 -427137.27180671692 648968.52506256104 0 0 0 0 -150463.6639547348 -925449.07160377502 0 -925449.07160377502 648940.10598754883 0 0 0 0 -482562.9980907822 -22477.102179143578 0 -22477.102179143578 -169819.29020996392 0 0 0 0 62054.861036486458 -633850.79705609195 0 -633850.79705609195 596362.70643974096 0 0 0 0 27729669.387138367 23664647.293094635 0 23664647.293094635 -33388080.485153198 0 0 0 0 -53785002.551733017 40227766.90555191 0 40227766.90555191 56890546.680541992 0 0 0 0 49371899.268704414 -6177793.7404356003 0 -6177793.7404356003 -18198340.641670227 0 0 0 0 130581362.14430237 -151988398.5519104 0 -151988398.5519104 100792872.92356491 0 0 0 0 15571.806654312648 -34456.807598013431 0 -34456.807598013431 18611.841682204977 0 0 0 0 -63370163.372749329 -38949816.417709351 0 -38949816.417709351 -3875358.2190551758 0 0 0 0 35847333.67975235 66557945.821615219 0 66557945.821615219 -6871623.0950012207 0 0 0 0 -179305809.10272217 35825551.95916748 0 35825551.95916748 16434383.752929688 0 0 0 0 4783424.5051765442 7077560.7737464905 0 7077560.7737464905 -55095757.583642006 0 0 0 0 -7408046.9252929688 14654964.332519531 0 14654964.332519531 -33645654.898498535 0 0 0 0 -358013.42718176311 427393.18426540494 0 427393.18426540494 611736.49806992663 0 0 0 0 -124510.6293840725 -215862.37611222826 0 -215862.37611222826 21636.321753105149 0 0 0 0 -56653688.088115692 31325236.213241577 0 31325236.213241577 29689034.153610229 0 0 0 0 187153674.83079386 366555701.20428276 0 366555701.20428276 -186928821.42767334 0 0 0 0 -205909524.01119804 31653392.750762939 0 31653392.750762939 19941844.57208252 0 0 0 0 -21567676.421392441 -26409329.058959961 0 -26409329.058959961 -7013109.4375076294 0 0 0 0 -32319006.95294857 -3980627.7831344604 0 -3980627.7831344604 7874908.3582191467 0 0 0 0 -66948439.796739578 -10034337.276603699 0 -10034337.276603699 17993132.405517578 0 0 0 0 -25839397.318023682 20929034.873405457 0 20929034.873405457 20253268.631603241 0 0 0 0 -31533260.204404831 -2859448.5310783386 0 -2859448.5310783386 18954076.043029785 0 0 0 0 -32220429.102499008 -910075.76410293579 0 -910075.76410293579 18836207.498250961 0 0 0 0 7732688.8323554993 -17417064.130065918 0 -17417064.130065918 17907966.327121735 0 0 0 0 -519806.1801700592 -1577463.1290130615 0 -1577463.1290130615 8671394.5857772827 0 0 0 0 -13908680.570157051 14763.641363143921 0 14763.641363143921 12219286.947113037 0 0 0 0 -15371992.178318024 3369395.4941940308 0 3369395.4941940308 11987623.140134335 0 0 0 0 -16754433.659111023 -6872030.1642532349 0 -6872030.1642532349 15579535.662078857 0 0 0 0 -7272654.103061676 12748522.229431152 0 12748522.229431152 18569728.161523819 0 0 0 0 -25380516.3387537 -4671979.9652767181 0 -4671979.9652767181 4956383.731136322 0 0 0 0 29468910.78318882 17137430.921468735 0 17137430.921468735 21551618.4412117 0 0 0 0 -5682464.4903554916 6253495.2762260437 0 6253495.2762260437 33068000.181724548 0 0 0 0 -396050.40723225474 -4807295.7348409891 0 -4807295.7348409891 32694285.082443237 0 0 0 0 13829606.189058304 7532939.9686355591 0 7532939.9686355591 21842178.420272827 0 0 0 0 -3695757.4842514992 12621302.866763115 0 12621302.866763115 89060397.04510498 0 0 0 0 13895398.599295378 9798817.666220665 0 9798817.666220665 50038051.403518677 0 0 0 0 1051362.5043563843 3005045.2409172058 0 3005045.2409172058 46496727.362602234 0 0 0 0 35002978.515673637 48136042.306793213 0 48136042.306793213 40434335.781513691 0 0 0 0 41256065.814750671 34319379.559585571 0 34319379.559585571 32993564.641143799 0 0 0 0 20754653.597598612 42850790.28366518 0 42850790.28366518 40964972.941474915 0 0 0 0 22805766.069198608 24940821.112545013 0 24940821.112545013 28640409.578277588 0 0 0 0 3099762.7450065613 -2084097.305847168 0 -2084097.305847168 -5160733.4152565002 0 0 0 0 1624791.4215927124 1965317.0482788086 0 1965317.0482788086 -3736776.4560928345 0 0 0 0 -2163055.896812439 -4220956.6992683411 0 -4220956.6992683411 -3385256.3606681824 0 0 0 0 39062167.80172348 96767268.944877625 0 96767268.944877625 65917275.643096924 0 0 0 0 -491709.84998383652 -56281.450773445889 0 -56281.450773445889 489578.90860463493 0 0 0 0 43481635.581542969 34958567.770050049 0 34958567.770050049 28190879.582672119 0 0 0 0 52181872.130018234 59694559.316238403 0 59694559.316238403 96861555.703414917 0 0 0 0 24379086.45306778 64523458.425468445 0 64523458.425468445 124474794.0227356 0 0 0 0 -18335.855897801928 -11061.531490106136 0 -11061.531490106136 -4837.8079389459454 0 0 0 0 -496119.6861987114 141399602.48449135 0 141399602.48449135 18964472.745742798 0 0 0 0 -8644383.5189838409 -28646410.992416382 0 -28646410.992416382 92323632.670597076 0 0 0 0 95040898.590396881 -32369883.509384155 0 -32369883.509384155 115998740.41220093 0 0 0 0 1592660.5409545898 42795149.418010712 0 42795149.418010712 52670635.960968018 0 0 0 0 12134924.422243595 77945845.889219284 0 77945845.889219284 163782051.1468811 0 0 0 0 -35911979.615653992 4232857.7226867676 0 4232857.7226867676 71087739.086601257 0 0 0 0 -28653357.560253143 -38281501.224159241 0 -38281501.224159241 29272552.148040771 0 0 0 0 -29197540.933922768 -13162273.346588135 0 -13162273.346588135 17143536.400436401 0 0 0 0 -40043518.536893845 -25609704.987350464 0 -25609704.987350464 61578771.424331665 0 0 0 0 6428985.3538942337 4478817.7135925293 0 4478817.7135925293 -33756.297592163086 0 0 0 0 -232428.08970713615 2506187.2069272995 0 2506187.2069272995 2043530.3939743042 0 0 0 0 -13272.657354354858 -868160.0099105835 0 -868160.0099105835 1092617.8605823517 0 0 0 0 1716110.1604681015 -735671.78881835938 0 -735671.78881835938 -3778778.4954910278 0 0 0 0 11780480.661592484 -12443025.556404114 0 -12443025.556404114 13237787.327110291 0 0 0 0 1529278.0560750961 -1613585.3983383179 0 -1613585.3983383179 -1658306.6515731812 0 0 0 0 -110356.91637127241 -271338.36932445318 0 -271338.36932445318 121496.54184873402 0 0 0 0 -332752.76643657684 936516.36156749725 0 936516.36156749725 -1728284.4448394775 0 0 0 0 -61776.507607690524 -16522.969953018241 0 -16522.969953018241 156848.73659512587 0 0 0 0 -1017093.8371544397 380708.43367665261 0 380708.43367665261 679308.74916161224 0 0 0 0 2139631.0825883746 1783094.2174475193 0 1783094.2174475193 -467906.7935256958 0 0 0 0 6459342.2727384567 28262606.031520844 0 28262606.031520844 39371152.826034546 0 0 0 0 -53817.971132834908 -155409.64886844903 0 -155409.64886844903 -1638.6092037968338 0 0 0 0 5540415.6583709717 11182315.773254395 0 11182315.773254395 42033441.268310547 0 0 0 0 -148035.60579586029 21742771.397373199 0 21742771.397373199 63091996.330307007 0 0 0 0 371260.16478729248 28361501.468421936 0 28361501.468421936 56148729.372200012 0 0 0 0 3471727.6447563171 20494175.290863037 0 20494175.290863037 53172373.016204834 0 0 0 0 -3737888.4643592834 4724550.8824310303 0 4724550.8824310303 54418077.473754883 0 0 0 0 -5052711.7882137299 34857412.167240143 0 34857412.167240143 72253985.419311523 0 0 0 0 12625155.11540699 54084177.397800446 0 54084177.397800446 93158112.953170776 0 0 0 0 40623731.380735397 53662242.966812134 0 53662242.966812134 66492444.64453125 0 0 0 0 -28296806.450944901 12306866.273254395 0 12306866.273254395 105569255.19593811 0 0 0 0 46014835.038551331 92125974.285041809 0 92125974.285041809 124801536.61592102 0 0 0 0 21504587.285589218 39773515.273704529 0 39773515.273704529 141026006.13710785 0 0 0 0 43426065.875272751 9287429.2433319092 0 9287429.2433319092 77341571.588615417 0 0 0 0 -8255084.5681638718 28165693.711975098 0 28165693.711975098 70637795.942474365 0 0 0 0 16178022.860257149 53553796.229881287 0 53553796.229881287 43014869.009216309 0 0 0 0 17253224.048130035 42748649.152938843 0 42748649.152938843 61439799.462249756 0 0 0 0 21464033.250936508 36124662.288864136 0 36124662.288864136 43316909.266845703 0 0 0 0 22965959.416857719 39826939.911193848 0 39826939.911193848 33094558.402025223 0 0 0 0 16562465.882240295 48991461.774925232 0 48991461.774925232 59405014.232536316 0 0 0 0 12092188.549125671 39479963.144424438 0 39479963.144424438 43874778.433364868 0 0 0 0 14804320.207670212 37405205.997779846 0 37405205.997779846 43422581.604545593 0 0 0 0 18267381.961732864 35103058.135902405 0 35103058.135902405 44539169.886282921 0 0 0 0 12888423.586389065 37590589.890119553 0 37590589.890119553 44868810.791275024 0 0 0 0 9409394.2364578247 31006743.765319824 0 31006743.765319824 56628911.165786743 0 0 0 0 11870.588990679709 219247.68921282026 0 219247.68921282026 57643.403985805809 0 0 0 0 7200015.3485908508 -14294900.330863953 0 -14294900.330863953 5294725.1687011719 0 0 0 0 22964.732610821724 211554.44974279404 0 211554.44974279404 258857.7643661499 0 0 0 0 -559289.5292926277 -136385.28353479877 0 -136385.28353479877 420590.09599598031 0 0 0 0 -5800.429032578133 -3112.8012839071453 0 -3112.8012839071453 -66121.511651039124 0 0 0 0 9246331.6505737305 403977.38608932495 0 403977.38608932495 -339533.56681060791 0 0 0 0 5042613.911614418 -3077125.6588592529 0 -3077125.6588592529 5449770.6123199463 0 0 0 0 72985681.054441452 71172980.612908363 0 71172980.612908363 37201829.771911621 0 0 0 0 54577532.410629272 42938928.013442993 0 42938928.013442993 14285158.352415085 0 0 0 0 31619617.508729935 22462535.680007935 0 22462535.680007935 56249715.300323486 0 0 0 0 31958542.641428471 69677405.912905693 0 69677405.912905693 96802168.318145752 0 0 0 0 34173615.258297443 -10905757.615913391 0 -10905757.615913391 15353235.533050537 0 0 0 0 -344644.74508123752 -128834.10810123477 0 -128834.10810123477 261977.18718717527 0 0 0 0 964402.43338394165 -95890.879570007324 0 -95890.879570007324 -2567329.8258209229 0 0 0 0 -173456.52939128876 827959.62475204468 0 827959.62475204468 2036439.1738052368 0 0 0 0 304743.76689529419 2036929.793182373 0 2036929.793182373 -2822920.8608322144 0 0 0 0 -247308.89265375747 534308.91981337243 0 534308.91981337243 -101765.73660918511 0 0 0 0 -321257.13951206207 44246.933597564697 0 44246.933597564697 185524.81181716919 0 0 0 0 155035.5441236496 -748795.73127746582 0 -748795.73127746582 134398.49589538574 0 0 0 0 556023.01463222504 630793.36911392212 0 630793.36911392212 -744453.21553039551 0 0 0 0 -1481883.02434659 779265.50988006592 0 779265.50988006592 -1048793.3708190918 0 0 0 0 -44469.787805736531 304867.3006552119 0 304867.3006552119 -89128.883447080851 0 0 0 0 -10321.976741731633 110824.28730399837 0 110824.28730399837 -32873.002331072465 0 0 0 0 -3967180.4115953445 882465.97327804565 0 882465.97327804565 7085912.0919113159 0 0 0 0 844816.88313865662 -81902.58984375 0 -81902.58984375 147989.29048156738 0 0 0 0 562860.152135849 1436523.693397522 0 1436523.693397522 -837661.20977783203 0 0 0 0 -4430801.9376382828 198352.16720199585 0 198352.16720199585 4091098.9420928955 0 0 0 0 94383.219123840332 -1182321.0195674896 0 -1182321.0195674896 3110094.0320892334 0 0 0 0 -773118.63989067078 718872.37211608887 0 718872.37211608887 1687272.5762672424 0 0 0 0 135339.45814704895 -321194.33782196045 0 -321194.33782196045 585893.758644104 0 0 0 0 -553896.0702593131 -267340.80807989649 0 -267340.80807989649 296187.32920469996 0 0 0 0 -3111668.1263685226 1773812.3062286377 0 1773812.3062286377 -750481.76655960083 0 0 0 0 528.30637645721436 680569.4764251709 0 680569.4764251709 -2137103.7530136108 0 0 0 0 -1188133.2432956696 2801917.388092041 0 2801917.388092041 2581876.2784366608 0 0 0 0 -272832.68532371521 4392030.4497871399 0 4392030.4497871399 -984363.25945663452 0 0 0 0 -325835.38296489371 -258517.51488433778 0 -258517.51488433778 206346.77863288485 0 0 0 0 -5628928.0548610687 -4037759.5677013397 0 -4037759.5677013397 5627792.0457229614 0 0 0 0 1618804.0512084961 2335030.4249649048 0 2335030.4249649048 6871255.1532859802 0 0 0 0 6530715.3567209244 -4362299.6103973389 0 -4362299.6103973389 -4950128.2046127319 0 0 0 0 -6940578.8386173248 24066687.130958557 0 24066687.130958557 -39471434.118076324 0 0 0 0 -174439.87578316964 -104051.90655374061 0 -104051.90655374061 165473.28561545257 0 0 0 0 26752259.687208176 7459541.5795974731 0 7459541.5795974731 -9101368.8044891357 0 0 0 0 -19944020.971374512 -9045329.289352417 0 -9045329.289352417 38260183.443704605 0 0 0 0 -26416136.639591217 1492176.789440155 0 1492176.789440155 34996375.023887634 0 0 0 0 -92165452.453154564 41084820.728221893 0 41084820.728221893 22914174.12587738 0 0 0 0 -50035761.673207283 25946347.756462097 0 25946347.756462097 20196374.469139099 0 0 0 0 -3520647.8224716187 6253442.3480300903 0 6253442.3480300903 -19031686.467193604 0 0 0 0 -3826339.0684418678 346484.33409404755 0 346484.33409404755 1683411.2369766235 0 0 0 0 -5075027.0654239655 1824700.9890975952 0 1824700.9890975952 901474.19248962402 0 0 0 0 -9568880.6088438034 -3898792.3584785461 0 -3898792.3584785461 16418504.537834167 0 0 0 0 -17043968.384894371 3945519.2954750061 0 3945519.2954750061 9544626.0819320679 0 0 0 0 965809.97941112518 -15019642.51008606 0 -15019642.51008606 15619100.989822388 0 0 0 0 -22671428.007090569 -16384979.736621857 0 -16384979.736621857 27544229.692188263 0 0 0 0 -10232821.554956913 -16550927.467060089 0 -16550927.467060089 26991193.964683533 0 0 0 0 -5106529.9524588585 -15040146.69377327 0 -15040146.69377327 21670790.332992554 0 0 0 0 -11547044.17476964 -15800242.59332943 0 -15800242.59332943 40313567.394470215 0 0 0 0 2445392.1214437485 -24548181.870738983 0 -24548181.870738983 52870369.995708466 0 0 0 0 77928941.775196075 81768701.472866058 0 81768701.472866058 73809977.493330956 0 0 0 0 15196799.06997776 -11066952.558727264 0 -11066952.558727264 -3455472.0180511475 0 0 0 0 16348371.265592217 -18989143.850109339 0 -18989143.850109339 8027644.8350906372 0 0 0 0 -140503.22110587987 49356.291909013875 0 49356.291909013875 275854.71982488222 0 0 0 0 -5280330.0796756744 12836934.15032196 0 12836934.15032196 -1708729.1123251915 0 0 0 0 1630597.0583620071 4298205.9119567871 0 4298205.9119567871 8784628.6800689697 0 0 0 0 -292308.45764923096 525118.82451534271 0 525118.82451534271 13944501.329948425 0 0 0 0 1812492.1050930023 2894897.6800003052 0 2894897.6800003052 6484000.0292129517 0 0 0 0 1852244.78373909 -1824696.2607917786 0 -1824696.2607917786 4583982.1753883362 0 0 0 0 -15149287.345272541 2298153.6627159119 0 2298153.6627159119 44269376.517887115 0 0 0 0 -15284010.56018734 4499204.7450580597 0 4499204.7450580597 24717204.926628113 0 0 0 0 15987325.673955441 27812758.402359009 0 27812758.402359009 24089200.681739807 0 0 0 0 -26626552.031099319 985148.28567504883 0 985148.28567504883 27371392.456588745 0 0 0 0 -25055602.256846428 11489665.542922974 0 11489665.542922974 1685679.1970691681 0 0 0 0 -7771819.1158733368 16925068.846252441 0 16925068.846252441 11248378.817993164 0 0 0 0 -53918600.867590904 26254579.432308197 0 26254579.432308197 16116551.119728088 0 0 0 0 -43146269.737955809 -1369286.6664733887 0 -1369286.6664733887 10864908.201789856 0 0 0 0 19787757.521928072 30019246.295248032 0 30019246.295248032 4616279.6707382202 0 0 0 0 -3728850.7706077099 7822199.081612587 0 7822199.081612587 5717670.7562713623 0 0 0 0 21304256.564836502 18203464.940578461 0 18203464.940578461 17133565.129306793 0 0 0 0 -490444.80664945359 1313671.8947580587 0 1313671.8947580587 1155697.9103289247 0 0 0 0 23882882.725572109 28657525.388210297 0 28657525.388210297 10646074.351394653 0 0 0 0 -27609504.310861111 -3148641.0466966629 0 -3148641.0466966629 15474280.776039124 0 0 0 0 -10993273.277417183 -2372515.9761657715 0 -2372515.9761657715 -196783.01006507874 0 0 0 0 -156328.77803095372 423285.66818215046 0 423285.66818215046 383535.96150129288 0 0 0 0 -16741155.243440986 -39421632.483685493 0 -39421632.483685493 79866563.491233826 0 0 0 0 17281498.977492332 -34215285.408313751 0 -34215285.408313751 15846022.290943146 0 0 0 0 90630417.660730839 65061205.981424332 0 65061205.981424332 32563679.885147095 0 0 0 0 -8583292.2715448141 -1420.7438440322876 0 -1420.7438440322876 33703885.214836121 0 0 0 0 -27345526.2888273 47516986.763863564 0 47516986.763863564 82200539.090324402 0 0 0 0 203589801.19783974 -7572221.7607879639 0 -7572221.7607879639 -69909427.08870697 0 0 0 0 89598503.044050217 -56697779.838752747 0 -56697779.838752747 -80019169.471118927 0 0 0 0 -38309008.117305756 27027705.192184448 0 27027705.192184448 84362502.229828835 0 0 0 0 3494086.0622444153 37692093.983291626 0 37692093.983291626 80752262.825473785 0 0 0 0 -112621.34212856344 -145707.05047348514 0 -145707.05047348514 91933.366924826987 0 0 0 0 -11041081.565904617 8753608.0673179626 0 8753608.0673179626 63665118.741546631 0 0 0 0 18360280.357631207 33382951.301803589 0 33382951.301803589 42780846.127182007 0 0 0 0 16818356.845048904 34099156.734336853 0 34099156.734336853 58014942.546216965 0 0 0 0 21371499.537889481 29100093.218795776 0 29100093.218795776 46694899.751472473 0 0 0 0 37408737.792289019 33045893.625991821 0 33045893.625991821 33941688.700027466 0 0 0 0 4794872.8747439384 -4336668.6361083984 0 -4336668.6361083984 31562920.206565857 0 0 0 0 20876439.261837959 46832527.365268707 0 46832527.365268707 61416870.695159912 0 0 0 0 -19068907.540303707 9476251.1856594086 0 9476251.1856594086 46121731.092529297 0 0 0 0 -40038229.042031288 -10049262.917800903 0 -10049262.917800903 40388297.057701111 0 0 0 0 -13788568.839804649 -3610647.934261322 0 -3610647.934261322 37056549.403171539 0 0 0 0 -14266863.380898654 -1299237.8508181572 0 -1299237.8508181572 34453837.370140076 0 0 0 0 -25106168.770777702 -6809481.6511039734 0 -6809481.6511039734 32669489.063014984 0 0 0 0 -25465221.921649933 -5236519.9120693207 0 -5236519.9120693207 26456977.897865295 0 0 0 0 -21343134.357672691 -2764876.9863739014 0 -2764876.9863739014 16746245.439472198 0 0 0 0 -20377603.167289734 -14567097.349937439 0 -14567097.349937439 30044565.234231949 0 0 0 0 -14467712.351745605 -26127173.349786758 0 -26127173.349786758 31201226.225151062 0 0 0 0 -30087085.693901062 -19842113.175117493 0 -19842113.175117493 28735350.287521362 0 0 0 0 -72988573.921655178 -45406348.875377655 0 -45406348.875377655 24857290.890447617 0 0 0 0 -8050265.8499517441 -64303809.29000473 0 -64303809.29000473 -17895939.66204071 0 0 0 0 -32019568.46607542 30659395.813453674 0 30659395.813453674 28201509.416343689 0 0 0 0 -80519589.470915318 -7414888.1610221863 0 -7414888.1610221863 42703454.785395622 0 0 0 0 -216991.60932270787 -180675.67980543338 0 -180675.67980543338 163059.10618669027 0 0 0 0 -37477760.883760452 -61225234.806209564 0 -61225234.806209564 -70677371.041090012 0 0 0 0 -108636274.25255609 -38695606.262850761 0 -38695606.262850761 11114491.047576904 0 0 0 0 -94652780.444930077 37638512.899929047 0 37638512.899929047 28024292.132194519 0 0 0 0 -24577886.577383995 2572923.6783752441 0 2572923.6783752441 64489539.108543396 0 0 0 0 16652042.417929649 45846649.388237 0 45846649.388237 12794799.522468567 0 0 0 0 -31211146.224369526 29177359.569114685 0 29177359.569114685 -39323540.20614624 0 0 0 0 11156449.239721298 26236313.823471069 0 26236313.823471069 43145274.092399597 0 0 0 0 12094175.853937149 26294115.712310791 0 26294115.712310791 42725615.739349365 0 0 0 0 18558669.077270508 33098536.882629395 0 33098536.882629395 42257871.669692993 0 0 0 0 19022577.820722342 29743244.03507328 0 29743244.03507328 39434548.205795288 0 0 0 0 14654646.850036621 27660781.076324463 0 27660781.076324463 43434376.434136391 0 0 0 0 15261354.645049095 24953150.556037903 0 24953150.556037903 38180959.014068604 0 0 0 0 12590425.62856102 16456103.813110352 0 16456103.813110352 25890553.176589966 0 0 0 0 17804973.536360264 28891439.527690887 0 28891439.527690887 33105446.146347046 0 0 0 0 1170265.5372714996 8461113.1084442139 0 8461113.1084442139 27349582.211360931 0 0 0 0 -1810986.3850154877 17902074.045230865 0 17902074.045230865 10044706.664749146 0 0 0 0 -2250188.9499330521 11092677.935060978 0 11092677.935060978 35611486.798904419 0 0 0 0 -564959.58435832919 -369760.20405507647 0 -369760.20405507647 418760.58437060704 0 0 0 0 -1119299.2942123413 -275022.06344604492 0 -275022.06344604492 34581609.582509041 0 0 0 0 5678696.6318359375 13576126.221096039 0 13576126.221096039 35017947.879470825 0 0 0 0 -8911457.807674408 -14265532.815406799 0 -14265532.815406799 -2370663.3848457336 0 0 0 0 3536433.6704044342 12073316.723815918 0 12073316.723815918 44605330.399200439 0 0 0 0 4004398.0666122437 23208655.116851807 0 23208655.116851807 51116660.259689331 0 0 0 0 -63085.141282047844 19319.501947270706 0 19319.501947270706 67757.977403035387 0 0 0 0 4159794.1366653442 24748566.396141052 0 24748566.396141052 58228116.2605896 0 0 0 0 4432404.8909664154 20124413.31060791 0 20124413.31060791 50231192.081893921 0 0 0 0 5223531.4508857727 17021222.464111328 0 17021222.464111328 57094554.352470398 0 0 0 0 10666769.831935883 19963243.234985352 0 19963243.234985352 35914820.326019287 0 0 0 0 8904266.023273468 21991998.17616272 0 21991998.17616272 50265611.510879517 0 0 0 0 695111.69536185265 -5798468.0763173103 0 -5798468.0763173103 4185433.882522583 0 0 0 0 -11464923.023173332 -4356448.7926673889 0 -4356448.7926673889 18709499.57661438 0 0 0 0 -32367604.060403824 -15816959.954536438 0 -15816959.954536438 27343591.223186493 0 0 0 0 -27128474.02200985 -20382986.518039703 0 -20382986.518039703 24525352.30191803 0 0 0 0 -21182925.56029892 -14756375.562858582 0 -14756375.562858582 7626032.8656768799 0 0 0 0 -17301402.982059479 -18681196.198488235 0 -18681196.198488235 1362709.0642929077 0 0 0 0 -37353334.452445984 -32535927.709823608 0 -32535927.709823608 10488112.116157532 0 0 0 0 -27935139.596678734 -16444667.136833191 0 -16444667.136833191 -7471394.9569854736 0 0 0 0 -37257046.95736599 -22867804.561164856 0 -22867804.561164856 25698981.464485168 0 0 0 0 -28677669.594784737 -20874723.43262291 0 -20874723.43262291 1340437.6485977173 0 0 0 0 -38896470.926813126 -23510905.828735352 0 -23510905.828735352 33835083.472373962 0 0 0 0 -15653627.155032158 -8825966.0230064392 0 -8825966.0230064392 24018296.194465637 0 0 0 0 -20642667.426359177 16449547.983200073 0 16449547.983200073 4199651.6538124084 0 0 0 0 -18686907.022043228 2206416.418636322 0 2206416.418636322 55438248.255371094 0 0 0 0 -18535950.827800751 46844379.098464966 0 46844379.098464966 10845503.396713257 0 0 0 0 -11925969.787813187 55521685.327552795 0 55521685.327552795 15846214.227600098 0 0 0 0 -24379528.710975647 52595664.892776489 0 52595664.892776489 22912683.03742981 0 0 0 0 -30706424.374895573 45468551.28868103 0 45468551.28868103 19993068.126190186 0 0 0 0 -25976319.504625082 35896690.52120018 0 35896690.52120018 13993193.035964966 0 0 0 0 -2663611.5321073532 -20107036.535820007 0 -20107036.535820007 8692685.3127903938 0 0 0 0 -44716586.813881874 -31877374.549190521 0 -31877374.549190521 42059236.364753723 0 0 0 0 -32699127.513186455 37429358.045520782 0 37429358.045520782 21730675.926048279 0 0 0 0 232890.27774890384 -472530.84086915944 0 -472530.84086915944 -406660.72915351018 0 0 0 0 -5838813.3856072724 -31594059.057147741 0 -31594059.057147741 -24406616.493225098 0 0 0 0 -21726741.790645599 -241231.91063690186 0 -241231.91063690186 33535571.351835251 0 0 0 0 -383345.03730679071 -2221624.0447633471 0 -2221624.0447633471 6207155.4317888534 0 0 0 0 11957275.787264824 -14443342.469339371 0 -14443342.469339371 -1843437.0475196838 0 0 0 0 9082964.7865722179 -18241067.333244324 0 -18241067.333244324 -27866235.667923927 0 0 0 0 -8410080.1419907808 -29727112.116605759 0 -29727112.116605759 -29296259.823127747 0 0 0 0 127466.21983576613 -1965598.3349225316 0 -1965598.3349225316 5951421.303594362 0 0 0 0 -4222231.7760767937 -21290529.781082153 0 -21290529.781082153 -36362467.602531433 0 0 0 0 -9231624.7610040754 -1525175.2363431454 0 -1525175.2363431454 7321539.6091308594 0 0 0 0 -9958953.8971419334 19554776.71162796 0 19554776.71162796 -26164457.891956329 0 0 0 0 -696093.80637490749 -24277892.080307007 0 -24277892.080307007 22462884.400583267 0 0 0 0 2356202.9730738886 18285351.601654291 0 18285351.601654291 46744117.111747742 0 0 0 0 -35325807.526919127 -36197884.794238091 0 -36197884.794238091 6944999.2572479248 0 0 0 0 -14704571.4322505 -5566159.5870628357 0 -5566159.5870628357 -6132209.5315914154 0 0 0 0 11075914.770705223 -22002926.733825684 0 -22002926.733825684 2965666.6991043091 0 0 0 0 -2598937.9469567537 7712689.0710382462 0 7712689.0710382462 33904433.741958618 0 0 0 0 4361738.248554945 -16556913.496603966 0 -16556913.496603966 -20635258.824829102 0 0 0 0 58416142.743673712 33712529.819169998 0 33712529.819169998 31593690.607192993 0 0 0 0 11628763.664495945 -4996967.6100063324 0 -4996967.6100063324 45024189.20003891 0 0 0 0 -26273081.440854549 -12411317.075716019 0 -12411317.075716019 -31352116.603210449 0 0 0 0 -47951055.440525055 -26336450.495845795 0 -26336450.495845795 4907988.1693172455 0 0 0 0 -66204541.136234283 84895719.122211456 0 84895719.122211456 -110213855.54036713 0 0 0 0 171819.59381973604 -2159534.7712379713 0 -2159534.7712379713 5488046.3666853309 0 0 0 0 -32318080.863414764 -38725793.801143646 0 -38725793.801143646 -15609392.952409744 0 0 0 0 -2315055.9412944829 210292.54606982321 0 210292.54606982321 2225271.7148466874 0 0 0 0 -19683719.900105476 19484254.829807281 0 19484254.829807281 21274008.039020538 0 0 0 0 -60026680.413253784 68455605.93075943 0 68455605.93075943 -133620776.94288635 0 0 0 0 201829254.80764198 -92454291.91709137 0 -92454291.91709137 -86921367.068792343 0 0 0 0 -470012.77899169922 -65161954.925426483 0 -65161954.925426483 -51169904.476760864 0 0 0 0 51193322.162353992 -194466589.09079933 0 -194466589.09079933 -18015475.346755981 0 0 0 0 -143832358.27130914 -58608818.712831497 0 -58608818.712831497 -425617339.24716187 0 0 0 0 95726366.206166267 189518384.52915573 0 189518384.52915573 202434654.84350586 0 0 0 0 -86459700.491033554 118059827.6924057 0 118059827.6924057 417416571.32352161 0 0 0 0 3331258.7428970337 -217948470.93648148 0 -217948470.93648148 379972830.90591431 0 0 0 0 225843.19489012426 -1737370.5560813872 0 -1737370.5560813872 4308669.4915477186 0 0 0 0 -369440370.58086777 -265345019.52994156 0 -265345019.52994156 748920741.6997757 0 0 0 0 -49034575.578892708 -25359978.646736145 0 -25359978.646736145 23184375.27558136 0 0 0 0 10227392.815282822 -3568224.1965522766 0 -3568224.1965522766 -10379070.753662109 0 0 0 0 35479977.017393589 49874046.558584213 0 49874046.558584213 27302825.791549683 0 0 0 0 15533195.202133656 68107841.010311127 0 68107841.010311127 107607752.47259521 0 0 0 0 8993850.608247757 32082906.487976074 0 32082906.487976074 56912711.931594849 0 0 0 0 -9613122.2308187485 51336928.588478088 0 51336928.588478088 43476165.475791931 0 0 0 0 13033431.993076324 58679959.251037598 0 58679959.251037598 23849009.616054535 0 0 0 0 -151567967.49740124 -167112157.29190445 0 -167112157.29190445 -185859960.61820984 0 0 0 0 195518.87901145685 -391370.7492006328 0 -391370.7492006328 527450.40938252583 0 0 0 0 190206.95079848939 -1119898.6307999562 0 -1119898.6307999562 2671846.3441375978 0 0 0 0 -16509962.207487106 -13269676.942162752 0 -13269676.942162752 36103221.317733765 0 0 0 0 41184013.103005849 94116366.680576324 0 94116366.680576324 160032671.29119492 0 0 0 0 57116976.831648827 49342065.389949799 0 49342065.389949799 71045351.625019073 0 0 0 0 27097681.262895584 51842012.978500366 0 51842012.978500366 77927973.634487152 0 0 0 0 2745032.6740555763 2533003.7524204254 0 2533003.7524204254 31692909.769668579 0 0 0 0 5484044.7321927547 42045479.664320707 0 42045479.664320707 69880717.260375977 0 0 0 0 72268609.864808083 103911213.31499863 0 103911213.31499863 109456290.61562347 0 0 0 0 36238846.006711483 79842716.479699612 0 79842716.479699612 128716979.40940857 0 0 0 0 45528616.802314281 51552480.696872711 0 51552480.696872711 56757157.606773376 0 0 0 0 58966083.307614982 104248989.62624264 0 104248989.62624264 186857171.24098206 0 0 0 0 117947145.71439755 133963815.57320976 0 133963815.57320976 170513538.56647873 0 0 0 0 131573249.60901409 87942991.776622295 0 87942991.776622295 193571929.83255005 0 0 0 0 76378319.944249392 115497603.7220192 0 115497603.7220192 181989175.59672165 0 0 0 0 84159591.432024479 98151620.691999435 0 98151620.691999435 173716748.18032837 0 0 0 0 46308058.380165935 81823423.1023283 0 81823423.1023283 246156670.22879028 0 0 0 0 44738912.827838182 91480343.792884827 0 91480343.792884827 177300272.37545776 0 0 0 0 62598062.65066433 97366068.170806885 0 97366068.170806885 93362615.680837631 0 0 0 0 37281142.28207922 73164200.425722122 0 73164200.425722122 129803056.7347641 0 0 0 0 64663859.977247238 81447606.852836609 0 81447606.852836609 67831587.487024307 0 0 0 0 52835565.861497879 126043534.35546875 0 126043534.35546875 172360442.64302063 0 0 0 0 47213023.775616646 44625243.878860474 0 44625243.878860474 43897402.627166748 0 0 0 0 89651367.914106369 7105637.5725021362 0 7105637.5725021362 -34641573.857727051 0 0 0 0 122868833.25099945 85657171.976104736 0 85657171.976104736 -15592835.202680588 0 0 0 0 101763713.49013138 135754563.64810944 0 135754563.64810944 97767034.909004211 0 0 0 0 52486337.282164574 99360580.186843872 0 99360580.186843872 178963237.94181061 0 0 0 0 158471073.59391499 164113542.04247665 0 164113542.04247665 124553773.72470856 0 0 0 0 157494817.75926787 189068922.5828414 0 189068922.5828414 272190926.43824768 0 0 0 0 73067913.022476196 92028390.161369324 0 92028390.161369324 274035133.52822113 0 0 0 0 54994076.482960224 131828034.18168449 0 131828034.18168449 229412656.38822937 0 0 0 0 48912024.681870461 80459016.638511658 0 80459016.638511658 273871049.56404877 0 0 0 0 58827406.703105927 114338742.68458557 0 114338742.68458557 306844492.10160828 0 0 0 0 56535369.867555618 95522656.277488708 0 95522656.277488708 301005947.11260986 0 0 0 0 90972478.739263535 20682650.435760498 0 20682650.435760498 311313180.75619984 0 0 0 0 73269368.399485081 103176086.47422224 0 103176086.47422224 474293599.2996521 0 0 0 0 42727874.538768291 84492726.782349586 0 84492726.782349586 249491670.24477386 0 0 0 0 50768883.585642815 84621178.706420898 0 84621178.706420898 207494419.85510635 0 0 0 0 35830220.015845299 100298673.75992393 0 100298673.75992393 258380654.49267578 0 0 0 0 53547433.928535461 65495537.034301758 0 65495537.034301758 273491929.99185944 0 0 0 0 70419475.426989555 82577467.848417282 0 82577467.848417282 247984085.32764816 0 0 0 0 45276498.257214069 71141382.570095062 0 71141382.570095062 254605920.61885834 0 0 0 0 102183913.43506908 62462106.877586365 0 62462106.877586365 244378159.38851643 0 0 0 0 115170538.48946416 150534766.91433311 0 150534766.91433311 115330005.77069855 0 0 0 0 109452498.04110909 39316571.006393433 0 39316571.006393433 213939589.45532227 0 0 0 0 64779427.057478905 62864087.141384125 0 62864087.141384125 244395359.86746979 0 0 0 0 31701087.997238159 55945242.179603577 0 55945242.179603577 265906504.07140732 0 0 0 0 1743231.3746123314 114877369.00888824 0 114877369.00888824 234518589.16928291 0 0 0 0 71497257.909670353 5074833.3101634979 0 5074833.3101634979 333187194.42409134 0 0 0 0 43801963.720808744 117804157.34566879 0 117804157.34566879 283290736.9140358 0 0 0 0 237049166.13184822 62959942.196073055 0 62959942.196073055 180204763.5716095 0 0 0 0 65894890.324000835 62918341.992328644 0 62918341.992328644 244968134.56814957 0 0 0 0 -96589562.184728146 45714131.254385948 0 45714131.254385948 -80070281.95362854 0 0 0 0 -33927601.985420465 21879707.765154839 0 21879707.765154839 14434222.956100464 0 0 0 0 -76931696.878391266 -5240691.5932388306 0 -5240691.5932388306 15936816.436256409 0 0 0 0 -23575077.375682831 50484231.171730042 0 50484231.171730042 -7540201.4865341187 0 0 0 0 -23572405.282953262 50093582.712745667 0 50093582.712745667 35692789.82973671 0 0 0 0 3967978.0537700653 31807968.335418701 0 31807968.335418701 23875984.708602905 0 0 0 0 3864912.7824960947 29919423.97048533 0 29919423.97048533 87837381.202392578 0 0 0 0 -29848414.644794464 64087.672050476074 0 64087.672050476074 82770269.478996277 0 0 0 0 -18551493.626024246 -12341746.459648132 0 -12341746.459648132 68577766.616378784 0 0 0 0 -46972764.277496338 -45279835.77117157 0 -45279835.77117157 175895365.02487183 0 0 0 0 -19504371.951795578 -1887188.4331855774 0 -1887188.4331855774 173389012.11253357 0 0 0 0 -74629762.175743103 -49550584.152925491 0 -49550584.152925491 309097637.66906738 0 0 0 0 -74408468.323070526 -41270410.634407043 0 -41270410.634407043 234713291.49932861 0 0 0 0 -38390404.03478241 2291666.6873168945 0 2291666.6873168945 180707126.94654083 0 0 0 0 -61974591.714271545 -77737834.556648254 0 -77737834.556648254 168497375.08934021 0 0 0 0 -89918997.52278176 -103747400.49889946 0 -103747400.49889946 -96823242.275672913 0 0 0 0 -86605532.100723267 -127687060.37839508 0 -127687060.37839508 138794739.81225967 0 0 0 0 -283786625.31219482 -247002944.92033005 0 -247002944.92033005 184383281.57162094 0 0 0 0 -89044796.495246887 -81915265.570159912 0 -81915265.570159912 163400677.55070877 0 0 0 0 -46716344.477135658 -65661158.167272568 0 -65661158.167272568 37674316.84677124 0 0 0 0 246373209.8129425 313364813.85838699 0 313364813.85838699 196800265.34202576 0 0 0 0 -51647.771692802198 -183306.2548276782 0 -183306.2548276782 885355.71541170776 0 0 0 0 148895922.0284214 177354468.47910309 0 177354468.47910309 43545943.625400543 0 0 0 0 36356106.10656929 174163653.035923 0 174163653.035923 242225013.15437317 0 0 0 0 109010907.58958626 223009851.44194794 0 223009851.44194794 211149847.35201073 0 0 0 0 -336574791.33563042 -5471941.2717819214 0 -5471941.2717819214 220774980.2187233 0 0 0 0 -143082418.90862179 423106571.97247314 0 423106571.97247314 443712556.34822083 0 0 0 0 298024317.37477684 35974118.700820923 0 35974118.700820923 180511289.193367 0 0 0 0 52824.147125957534 -666997.26422853582 0 -666997.26422853582 2070531.0518760085 0 0 0 0 -218197029.01776457 -65153588.449911833 0 -65153588.449911833 45624.958442687988 0 0 0 0 -207193332.55263519 32759962.412601471 0 32759962.412601471 16132529.316253662 0 0 0 0 -78547862.474321365 25350422.576740265 0 25350422.576740265 -21086224.08000946 0 0 0 0 -90085538.085402489 -32922933.467409134 0 -32922933.467409134 -46267039.754089355 0 0 0 0 -119359502.52290916 2609823.1216754913 0 2609823.1216754913 31212453.986480713 0 0 0 0 457554036.61790752 -547391864.19036865 0 -547391864.19036865 -656119175.16401672 0 0 0 0 1016954462.0092268 1032185272.2996292 0 1032185272.2996292 469253022.56018066 0 0 0 0 169330795.71549416 -93519424.829475403 0 -93519424.829475403 382075400.39530945 0 0 0 0 -534919524.56085777 -300123813.91070557 0 -300123813.91070557 98660413.684356689 0 0 0 0 55676.483952630311 -354846.64122536127 0 -354846.64122536127 879632.67376480624 0 0 0 0 -85141592.257567644 -22476342.71149826 0 -22476342.71149826 29188326.401893616 0 0 0 0 296374.2351892509 -871648.89160639606 0 -871648.89160639606 1716533.4326735027 0 0 0 0 -72469939.095077515 9190336.5892105103 0 9190336.5892105103 7681046.1954421997 0 0 0 0 -76637310.707967758 26627437.091201782 0 26627437.091201782 53180397.62979126 0 0 0 0 -69595239.514976501 28460805.807884216 0 28460805.807884216 21437213.663692474 0 0 0 0 -88800947.609493256 11054264.649837494 0 11054264.649837494 47826404.018936157 0 0 0 0 -48078804.725851059 25654057.286346436 0 25654057.286346436 44923433.361429214 0 0 0 0 -66351501.052471161 40737684.432834625 0 40737684.432834625 76829584.793746948 0 0 0 0 -49014171.98551178 44799887.819572449 0 44799887.819572449 57514510.788305283 0 0 0 0 -40649577.16509819 48056280.466957092 0 48056280.466957092 59167398.523582458 0 0 0 0 -52834967.702342987 54330579.61882782 0 54330579.61882782 80364838.8074646 0 0 0 0 -23273722.975229263 51404760.394416809 0 51404760.394416809 51887013.749980927 0 0 0 0 -40656568.243936539 61963594.825836182 0 61963594.825836182 87280634.483108521 0 0 0 0 -33782497.049848557 38150229.845474243 0 38150229.845474243 55959169.603271484 0 0 0 0 -69445094.846336365 52308536.200036049 0 52308536.200036049 61028939.055038452 0 0 0 0 -88817622.918980598 31724378.985759735 0 31724378.985759735 35197017.794792175 0 0 0 0 -35200768.65055275 50385946.27028656 0 50385946.27028656 20727668.071342468 0 0 0 0 7330462.0429439545 44639253.147106171 0 44639253.147106171 20666621.612243652 0 0 0 0 7746605.0717449188 38848324.72977829 0 38848324.72977829 22228447.142105103 0 0 0 0 -33218035.81744957 45205589.786140442 0 45205589.786140442 67686653.832214355 0 0 0 0 -24324358.119874954 57907562.974105835 0 57907562.974105835 63998415.084899902 0 0 0 0 -32704602.893053055 45126396.875717163 0 45126396.875717163 98428034.953720093 0 0 0 0 -31308941.494790554 31616936.378368378 0 31616936.378368378 223427327.11859131 0 0 0 0 -14041614.396131516 157066436.64015961 0 157066436.64015961 60091912.804031372 0 0 0 0 -20628278.349622726 193491312.97934341 0 193491312.97934341 186046520.52027893 0 0 0 0 12166249.690340042 111837149.63471222 0 111837149.63471222 39647314.500247955 0 0 0 0 -21564823.672676086 108917927.00868225 0 108917927.00868225 150472184.70331573 0 0 0 0 -20958824.619457245 75805382.269065857 0 75805382.269065857 82426870.878679276 0 0 0 0 -30909747.54780674 82946275.963745117 0 82946275.963745117 82530391.429946899 0 0 0 0 -44144510.918985367 55870081.833545685 0 55870081.833545685 91485084.290901184 0 0 0 0 -26625505.069835663 56008430.946327209 0 56008430.946327209 79461264.756177902 0 0 0 0 -8662152.3304367065 48496389.101642609 0 48496389.101642609 92948019.199859619 0 0 0 0 -15159559.218194008 56852234.387470245 0 56852234.387470245 84354227.708564758 0 0 0 0 30316067.21661377 82456238.655433655 0 82456238.655433655 81541729.742261887 0 0 0 0 38288088.587947845 38201133.293445587 0 38201133.293445587 90854205.128551483 0 0 0 0 -7458503.5022659302 34470258.685379028 0 34470258.685379028 106677542.0891304 0 0 0 0 237463.28259822633 89407.688820615411 0 89407.688820615411 -175413.38197986223 0 0 0 0 46107747.20524025 85561169.650100708 0 85561169.650100708 55192011.388465881 0 0 0 0 2679820.459690094 10864279.390144348 0 10864279.390144348 15934234.589805603 0 0 0 0 -52857366.119880676 12593918.875732422 0 12593918.875732422 -2425241.3735809326 0 0 0 0 -149724.6426405427 -67505.856524232775 0 -67505.856524232775 90052.514981734566 0 0 0 0 -151722.0563172414 121837.67707620002 0 121837.67707620002 43401.802112136036 0 0 0 0 84207604.994760513 84157285.912490845 0 84157285.912490845 76249292.287582397 0 0 0 0 -18502441.893019676 89247151.912923813 0 89247151.912923813 194547679.68479919 0 0 0 0 33322518.266201019 28745557.747795105 0 28745557.747795105 16206694.206256866 0 0 0 0 -17012312.034225464 -17537737.318267822 0 -17537737.318267822 1498972.7051315308 0 0 0 0 -31452454.026805878 49501618.581207275 0 49501618.581207275 119185763.93729019 0 0 0 0 -30993706.205988884 53505561.051052094 0 53505561.051052094 121074918.10974121 0 0 0 0 -30048657.536783218 25513286.367179871 0 25513286.367179871 113363994.96213341 0 0 0 0 -51396989.278323174 43199955.14673233 0 43199955.14673233 107770342.77200317 0 0 0 0 -58010879.547564507 27751527.015047073 0 27751527.015047073 72110038.036575317 0 0 0 0 -35506594.354290009 35043417.48091507 0 35043417.48091507 68200592.093460083 0 0 0 0 -32858666.647317886 42820305.371337891 0 42820305.371337891 75810151.355987549 0 0 0 0 -38589901.950260162 35474050.715801239 0 35474050.715801239 106722829.6664505 0 0 0 0 -4945127.8815231323 32611895.276779175 0 32611895.276779175 106963975.54319859 0 0 0 0 -23361264.482675552 4063345.2549705505 0 4063345.2549705505 119417714.57071686 0 0 0 0 -58084108.5577631 11145138.984489441 0 11145138.984489441 119294444.54293823 0 0 0 0 -56086225.808506012 -54088243.588577271 0 -54088243.588577271 70826365.263023376 0 0 0 0 -70467296.382736206 19683625.870040894 0 19683625.870040894 170554419.58055878 0 0 0 0 -58529363.635271072 36944254.967483521 0 36944254.967483521 181686067.00540161 0 0 0 0 -125223667.39378166 6455982.8527145386 0 6455982.8527145386 275742294.53794098 0 0 0 0 -121473540.60666275 -44810782.768714905 0 -44810782.768714905 179546759.06842828 0 0 0 0 -40592827.521873474 57684199.330238342 0 57684199.330238342 195835475.19262695 0 0 0 0 -66408609.227596283 38323058.457309723 0 38323058.457309723 205448911.71179199 0 0 0 0 19426.419880232308 13383.886070806533 0 13383.886070806533 -48266.717058020178 0 0 0 0 -682453.82926911023 71512.449614180252 0 71512.449614180252 661619.66159913875 0 0 0 0 301966547.45278358 -250154058.38197327 0 -250154058.38197327 -122652435.10340881 0 0 0 0 -779277457.66656113 189391374.65141296 0 189391374.65141296 -77382696.23667717 0 0 0 0 -151544274.40237045 -132154875.95440674 0 -132154875.95440674 -72402676.444709778 0 0 0 0 -334597138.91468811 -6030379.6998596191 0 -6030379.6998596191 27805528.172195435 0 0 0 0 164997568.90311241 16681468.647893906 0 16681468.647893906 -89908592.343780518 0 0 0 0 -72064039.822325706 236878613.70388222 0 236878613.70388222 -189919350.98648834 0 0 0 0 -131932597.54252243 86260044.481498718 0 86260044.481498718 47056680.787517548 0 0 0 0 44231079.62600708 111931155.69184113 0 111931155.69184113 24504923.999862671 0 0 0 0 -1101448.6850511725 536078.54391005635 0 536078.54391005635 534713.08263678849 0 0 0 0 -86628294.539772034 -94106411.782997131 0 -94106411.782997131 -84165646.291690826 0 0 0 0 -47778411.745214462 50232643.979423523 0 50232643.979423523 3882553.6342277527 0 0 0 0 -19971489.548290253 -38754511.44128418 0 -38754511.44128418 -9143083.4796257019 0 0 0 0 2781513.3802633286 1971776.6329460144 0 1971776.6329460144 3575379.7102661133 0 0 0 0 4626775.3232002258 5322859.8948154449 0 5322859.8948154449 -7398110.9914703369 0 0 0 0 5031747.3250589371 8071304.013923645 0 8071304.013923645 1839931.5899276733 0 0 0 0 -983686.33175485767 545509.65373397619 0 545509.65373397619 349143.13494221494 0 0 0 0 139973880.0045929 -28568165.988132477 0 -28568165.988132477 5679418.3155450821 0 0 0 0 3636929.9573893547 -961217.26988983154 0 -961217.26988983154 -626234.25416564941 0 0 0 0 -353697.58447742462 606228.42824554443 0 606228.42824554443 3264328.0505599976 0 0 0 0 -1114993.5160236359 2255380.1221923828 0 2255380.1221923828 18182.392196655273 0 0 0 0 -2679071.2809448242 -6839165.3540186882 0 -6839165.3540186882 -10132611.130363464 0 0 0 0 -423295.57091619866 -43781.530811203644 0 -43781.530811203644 446561.54358792119 0 0 0 0 -7421612.4267206192 1530482.27551651 0 1530482.27551651 1147203.0161972046 0 0 0 0 9692182.7959365845 2848498.8714141846 0 2848498.8714141846 -863537.46075057983 0 0 0 0 40459867.157790184 56904022.845710754 0 56904022.845710754 25018862.162044525 0 0 0 0 -3738721.6774675846 -21875297.390492678 0 -21875297.390492678 -27600653.946228027 0 0 0 0 -208765.50223094132 -14993.915077166632 0 -14993.915077166632 214912.36161611974 0 0 0 0 -2895577.3086166382 16358029.697250366 0 16358029.697250366 32207280.056564331 0 0 0 0 -5048139.424823761 26847417.904701233 0 26847417.904701233 7174929.3452863693 0 0 0 0 -60209425.281877518 10985608.599861145 0 10985608.599861145 14567148.898727417 0 0 0 0 530.22964466223493 1970328.880495698 0 1970328.880495698 5446571.9959562607 0 0 0 0 12149019.897831917 24148909.241075516 0 24148909.241075516 -5593233.3279571533 0 0 0 0 22853090.610793114 11061031.107707977 0 11061031.107707977 -20312553.26764679 0 0 0 0 -29208604.895249367 23610638.032516479 0 23610638.032516479 -959922.24427986145 0 0 0 0 -125164.82566897199 1277062.7997024464 0 1277062.7997024464 4387459.6227233708 0 0 0 0 -502490008.92983413 200092699.45199203 0 200092699.45199203 171719238.9879303 0 0 0 0 -159063326.24189258 -165780033.96191788 0 -165780033.96191788 11530489.723388672 0 0 0 0 -193042.57186992234 551750.79659854528 0 551750.79659854528 2706294.9062608443 0 0 0 0 -237178357.34875631 -113510999.88668633 0 -113510999.88668633 210776517.4467392 0 0 0 0 22086669.968214035 13276066.088596344 0 13276066.088596344 -19759670.232879639 0 0 0 0 -6274737.0520935059 26150988.318305969 0 26150988.318305969 31441251.577430725 0 0 0 0 18519487.253464699 7512809.5760593414 0 7512809.5760593414 40886110.423675537 0 0 0 0 38906989.509727478 16081679.002403259 0 16081679.002403259 4846186.9889450073 0 0 0 0 27124180.344913483 53031002.631544113 0 53031002.631544113 30838218.448699951 0 0 0 0 -14557682.769231796 30125769.685523987 0 30125769.685523987 22669256.688911438 0 0 0 0 29747399.823554993 5532116.0681991577 0 5532116.0681991577 108828930.12968254 0 0 0 0 31729537.583683014 48982934.921081543 0 48982934.921081543 75268582.226654053 0 0 0 0 175867987.10181046 2788499.6618728638 0 2788499.6618728638 -8511098.9552688599 0 0 0 0 47553355.703382492 -36538037.788146973 0 -36538037.788146973 249234328.44354248 0 0 0 0 73041123.035968781 101881100.20105743 0 101881100.20105743 -58083172.462265015 0 0 0 0 60785323.606735229 -9039382.4794845581 0 -9039382.4794845581 25105940.015174866 0 0 0 0 -66328.12631901633 -56871.529621705413 0 -56871.529621705413 41123.202235323843 0 0 0 0 43193193.373008728 17116989.416160583 0 17116989.416160583 -119471428.06138611 0 0 0 0 -7228199.74330616 16629902.259529114 0 16629902.259529114 40946166.73526001 0 0 0 0 51723811.146637917 56016456.523052216 0 56016456.523052216 -85543066.618919373 0 0 0 0 -22680502.40345192 71916859.186870575 0 71916859.186870575 -43577260.602401733 0 0 0 0 13170154.213108063 27879744.082092285 0 27879744.082092285 -31021906.52775383 0 0 0 0 22819151.353046734 19124074.167814746 0 19124074.167814746 -63088596.133163452 0 0 0 0 -2655666.9628829956 -7333410.4525756836 0 -7333410.4525756836 -4324081.7336921692 0 0 0 0 -35804525.728724718 -121147830.2167511 0 -121147830.2167511 82983988.015792847 0 0 0 0 246406.61180462345 -226542.81195702218 0 -226542.81195702218 -9504.1932263448834 0 0 0 0 24113233.679293752 46398465.819587708 0 46398465.819587708 16881390.388786316 0 0 0 0 79168094.195885301 1788889.2737216949 0 1788889.2737216949 -66290282.849891663 0 0 0 0 -2338819.2396564484 16408741.092292786 0 16408741.092292786 38464839.920124054 0 0 0 0 259124741.33598804 -163458385.93059921 0 -163458385.93059921 83427626.062507629 0 0 0 0 271119256.12318397 200840196.35238266 0 200840196.35238266 -92186537.553688049 0 0 0 0 -94914573.87118578 40984923.107223511 0 40984923.107223511 -21171108.061645508 0 0 0 0 -283167689.13035607 338430868.69867516 0 338430868.69867516 -48876633.815032959 0 0 0 0 -186087924.91693544 -76499076.291160583 0 -76499076.291160583 26433595.66997242 0 0 0 0 -113029344.59269047 126189914.28570938 0 126189914.28570938 565970357.00064087 0 0 0 0 1222639.2327916622 -142479004.11461067 0 -142479004.11461067 86643479.855888367 0 0 0 0 -49224974.996168613 -53918395.659313202 0 -53918395.659313202 107805893.31950378 0 0 0 0 -328909.44665117463 -474260.22600193718 0 -474260.22600193718 1389209.2954727896 0 0 0 0 141650415.33015251 -108379448.20357513 0 -108379448.20357513 75771331.226890564 0 0 0 0 15026930.996907234 33484867.153446198 0 33484867.153446198 70140843.963878632 0 0 0 0 125065998.14934389 236786747.82645833 0 236786747.82645833 288837910.23929596 0 0 0 0 -104010.15069750903 -217823.41352836898 0 -217823.41352836898 488959.80400701985 0 0 0 0 403822107.20349383 -283539493.93363571 0 -283539493.93363571 125716073.36626053 0 0 0 0 2788778.9356358051 -30168542.966651917 0 -30168542.966651917 457934475.64242554 0 0 0 0 -8889124.5590658486 66022415.441664696 0 66022415.441664696 284457673.53491974 0 0 0 0 6156646.4008686543 23879743.060668945 0 23879743.060668945 81936067.926502228 0 0 0 0 -538261.51529084612 660530.0073237624 0 660530.0073237624 961719.25732105784 0 0 0 0 -91729189.524543285 243793566.94790649 0 243793566.94790649 -298903103.65327072 0 0 0 0 -29051185.257688046 21026581.271190643 0 21026581.271190643 206112554.46016693 0 0 0 0 -36550564.746979475 133971779.60556412 0 133971779.60556412 242005407.33985901 0 0 0 0 -76835710.518930018 149709997.41555023 0 149709997.41555023 233399152.76027679 0 0 0 0 -51326520.444613457 143856087.94169426 0 143856087.94169426 -25331720.752784729 0 0 0 0 49164624.890894175 135594429.70824051 0 135594429.70824051 -249441017.63289642 0 0 0 0 -93529797.710835934 111781952.39111328 0 111781952.39111328 -34759964.57535553 0 0 0 0 -89210324.24242425 112678091.33382797 0 112678091.33382797 -96965968.425735474 0 0 0 0 -1189834.6775742022 785485.75028470904 0 785485.75028470904 1577306.4156239899 0 0 0 0 -155783173.87402391 77591853.73916626 0 77591853.73916626 18665173.994091034 0 0 0 0 -793620.62336924078 -1131492.8796431352 0 -1131492.8796431352 3036014.3419295736 0 0 0 0 -51959893.609616995 -42390723.701371908 0 -42390723.701371908 -30916450.808486938 0 0 0 0 37540446.549976349 -73883004.444458008 0 -73883004.444458008 101172055.41197777 0 0 0 0 -1331773.9914350037 323862.36554258689 0 323862.36554258689 916898.78615126945 0 0 0 0 25454043.756444931 -87440369.738571167 0 -87440369.738571167 102554643.46598053 0 0 0 0 -15300258.978618622 -63534866.648117065 0 -63534866.648117065 -33402735.358642578 0 0 0 0 -103914593.28352356 -92851813.054702759 0 -92851813.054702759 -11241014.965034485 0 0 0 0 -214966672.60925865 -56433890.952466846 0 -56433890.952466846 50037115.268081665 0 0 0 0 -29726515.444610596 -91993990.866241455 0 -91993990.866241455 -3891843.9929504395 0 0 0 0 -567671.85647466627 -1130993.9273194664 0 -1130993.9273194664 2769693.5040849112 0 0 0 0 -281014917.37761188 24016738.628597677 0 24016738.628597677 139973694.10536957 0 0 0 0 -114951884.1104722 24622268.907737732 0 24622268.907737732 163942380.40932465 0 0 0 0 -122531013.33633041 62222711.969835281 0 62222711.969835281 -11486572.410438538 0 0 0 0 -34909170.962975025 -104383363.89423752 0 -104383363.89423752 3199539.9022464752 0 0 0 0 24127244.691677094 -252846495.42061234 0 -252846495.42061234 279967710.16634369 0 0 0 0 -101850884.99851453 66192374.83826828 0 66192374.83826828 253576901.76194763 0 0 0 0 271293871.91622162 107174862.72465897 0 107174862.72465897 -76470057.152797699 0 0 0 0 155737016.46455002 145009138.14826202 0 145009138.14826202 -54311937.975585938 0 0 0 0 19809470.832492352 33224215.636709213 0 33224215.636709213 8742988.3721313477 0 0 0 0 46003330.238336563 46601745.669006348 0 46601745.669006348 13373499.180805206 0 0 0 0 80872311.933401108 195855079.29851151 0 195855079.29851151 200844007.45890141 0 0 0 0 -13456858.994403839 3190228.8361606598 0 3190228.8361606598 45950571.991043091 0 0 0 0 29427.695539874025 -88713.70013174694 0 -88713.70013174694 296357.18305325136 0 0 0 0 96097071.887430191 153774672.96127129 0 153774672.96127129 51676171.473358154 0 0 0 0 54075285.81521225 127439483.63119507 0 127439483.63119507 152403926.09435272 0 0 0 0 42998762.104576111 94587525.066993713 0 94587525.066993713 54968709.374298096 0 0 0 0 95514342.974671364 149066319.21142578 0 149066319.21142578 24513278.656158447 0 0 0 0 77215780.064231873 56111706.14263916 0 56111706.14263916 46697452.266908646 0 0 0 0 23761316.332533836 -1951629.6388206482 0 -1951629.6388206482 20608526.701431274 0 0 0 0 180361691.81640291 21583461.893404961 0 21583461.893404961 19147788.860992432 0 0 0 0 -23383542.919403076 -124699146.47695923 0 -124699146.47695923 -343414531.78296089 0 0 0 0 -254935124.24540806 -6047490.8469543457 0 -6047490.8469543457 206513119.02650452 0 0 0 0 -522297.42241429072 186902.96440796554 0 186902.96440796554 343095.68560301606 0 0 0 0 -386973711.48599434 -182887712.59358215 0 -182887712.59358215 190836392.3705368 0 0 0 0 -111509067.70129108 -50709443.087032318 0 -50709443.087032318 127444629.63081169 0 0 0 0 -182533465.15457439 -284271835.53877258 0 -284271835.53877258 12630599.905883789 0 0 0 0 297531636.90793037 23915686.097129822 0 23915686.097129822 -62740599.01260376 0 0 0 0 193239282.81649923 -164542034.79248238 0 -164542034.79248238 87903862.553230286 0 0 0 0 -73601229.274991989 241539812.95392227 0 241539812.95392227 -279226694.77024078 0 0 0 0 -87138.872104467126 108424.34283018461 0 108424.34283018461 851573.9208207652 0 0 0 0 -9978529.1312692165 182990621.73788166 0 182990621.73788166 455269663.24841309 0 0 0 0 313986813.02033424 521239462.95135498 0 521239462.95135498 -150037320.99669147 0 0 0 0 -64683458.683837652 -19160369.231626511 0 -19160369.231626511 51966064.459060669 0 0 0 0 185765114.1636169 -99254030.476781368 0 -99254030.476781368 143131935.4367981 0 0 0 0 -19384695.071657181 42068826.861991882 0 42068826.861991882 76781789.61824131 0 0 0 0 211925939.81251431 53335327.830013275 0 53335327.830013275 -165536304.57414758 0 0 0 0 135188179.64539784 212610005.9675048 0 212610005.9675048 332667521.66786194 0 0 0 0 156159.39977513207 -190120.3646372091 0 -190120.3646372091 298504.41334471107 0 0 0 0 134690542.94709778 130299138.85189819 0 130299138.85189819 144912680.09094238 0 0 0 0 89960592.604536057 155703105.80776596 0 155703105.80776596 232576899.36233521 0 0 0 0 -2639167.1013832092 109263196.32776642 0 109263196.32776642 345432393.19984436 0 0 0 0 119049033.17756462 86809666.723770142 0 86809666.723770142 51182317.811080933 0 0 0 0 47720764.089912415 87017800.648880005 0 87017800.648880005 164812766.39179993 0 0 0 0 161984.4096854981 -274624.15166265145 0 -274624.15166265145 607792.54488917068 0 0 0 0 79270481.857654572 30109761.309394836 0 30109761.309394836 37659188.580543518 0 0 0 0 35169325.316843033 33745726.099269867 0 33745726.099269867 45125988.846572876 0 0 0 0 -21526352.424762726 -181117687.9525528 0 -181117687.9525528 674489949.71640015 0 0 0 0 33764249.622747421 42469801.064178467 0 42469801.064178467 43870891.095128059 0 0 0 0 13957161.874187469 50246011.367023468 0 50246011.367023468 42988792.956764221 0 0 0 0 27110945.885242462 51442090.941230774 0 51442090.941230774 94081040.541503906 0 0 0 0 31008146.213970184 40182891.141235352 0 40182891.141235352 98302608.933193207 0 0 0 0 2183404.4909877777 15843673.793548584 0 15843673.793548584 84558695.033010483 0 0 0 0 5113432.5073871613 40754052.622329712 0 40754052.622329712 168988773.29344177 0 0 0 0 -11175218.396827698 39716749.766387939 0 39716749.766387939 169170088.41992569 0 0 0 0 47581970.283310056 84892403.871734619 0 84892403.871734619 155894814.55632019 0 0 0 0 -25340954.132078171 57737446.391067505 0 57737446.391067505 230457207.40431595 0 0 0 0 -6203832.9696655273 57615416.364242554 0 57615416.364242554 229512125.25151062 0 0 0 0 -37683363.015164375 10582278.632255554 0 10582278.632255554 233718657.97059631 0 0 0 0 -63404190.827190399 11486211.292762756 0 11486211.292762756 235322281.83374023 0 0 0 0 -103507140.4916172 2375209.737651825 0 2375209.737651825 322464364.25811768 0 0 0 0 -91338795.60399437 22463248.668785095 0 22463248.668785095 355181200.34992981 0 0 0 0 -81725982.376987457 29039493.635597229 0 29039493.635597229 306164977.89507198 0 0 0 0 -49472529.325311661 44044035.780166626 0 44044035.780166626 307104405.3249054 0 0 0 0 -95980080.273866653 65446010.023044586 0 65446010.023044586 328181836.23416138 0 0 0 0 -37782808.771934509 59404172.835361481 0 59404172.835361481 320811547.54704285 0 0 0 0 -129921724.24850464 44014136.630615234 0 44014136.630615234 355094234.03477442 0 0 0 0 -93745855.637735367 111011028.11294174 0 111011028.11294174 240121347.51382446 0 0 0 0 -58471787.555843353 56289951.560390472 0 56289951.560390472 318822782.14640999 0 0 0 0 -51952478.976541519 86453747.103984833 0 86453747.103984833 307802167.36014366 0 0 0 0 107013362.11000204 69016383.077101231 0 69016383.077101231 194238271.46577454 0 0 0 0 49909798.852200508 73831789.242843628 0 73831789.242843628 303228867.26182556 0 0 0 0 -31610156.860879421 46548919.756796837 0 46548919.756796837 334835411.71468353 0 0 0 0 61946392.371609688 31795255.555461884 0 31795255.555461884 425220225.0888195 0 0 0 0 93369598.371478081 253495667.28730202 0 253495667.28730202 293116925.15911579 0 0 0 0 267851478.47168732 123047314.65762901 0 123047314.65762901 235717055.1760025 0 0 0 0 80594785.266227722 149396462.33736038 0 149396462.33736038 244540718.2879982 0 0 0 0 88537433.940803528 104078702.14539719 0 104078702.14539719 154159412.60600281 0 0 0 0 57791045.275489807 92845369.910778046 0 92845369.910778046 214610733.42876816 0 0 0 0 58158980.710805416 94128985.034515381 0 94128985.034515381 218009087.60002899 0 0 0 0 48373830.335894585 58028074.882549286 0 58028074.882549286 273596773.23978424 0 0 0 0 33224078.380739212 14945658.834430695 0 14945658.834430695 151193090.81232476 0 0 0 0 7242192.9357545376 51100146.557275772 0 51100146.557275772 104789963.4490242 0 0 0 0 -34137787.978750229 -16517301.160202026 0 -16517301.160202026 54247113.762569427 0 0 0 0 -133130160.79832077 41746926.251026154 0 41746926.251026154 115028266.85956192 0 0 0 0 -150709641.47373772 166383677.91520691 0 166383677.91520691 220881601.02359009 0 0 0 0 3307174.4685006142 57944514.678230286 0 57944514.678230286 81976975.100120544 0 0 0 0 -27296172.953222275 71472712.575939178 0 71472712.575939178 196287862.1631546 0 0 0 0 96899657.647445202 -300194667.71076965 0 -300194667.71076965 187042994.35677338 0 0 0 0 78193876.194068253 -211103787.11627626 0 -211103787.11627626 114996165.97088623 0 0 0 0 -50115692.706219673 -174546339.16567039 0 -174546339.16567039 199835344.44174194 0 0 0 0 64537125.510502815 -164042769.67569351 0 -164042769.67569351 84986548.252576828 0 0 0 0 -108972.51915870674 -421668.71457247087 0 -421668.71457247087 834590.10574674979 0 0 0 0 -145609692.97077847 -105019456.43481064 0 -105019456.43481064 125717389.94155884 0 0 0 0 -345464.71110083093 -936208.93802191026 0 -936208.93802191026 2129683.788740553 0 0 0 0 -266123930.31642389 96682015.566280365 0 96682015.566280365 167711723.0458107 0 0 0 0 63941100.976273537 334872446.73937225 0 334872446.73937225 266765835.38548088 0 0 0 0 26660511.755448222 47327743.263244152 0 47327743.263244152 34413680.521095276 0 0 0 0 89481820.349769115 -28250869.755613327 0 -28250869.755613327 687463680.11951447 0 0 0 0 425652111.23120308 -175636910.17948151 0 -175636910.17948151 184914505.61676025 0 0 0 0 413343365.23716927 191538033.67779541 0 191538033.67779541 346558362.99779892 0 0 0 0 308797160.23804146 -439821604.66439557 0 -439821604.66439557 344314169.63851166 0 0 0 0 -43481683.451976299 -144572894.2138443 0 -144572894.2138443 671857497.68827057 0 0 0 0 69442777.622176647 -33006263.936595917 0 -33006263.936595917 216613181.33673859 0 0 0 0 16729778.488687515 68960457.726570129 0 68960457.726570129 128631921.93774414 0 0 0 0 -85712622.27151227 -72555639.45583725 0 -72555639.45583725 337042445.98480225 0 0 0 0 -44428936.177247338 -121083171.40663469 0 -121083171.40663469 260420839.76612091 0 0 0 0 10314247.264781952 -204650930.19435883 0 -204650930.19435883 338601430.64949799 0 0 0 0 4816827.1520624161 -1741678.1915874481 0 -1741678.1915874481 -4313722.7790756226 0 0 0 0 169388.04140076938 -76698.569231783971 0 -76698.569231783971 -115805.4732106477 0 0 0 0 -750869.77133655548 14027001.780846596 0 14027001.780846596 -1489484.2414169312 0 0 0 0 -154506270.89301136 15041507.240819931 0 15041507.240819931 1508498.8902282715 0 0 0 0 -155714182.99833536 22123800.51228714 0 22123800.51228714 136582149.61358643 0 0 0 0 81338191.795614719 -50684503.686210632 0 -50684503.686210632 93931918.705596924 0 0 0 0 35006765.232519627 14176303.782741547 0 14176303.782741547 -63456274.962875366 0 0 0 0 72128893.60779953 90475489.8865242 0 90475489.8865242 87747893.544041872 0 0 0 0 -101845628.97126198 115812152.97439575 0 115812152.97439575 25242134.357757568 0 0 0 0 117301604.18783307 -34359546.634153843 0 -34359546.634153843 6955294.9759292603 0 0 0 0 163393624.02687216 48933903.636692047 0 48933903.636692047 -10520235.261073589 0 0 0 0 296141305.37884426 93979672.718254089 0 93979672.718254089 94579807.093917847 0 0 0 0 216619195.59889793 -63255928.131748199 0 -63255928.131748199 148212780.9856205 0 0 0 0 296117765.81032318 -104403614.51570515 0 -104403614.51570515 21827164.082275391 0 0 0 0 247503644.06124496 -36068571.961956024 0 -36068571.961956024 -4827558.9438228607 0 0 0 0 201436588.74844587 -78279991.179284573 0 -78279991.179284573 -41994705.613883972 0 0 0 0 291114458.55634117 -52472000.697217941 0 -52472000.697217941 -61014419.821258545 0 0 0 0 479440.77826237585 334767.33435059898 0 334767.33435059898 -68752.415861828253 0 0 0 0 84868363.577913284 -100071772.17710304 0 -100071772.17710304 25011878.341194153 0 0 0 0 26703518.47000289 -37075945.205600739 0 -37075945.205600739 -18787029.29429245 0 0 0 0 -241003.97607053816 474733.93908329681 0 474733.93908329681 763693.05205544643 0 0 0 0 -658254.86729705334 61196.387804031372 0 61196.387804031372 357963.53118896484 0 0 0 0 166780.97963819618 319785.96936994465 0 319785.96936994465 880881.76156930253 0 0 0 0 -462357.73328256607 1532067.1188983917 0 1532067.1188983917 1173416.6082992554 0 0 0 0 14121873.198730469 60584031.404973984 0 60584031.404973984 -37091346.528329372 0 0 0 0 534779.49865150452 1010051.4794960022 0 1010051.4794960022 940558.23685455322 0 0 0 0 -128514.32180964947 1116679.6416282654 0 1116679.6416282654 1308215.8034973145 0 0 0 0 -176763.23266780376 1224195.9140872955 0 1224195.9140872955 1252609.6918258667 0 0 0 0 -301167.46832364495 970794.19420813769 0 970794.19420813769 1457371.0294720698 0 0 0 0 -174173170.11496353 -57260947.657722473 0 -57260947.657722473 39689028.495002747 0 0 0 0 -139457322.57665825 21405305.709306717 0 21405305.709306717 60642730.708332062 0 0 0 0 -38323759.998027802 -24568519.291535378 0 -24568519.291535378 406383.70927047729 0 0 0 0 -34562471.259273291 -48317915.674681664 0 -48317915.674681664 105934967.79286194 0 0 0 0 216458947.62414169 -133468632.09474036 0 -133468632.09474036 158893252.3976059 0 0 0 0 100572250.89570427 -31975610.505996704 0 -31975610.505996704 82890112.004459381 0 0 0 0 239097951.48771477 -87879491.513980865 0 -87879491.513980865 26050077.856891632 0 0 0 0 89509182.956579208 -63411580.82919693 0 -63411580.82919693 22075026.991790533 0 0 0 0 93355521.777406693 -11445887.663389206 0 -11445887.663389206 24746888.288276672 0 0 0 0 134795184.95924401 -18387092.167469978 0 -18387092.167469978 -19140557.135536194 0 0 0 0 191416006.68185329 -39353189.77387619 0 -39353189.77387619 -26783879.733865738 0 0 0 0 266909438.43666935 15992112.799824715 0 15992112.799824715 -18331583.172729492 0 0 0 0 178592049.96122932 -53272897.609962463 0 -53272897.609962463 83903946.298908234 0 0 0 0 79630968.759485006 -29030686.032454967 0 -29030686.032454967 -42344391.516494751 0 0 0 0 177703687.03543663 -39245175.715259552 0 -39245175.715259552 -76390144.867042542 0 0 0 0 82903399.468050957 -6397043.2630500793 0 -6397043.2630500793 15442982.139060974 0 0 0 0 -48879088.153526306 -14528423.496292114 0 -14528423.496292114 -15690267.799070358 0 0 0 0 -60180106.552932739 10510153.953866959 0 10510153.953866959 -67936669.321960449 0 0 0 0 -35407351.265014648 -10223428.490930557 0 -10223428.490930557 26578871.040931702 0 0 0 0 -40360071.006782889 -64226620.688130856 0 -64226620.688130856 -35091076.717437744 0 0 0 0 -1435252.4874657989 -2579235.3094412577 0 -2579235.3094412577 3689879.3415843528 0 0 0 0 -148675541.81645298 -68329724.580593109 0 -68329724.580593109 5707408.5700569153 0 0 0 0 -158864151.37296104 -102496359.4481926 0 -102496359.4481926 -55170270.634933472 0 0 0 0 -4294008.405725956 -2766904.8773269653 0 -2766904.8773269653 4984098.3312301636 0 0 0 0 -3017828.7009425163 -3051478.7489373684 0 -3051478.7489373684 4736279.9443778992 0 0 0 0 -3540520.5737686157 -622678.42417907715 0 -622678.42417907715 7850834.1845932007 0 0 0 0 -3412756.2159719467 -1817058.9958705902 0 -1817058.9958705902 5529108.9610843658 0 0 0 0 -3938619.4470720291 -1147922.5143680573 0 -1147922.5143680573 3998550.8608093262 0 0 0 0 -5445607.0785894394 -1592720.2742538452 0 -1592720.2742538452 5679109.8069057465 0 0 0 0 -3998903.8833250999 -3616947.1052932739 0 -3616947.1052932739 2857339.8329086304 0 0 0 0 -7833729.0486140251 -5031180.5250368118 0 -5031180.5250368118 4588199.6889343262 0 0 0 0 -6070016.6070718765 -3679880.4348468781 0 -3679880.4348468781 3321261.2354164124 0 0 0 0 -1257910.4751349841 -2515127.6454180824 0 -2515127.6454180824 4222162.7883944288 0 0 0 0 4570789.3666086197 -9398002.2090988159 0 -9398002.2090988159 3279346.9784431458 0 0 0 0 -79721.292833379121 -411304.97136414563 0 -411304.97136414563 401235.17127824202 0 0 0 0 -11047613.286257744 -94013.953689575195 0 -94013.953689575195 3937931.3444519043 0 0 0 0 -3581047.843228817 -7811875.8940467834 0 -7811875.8940467834 6751940.049577713 0 0 0 0 -1278967.6415576406 -2713966.3715107064 0 -2713966.3715107064 4480427.4896862432 0 0 0 0 -1325468.8588409424 -5358647.1688613892 0 -5358647.1688613892 4480511.7023677826 0 0 0 0 1203574.9932847372 -4605826.626798016 0 -4605826.626798016 147490.83197167236 0 0 0 0 -1779787.2632160187 -8537417.8261566162 0 -8537417.8261566162 -35143110.229110718 0 0 0 0 4293097.0251293182 -8201568.4366188049 0 -8201568.4366188049 3013326.5924835205 0 0 0 0 4016805.1615753174 -7831982.8666572571 0 -7831982.8666572571 5553538.8409576416 0 0 0 0 6291848.370716095 -5791675.6952028275 0 -5791675.6952028275 1144476.6180801392 0 0 0 0 4722444.6189556122 -9914845.4265594482 0 -9914845.4265594482 454821.98902511597 0 0 0 0 10658977.0128088 -7618571.9013843536 0 -7618571.9013843536 -4094783.431804657 0 0 0 0 12476325.658744812 -3352151.2475776672 0 -3352151.2475776672 111217.18665027618 0 0 0 0 -125555.72354208073 -101754.59949789196 0 -101754.59949789196 -30962.457039564848 0 0 0 0 -1934942.5550556183 -5565455.32853508 0 -5565455.32853508 1930494.4719314575 0 0 0 0 4072594.459622669 -5436770.3246550728 0 -5436770.3246550728 2100747.7803606349 0 0 0 0 -12016212.060437202 15649550.413850784 0 15649550.413850784 -23105.898040771484 0 0 0 0 34928226.852002144 -86288075.436731339 0 -86288075.436731339 -62866461.339521408 0 0 0 0 26600666.221084595 -38031546.254062653 0 -38031546.254062653 2661606.2258226871 0 0 0 0 -58057122.913118362 -73974769.127562523 0 -73974769.127562523 10721173.045007706 0 0 0 0 3038991.7656608429 -6365477.8745066039 0 -6365477.8745066039 5099199.8373131426 0 0 0 0 48866737.935461998 -15891756.273216248 0 -15891756.273216248 -80633084.508426666 0 0 0 0 -56714157.954936981 -32406714.865591049 0 -32406714.865591049 35237297.713985443 0 0 0 0 -4060923.4094724655 -1418782.3713731766 0 -1418782.3713731766 5529580.269733429 0 0 0 0 -13670042.472078323 1161453.8786468506 0 1161453.8786468506 15150177.231269836 0 0 0 0 -380752.07622924342 -1395769.9908008059 0 -1395769.9908008059 1379607.033895487 0 0 0 0 -3357254.685617791 -1108103.8896889109 0 -1108103.8896889109 6086229.3605088769 0 0 0 0 -2158238.9437334538 -2179411.1121520996 0 -2179411.1121520996 4306394.5247154236 0 0 0 0 -3292752.3068685532 -69142.070045471191 0 -69142.070045471191 6481851.9877586365 0 0 0 0 -1381038.3639771659 -1796121.9897693959 0 -1796121.9897693959 8845806.9679758679 0 0 0 0 -47371656.869621277 -37622608.779642105 0 -37622608.779642105 96264803.899290085 0 0 0 0 47146980.077216864 -56847894.287475705 0 -56847894.287475705 35438694.514122009 0 0 0 0 48794330.754821837 -93675002.323537111 0 -93675002.323537111 62325413.27331543 0 0 0 0 -78899936.186923981 5853554.6428394318 0 5853554.6428394318 17898394.945037842 0 0 0 0 -76418046.025136948 44700859.833791256 0 44700859.833791256 -13999503.846248627 0 0 0 0 -67174681.470443726 23193076.354043007 0 23193076.354043007 35810164.049185753 0 0 0 0 -136888672.50608063 110386516.62828445 0 110386516.62828445 83477345.604082465 0 0 0 0 -58645017.0258255 -40114846.144247055 0 -40114846.144247055 121024832.17515945 0 0 0 0 -155988463.7207756 67481041.305271149 0 67481041.305271149 144061150.64382553 0 0 0 0 3882790.5394382477 -155022574.91864109 0 -155022574.91864109 237781557.33515167 0 0 0 0 10574710.223175049 -132207841.22637177 0 -132207841.22637177 212864772.18483734 0 0 0 0 -230063791.34073257 55856417.070186615 0 55856417.070186615 371731942.08345985 0 0 0 0 -107518968.65446854 66538829.645143509 0 66538829.645143509 81638341.418052673 0 0 0 0 245753929.2409687 -216910753.68494225 0 -216910753.68494225 167126726.63393021 0 0 0 0 16039206.140488625 53448913.721394539 0 53448913.721394539 202303744.3046875 0 0 0 0 258996214.31113806 -36569743.569625556 0 -36569743.569625556 1670927.6934356689 0 0 0 0 920336.1088680455 -1130538.9513982064 0 -1130538.9513982064 -279531.27656490682 0 0 0 0 10726250.644355774 588547093.29317856 0 588547093.29317856 282605354.31178761 0 0 0 0 -140808443.10738945 -116499516.81761074 0 -116499516.81761074 630173230.0790062 0 0 0 0 61739105.947425842 -279658357.45061874 0 -279658357.45061874 444670212.64206314 0 0 0 0 155274015.93977165 -85733674.543179512 0 -85733674.543179512 41941783.585819244 0 0 0 0 10417825.786183357 22782793.383559227 0 22782793.383559227 43185787.115467072 0 0 0 0 -47491850.159513474 -147546266.06160545 0 -147546266.06160545 345495423.87131596 0 0 0 0 -21329437.219112396 -96945535.670155525 0 -96945535.670155525 28738582.516105652 0 0 0 0 6875163.8076605797 -23915798.361008167 0 -23915798.361008167 29433136.329185963 0 0 0 0 -6917642.6281270981 -36988767.829365253 0 -36988767.829365253 21869845.646281242 0 0 0 0 -8314510.7554216385 -52910735.799534798 0 -52910735.799534798 124028187.38274479 0 0 0 0 1168407.5115427971 1546979.5244283676 0 1546979.5244283676 5821820.0603051186 0 0 0 0 8875714.7757976502 4842318.398409307 0 4842318.398409307 7155805.7898693085 0 0 0 0 -41169.249703407288 -6921857.8984880447 0 -6921857.8984880447 4883630.4752759933 0 0 0 0 11014593.929281831 -7794904.7439730167 0 -7794904.7439730167 4175551.2566585541 0 0 0 0 2586610.8950314745 -3212084.2481764476 0 -3212084.2481764476 -719149.03601238504 0 0 0 0 6930038.4683541059 -7051330.2832117081 0 -7051330.2832117081 -9702594.1660881042 0 0 0 0 794735.74742048536 217016.90288988175 0 217016.90288988175 -973204.95783410314 0 0 0 0 53021013.751851082 -33485046.891698837 0 -33485046.891698837 -13536986.681121826 0 0 0 0 85756411.256007195 17689547.637290955 0 17689547.637290955 -15305827.321228027 0 0 0 0 149040875.39015198 -33627704.672920227 0 -33627704.672920227 -23163273.578201294 0 0 0 0 139000434.84632981 30959381.651005745 0 30959381.651005745 -17499712.310745239 0 0 0 0 5557640.7144699097 12284753.943655968 0 12284753.943655968 11212954.80921942 0 0 0 0 13817588.881738797 2484651.7777186334 0 2484651.7777186334 3255339.1362953186 0 0 0 0 5087501.8573724031 5810156.4638691545 0 5810156.4638691545 4320897.9831867218 0 0 0 0 4868438.2736281641 2071381.3719337231 0 2071381.3719337231 8388086.408999376 0 0 0 0 10818035.539708912 -23511447.070097804 0 -23511447.070097804 18390497.51202774 0 0 0 0 1804840.6995194587 2224112.0630455385 0 2224112.0630455385 15258664.203113511 0 0 0 0 7385620.3019485474 15555903.120567799 0 15555903.120567799 29702271.575317383 0 0 0 0 5019792.4718551636 9076166.5590162277 0 9076166.5590162277 11982223.970944881 0 0 0 0 2955101.1071014404 12503311.067187309 0 12503311.067187309 29646101.562736511 0 0 0 0 1364292.3684139252 13153727.952106476 0 13153727.952106476 30637674.326839447 0 0 0 0 548228.69834709167 13124151.236423492 0 13124151.236423492 38182472.626876831 0 0 0 0 -2579605.2257993221 12557380.272137463 0 12557380.272137463 30035649.528032303 0 0 0 0 -2831543.9260311127 10196638.694318771 0 10196638.694318771 28938288.859792709 0 0 0 0 -1475044.3542308807 10191287.90746212 0 10191287.90746212 30411907.301488876 0 0 0 0 32593421.411319733 8313880.7934875488 0 8313880.7934875488 -55464162.3814888 0 0 0 0 1677724.1260682936 -596245.68629618362 0 -596245.68629618362 -3292998.0912005585 0 0 0 0 -4425827.5903564282 -6359742.5345628019 0 -6359742.5345628019 15364820.094541268 0 0 0 0 -587541.79079818726 7955163.0361709595 0 7955163.0361709595 35964505.779230118 0 0 0 0 -3501791.2722797394 1266805.7963380814 0 1266805.7963380814 37013065.795557022 0 0 0 0 -1342147.064994812 7638969.0354013443 0 7638969.0354013443 43040364.684986115 0 0 0 0 -3102555.5006033247 -3598349.2809652733 0 -3598349.2809652733 14775857.104135297 0 0 0 0 -5858975.6956238747 -14147689.734397888 0 -14147689.734397888 1378157.6483154297 0 0 0 0 -6855269.5528992414 -19137481.046901703 0 -19137481.046901703 -20280466.805445328 0 0 0 0 -7890392.0151846409 -10947403.042301178 0 -10947403.042301178 178456.41886138916 0 0 0 0 -31996967.807582974 -7292673.9297103882 0 -7292673.9297103882 -20164381.161380768 0 0 0 0 -1177730.4471269809 -6609030.8371135946 0 -6609030.8371135946 8785061.4244024847 0 0 0 0 714376.25471401215 -7524706.8803987503 0 -7524706.8803987503 1268955.4378566742 0 0 0 0 4983536.891817051 641060.95169945247 0 641060.95169945247 3003742.8578839684 0 0 0 0 -9916134.9912524223 -9919093.7911720276 0 -9919093.7911720276 -7313065.2679901123 0 0 0 0 -3699355.3744416237 -11902002.384437561 0 -11902002.384437561 -15524002.788330078 0 0 0 0 2099086.2307761256 -6933823.3205994181 0 -6933823.3205994181 -6383641.2360438779 0 0 0 0 -1260644.9707262516 -5559881.7858858109 0 -5559881.7858858109 -1955996.5153999329 0 0 0 0 -2435566.7063150182 -15127749.140166145 0 -15127749.140166145 9405209.1322078407 0 0 0 0 -1318223.4621406449 -10239018.969014887 0 -10239018.969014887 10860755.313902061 0 0 0 0 2301620.1135571958 -4548887.0135707967 0 -4548887.0135707967 -4769300.4575107303 0 0 0 0 2941640.9627065659 -16920644.528320312 0 -16920644.528320312 -49183895.241134644 0 0 0 0 -13635519.39226532 -25197347.258426666 0 -25197347.258426666 -47220055.308868408 0 0 0 0 -369433.82565735281 -220084.98956265301 0 -220084.98956265301 592196.78132465854 0 0 0 0 -6858811.5571608543 -29528577.385307312 0 -29528577.385307312 -36367465.415344238 0 0 0 0 -47370921.73379755 -35322853.509902954 0 -35322853.509902954 8725290.5539093018 0 0 0 0 3137741.4575386047 -5676125.1235389709 0 -5676125.1235389709 -5904976.2767791748 0 0 0 0 4337259.2076804796 -6334203.1133126374 0 -6334203.1133126374 -14485060.341146968 0 0 0 0 5520142.702114501 -3779603.8634658121 0 -3779603.8634658121 -2664390.7938896343 0 0 0 0 2112652.0534960348 -4280084.21594573 0 -4280084.21594573 -2261557.3260185886 0 0 0 0 20617402.016638994 -11075624.20186615 0 -11075624.20186615 -34049769.698005676 0 0 0 0 17475284.559989929 -629476.11801528931 0 -629476.11801528931 -15814015.393886566 0 0 0 0 -471538.15366640687 -30675287.162075281 0 -30675287.162075281 -36255374.888343811 0 0 0 0 -1533922.692363143 -52070362.259437561 0 -52070362.259437561 -9140762.4274749756 0 0 0 0 -43791102.452733994 -36989444.891098022 0 -36989444.891098022 -2762805.5253868103 0 0 0 0 -40326958.445672035 -14614365.290462494 0 -14614365.290462494 -4076235.9118118286 0 0 0 0 6302153.3010444641 -20766028.130588531 0 -20766028.130588531 -44902000.092346191 0 0 0 0 35669159.932457924 31788826.490840912 0 31788826.490840912 -137539814.31760406 0 0 0 0 -35693499.015156746 -51772175.261550903 0 -51772175.261550903 27674241.042373657 0 0 0 0 21515848.429058313 49653099.067298889 0 49653099.067298889 -17740921.698028564 0 0 0 0 -48979715.57878381 -58716529.267691135 0 -58716529.267691135 4481333.9714355469 0 0 0 0 315175.15004414669 -2183044.0812821779 0 -2183044.0812821779 -254835.83717858419 0 0 0 0 5279861.8929405212 -20343002.741363525 0 -20343002.741363525 -56582169.208263397 0 0 0 0 -53800859.903019905 -83986583.657501221 0 -83986583.657501221 -10941464.102500916 0 0 0 0 -10485308.441872597 -36948463.324838638 0 -36948463.324838638 66596884.937561035 0 0 0 0 22253197.980466366 -5327682.0238952637 0 -5327682.0238952637 26258636.231834412 0 0 0 0 -2009903.7268352509 -47109375.814567566 0 -47109375.814567566 16050037.056808472 0 0 0 0 37273284.286062971 -9382068.6811141968 0 -9382068.6811141968 -116805682.20131683 0 0 0 0 -5371752.6794643635 -8405969.0800295323 0 -8405969.0800295323 16691362.329131944 0 0 0 0 -34433999.271146767 -100030847.93935108 0 -100030847.93935108 -94051328.869358063 0 0 0 0 14870443.018476963 -40376873.565658569 0 -40376873.565658569 -28500951.189826965 0 0 0 0 13323404.483352661 14236461.44455719 0 14236461.44455719 -810146.1242980957 0 0 0 0 550904.51504043792 -1262195.7349249609 0 -1262195.7349249609 -1327782.32382074 0 0 0 0 -104217203.61314535 -173846759.33149147 0 -173846759.33149147 176462420.55671692 0 0 0 0 50493422.974300146 47100684.404060364 0 47100684.404060364 -67309864.444511414 0 0 0 0 46219670.652930498 32631038.506694794 0 32631038.506694794 -107613257.44838905 0 0 0 0 11085897.158715583 -6604939.3787298203 0 -6604939.3787298203 -81048759.279823303 0 0 0 0 73914687.014159113 -54142720.464666367 0 -54142720.464666367 -77924305.062393188 0 0 0 0 97989568.95247519 15829213.054974556 0 15829213.054974556 -151154228.29586792 0 0 0 0 113047834.42738813 -5934179.9340171814 0 -5934179.9340171814 -40081770.987586975 0 0 0 0 60930613.098761261 -20246088.791913986 0 -20246088.791913986 98229412.322174072 0 0 0 0 -352013.72042052599 -916965.42744587548 0 -916965.42744587548 425589.96873769537 0 0 0 0 114120046.52058387 -73274935.085956573 0 -73274935.085956573 -53488028.512001038 0 0 0 0 53374186.965116262 184452286.56821823 0 184452286.56821823 -198349048.46001816 0 0 0 0 48748876.017942905 142161049.95605636 0 142161049.95605636 151392786.53533936 0 0 0 0 -285495.93097793299 -199002.20362001192 0 -199002.20362001192 329888.47638403438 0 0 0 0 212950990.99565709 61047116.701517105 0 61047116.701517105 57575605.349357605 0 0 0 0 -9020916.4198722839 16413858.935192108 0 16413858.935192108 170733432.62663579 0 0 0 0 -3160285.4561233521 50659129.501365662 0 50659129.501365662 71991134.118133545 0 0 0 0 -69855341.835270405 -27317798.667190552 0 -27317798.667190552 78185049.127471924 0 0 0 0 -51706068.444253922 38789347.242359161 0 38789347.242359161 40440265.106590271 0 0 0 0 -16980762.244698405 -1597486.3940677643 0 -1597486.3940677643 87405662.612686157 0 0 0 0 13421069.319081306 86220124.507286072 0 86220124.507286072 137460789.14914322 0 0 0 0 6489965.1080083847 15010483.754177094 0 15010483.754177094 31867844.640529633 0 0 0 0 34683864.539545059 112719731.75549698 0 112719731.75549698 201984536.19577789 0 0 0 0 34340660.9439523 166614119.50891778 0 166614119.50891778 263234648.41040802 0 0 0 0 -18633089.693557739 81150816.645195007 0 81150816.645195007 215886039.28143311 0 0 0 0 17872780.268966675 96775446.315856934 0 96775446.315856934 169833570.51303905 0 0 0 0 -10014475.356654167 82010085.503593445 0 82010085.503593445 261517225.47904205 0 0 0 0 53162043.373756409 212276667.26681519 0 212276667.26681519 328435326.2999115 0 0 0 0 158324.98045349121 64973367.812896729 0 64973367.812896729 443028366.47053528 0 0 0 0 9671303.3447265625 93191475.550487518 0 93191475.550487518 249135049.95271301 0 0 0 0 8532917.4545249939 2782571.3972473145 0 2782571.3972473145 252681377.53634191 0 0 0 0 20881921.821803093 5278492.1694221497 0 5278492.1694221497 324180890.60647583 0 0 0 0 39747823.680681229 52207421.533081055 0 52207421.533081055 299216307.61071777 0 0 0 0 35041702.740088463 24782722.472839355 0 24782722.472839355 200921162.45344543 0 0 0 0 76617773.083623886 -52441877.647979736 0 -52441877.647979736 133901125.86803436 0 0 0 0 12512211.16845274 42089169.070293427 0 42089169.070293427 137614377.14680481 0 0 0 0 18361174.830623627 -23955499.546707153 0 -23955499.546707153 182282513.05618668 0 0 0 0 110522530.19039345 -70800246.262733459 0 -70800246.262733459 63187264.899841309 0 0 0 0 59057204.545438766 -60048839.039215088 0 -60048839.039215088 228730807.83737946 0 0 0 0 88202529.022760391 -12803963.497329712 0 -12803963.497329712 162321191.52163696 0 0 0 0 94456762.565979004 -8619560.9155731201 0 -8619560.9155731201 356182637.81577301 0 0 0 0 68118091.240596771 -90383427.455871582 0 -90383427.455871582 330012408.52738953 0 0 0 0 121371260.20970535 -142896924.78430176 0 -142896924.78430176 367682987.64003754 0 0 0 0 125437615.16637897 -19919840.711414337 0 -19919840.711414337 176730973.49861145 0 0 0 0 41494241.709274292 22363395.261592865 0 22363395.261592865 573404277.92111206 0 0 0 0 161770161.26083755 -192513151.53851318 0 -192513151.53851318 759267506.83703613 0 0 0 0 -5972708.4242610931 160347105.59711838 0 160347105.59711838 924050421.60421753 0 0 0 0 280020606.74169874 473872194.6005826 0 473872194.6005826 566504018.78701782 0 0 0 0 75904859.258018494 185554733.76964569 0 185554733.76964569 439018332.00959778 0 0 0 0 10250508.094278336 7936346.3090744019 0 7936346.3090744019 548133836.76759338 0 0 0 0 35127529.240348339 228469134.84537315 0 228469134.84537315 544514353.2436676 0 0 0 0 -238113550.28170395 -110762608.78788376 0 -110762608.78788376 555537480.77578735 0 0 0 0 -119324626.75084305 135429405.53100586 0 135429405.53100586 853148139.21260071 0 0 0 0 -195920494.93424797 -19896706.69417572 0 -19896706.69417572 585376454.45233154 0 0 0 0 -60074245.129150391 208290498.27298737 0 208290498.27298737 733664051.68340302 0 0 0 0 247921270.26927185 433375059.02479553 0 433375059.02479553 756785025.53371429 0 0 0 0 662557716.89913177 60162749.452377319 0 60162749.452377319 377928071.10293579 0 0 0 0 -125933694.41872787 -8669829.4747085571 0 -8669829.4747085571 411738889.71385956 0 0 0 0 -76660122.917495728 -10726227.645454407 0 -10726227.645454407 321658246.7006073 0 0 0 0 -91502522.131596565 -117830070.34248924 0 -117830070.34248924 328834629.34008789 0 0 0 0 -118358194.16930389 -77225149.643508911 0 -77225149.643508911 329222764.98836517 0 0 0 0 -112433540.03745651 -52155785.696136475 0 -52155785.696136475 409827314.96942139 0 0 0 0 -125355768.85512924 73044914.981903076 0 73044914.981903076 477931979.24977493 0 0 0 0 -139789767.51506424 21401310.101287842 0 21401310.101287842 585304753.11729431 0 0 0 0 -153876540.68635464 -80050901.50938797 0 -80050901.50938797 434916352.53430176 0 0 0 0 -90071681.06678772 75278061.878639221 0 75278061.878639221 482945820.42520142 0 0 0 0 -145619619.98168087 -13084220.313277245 0 -13084220.313277245 431754060.32644653 0 0 0 0 -129578291.68985415 37089359.667718887 0 37089359.667718887 410855027.07948303 0 0 0 0 -124017680.98205566 -7480092.1390609741 0 -7480092.1390609741 371425791.55549622 0 0 0 0 42783657.01636982 109011095.0812645 0 109011095.0812645 160371425.879776 0 0 0 0 -130523872.28294182 50072533.594062805 0 50072533.594062805 394117136.34793091 0 0 0 0 -146742171.73718071 93987055.057746887 0 93987055.057746887 414736317.79319763 0 0 0 0 -118660208.68147087 63900939.511676788 0 63900939.511676788 485359120.65795898 0 0 0 0 138787372.1496315 241243617.21629715 0 241243617.21629715 341549959.17028809 0 0 0 0 373224.60568674724 -403728.84482457675 0 -403728.84482457675 -353489.94531235099 0 0 0 0 162735411.05550766 338443672.76124954 0 338443672.76124954 462015784.9591732 0 0 0 0 -257285653.87276936 -79508199.427085876 0 -79508199.427085876 259914362.84811401 0 0 0 0 7518446.2697715759 162340026.91709137 0 162340026.91709137 392010093.93769073 0 0 0 0 19412150.478874207 201098596.40901947 0 201098596.40901947 521855719.63270569 0 0 0 0 11546842.599098206 -71566891.613643646 0 -71566891.613643646 -28039034.907165527 0 0 0 0 1279985.927894827 -1427006.4896586975 0 -1427006.4896586975 -1362752.2004602663 0 0 0 0 6081502.5924491882 71729109.428066254 0 71729109.428066254 -39913428.369338989 0 0 0 0 -96017644.673126221 19578828.598075867 0 19578828.598075867 -7716505.4940643311 0 0 0 0 9815941.634935379 20492784.688957214 0 20492784.688957214 87097056.631639481 0 0 0 0 -71509081.888673782 -2353100.3525524139 0 -2353100.3525524139 107723823.26478577 0 0 0 0 -52495.157186284196 -239059.09628235549 0 -239059.09628235549 422927.15305660665 0 0 0 0 -141594837.4441309 82496623.353294373 0 82496623.353294373 -20247448.684242249 0 0 0 0 -163357152.15449238 -10224208.427242279 0 -10224208.427242279 37272418.796440125 0 0 0 0 -3092747.9365992546 33869127.881481171 0 33869127.881481171 -25242706.362220764 0 0 0 0 1536760.48039944 -3833722.514994937 0 -3833722.514994937 -321736.86997552589 0 0 0 0 28235800.647995949 -11792349.622909546 0 -11792349.622909546 -25943483.167541504 0 0 0 0 1238424.5707702637 41088376.752355576 0 41088376.752355576 -18325604.374801636 0 0 0 0 27210897.154434204 -4830422.7470321655 0 -4830422.7470321655 -35504802.626542091 0 0 0 0 5213910.445101738 -23091627.863370895 0 -23091627.863370895 -23559315.99130249 0 0 0 0 45122236.896585464 -17976306.85591507 0 -17976306.85591507 -26928923.174777985 0 0 0 0 30966126.575420856 4365609.9421472549 0 4365609.9421472549 -1085975.8543777466 0 0 0 0 27777023.409526825 -42692608.173774719 0 -42692608.173774719 99850142.988039017 0 0 0 0 40429052.905557394 5586755.1890716553 0 5586755.1890716553 95303860.268753052 0 0 0 0 78994861.379131317 -37522549.805728912 0 -37522549.805728912 19368655.436019897 0 0 0 0 54226431.700733185 23593170.546936035 0 23593170.546936035 47058583.179601669 0 0 0 0 45833042.009911537 -6073449.6817111969 0 -6073449.6817111969 -13567625.050231934 0 0 0 0 15297270.554231388 -10615885.442382336 0 -10615885.442382336 264998569.94010162 0 0 0 0 -19831917.196737155 -31434553.138034821 0 -31434553.138034821 256686890.19038391 0 0 0 0 345541.0332425558 -27350559.155040741 0 -27350559.155040741 272464754.87559128 0 0 0 0 22299311.283386312 -41970596.455505371 0 -41970596.455505371 281374797.22531128 0 0 0 0 82975852.46197927 -37537322.237995148 0 -37537322.237995148 275341173.97564697 0 0 0 0 15491648.241538778 -23931173.940250397 0 -23931173.940250397 327377953.17360687 0 0 0 0 -112693.63570036562 -133272366.09672928 0 -133272366.09672928 366809881.11210632 0 0 0 0 -8829461.8158733249 -60596272.727172852 0 -60596272.727172852 272123873.42309856 0 0 0 0 -20481586.466273047 -42823759.781656265 0 -42823759.781656265 245033643.71165466 0 0 0 0 -39714624.41127158 -32331515.071857452 0 -32331515.071857452 244722773.80474472 0 0 0 0 -24629770.549690023 -54056397.110656738 0 -54056397.110656738 217008930.43051147 0 0 0 0 -40127967.058085628 -27654045.477082253 0 -27654045.477082253 209277974.81987 0 0 0 0 -49204478.603000551 5650695.6826705933 0 5650695.6826705933 234756037.99044991 0 0 0 0 -21046034.701884523 -21962398.768074036 0 -21962398.768074036 221456036.76377869 0 0 0 0 -21786097.852169946 54440507.417121887 0 54440507.417121887 249194331.23989105 0 0 0 0 -22061871.732522123 -16131835.233875275 0 -16131835.233875275 235183312.31285095 0 0 0 0 -39494500.412243098 23132150.08895874 0 23132150.08895874 194544113.77302361 0 0 0 0 -70570789.477879182 -23045376.561393738 0 -23045376.561393738 200141962.64543152 0 0 0 0 -34526014.470241174 -33945447.531383514 0 -33945447.531383514 118745526.51156616 0 0 0 0 -30566850.622447461 14878154.02520752 0 14878154.02520752 165760985.21455383 0 0 0 0 -41053877.308944821 9788352.6439743042 0 9788352.6439743042 167453141.14289093 0 0 0 0 -21714373.551176101 36732311.676895142 0 36732311.676895142 172769361.25368547 0 0 0 0 -31078067.475484893 20503872.979814529 0 20503872.979814529 171860148.83647919 0 0 0 0 14386255.241253661 55722143.019599915 0 55722143.019599915 152216929.47148895 0 0 0 0 13049762.407328486 32040174.001846313 0 32040174.001846313 124575411.79875183 0 0 0 0 -1150161.6398537606 2220175.8960418701 0 2220175.8960418701 244863306.43810654 0 0 0 0 2860637.3715371662 -13463757.471653938 0 -13463757.471653938 302058100.70702362 0 0 0 0 -1850.9856257707484 -903367.94667921925 0 -903367.94667921925 -826723.59158325195 0 0 0 0 40846112.056888029 129165755.27906418 0 129165755.27906418 352511059.56798744 0 0 0 0 -110761.08019420612 -12478.040910918266 0 -12478.040910918266 263864.88627997786 0 0 0 0 -755593.133543659 -706018.28887939453 0 -706018.28887939453 -132196.54210281372 0 0 0 0 9101253.7074361444 45700327.467765808 0 45700327.467765808 120875398.32640839 0 0 0 0 -38691.112848179459 -101702.13724792004 0 -101702.13724792004 306455.89553746581 0 0 0 0 -744891.41803314618 -1226547.7448778152 0 -1226547.7448778152 -274250.39138031006 0 0 0 0 -878530.57515492756 -474997.33842849731 0 -474997.33842849731 345883.64517211914 0 0 0 0 1635.3955007906195 -1423032.3260231018 0 -1423032.3260231018 475134.91187286377 0 0 0 0 -1246832.7558554523 -1112527.9931716919 0 -1112527.9931716919 2531278.2663192749 0 0 0 0 -1358892.3509781528 -498136.89218139648 0 -498136.89218139648 562968.50345611572 0 0 0 0 -1031526.417394273 -74103.052734375 0 -74103.052734375 1002294.2956695557 0 0 0 0 -1702387.7609392018 1832368.4507889748 0 1832368.4507889748 -294333.63781738281 0 0 0 0 4898.4018707145042 -12539.777517713606 0 -12539.777517713606 15175.201754037291 0 0 0 0 -53837.310473054647 -551307.69187164307 0 -551307.69187164307 3692095.673037529 0 0 0 0 -5767844.4771737345 -3316926.1254882812 0 -3316926.1254882812 3341349.2149658203 0 0 0 0 -1846660.2970722103 1218205.7164726257 0 1218205.7164726257 2775019.2103934288 0 0 0 0 -150.98144878531195 -2005402.0798034668 0 -2005402.0798034668 15702986.602313995 0 0 0 0 3229211.5714713419 732623.60440063477 0 732623.60440063477 -1139334.5253601074 0 0 0 0 181716.95344182849 -608936.97594451904 0 -608936.97594451904 1990247.8433766365 0 0 0 0 304449.23946613818 -367266.08449554443 0 -367266.08449554443 1442282.8052139282 0 0 0 0 660010.87752441689 -629821.1460609436 0 -629821.1460609436 1186997.9660568237 0 0 0 0 323810.4003730081 -292754.6109161377 0 -292754.6109161377 3634177.0748519897 0 0 0 0 283239.90707167238 -139042.83716583252 0 -139042.83716583252 892536.28902816772 0 0 0 0 -999712.55699448194 -62453.388598442078 0 -62453.388598442078 242614.06154632568 0 0 0 0 11485.343797780844 -38152.55282362178 0 -38152.55282362178 50508.970722217113 0 0 0 0 189708.63419686072 -578075.78437805176 0 -578075.78437805176 1227799.9865112305 0 0 0 0 468924.66506516933 -45473.595432281494 0 -45473.595432281494 -182809.89630889893 0 0 0 0 30599.629548964735 -3024.6794939003885 0 -3024.6794939003885 -36557.269031465054 0 0 0 0 4303836.7948133815 12164612.48580575 0 12164612.48580575 4688641.4855194092 0 0 0 0 28178.448953723964 -231941.8160008993 0 -231941.8160008993 48906.888836998492 0 0 0 0 -4188716.4250007272 -27606851.519882202 0 -27606851.519882202 57660468.927112579 0 0 0 0 -807984.91586706322 -293236.30537414551 0 -293236.30537414551 275149.36626529694 0 0 0 0 2981492.2088267207 -9482549.7648243904 0 -9482549.7648243904 32331099.056251526 0 0 0 0 21781.273533790165 -170188.27973523736 0 -170188.27973523736 292659.72596984729 0 0 0 0 13534411.073463947 30219184.226264954 0 30219184.226264954 36973428.470036507 0 0 0 0 -12080786.549595892 8295311.3938694 0 8295311.3938694 78516933.96005249 0 0 0 0 -16420696.09524864 9592915.8661727905 0 9592915.8661727905 122429261.1804657 0 0 0 0 -22803440.142153949 19048858.890762329 0 19048858.890762329 121214628.47724915 0 0 0 0 -21066035.907556117 9433598.3569335938 0 9433598.3569335938 137270518.50334167 0 0 0 0 -27296014.333744049 -14167671.879226685 0 -14167671.879226685 132983055.08856583 0 0 0 0 21934573.781674385 -7143223.6927185059 0 -7143223.6927185059 142167321.62451172 0 0 0 0 29752768.720041573 -74285726.961353302 0 -74285726.961353302 53637703.218551636 0 0 0 0 34278.638216033723 -23480.46485421434 0 -23480.46485421434 -16469.960616320372 0 0 0 0 -24110651.650754273 -355109.54482269287 0 -355109.54482269287 147986166.6063385 0 0 0 0 -35428573.503168344 34508783.410793304 0 34508783.410793304 1508341.7498168945 0 0 0 0 -15081783.609753013 876097.24180603027 0 876097.24180603027 128550247.62965584 0 0 0 0 -608914.74419271946 -26122876.861610413 0 -26122876.861610413 186119824.79208374 0 0 0 0 1453.0227524891961 -5952.0181629862636 0 -5952.0181629862636 44235.888125121593 0 0 0 0 1626818.5646626949 -16906578.777709961 0 -16906578.777709961 187722332.81451416 0 0 0 0 -46346939.533533454 1355046.5600318909 0 1355046.5600318909 129285480.25865173 0 0 0 0 -52433392.240262508 -27052328.177574158 0 -27052328.177574158 27146743.921813965 0 0 0 0 -148149.04367532395 -581615.73250579834 0 -581615.73250579834 107192.9610748291 0 0 0 0 -1630.6549553818622 -249525.17764323112 0 -249525.17764323112 402330.84349985048 0 0 0 0 -4522905.1393228173 7640079.3233566284 0 7640079.3233566284 34909931.766477585 0 0 0 0 36164.146419261189 -227113.57333257794 0 -227113.57333257794 37623.118593228981 0 0 0 0 -96377.031074788421 -329450.17620658875 0 -329450.17620658875 -3064.1510009765625 0 0 0 0 174589.62128759921 -383287.84785461426 0 -383287.84785461426 7627.0724601745605 0 0 0 0 -110453.99817463756 -350981.92695617676 0 -350981.92695617676 974882.62831878662 0 0 0 0 300773.01159276254 -613389.55813980103 0 -613389.55813980103 386322.85270690918 0 0 0 0 -415932.67423854768 -513606.3302822113 0 -513606.3302822113 439839.44152832031 0 0 0 0 -61789.508361712098 -228148.4582824707 0 -228148.4582824707 319706.7070274353 0 0 0 0 17640.237158916891 -630617.75133514404 0 -630617.75133514404 120078.97637939453 0 0 0 0 39472.723929002881 -38776.400856018066 0 -38776.400856018066 416770.97581481934 0 0 0 0 225920.79061453976 -7799.85325050354 0 -7799.85325050354 793090.47621917725 0 0 0 0 -119003.78163075447 -50675.984798431396 0 -50675.984798431396 1067129.7892179489 0 0 0 0 -44164262.979617655 -38224799.378067017 0 -38224799.378067017 -24392694.061607361 0 0 0 0 1774347.8207879663 -31771950.167972565 0 -31771950.167972565 -28820612.961483002 0 0 0 0 74108.283258565076 -250518.89183439128 0 -250518.89183439128 284736.48888635635 0 0 0 0 -244967.65439584851 -153225.15805053711 0 -153225.15805053711 605128.86084032059 0 0 0 0 42953.407256897539 -261589.01861342788 0 -261589.01861342788 365012.62935414165 0 0 0 0 -61249803.0388937 -53477921.312953949 0 -53477921.312953949 -11323979.528167725 0 0 0 0 -48169391.879623875 -13203313.375739098 0 -13203313.375739098 19197404.974220276 0 0 0 0 -12261812.557145417 -26377755.088859558 0 -26377755.088859558 84042680.546180725 0 0 0 0 -19011162.888565123 4978960.4576644897 0 4978960.4576644897 4854477.4619102478 0 0 0 0 -28062457.33446753 163472.3784866333 0 163472.3784866333 -12595950.05376482 0 0 0 0 -28637818.748593837 -24122706.008226395 0 -24122706.008226395 55693903.149627686 0 0 0 0 -25328359.253977895 -3313795.7391204834 0 -3313795.7391204834 128521351.14408875 0 0 0 0 -23307838.782936096 15611163.643928528 0 15611163.643928528 61106617.60669899 0 0 0 0 -16242721.341924995 18743399.403469086 0 18743399.403469086 84871435.687591553 0 0 0 0 -22326601.381012738 -6954522.8748817444 0 -6954522.8748817444 160302868.7221849 0 0 0 0 -48707756.96278584 -5602965.0455589294 0 -5602965.0455589294 160391520.42586517 0 0 0 0 -35584085.933360547 -36332967.064094543 0 -36332967.064094543 115256207.61704254 0 0 0 0 -33966680.845520556 40171055.791908264 0 40171055.791908264 257885580.42311859 0 0 0 0 -49867.590551953501 -13543.784209467471 0 -13543.784209467471 39452.358396848664 0 0 0 0 4007191.3782225549 9553303.4490451813 0 9553303.4490451813 165124060.86360931 0 0 0 0 -38557517.958585083 13465174.650238037 0 13465174.650238037 165076382.36030579 0 0 0 0 -27474406.414499432 -4530399.934135437 0 -4530399.934135437 168765658.36975098 0 0 0 0 -2433074.7986789942 -4425914.3972091675 0 -4425914.3972091675 166202109.13686371 0 0 0 0 -31840911.334782362 -7097181.8936691284 0 -7097181.8936691284 167429177.82429123 0 0 0 0 -19359938.636910081 -969587.0609292984 0 -969587.0609292984 157436482.56138611 0 0 0 0 -2392879.6485607028 -4870280.8722076416 0 -4870280.8722076416 158036573.90858459 0 0 0 0 -7861737.6630256772 2141171.2131958008 0 2141171.2131958008 159884041.67618942 0 0 0 0 -13016780.509990826 -13333251.005483627 0 -13333251.005483627 180457562.15211487 0 0 0 0 -94910.643476997531 -29910.163061639294 0 -29910.163061639294 75866.676477149129 0 0 0 0 -13221221.297667265 13580468.973934174 0 13580468.973934174 213916762.68715286 0 0 0 0 -10932889.34564811 5026919.5410232544 0 5026919.5410232544 207920135.0368042 0 0 0 0 -15075218.16373916 17732109.546970367 0 17732109.546970367 278965702.4324789 0 0 0 0 -45635.315083842172 -17533.6033011619 0 -17533.6033011619 41237.895360840484 0 0 0 0 -731239.84819611162 -11039201.674609184 0 -11039201.674609184 171060559.98104095 0 0 0 0 -12892877.541278481 -6644990.0381622314 0 -6644990.0381622314 170197954.11831665 0 0 0 0 -43405184.948085412 9368785.3677392006 0 9368785.3677392006 190914206.79850006 0 0 0 0 -47505620.992332011 -6981864.0423278809 0 -6981864.0423278809 171446374.31211662 0 0 0 0 -80066930.873063892 -21257037.089931488 0 -21257037.089931488 175095122.72241592 0 0 0 0 -7438577.1606063582 -4674908.9734191895 0 -4674908.9734191895 147251914.53291321 0 0 0 0 -42417426.831218928 10142695.489025116 0 10142695.489025116 197099531.19713211 0 0 0 0 -58194828.615157038 12055992.26914978 0 12055992.26914978 207095238.25572586 0 0 0 0 -46615418.540097818 21838709.515125275 0 21838709.515125275 176405094.49247742 0 0 0 0 -45098861.683926135 35227077.545658112 0 35227077.545658112 220858380.39026642 0 0 0 0 -8633296.6360420287 105282903.52077866 0 105282903.52077866 258957644.43782234 0 0 0 0 -43841288.379969105 -14942977.113315582 0 -14942977.113315582 344714436.29631042 0 0 0 0 9143630.1627248675 -63060147.219966888 0 -63060147.219966888 286484211.53765869 0 0 0 0 -49164062.041032389 5548410.1515789032 0 5548410.1515789032 288636010.49637604 0 0 0 0 -7259331.4040971994 -56070909.709541321 0 -56070909.709541321 230296700.01211166 0 0 0 0 2532938.8804769516 -39982260.018104553 0 -39982260.018104553 216025739.37545013 0 0 0 0 56887885.316990227 -88385750.646803379 0 -88385750.646803379 153409052.70028687 0 0 0 0 54954443.310257435 -101161137.98226452 0 -101161137.98226452 174348241.9839325 0 0 0 0 22469316.328621954 -57292184.497306824 0 -57292184.497306824 136930341.62376785 0 0 0 0 21527278.729465842 -58480896.474830627 0 -58480896.474830627 154395085.07363701 0 0 0 0 -19659518.97648561 -28957691.394348145 0 -28957691.394348145 171976335.2725296 0 0 0 0 -29537267.521802723 -30802729.220153809 0 -30802729.220153809 191149327.08735847 0 0 0 0 -2586198.6954086721 -6314696.8122673035 0 -6314696.8122673035 86943817.775917053 0 0 0 0 10022905.689964741 -32343081.186948776 0 -32343081.186948776 128192947.39662933 0 0 0 0 27363093.57821304 -28004542.613634109 0 -28004542.613634109 76998128.715744019 0 0 0 0 54908218.600356728 -42682318.388198853 0 -42682318.388198853 84263687.031028748 0 0 0 0 26007699.84171176 -35526086.114406586 0 -35526086.114406586 88438448.839617968 0 0 0 0 -4987747.6340969801 -35182204.652416229 0 -35182204.652416229 34510644.700788498 0 0 0 0 10500531.220996737 -2182203.836892128 0 -2182203.836892128 24076851.032897949 0 0 0 0 77868982.390931755 -33231735.09154129 0 -33231735.09154129 31994658.704198837 0 0 0 0 69555827.335701048 -64383924.149040222 0 -64383924.149040222 47427356.72064209 0 0 0 0 54771198.360736847 -47520748.109352112 0 -47520748.109352112 28564239.51210022 0 0 0 0 63791974.771692157 -75375954.474687099 0 -75375954.474687099 6704497.6775360107 0 0 0 0 54420572.51514256 -41434890.545008659 0 -41434890.545008659 -21758789.544296265 0 0 0 0 51750371.734984219 -83665032.459936142 0 -83665032.459936142 -13993664.378944397 0 0 0 0 -131101.91054207107 17863.082917725667 0 17863.082917725667 212162.10610811785 0 0 0 0 12649168.336563759 -17937402.981090546 0 -17937402.981090546 17355498.22779274 0 0 0 0 27196053.772377402 -14588695.928413391 0 -14588695.928413391 15548526.900619507 0 0 0 0 5377.4512098589166 1209.4423784017563 0 1209.4423784017563 -79.529793880879879 0 0 0 0 67794187.711172566 -38701627.647121906 0 -38701627.647121906 4381703.1825408936 0 0 0 0 136629022.10977292 -49623791.087638855 0 -49623791.087638855 4637239.0506286621 0 0 0 0 131309308.15423656 -43046098.543800354 0 -43046098.543800354 28566523.260864258 0 0 0 0 185894002.60285616 -65978373.38812685 0 -65978373.38812685 7120252.3414916992 0 0 0 0 5281.2434955070903 -37838.176226215815 0 -37838.176226215815 47951.883749984205 0 0 0 0 93247555.988078773 -77062909.278404236 0 -77062909.278404236 95706872.487503052 0 0 0 0 975395.19915147708 4180423.2709306479 0 4180423.2709306479 19075317.979949951 0 0 0 0 12398394.920003667 -64119778.319911957 0 -64119778.319911957 49294214.505073547 0 0 0 0 80150138.734090209 -53901950.839820862 0 -53901950.839820862 40653830.705627441 0 0 0 0 78003661.052142352 -53161890.207080841 0 -53161890.207080841 64991857.111297607 0 0 0 0 55548727.346573263 -48714309.451793671 0 -48714309.451793671 77618362.676376343 0 0 0 0 66770919.384552434 -82430091.759940386 0 -82430091.759940386 108266233.64550781 0 0 0 0 69395035.485581294 -63310175.050427914 0 -63310175.050427914 81990006.56023407 0 0 0 0 68272217.091642171 -226116.15685653687 0 -226116.15685653687 54645514.438419342 0 0 0 0 73546333.226810023 -9203436.6523017883 0 -9203436.6523017883 62174105.815486908 0 0 0 0 110033297.11840594 78384484.132408142 0 78384484.132408142 88038297.95541954 0 0 0 0 30433243.839448057 -37424278.763257027 0 -37424278.763257027 24120740.38457489 0 0 0 0 -14163841.455637634 38189312.99139595 0 38189312.99139595 77256923.514030457 0 0 0 0 59376435.65507099 -78910909.638156891 0 -78910909.638156891 68353670.489704132 0 0 0 0 28976904.925076179 24431259.751113892 0 24431259.751113892 -11382214.395420074 0 0 0 0 -66913.375063866333 96247.616833474487 0 96247.616833474487 214787.24127234519 0 0 0 0 3082526.5510995984 -22532615.646076202 0 -22532615.646076202 34278874.352436066 0 0 0 0 14780631.378724009 -6260114.6522712708 0 -6260114.6522712708 16063693.566452026 0 0 0 0 4319061.6697390527 -16149000.247059822 0 -16149000.247059822 17340351.779907227 0 0 0 0 13924897.668301493 -16355298.250751495 0 -16355298.250751495 17118701.447921753 0 0 0 0 28454123.359913349 29127030.393669128 0 29127030.393669128 6928954.0667114258 0 0 0 0 16366267.059475064 -5160031.8650894165 0 -5160031.8650894165 16783032.510971069 0 0 0 0 22758939.229990065 39122828.445774078 0 39122828.445774078 -7741121.5862884521 0 0 0 0 81987337.396883249 11764711.317173004 0 11764711.317173004 -18939714.77788353 0 0 0 0 -33592268.333159953 155333496.70719147 0 155333496.70719147 395278099.770401 0 0 0 0 128545.17794853734 -124711.92981650773 0 -124711.92981650773 32764.739032939076 0 0 0 0 -83136491.825606108 -59580006.952957153 0 -59580006.952957153 331632020.97053528 0 0 0 0 -30585.967299947457 67721.119782943279 0 67721.119782943279 116373.12685724534 0 0 0 0 57986811.488518953 -38925777.575958252 0 -38925777.575958252 39885493.724700928 0 0 0 0 67861484.08045125 180783927.94832611 0 180783927.94832611 323448604.14891815 0 0 0 0 49531316.194504559 201239793.56267738 0 201239793.56267738 -138098450.67214966 0 0 0 0 -86917444.039434671 21149134.603881836 0 21149134.603881836 592695938.79902649 0 0 0 0 197573444.47050178 235192340.87097168 0 235192340.87097168 -587459942.73510361 0 0 0 0 69110924.982568264 22223886.47694397 0 22223886.47694397 592506461.98678589 0 0 0 0 -86168840.968470573 -74540217.547805786 0 -74540217.547805786 537761210.15563965 0 0 0 0 -122481.11596929905 286270.61868028529 0 286270.61868028529 337998.4780912837 0 0 0 0 -98533968.190514207 116419581.00601196 0 116419581.00601196 32878230.559799194 0 0 0 0 149419294.99262595 183421042.98403931 0 183421042.98403931 -184582275.87427521 0 0 0 0 -51831157.296051614 -4749887.9207205772 0 -4749887.9207205772 -274803712.91426086 0 0 0 0 161482518.99242854 62822684.150344849 0 62822684.150344849 37114025.957996368 0 0 0 0 223307102.80634516 -80567080.635585785 0 -80567080.635585785 -48697137.219612122 0 0 0 0 151991340.79207647 -20775487.455875397 0 -20775487.455875397 89974320.823322296 0 0 0 0 242654966.97946787 -88396321.313297272 0 -88396321.313297272 65198158.018220901 0 0 0 0 145586108.11533794 -11605457.096321106 0 -11605457.096321106 33228789.412528992 0 0 0 0 116798808.88669318 -114610338.71116638 0 -114610338.71116638 121924075.27458191 0 0 0 0 1404042.8665407002 -68441799.612819672 0 -68441799.612819672 328219141.07077789 0 0 0 0 155943748.47247851 -197474477.35820007 0 -197474477.35820007 245963395.05701065 0 0 0 0 554341295.96931732 -231444658.62042999 0 -231444658.62042999 175805939.86877632 0 0 0 0 68052221.29940927 -220571839.02301788 0 -220571839.02301788 656388763.0862999 0 0 0 0 87467198.026354194 257199427.57741165 0 257199427.57741165 586963761.53034687 0 0 0 0 498023.04201544088 -625311.70645856578 0 -625311.70645856578 671816.8352990672 0 0 0 0 186275483.26411083 -437614538.02938843 0 -437614538.02938843 608410347.4547472 0 0 0 0 84050903.574463859 -221414839.73906136 0 -221414839.73906136 159908916.8849411 0 0 0 0 -1905397.0740332603 -3263766.0523223877 0 -3263766.0523223877 250916658.23543549 0 0 0 0 11785432.719936952 80001372.103063583 0 80001372.103063583 701650905.41963196 0 0 0 0 299355864.50895095 253543433.37561226 0 253543433.37561226 294614955.22310257 0 0 0 0 165086694.53719008 -97960539.227888107 0 -97960539.227888107 7556392.6161575317 0 0 0 0 132898245.84088482 -215723886.40210724 0 -215723886.40210724 173783510.06654739 0 0 0 0 84347948.808788612 -236803109.74539042 0 -236803109.74539042 168098144.13993835 0 0 0 0 456784180.55027479 -228195114.54883003 0 -228195114.54883003 5765166.3733825684 0 0 0 0 44969107.155397743 47267658.715045929 0 47267658.715045929 143264630.34545898 0 0 0 0 6328779.9886972159 64960322.602828979 0 64960322.602828979 136713106.4775238 0 0 0 0 1049769.3286866029 -1571006.5046516061 0 -1571006.5046516061 2062570.8637536168 0 0 0 0 -68682664.421859384 -122527633.96948528 0 -122527633.96948528 -42234053.575134277 0 0 0 0 -1121569.6102466583 2464230.600151062 0 2464230.600151062 -523238.76025795937 0 0 0 0 860609.40674614906 19007879.139102459 0 19007879.139102459 -101528014.93655396 0 0 0 0 255419.39230084419 10437684.685857773 0 10437684.685857773 61947908.336509705 0 0 0 0 -58339642.552833557 115260046.35919952 0 115260046.35919952 15171662.609718323 0 0 0 0 -116383526.34299898 87822066.952041626 0 87822066.952041626 140651040.66926575 0 0 0 0 -102323237.12696695 37232924.452981949 0 37232924.452981949 196258805.3579483 0 0 0 0 -84412527.231836796 635503.97891426086 0 635503.97891426086 246625486.4960022 0 0 0 0 -42762110.097847581 51574928.433252335 0 51574928.433252335 89144303.075012207 0 0 0 0 -48877646.891662121 38565833.05581665 0 38565833.05581665 101403817.42884064 0 0 0 0 -62039373.916794777 49182599.733833313 0 49182599.733833313 108466170.74994278 0 0 0 0 -49942153.384108067 31870548.290458679 0 31870548.290458679 127878490.23042297 0 0 0 0 -9751439.3351480961 26118038.264705658 0 26118038.264705658 125513502.76950073 0 0 0 0 -10683608.347700596 35292666.498451233 0 35292666.498451233 97109388.484321594 0 0 0 0 16805826.368198395 37804835.971755981 0 37804835.971755981 110010612.80672455 0 0 0 0 46930777.947521865 -10780074.716014862 0 -10780074.716014862 87965869.117088318 0 0 0 0 17998042.227674514 21781149.623977661 0 21781149.623977661 51719165.248794556 0 0 0 0 21422796.829917312 -49718930.818798065 0 -49718930.818798065 217014593.59816742 0 0 0 0 22425872.739154786 -143892085.72675085 0 -143892085.72675085 129451529.17325592 0 0 0 0 -79741844.350840583 26223649.349282622 0 26223649.349282622 160431215.31964874 0 0 0 0 25582327.546070054 54972897.074943542 0 54972897.074943542 148426154.86572266 0 0 0 0 41495549.908633992 31843097.697097778 0 31843097.697097778 107746929.28838348 0 0 0 0 15665292.524505854 46455214.012672424 0 46455214.012672424 154444438.57839203 0 0 0 0 314318.27259100787 39173.188122666441 0 39173.188122666441 -274871.77529593371 0 0 0 0 71658220.450922012 56380065.575843811 0 56380065.575843811 13150631.462463379 0 0 0 0 82169.032725317084 6135.462971964851 0 6135.462971964851 2402.45107890293 0 0 0 0 2178715.4093983173 61472914.762916565 0 61472914.762916565 149051391.44800949 0 0 0 0 19829599.495128989 12096052.137016296 0 12096052.137016296 125540563.97998047 0 0 0 0 -11389229.790123463 25153408.024093628 0 25153408.024093628 62799766.308013916 0 0 0 0 8528055.3707378209 31302192.061559677 0 31302192.061559677 58923752.940475464 0 0 0 0 10186326.455543518 12443035.257452011 0 12443035.257452011 6509801.8754196167 0 0 0 0 702328.66224730015 882589.81922340393 0 882589.81922340393 1010581.4366950989 0 0 0 0 1701497.8123855982 344491.9131834656 0 344491.9131834656 -270330.81305917539 0 0 0 0 11429482.012625217 -5037582.7458992004 0 -5037582.7458992004 11483052.661105752 0 0 0 0 -570060.8112145979 650461.59773797728 0 650461.59773797728 1104519.7124967314 0 0 0 0 475561.18359470367 651872.62385559082 0 651872.62385559082 1053076.8717136383 0 0 0 0 1611742.7536847591 1434212.7441711426 0 1434212.7441711426 1173449.8360710144 0 0 0 0 5618893.8373172283 1629477.787694931 0 1629477.787694931 5178995.7414321899 0 0 0 0 1263277.7803833715 909949.41089630499 0 909949.41089630499 -489630.49409014732 0 0 0 0 973890.12131214142 891208.61804962158 0 891208.61804962158 1106264.8448371887 0 0 0 0 1283447.5906837732 995412.21015691757 0 995412.21015691757 964454.07683563232 0 0 0 0 605498.5645929575 1139208.2076625824 0 1139208.2076625824 1032628.3080482483 0 0 0 0 -421633.57544784585 1073287.5447022635 0 1073287.5447022635 3495929.4689341132 0 0 0 0 -191850995.12127113 -41230730.963659286 0 -41230730.963659286 170200414.32624817 0 0 0 0 -249560374.71259117 52057439.719308853 0 52057439.719308853 55872038.059104919 0 0 0 0 -3336017.6797580719 9359369.1577987671 0 9359369.1577987671 -563943.00619506836 0 0 0 0 602383.86949391908 1636079.3768832432 0 1636079.3768832432 -332828.98817801848 0 0 0 0 1295584.0158114582 1220879.431779027 0 1220879.431779027 1439199.2502212524 0 0 0 0 8431998.4889264107 4740506.2847633362 0 4740506.2847633362 -3603781.4975662231 0 0 0 0 -267670.60525802028 578713.82240862213 0 578713.82240862213 2252518.8745701574 0 0 0 0 -127304729.23419547 141896884.5626564 0 141896884.5626564 13925797.904151917 0 0 0 0 8510474.9223537445 5113574.1239318848 0 5113574.1239318848 2682968.928894043 0 0 0 0 -21995761.633869052 10967587.729133606 0 10967587.729133606 13640397.752479553 0 0 0 0 -2843264.6294207573 2286452.594417572 0 2286452.594417572 72498918.750274658 0 0 0 0 -35460908.308246136 51247.737487792969 0 51247.737487792969 72357180.338326454 0 0 0 0 -30201077.665493011 -20079809.033164978 0 -20079809.033164978 148739940.49391174 0 0 0 0 -23519654.744695425 29185127.335390091 0 29185127.335390091 128139504.87640381 0 0 0 0 -92322.287622571574 165496.94810456177 0 165496.94810456177 780076.80076144263 0 0 0 0 41679315.537948132 -98123116.334497452 0 -98123116.334497452 142735426.49216461 0 0 0 0 16913806.951820374 -48375225.391151428 0 -48375225.391151428 43028023.553459167 0 0 0 0 -50570194.366071701 -17061314.140411377 0 -17061314.140411377 149399946.99575806 0 0 0 0 -51406084.039307043 -54954132.024367988 0 -54954132.024367988 247770444.69514465 0 0 0 0 -65527814.224379539 718967727.2043457 0 718967727.2043457 155998665.6242218 0 0 0 0 425974638.20804691 110563337.76163864 0 110563337.76163864 -124721184.86399078 0 0 0 0 -290001467.45388317 19770562.352752686 0 19770562.352752686 95234918.732925415 0 0 0 0 821772.46971597266 -1946173.789368548 0 -1946173.789368548 3771889.6477300897 0 0 0 0 -185478800.99194622 -64131252.350082397 0 -64131252.350082397 14331096.248245239 0 0 0 0 9251569.082816124 78506789.112781525 0 78506789.112781525 -993157.31855010986 0 0 0 0 9215539.4404449463 82786657.863143921 0 82786657.863143921 -98591114.764526367 0 0 0 0 -17789035.25914669 91268924.637008667 0 91268924.637008667 112512048.17362976 0 0 0 0 -18209205.661280632 130051897.88991547 0 130051897.88991547 -39452030.183151245 0 0 0 0 83404831.929381371 144453423.1006012 0 144453423.1006012 -58358386.555580139 0 0 0 0 3426921.4359514713 61770417.504195213 0 61770417.504195213 44729234.377883911 0 0 0 0 41496676.261350095 -157794165.28882027 0 -157794165.28882027 129231455.70217896 0 0 0 0 411808696.43544483 -30058421.533630371 0 -30058421.533630371 64898058.553672791 0 0 0 0 282078692.96950722 -262346273.63905716 0 -262346273.63905716 169904673.108078 0 0 0 0 -30915276.86115551 -17499544.493953705 0 -17499544.493953705 6919414.47265625 0 0 0 0 -18894924.306354523 -88585402.691116333 0 -88585402.691116333 425429763.28739166 0 0 0 0 212645731.93233585 233011704.81967735 0 233011704.81967735 186561030.57594299 0 0 0 0 541180.15168995457 -59188.995598005131 0 -59188.995598005131 -23687.106813890859 0 0 0 0 398429244.19641638 -6810986.9319210052 0 -6810986.9319210052 -466810790.11482239 0 0 0 0 313391478.01803017 -41655298.909812927 0 -41655298.909812927 -479168205.37258148 0 0 0 0 -82191046.856996536 -71789586.668186188 0 -71789586.668186188 -190386573.70082092 0 0 0 0 395793624.20487404 -173108385.57632828 0 -173108385.57632828 -429364213.09314346 0 0 0 0 90809234.050035238 108907952.50901031 0 108907952.50901031 410159623.1595993 0 0 0 0 485011199.7201761 -60217817.944869995 0 -60217817.944869995 -582285952.01159668 0 0 0 0 -221323740.00267923 -229370392.00086975 0 -229370392.00086975 84316369.177429199 0 0 0 0 -28796439.682806551 378455474.57633591 0 378455474.57633591 548635876.3228302 0 0 0 0 567013.58217248239 -1455567.1979912948 0 -1455567.1979912948 3009718.6484309398 0 0 0 0 -30801528.807525754 -132486806.4113884 0 -132486806.4113884 425338405.88035583 0 0 0 0 58056150.651770294 -259470029.83110809 0 -259470029.83110809 201298718.24212646 0 0 0 0 63951606.671110868 -130404476.22429132 0 -130404476.22429132 178562773.77690125 0 0 0 0 65199217.432763405 -86477615.612042189 0 -86477615.612042189 36961926.270004272 0 0 0 0 20293800.508085698 -68474062.169010162 0 -68474062.169010162 78247521.796188354 0 0 0 0 17645847.728495419 -11307188.570037842 0 -11307188.570037842 -98476761.032688141 0 0 0 0 -7690490.1386660039 9559900.93567276 0 9559900.93567276 1302936.0992965698 0 0 0 0 -128179029.33297175 45077234.629148483 0 45077234.629148483 16963297.319290161 0 0 0 0 49357310.735292912 -11535167.473522186 0 -11535167.473522186 12778539.958885193 0 0 0 0 47335104.219225824 -23573587.340003967 0 -23573587.340003967 147132430.76925659 0 0 0 0 -4862236.1340497136 24656038.110515594 0 24656038.110515594 76794477.389656067 0 0 0 0 41445183.145039059 35067237.951520577 0 35067237.951520577 40638743.889312744 0 0 0 0 -9047529.4658704996 40480887.774681091 0 40480887.774681091 87023927.782325745 0 0 0 0 -2561157.5589442253 61592768.245716095 0 61592768.245716095 78916555.053604126 0 0 0 0 16605103.562608287 34806771.100448608 0 34806771.100448608 116290037.16719055 0 0 0 0 -12953033.289336681 40958102.734588623 0 40958102.734588623 94227578.854064941 0 0 0 0 -7250185.1624840498 45206167.839719772 0 45206167.839719772 39367387.886871338 0 0 0 0 -78630140.889868602 31268599.422080994 0 31268599.422080994 52389691.110267639 0 0 0 0 -53363507.174763829 27658760.926696777 0 27658760.926696777 22128702.843193054 0 0 0 0 -56003982.845677257 -23899304.984015465 0 -23899304.984015465 -23280732.363090515 0 0 0 0 1122597.4554410845 -2061891.592812743 0 -2061891.592812743 3304844.1271612793 0 0 0 0 224212796.63941383 -546201593.1862545 0 -546201593.1862545 -94399895.74571228 0 0 0 0 -73968118.490208775 -19296476.068973541 0 -19296476.068973541 43440054.530487061 0 0 0 0 -37038556.101571932 12180226.43132782 0 12180226.43132782 36748705.065811157 0 0 0 0 -36248661.902736083 60682706.653884888 0 60682706.653884888 77540975.992103577 0 0 0 0 -13154275.133627653 67886973.811759949 0 67886973.811759949 97582813.178421021 0 0 0 0 -30432521.292978436 51393456.364318848 0 51393456.364318848 145260962.06311035 0 0 0 0 3529811.8503150344 10799997.285957336 0 10799997.285957336 13986107.389287949 0 0 0 0 -13847808.056839734 54585486.485126495 0 54585486.485126495 145590187.05161285 0 0 0 0 -20304660.883622728 74124291.34057188 0 74124291.34057188 172652377.99233246 0 0 0 0 -12615136.063895702 50425425.095060349 0 50425425.095060349 116310283.060112 0 0 0 0 -20312626.226298302 48773365.589477539 0 48773365.589477539 153348367.90087128 0 0 0 0 -19552911.767838232 69403284.646938324 0 69403284.646938324 115545319.05766296 0 0 0 0 21784243.424381062 -10090993.726436615 0 -10090993.726436615 141152448.42407227 0 0 0 0 3862243.5734884143 13027793.469394684 0 13027793.469394684 112241451.5500145 0 0 0 0 1463172.6103011072 27903117.832733154 0 27903117.832733154 152118183.578125 0 0 0 0 -27826099.389863029 15225776.71641922 0 15225776.71641922 157123200.00022125 0 0 0 0 -4499625.2482002378 -8863250.3777446747 0 -8863250.3777446747 141363908.69415283 0 0 0 0 5194781.8627595007 -37942348.774929047 0 -37942348.774929047 140736079.78413391 0 0 0 0 -1463084.7956526428 -19320279.831176758 0 -19320279.831176758 175538487.02702332 0 0 0 0 6687988.1464407155 -30136951.490390778 0 -30136951.490390778 162917045.43041992 0 0 0 0 13501013.300167693 -40972807.510203362 0 -40972807.510203362 113424632.89064026 0 0 0 0 14004477.816547468 -43675135.428733826 0 -43675135.428733826 113313048.5229187 0 0 0 0 -7014984.7448401526 -59214815.148864746 0 -59214815.148864746 132733567.2412796 0 0 0 0 20273892.951283693 -28989952.177490234 0 -28989952.177490234 136348680.8880043 0 0 0 0 19227580.239778951 -21731154.637260437 0 -21731154.637260437 109164000.46792603 0 0 0 0 37384675.168063998 -36090808.948005676 0 -36090808.948005676 89801418.131774902 0 0 0 0 44221024.838622123 -21849492.433074951 0 -21849492.433074951 108859434.89021111 0 0 0 0 4935357.7858616039 -19379797.542419434 0 -19379797.542419434 84128386.226577759 0 0 0 0 23725528.69194676 -38459809.567211151 0 -38459809.567211151 93862781.439086914 0 0 0 0 32936975.02683112 -26525376.831104279 0 -26525376.831104279 96344741.855804443 0 0 0 0 46674619.506966129 -37131722.955059052 0 -37131722.955059052 101064831.43202972 0 0 0 0 82112297.81933701 -16598800.701148987 0 -16598800.701148987 88667636.919036865 0 0 0 0 64060027.176050067 -2175294.8152542114 0 -2175294.8152542114 85257274.425231934 0 0 0 0 37200196.363755539 -9696342.0235023499 0 -9696342.0235023499 87828940.086868286 0 0 0 0 48090806.196578801 7011432.591545105 0 7011432.591545105 112879544.39743614 0 0 0 0 21065838.346803799 35504043.521318436 0 35504043.521318436 83872815.996520996 0 0 0 0 75524515.812803715 15011780.064411163 0 15011780.064411163 78393639.244883537 0 0 0 0 41377938.151835755 23291233.066885948 0 23291233.066885948 89727355.214508057 0 0 0 0 87799663.9916756 -7334225.4393901825 0 -7334225.4393901825 128441574.68359375 0 0 0 0 93202572.597697318 8045879.2733230591 0 8045879.2733230591 69922014.847915649 0 0 0 0 179871910.93902481 -71682455.6236763 0 -71682455.6236763 134989036.03042603 0 0 0 0 81018509.769294873 -47707323.508956909 0 -47707323.508956909 130720557.46279144 0 0 0 0 123897651.51499695 -8242657.9209899902 0 -8242657.9209899902 83345158.216205597 0 0 0 0 165163369.26566142 23093937.572444916 0 23093937.572444916 139731359.48269653 0 0 0 0 47104735.458037078 -76407739.181316376 0 -76407739.181316376 101326562.91636276 0 0 0 0 53669473.793545246 -38543027.585948944 0 -38543027.585948944 300849840.07896423 0 0 0 0 4628489.6245408654 -95414765.55803299 0 -95414765.55803299 219845381.70789337 0 0 0 0 31774420.003468871 -50248735.011146545 0 -50248735.011146545 72948474.588653564 0 0 0 0 68810368.068821549 -151227278.69927979 0 -151227278.69927979 204849845.35470581 0 0 0 0 119424832.59810889 -71988189.124098778 0 -71988189.124098778 27126559.562362671 0 0 0 0 145880.12369155389 -178917.33202687372 0 -178917.33202687372 13102.471182905138 0 0 0 0 -1695728.98835361 22826067.023332596 0 22826067.023332596 12519881.227279663 0 0 0 0 1256910.4902754142 -401016.41261958145 0 -401016.41261958145 38921.90722607635 0 0 0 0 63250301.246757269 -65125197.560773849 0 -65125197.560773849 41286806.821800232 0 0 0 0 -54474247.314519882 -164844603.97091675 0 -164844603.97091675 -209181269.62299347 0 0 0 0 -75057680.801095068 -255200930.25285208 0 -255200930.25285208 32750389.448791504 0 0 0 0 -173816.56297247537 -173863.8224763535 0 -173863.8224763535 245711.95091691799 0 0 0 0 -182967644.09785223 92761600.99432373 0 92761600.99432373 -45487683.480369568 0 0 0 0 -2137292.7376431227 -4122808.2619409561 0 -4122808.2619409561 84102691.605178833 0 0 0 0 -70675.443045481283 -113105.80512205325 0 -113105.80512205325 159965.17043839768 0 0 0 0 1609711.0589411862 -1029966.1689477842 0 -1029966.1689477842 204354.69292227644 0 0 0 0 1671175.8247763813 5636478.2008666992 0 5636478.2008666992 60329305.595085144 0 0 0 0 455006.84015303222 -527894.40463402588 0 -527894.40463402588 -73608.453896034509 0 0 0 0 -11737771.1253829 8080637.5755996704 0 8080637.5755996704 -8729376.6536331177 0 0 0 0 26798675.804316863 95229259.655250549 0 95229259.655250549 258071901.71085358 0 0 0 0 16755083.372186422 35308119.057723999 0 35308119.057723999 69401608.650190353 0 0 0 0 -69202814.524980992 -10543806.089733124 0 -10543806.089733124 87538026.340072632 0 0 0 0 -12754722.573474795 47720215.335754395 0 47720215.335754395 142052061.31973267 0 0 0 0 -56080336.852950372 24535634.690506458 0 24535634.690506458 138873040.43125916 0 0 0 0 -51508521.528434455 -15368384.137542725 0 -15368384.137542725 177658319.71925163 0 0 0 0 -6902239.4588245861 -4241538.9082241058 0 -4241538.9082241058 151593624.96303558 0 0 0 0 39757965.611875892 -81015051.142822266 0 -81015051.142822266 267268038.85636353 0 0 0 0 14248345.383485824 -47012983.36315918 0 -47012983.36315918 156432133.78674316 0 0 0 0 70213091.644294947 -29628074.152130127 0 -29628074.152130127 100767694.37411094 0 0 0 0 -24218608.700846259 -2697952.7070236206 0 -2697952.7070236206 112043006.9151001 0 0 0 0 -79404161.651879519 37453048.935012817 0 37453048.935012817 134303458.56289673 0 0 0 0 -22071156.272792075 425290.91381454468 0 425290.91381454468 113538104.51606178 0 0 0 0 -6150919.9387890995 51402913.987226486 0 51402913.987226486 68489311.550643921 0 0 0 0 -18353670.431422681 13257007.376411438 0 13257007.376411438 60520389.974477768 0 0 0 0 -139114065.47215563 96569352.203086853 0 96569352.203086853 126463227.65127087 0 0 0 0 -37013645.709973946 74527031.827898026 0 74527031.827898026 130311714.92907715 0 0 0 0 -154848420.55448723 16696121.98110199 0 16696121.98110199 159335320.81948853 0 0 0 0 -48353084.544546038 17205411.901657104 0 17205411.901657104 56387934.441270828 0 0 0 0 -22170532.697747983 73231355.336253166 0 73231355.336253166 121795024.99272156 0 0 0 0 -35675544.709817335 110754443.26555252 0 110754443.26555252 68482535.381439209 0 0 0 0 63615653.03990896 4186846.3374710083 0 4186846.3374710083 123779077.05521393 0 0 0 0 -25100856.975373067 67817736.276901245 0 67817736.276901245 160693495.56433868 0 0 0 0 -30332551.335822105 -23534705.219078064 0 -23534705.219078064 196298139.41644287 0 0 0 0 -45623114.45476383 34258736.171451569 0 34258736.171451569 104222011.06544495 0 0 0 0 -198265864.65547824 37012601.675201416 0 37012601.675201416 121197656.09490967 0 0 0 0 -210973333.9919498 94840411.7838974 0 94840411.7838974 68995149.677902222 0 0 0 0 -87915548.547884345 -6366486.7868652344 0 -6366486.7868652344 76448605.419052124 0 0 0 0 68875741.616035059 -5097671.339881897 0 -5097671.339881897 245765077.68997192 0 0 0 0 512448.02880601981 -13084822.993785858 0 -13084822.993785858 315915695.72549438 0 0 0 0 44503315.940495491 7028906.5000114441 0 7028906.5000114441 252660784.19566345 0 0 0 0 61440640.787747808 85891439.443122506 0 85891439.443122506 268178887.44600677 0 0 0 0 61450959.879052244 82490964.28717041 0 82490964.28717041 106329341.34474945 0 0 0 0 -3261.3791640246554 -998018.25918579102 0 -998018.25918579102 -929019.21766662598 0 0 0 0 -117418.89429909058 64272.262835281901 0 64272.262835281901 189625.44716119766 0 0 0 0 172956124.36972058 167575715.78568268 0 167575715.78568268 151723585.87056732 0 0 0 0 1551.0706403284541 -990535.75374603271 0 -990535.75374603271 -935421.06705474854 0 0 0 0 55937792.275840491 94160416.023635864 0 94160416.023635864 81213368.571865082 0 0 0 0 53686591.903738081 65767856.315402985 0 65767856.315402985 67782119.437160492 0 0 0 0 -114419.86498651216 -4708.7697307327762 0 -4708.7697307327762 268016.11293613166 0 0 0 0 -1602391.0129804164 -263245.04611587524 0 -263245.04611587524 2669040.1528167725 0 0 0 0 -1729752.6207531225 -1155479.4975662231 0 -1155479.4975662231 413329.2891998291 0 0 0 0 -3350879.1720847334 923884.03580550011 0 923884.03580550011 -24406450.010017309 0 0 0 0 -5782.2102891871473 668201.14831542969 0 668201.14831542969 158821.28647613525 0 0 0 0 -388496.29228969663 377279.81254577637 0 377279.81254577637 201617.03737163544 0 0 0 0 -99057.431159139494 348728.33701324463 0 348728.33701324463 57424.036632537842 0 0 0 0 2638594.014178691 73084.007985364646 0 73084.007985364646 -36953.923169970512 0 0 0 0 14399010.312856879 -1603481.4683818817 0 -1603481.4683818817 -237184.81231689453 0 0 0 0 -386050.16605959227 405449.25119781494 0 405449.25119781494 46500.932769775391 0 0 0 0 -408273.6518537784 235716.25921630859 0 235716.25921630859 223272.26223754883 0 0 0 0 -15602080.668434501 1071986.7671012878 0 1071986.7671012878 15061082.16758728 0 0 0 0 44143.707833825581 45571.738582039368 0 45571.738582039368 355948.06745988876 0 0 0 0 -5756523.757852559 -1332236.7298278809 0 -1332236.7298278809 61737.955724716187 0 0 0 0 568385.27166128182 -2135214.6456667967 0 -2135214.6456667967 73235.568864753935 0 0 0 0 -124877.73748752133 279255.30179761723 0 279255.30179761723 290870.70831132494 0 0 0 0 12381103.481768429 8043053.2036590576 0 8043053.2036590576 -16608874.098670959 0 0 0 0 12733842.31080243 -44131663.251930237 0 -44131663.251930237 56134086.591140747 0 0 0 0 26152223.25800547 -9759097.6893920898 0 -9759097.6893920898 10580635.340522766 0 0 0 0 -6026039.5314108133 -15412807.294219971 0 -15412807.294219971 12943177.180114746 0 0 0 0 -54590.687632861132 237304.54874997772 0 237304.54874997772 228302.91327081202 0 0 0 0 19911077.210004181 -3450021.0137557983 0 -3450021.0137557983 -13742176.140945435 0 0 0 0 -252655.62804354215 -6005.0927124023438 0 -6005.0927124023438 190199.18846130371 0 0 0 0 -833764.64222020935 77485.334384918213 0 77485.334384918213 255095.08464050293 0 0 0 0 -115116.64566919644 -86427.83877632767 0 -86427.83877632767 304005.9508067891 0 0 0 0 -34616847.882025272 -2182096.4346313477 0 -2182096.4346313477 47720708.558044434 0 0 0 0 14121487.734731376 25129098.237884521 0 25129098.237884521 39185347.130531311 0 0 0 0 -2767540.1240429878 -540890.64800643921 0 -540890.64800643921 8620372.2117080688 0 0 0 0 -48492.522355964662 25083.093898182735 0 25083.093898182735 60130.234264487866 0 0 0 0 -36188229.94740624 19832233.670631409 0 19832233.670631409 89357997.636756897 0 0 0 0 4390943.9269892797 -29632303.528030396 0 -29632303.528030396 23002361.776550293 0 0 0 0 -23125732.413908817 -52276090.238395691 0 -52276090.238395691 77701089.967658997 0 0 0 0 2042434.2858812436 -40627522.923934937 0 -40627522.923934937 80301434.682479858 0 0 0 0 -518085.60449293256 -60488240.901603699 0 -60488240.901603699 88481854.849318981 0 0 0 0 -17629751.420355141 -7153964.3478393555 0 -7153964.3478393555 25782120.874134064 0 0 0 0 -19240.30775511773 26994.264968747273 0 26994.264968747273 35411.292209085077 0 0 0 0 11095816.596578658 -15411190.017631531 0 -15411190.017631531 22893640.695892334 0 0 0 0 -29829626.582263913 -8797951.6476373672 0 -8797951.6476373672 52815509.298034668 0 0 0 0 1820982.5984468162 -45081296.698394775 0 -45081296.698394775 78726422.966506958 0 0 0 0 7300126.5853625834 -21660790.819076538 0 -21660790.819076538 21423708.882156372 0 0 0 0 -10502549.13679973 -30507442.973991394 0 -30507442.973991394 66545001.301971436 0 0 0 0 -3881667.0557203814 -60704363.999641418 0 -60704363.999641418 117646748.34046793 0 0 0 0 15733088.288585752 -45595558.074501038 0 -45595558.074501038 65578862.384521008 0 0 0 0 296306.11946095526 -34344519.182552338 0 -34344519.182552338 71351988.045730591 0 0 0 0 10046803.406895444 -55353059.844863892 0 -55353059.844863892 75556221.058387756 0 0 0 0 -11121560.869698182 -67616676.000133514 0 -67616676.000133514 169646669.14459229 0 0 0 0 -19235267.868793301 -43296230.435745239 0 -43296230.435745239 119550957.60649109 0 0 0 0 -12485045.899949776 -45480557.719596863 0 -45480557.719596863 170951227.79812622 0 0 0 0 -22730187.121485852 -35882692.729904175 0 -35882692.729904175 208937567.63751936 0 0 0 0 -26274826.866131663 -51806865.005897522 0 -51806865.005897522 172275726.02133179 0 0 0 0 -12516115.419697694 -69152657.772079468 0 -69152657.772079468 169695962.28672791 0 0 0 0 -28152521.858674403 -55284886.186382294 0 -55284886.186382294 218331034.35865784 0 0 0 0 -10853760.901996717 -89093923.133232117 0 -89093923.133232117 236865526.24796104 0 0 0 0 15588575.260180101 -86487423.437179565 0 -86487423.437179565 181721603.63987732 0 0 0 0 17690570.144643992 -99796938.39730835 0 -99796938.39730835 181327090.41934633 0 0 0 0 177653897.86093122 -146426099.81780243 0 -146426099.81780243 116175913.67729187 0 0 0 0 19365.349588921184 -8999.89217644569 0 -8999.89217644569 148023.2158209309 0 0 0 0 31595011.553537369 -145906543.59703827 0 -145906543.59703827 316511194.90494823 0 0 0 0 -64606883.797064766 -14140462.460140228 0 -14140462.460140228 147833306.26065063 0 0 0 0 95423710.046928793 -40683784.710891724 0 -40683784.710891724 -3133954.1232299805 0 0 0 0 -45326.169016347878 -7339321.9368765419 0 -7339321.9368765419 -65070958.054626465 0 0 0 0 18159606.636295646 18478220.287200928 0 18478220.287200928 7997595.0144500732 0 0 0 0 43436485.154107451 -40706424.859130859 0 -40706424.859130859 34541858.894081116 0 0 0 0 31268557.475367069 -78178406.419898987 0 -78178406.419898987 91219953.488136292 0 0 0 0 12558436.524049073 -62607415.927513123 0 -62607415.927513123 108785905.45378113 0 0 0 0 90094556.737624019 -115220582.92327881 0 -115220582.92327881 96828565.755355835 0 0 0 0 33674851.610526629 -40656088.121201038 0 -40656088.121201038 39953333.955566406 0 0 0 0 4848639.9508127403 -4125405.3212203979 0 -4125405.3212203979 1850011.3154144287 0 0 0 0 -117649.09583965689 -15626568.006916046 0 -15626568.006916046 32395063.420387208 0 0 0 0 -21734.365267209228 -5624435.6896705627 0 -5624435.6896705627 40197239.466491699 0 0 0 0 -1986515.3219439946 -10528374.216327667 0 -10528374.216327667 32304859.488604784 0 0 0 0 -2232161.692192927 -9904381.9676551819 0 -9904381.9676551819 66049381.594261169 0 0 0 0 -2719924.7007619292 13641636.391468048 0 13641636.391468048 47983983.216033936 0 0 0 0 18264496.580055963 -28666920.384662628 0 -28666920.384662628 35467390.321025848 0 0 0 0 16915612.940274827 10934001.797035217 0 10934001.797035217 3588285.954208374 0 0 0 0 -9337.4999930013546 96880.151361568831 0 96880.151361568831 20735.484281301498 0 0 0 0 304250.84924600273 775485.53521728516 0 775485.53521728516 -790594.42668914795 0 0 0 0 -135956.34938479215 -876947.22370147705 0 -876947.22370147705 4889333.6466445923 0 0 0 0 -26049.813908589098 315671.24383452954 0 315671.24383452954 31306.451154340059 0 0 0 0 1608076.5774853677 -2116761.5889129639 0 -2116761.5889129639 -1018975.5370330811 0 0 0 0 -2146719.2971659005 9216956.234295845 0 9216956.234295845 2046642.9569549561 0 0 0 0 814556.89364497177 59019.627515364438 0 59019.627515364438 2068236.3558247089 0 0 0 0 1092045.8225343227 2432441.289691925 0 2432441.289691925 -5481761.8623695374 0 0 0 0 -4134788.9398113489 1576776.1212844849 0 1576776.1212844849 3879377.397026062 0 0 0 0 1584574.9296932518 819873.54616165161 0 819873.54616165161 -1210763.1790313721 0 0 0 0 -3851853.2329030354 -223409.92931747437 0 -223409.92931747437 -1312056.5448684692 0 0 0 0 -6990085.7007149514 -1544339.8123550415 0 -1544339.8123550415 7456080.5470275879 0 0 0 0 20560.21820785803 -6698502.1750297546 0 -6698502.1750297546 10239199.849273682 0 0 0 0 -59971.7112892613 -14238356.793434143 0 -14238356.793434143 4273429.0756607056 0 0 0 0 -8531966.6902932823 -10578376.955116272 0 -10578376.955116272 8495990.7969779968 0 0 0 0 -29196975.68705659 -24087733.015875816 0 -24087733.015875816 20827815.098312378 0 0 0 0 -22652887.243755355 12487280.455908775 0 12487280.455908775 -7137048.4804992676 0 0 0 0 -104855837.88040438 3097868.0661468506 0 3097868.0661468506 31209781.980815887 0 0 0 0 -7202.4267151514323 658376.8939361549 0 658376.8939361549 -40444.960277922451 0 0 0 0 -12993028.126118954 1999054.3164024353 0 1999054.3164024353 3563431.8382072449 0 0 0 0 39741048.493405133 108297171.40006351 0 108297171.40006351 294352562.67042542 0 0 0 0 271765518.2587685 -341174842.69657898 0 -341174842.69657898 331679475.60166931 0 0 0 0 417847887.93067229 -555807027.96275711 0 -555807027.96275711 646489397.69721985 0 0 0 0 -56566.689150515827 -17338.995022295043 0 -17338.995022295043 562479.87138452753 0 0 0 0 -164345539.94207001 -77476832.142807007 0 -77476832.142807007 1361435235.4269104 0 0 0 0 -133627404.58392794 -390441455.88949966 0 -390441455.88949966 695107676.28085327 0 0 0 0 -142171.15675481618 -151428361.59649658 0 -151428361.59649658 205271378.93763733 0 0 0 0 -51128142.531240851 36283308.845184326 0 36283308.845184326 -15967131.059936523 0 0 0 0 -228551.9504720773 -75604.200170252472 0 -75604.200170252472 176691.87616942078 0 0 0 0 331509273.55840969 -442433058.72477722 0 -442433058.72477722 396144439.39755249 0 0 0 0 -2064880.3022065163 -122035332.30330658 0 -122035332.30330658 592663049.46319389 0 0 0 0 64248002.632146329 -263965281.06642151 0 -263965281.06642151 610184835.89076996 0 0 0 0 119276.37668179574 -773.6239975169301 0 -773.6239975169301 320247.59314288199 0 0 0 0 194222128.35175729 -201813080.54972267 0 -201813080.54972267 431198167.49298096 0 0 0 0 144213807.12177408 -114796647.34652901 0 -114796647.34652901 493275941.920578 0 0 0 0 48543589.139843866 -139271524.99905396 0 -139271524.99905396 488190931.13861084 0 0 0 0 66988333.8442799 -117339299.10881042 0 -117339299.10881042 418518722.44706535 0 0 0 0 156282593.8028073 -210196114.95730209 0 -210196114.95730209 433131080.89323425 0 0 0 0 107548168.98006201 -66252719.709918976 0 -66252719.709918976 239066237.68437195 0 0 0 0 121737331.43726882 -125457584.15956879 0 -125457584.15956879 287094448.72621155 0 0 0 0 40898201.900706604 -62434130.355285645 0 -62434130.355285645 304318756.98440552 0 0 0 0 135955.2452233673 -61746244.324797846 0 -61746244.324797846 467028432.57015991 0 0 0 0 54767091.219978489 -63814898.641235352 0 -63814898.641235352 376045110.28833008 0 0 0 0 73458641.722846955 -79031288.226509094 0 -79031288.226509094 339696709.10800171 0 0 0 0 111807951.69526482 -158158608.59211731 0 -158158608.59211731 396895406.91870117 0 0 0 0 -147106725.38042688 4175634.8218154907 0 4175634.8218154907 3361430.5946807861 0 0 0 0 -175895137.70824933 9420841.1756057739 0 9420841.1756057739 13272992.260040283 0 0 0 0 -164312090.77341837 41619487.347236633 0 41619487.347236633 102771171.7661438 0 0 0 0 -78607055.127035022 -45099427.339225769 0 -45099427.339225769 36892583.010787964 0 0 0 0 -63030779.050467014 -95302342.733034134 0 -95302342.733034134 156729827.052948 0 0 0 0 67618927.052823007 -59915596.093955994 0 -59915596.093955994 158991831.38413239 0 0 0 0 -43172158.727093004 -53305106.579639435 0 -53305106.579639435 235339013.91314697 0 0 0 0 -37769825.201288819 -243860624.99518585 0 -243860624.99518585 342637195.36386108 0 0 0 0 37378785.424814969 -136824458.56939697 0 -136824458.56939697 195276270.9985199 0 0 0 0 62035117.530017801 -174695297.14187622 0 -174695297.14187622 371612737.80638123 0 0 0 0 11934835.402997196 -142447544.3044281 0 -142447544.3044281 395984770.3687439 0 0 0 0 -40081561.358028948 -168873457.84223938 0 -168873457.84223938 464177891.90531921 0 0 0 0 39613930.529249191 -261546398.16647339 0 -261546398.16647339 458219382.02081394 0 0 0 0 -156680.0875764839 24550.728576618247 0 24550.728576618247 161651.18509124592 0 0 0 0 -204553891.77493489 -308574740.19885826 0 -308574740.19885826 62514097.919960022 0 0 0 0 -137387791.11008334 -150125734.70843124 0 -150125734.70843124 432928083.02275085 0 0 0 0 -101877190.33208334 -175900922.37012005 0 -175900922.37012005 462085995.27211761 0 0 0 0 37174762.886377215 -129910408.59928894 0 -129910408.59928894 433723321.12783051 0 0 0 0 -105416231.56766477 -170443589.06197548 0 -170443589.06197548 608318917.25131226 0 0 0 0 -45696524.530254245 -256608087.46060181 0 -256608087.46060181 559568761.08617783 0 0 0 0 -7055316.2929144502 -236021960.82476044 0 -236021960.82476044 565346346.0268631 0 0 0 0 94017956.756523609 -179213698.26921082 0 -179213698.26921082 614883122.76490784 0 0 0 0 81600.267413353547 69658.019512372091 0 69658.019512372091 199837.3725856021 0 0 0 0 34122971.857522786 -209427592.35317993 0 -209427592.35317993 453671530.97544861 0 0 0 0 34396999.210567743 -259567753.05953217 0 -259567753.05953217 626257787.26319695 0 0 0 0 120439631.19997025 -154558993.36309814 0 -154558993.36309814 293016633.07688141 0 0 0 0 -18138.440844647354 -12734.085095968097 0 -12734.085095968097 1819659.7914059591 0 0 0 0 -326988.53043235466 1508692.4921007156 0 1508692.4921007156 -1358907.2927932739 0 0 0 0 -33710319.595936537 -206487795.74099731 0 -206487795.74099731 455072521.35290146 0 0 0 0 -38475023.321473122 -159992240.00994492 0 -159992240.00994492 298347660.00398254 0 0 0 0 -123345793.61239955 -205946076.33937263 0 -205946076.33937263 553695164.40579224 0 0 0 0 -119770698.30970436 -179964444.19540787 0 -179964444.19540787 484704220.9888916 0 0 0 0 -31351869.687115312 -230721685.62154388 0 -230721685.62154388 430425356.59309387 0 0 0 0 -132695133.03170443 -130402321.98168564 0 -130402321.98168564 612419997.08866882 0 0 0 0 -178213722.72776747 -150219277.57376099 0 -150219277.57376099 613051050.21734619 0 0 0 0 -140478108.09013939 -99999953.243621826 0 -99999953.243621826 494128902.04483032 0 0 0 0 585301410.45171332 542452437.75301743 0 542452437.75301743 515943044.34303665 0 0 0 0 -145890917.99333382 -320908464.2169342 0 -320908464.2169342 1415690827.3040543 0 0 0 0 469745969.08300269 -689660297.9294914 0 -689660297.9294914 598349291.45759583 0 0 0 0 103711716.20847511 -220496556.52362061 0 -220496556.52362061 258022229.57564545 0 0 0 0 132221314.85215789 -276308824.02315331 0 -276308824.02315331 308219546.35717773 0 0 0 0 294835111.62118196 -181431109.35751724 0 -181431109.35751724 129829884.56206512 0 0 0 0 -99887812.251345873 -273128229.38075638 0 -273128229.38075638 665044164.68693352 0 0 0 0 -111263289.87015224 -220173359.75462723 0 -220173359.75462723 532492738.56962585 0 0 0 0 -9529466.7945426702 9908106.6849708557 0 9908106.6849708557 78730328.486366272 0 0 0 0 -62760124.064551592 -48439026.056182861 0 -48439026.056182861 504931467.09134102 0 0 0 0 -5945319.5284509659 -50042421.432975769 0 -50042421.432975769 22795761.862659454 0 0 0 0 25446321.936216354 -143015814.19387054 0 -143015814.19387054 328315643.19404602 0 0 0 0 92337843.739472389 6470568.9765806198 0 6470568.9765806198 54899275.859649658 0 0 0 0 -9862686.5740303993 40156637.582497597 0 40156637.582497597 -38706451.394439697 0 0 0 0 60733078.241096139 36275792.855329514 0 36275792.855329514 -56543242.119216919 0 0 0 0 -1934323.7165608194 -1128906.2608130444 0 -1128906.2608130444 2286852.0834838524 0 0 0 0 -73516607.962221146 -12788767.637962341 0 -12788767.637962341 785836.61381149292 0 0 0 0 -212946028.43635261 -32888925.064735413 0 -32888925.064735413 -1398804.832572937 0 0 0 0 -38051100.571267396 -33922134.564454079 0 -33922134.564454079 -9228153.6975402832 0 0 0 0 -775599.41290515871 263451.12711805105 0 263451.12711805105 581966.10057302937 0 0 0 0 17150665.616211146 -66470330.878389359 0 -66470330.878389359 9951160.8277130127 0 0 0 0 -220072155.94977903 -13818526.928199768 0 -13818526.928199768 69222385.009872437 0 0 0 0 -163186981.42292356 -69383334.308753967 0 -69383334.308753967 70168494.774482727 0 0 0 0 -200280156.77158618 -203596718.15570068 0 -203596718.15570068 328121794.30020142 0 0 0 0 -226751661.27760792 -115801918.45723343 0 -115801918.45723343 42681577.766189575 0 0 0 0 -64865691.513850689 -80743999.381984711 0 -80743999.381984711 -3883905.6152114868 0 0 0 0 -30045778.143407464 72801382.189956188 0 72801382.189956188 19266275.810470581 0 0 0 0 -350396917.58431202 126131276.38563818 0 126131276.38563818 652763153.02307129 0 0 0 0 -1787558.2821412105 -1190270.4438370559 0 -1190270.4438370559 2370654.178179821 0 0 0 0 -345709397.302248 313883641.55245972 0 313883641.55245972 58703307.672220588 0 0 0 0 34058733.855892658 -129430560.54953003 0 -129430560.54953003 383754885.9770813 0 0 0 0 643023.22707602382 -1980307.9676666809 0 -1980307.9676666809 1832529.3659018055 0 0 0 0 -114280149.87379646 -38371560.177841187 0 -38371560.177841187 15662945.145274401 0 0 0 0 59194404.270449162 84759798.684696198 0 84759798.684696198 13824292.980697632 0 0 0 0 451445284.09714377 -249487316.87801051 0 -249487316.87801051 -42482536.181762695 0 0 0 0 -121827082.66605544 -603134866.82421494 0 -603134866.82421494 1270858838.4730186 0 0 0 0 263703.69937999343 -703632.26602018252 0 -703632.26602018252 683924.72281452268 0 0 0 0 -80686472.967360765 327548092.57439423 0 327548092.57439423 1678014298.4388351 0 0 0 0 -100159822.54972291 -130249214.63299179 0 -130249214.63299179 920096596.57152557 0 0 0 0 -114704859.27055654 102603135.09492064 0 102603135.09492064 649804557.75376892 0 0 0 0 -20394088.516987801 -25917657.185520172 0 -25917657.185520172 -23565361.372283936 0 0 0 0 -63056687.639649868 -17997005.147190094 0 -17997005.147190094 32175429.027648926 0 0 0 0 -28070849.319464922 10692820.583409309 0 10692820.583409309 42913329.704483032 0 0 0 0 -40571370.70656991 -14185435.337597847 0 -14185435.337597847 17388571.574645996 0 0 0 0 -1718923.9424981391 536297.38521851227 0 536297.38521851227 2043435.8992177937 0 0 0 0 -3394257.8516294956 4982811.1300582886 0 4982811.1300582886 6363829.0038261414 0 0 0 0 2282177.854926921 -1154981.4875125773 0 -1154981.4875125773 739321.72026842833 0 0 0 0 630864.02715492249 4582546.8874740601 0 4582546.8874740601 7327350.7769527435 0 0 0 0 56716647.527711868 -385291720.6133461 0 -385291720.6133461 427227677.86165619 0 0 0 0 3123065.6671197163 -1528159.0629876032 0 -1528159.0629876032 1122782.7662838236 0 0 0 0 232814637.74559546 -93758406.393348694 0 -93758406.393348694 -150527095.36808014 0 0 0 0 7113511.369212985 -11227288.417692184 0 -11227288.417692184 3159909.4103622437 0 0 0 0 -1591869.1418464365 101097.5268301554 0 101097.5268301554 1702246.5089049283 0 0 0 0 -53909.744240811007 -162028.69508611783 0 -162028.69508611783 304367.87179534929 0 0 0 0 -52654962.325430155 103709804.29899597 0 103709804.29899597 240585157.41296959 0 0 0 0 999948.50398349762 3043562.1414871216 0 3043562.1414871216 -14300090.492683411 0 0 0 0 -124204102.13657308 146907487.30200958 0 146907487.30200958 603870798.95413232 0 0 0 0 -5385376.3416900337 2419698.9051742554 0 2419698.9051742554 13863146.711769104 0 0 0 0 -3331564.9364952445 3960091.0038452148 0 3960091.0038452148 845160.89158630371 0 0 0 0 -251659.34393382072 4346974.435760498 0 4346974.435760498 893267.54392433167 0 0 0 0 147383.40720844269 6766194.0586853027 0 6766194.0586853027 -4342390.5111618042 0 0 0 0 -707527.63260537386 -798388.62213897705 0 -798388.62213897705 -342735.89869689941 0 0 0 0 -3140941.2845686674 4726151.2670860291 0 4726151.2670860291 10712273.782287598 0 0 0 0 678597.22584676743 944207.03168106079 0 944207.03168106079 11226662.108858109 0 0 0 0 -3660693.5391788185 5186562.4181098938 0 5186562.4181098938 18829213.429229736 0 0 0 0 -4050478.4960670471 5570472.3809776306 0 5570472.3809776306 14776306.215173721 0 0 0 0 -6688212.5450593829 4027683.5829372406 0 4027683.5829372406 33107265.707122803 0 0 0 0 -1420672.5663637519 -16285867.456325531 0 -16285867.456325531 44382570.299249649 0 0 0 0 3431982.7136069536 -4666992.1329803467 0 -4666992.1329803467 19773498.754592896 0 0 0 0 -3054318.4341530204 57066.067024230957 0 57066.067024230957 16125136.659294128 0 0 0 0 -4944828.5367303491 -1716138.0278549194 0 -1716138.0278549194 24761355.802787781 0 0 0 0 -4098211.38512218 -455579.65696716309 0 -455579.65696716309 18453536.982154846 0 0 0 0 -3813332.6719956845 -1030545.0076446533 0 -1030545.0076446533 15755580.754714966 0 0 0 0 -3450330.6097391099 -15375.573516845703 0 -15375.573516845703 15380419.279060364 0 0 0 0 -556755.09762609005 1697984.6907196045 0 1697984.6907196045 7385806.0117549896 0 0 0 0 -1546160.1785920556 882225.20375187136 0 882225.20375187136 2610739.0170977637 0 0 0 0 36944258.127081871 77457384.041927338 0 77457384.041927338 -68541920.576915741 0 0 0 0 -50786765.245764732 40117038.241615295 0 40117038.241615295 -5893200.5377998352 0 0 0 0 26742523.973384857 -13047274.016082764 0 -13047274.016082764 -25411646.310211182 0 0 0 0 -16702870.610805511 -49983948.1130867 0 -49983948.1130867 -15732811.734775543 0 0 0 0 -1643693.2296214865 776913.35074814595 0 776913.35074814595 2308936.3712709695 0 0 0 0 -3393876.2193376422 -1032680.4339790344 0 -1032680.4339790344 16211021.703521729 0 0 0 0 -1622716.7576049566 -5074074.5143737793 0 -5074074.5143737793 21548530.802581787 0 0 0 0 -1679593.8779020309 -4226905.1259613037 0 -4226905.1259613037 20132590.833024979 0 0 0 0 -1124802.7744107246 -4714086.7744674683 0 -4714086.7744674683 21562667.846038818 0 0 0 0 -1984770.9776432514 -5068026.2366847992 0 -5068026.2366847992 23236198.672515869 0 0 0 0 2682019.1677136421 -5153754.5817718506 0 -5153754.5817718506 21582181.259124756 0 0 0 0 8162904.6838941574 -9657465.8652038574 0 -9657465.8652038574 23987481.270507812 0 0 0 0 742746.4366350174 -3962104.9976654053 0 -3962104.9976654053 21533910.948104858 0 0 0 0 2116962.996673584 -4856376.5846252441 0 -4856376.5846252441 21425260.25769043 0 0 0 0 921067.58976750076 -6212415.2300930023 0 -6212415.2300930023 23440213.879577637 0 0 0 0 30969981.810943604 -10084014.064590454 0 -10084014.064590454 -117273345.08229065 0 0 0 0 4114655.0042210817 -7898650.2614440918 0 -7898650.2614440918 23812529.514801025 0 0 0 0 1125637.3243398666 -5928961.383972168 0 -5928961.383972168 24932187.414199829 0 0 0 0 -1452413.5085065975 643648.84929280169 0 643648.84929280169 4159701.2205006219 0 0 0 0 689113.47884178162 -12118019.540802002 0 -12118019.540802002 34413518.790924072 0 0 0 0 -1623331.1845002174 -9283948.5187683105 0 -9283948.5187683105 36656448.392959595 0 0 0 0 -36978.378361844167 220058.24771017767 0 220058.24771017767 -638367.1377553679 0 0 0 0 23988156.596618652 48903761.603088379 0 48903761.603088379 -106389756.88397217 0 0 0 0 7045970.3695173264 -8211372.0711669922 0 -8211372.0711669922 22578958.850715637 0 0 0 0 2027279.1602811813 -5576709.6552581787 0 -5576709.6552581787 23448786.870513916 0 0 0 0 4252597.9063851833 -10845011.172515869 0 -10845011.172515869 26648843.224853516 0 0 0 0 4874413.9117355347 -10931145.79598999 0 -10931145.79598999 25702303.746307373 0 0 0 0 1888515.6533064842 -8432818.5885925293 0 -8432818.5885925293 27009675.504135132 0 0 0 0 2215286.0409991741 -11210257.568519592 0 -11210257.568519592 28760774.365356445 0 0 0 0 2503907.4188513756 -9731257.3494338989 0 -9731257.3494338989 28137787.13079834 0 0 0 0 -74968.295785427094 -7409830.324005127 0 -7409830.324005127 32111729.243721008 0 0 0 0 1210053.5281968117 -6785879.5786743164 0 -6785879.5786743164 26258150.299118042 0 0 0 0 684203.13952541351 -10160096.497741699 0 -10160096.497741699 31910150.336177826 0 0 0 0 -353820.52823376656 -5816113.7309799194 0 -5816113.7309799194 29958170.328186035 0 0 0 0 80976.660849094391 -9105290.0439758301 0 -9105290.0439758301 30156993.881958008 0 0 0 0 2927027.2444493771 -12422521.440345764 0 -12422521.440345764 30527946.53604126 0 0 0 0 38502376.825126648 25453686.197998047 0 25453686.197998047 -95079279.118638039 0 0 0 0 30150489.655731201 41366801.458343506 0 41366801.458343506 -73456419.127891541 0 0 0 0 20169462.40549469 14006479.065689087 0 14006479.065689087 -31380920.139526367 0 0 0 0 25129338.959911346 9744726.2347869873 0 9744726.2347869873 -54488570.258789062 0 0 0 0 26336349.095943451 11050787.669372559 0 11050787.669372559 -79761489.598995209 0 0 0 0 26250979.307563782 -17264957.076873779 0 -17264957.076873779 -95782008.251706123 0 0 0 0 18608342.220058441 -13641177.127166748 0 -13641177.127166748 -74428566.124633789 0 0 0 0 -5144418.8151893616 -46215696.365188599 0 -46215696.365188599 -101119091.74215698 0 0 0 0 -26696630.719696045 -53661590.270629883 0 -53661590.270629883 -84877024.988586426 0 0 0 0 8817134.6824992895 -11853038.611537933 0 -11853038.611537933 24961338.149963379 0 0 0 0 6011360.7848815918 -13754188.179138184 0 -13754188.179138184 27764657.214599609 0 0 0 0 -2927773.8459033966 13635249.614562988 0 13635249.614562988 -29489479.822723389 0 0 0 0 -73161206.339082718 -30203207.914428711 0 -30203207.914428711 -41950842.109191895 0 0 0 0 -9764187.5282158852 5690914.9129943848 0 5690914.9129943848 22445445.568328857 0 0 0 0 -11634171.067908287 -1362539.7779388428 0 -1362539.7779388428 28467628.98008728 0 0 0 0 -87715778.193588257 58003404.470458984 0 58003404.470458984 -36257773.487060547 0 0 0 0 -111759800.97216988 16204883.118782043 0 16204883.118782043 -21342246.858276367 0 0 0 0 -2456337.3915100098 -6486200.0484008789 0 -6486200.0484008789 38250455.212814331 0 0 0 0 -1706119.9065666199 -1479894.2216186523 0 -1479894.2216186523 39458344.6743927 0 0 0 0 -1112391.1079027653 -5865780.0915985107 0 -5865780.0915985107 34210590.361022949 0 0 0 0 -44902826.375724792 72785342.742858887 0 72785342.742858887 -51737122.86529541 0 0 0 0 16712210.538192123 29114716.466116071 0 29114716.466116071 -28479650.847290039 0 0 0 0 16815678.505493164 40858178.602523804 0 40858178.602523804 -61780369.977478027 0 0 0 0 -28281837.746124268 48433511.343719482 0 48433511.343719482 -12266254.362579346 0 0 0 0 14314406.216686249 43717437.746185303 0 43717437.746185303 -50802558.187347412 0 0 0 0 -20145994.961162567 71205168.222442627 0 71205168.222442627 -56271322.40959549 0 0 0 0 -28766929.296359062 39428023.273426056 0 39428023.273426056 -30889315.45892334 0 0 0 0 -35049227.647254944 14201922.927261353 0 14201922.927261353 -21689535.154968262 0 0 0 0 -54967791.464733124 36808478.28793335 0 36808478.28793335 -15248306.326843262 0 0 0 0 -7972914.4841461182 23695917.167327881 0 23695917.167327881 -14997338.847486496 0 0 0 0 -33147918.408613205 14089167.769226074 0 14089167.769226074 24499650.620819092 0 0 0 0 -887735.96032714844 5758380.4307250977 0 5758380.4307250977 -7513208.370759964 0 0 0 0 -6591634.5769557953 -17960468.831466675 0 -17960468.831466675 -40665194.801116943 0 0 0 0 -57696799.769020081 1591599.8277282715 0 1591599.8277282715 -7157689.7456855774 0 0 0 0 2101925.4048595428 24092263.102050781 0 24092263.102050781 74982651.342636108 0 0 0 0 -18921271.713591576 -8284548.1025314331 0 -8284548.1025314331 135047762.15794373 0 0 0 0 5060595.8533287048 -1061109.7295379639 0 -1061109.7295379639 28050551.041324615 0 0 0 0 -18706768.107966423 25850594.455589294 0 25850594.455589294 46843832.968658447 0 0 0 0 -861550.86821937561 -2419252.6278686523 0 -2419252.6278686523 62859985.434570312 0 0 0 0 -14518409.635088921 2210755.8703231812 0 2210755.8703231812 119859894.49981689 0 0 0 0 799806.52074813843 38662351.963928223 0 38662351.963928223 -18225111.62399292 0 0 0 0 7622306.942035675 15197434.354431152 0 15197434.354431152 9078858.8957824707 0 0 0 0 4476365.4334793091 7095741.1835632324 0 7095741.1835632324 28193647.732574463 0 0 0 0 8755901.0136380196 15701669.888336182 0 15701669.888336182 -28247138.732940674 0 0 0 0 1940688.8311347961 646412.08164978027 0 646412.08164978027 37790016.449157715 0 0 0 0 6008925.3318920135 -7759179.2229919434 0 -7759179.2229919434 25302091.958282471 0 0 0 0 -22745989.253746986 -29806772.704597473 0 -29806772.704597473 181668073.73214722 0 0 0 0 -14237745.544168472 -37167554.19543457 0 -37167554.19543457 129273618.57204056 0 0 0 0 -5992597.8366861343 -7271775.1622619629 0 -7271775.1622619629 135084918.51922607 0 0 0 0 -33676820.274364471 -20742112.139312744 0 -20742112.139312744 237110039.16149902 0 0 0 0 -72107494.605512619 -21829578.248245239 0 -21829578.248245239 -882054.28234863281 0 0 0 0 -12033722.673084259 -13679735.442657471 0 -13679735.442657471 -4184231.7391357422 0 0 0 0 -27136365.938282013 -32409944.065002441 0 -32409944.065002441 23949456.472900391 0 0 0 0 -40073448.323711395 3583061.2823791504 0 3583061.2823791504 16877579.990467072 0 0 0 0 -51018930.483455658 -52902495.81463623 0 -52902495.81463623 -46755107.241210938 0 0 0 0 -39184034.412265778 -33123865.988052368 0 -33123865.988052368 -13787894.070739746 0 0 0 0 -9429126.8440666199 -26143593.261138916 0 -26143593.261138916 -41264982.486206055 0 0 0 0 -2479802.6368017197 -35574904.61933136 0 -35574904.61933136 -59873143.459533691 0 0 0 0 11482629.801135063 -24861949.648151398 0 -24861949.648151398 -42657755.855743408 0 0 0 0 6011443.7813949585 -11958372.093902588 0 -11958372.093902588 -24410258.60748291 0 0 0 0 11085423.435283661 -18209829.065490723 0 -18209829.065490723 12510787.541229248 0 0 0 0 14361613.672679901 -5732431.4096984863 0 -5732431.4096984863 -21452862.978103638 0 0 0 0 -7803035.4727172852 -25020891.467697144 0 -25020891.467697144 27103852.038116455 0 0 0 0 6350625.4602432251 -27264676.756790161 0 -27264676.756790161 25744801.900405884 0 0 0 0 -1580065.4152088165 -35417031.027420044 0 -35417031.027420044 -19539811.533203125 0 0 0 0 -16780238.251005173 -44652003.943069458 0 -44652003.943069458 89726598.872573853 0 0 0 0 -2122082.5644569397 -38654801.247314453 0 -38654801.247314453 96751410.859809875 0 0 0 0 -9339745.5771884918 -39777966.490219116 0 -39777966.490219116 96594074.627258301 0 0 0 0 -19249462.903396606 -56594775.667724609 0 -56594775.667724609 167636519.74710083 0 0 0 0 2969769.2945013046 -45504224.937789917 0 -45504224.937789917 88443632.491882324 0 0 0 0 3395849.6979923248 -85881150.745422363 0 -85881150.745422363 144803777.61708069 0 0 0 0 17386153.10152626 -65043011.012954712 0 -65043011.012954712 80651452.713623047 0 0 0 0 9481823.5281486511 -40454676.782165527 0 -40454676.782165527 16705576.248130798 0 0 0 0 -3619106.7922286987 -7627636.9868469238 0 -7627636.9868469238 13592570.925628662 0 0 0 0 45757679.778108597 -117914252.72031403 0 -117914252.72031403 167083111.58093262 0 0 0 0 -4245535.4813888073 -46553706.19412899 0 -46553706.19412899 127590300.29751587 0 0 0 0 -25445453.182439804 -71332152.04863739 0 -71332152.04863739 212446921.48924255 0 0 0 0 -11602303.678590775 -67264924.684738159 0 -67264924.684738159 165931887.96380424 0 0 0 0 -8189426.6289768219 -113910376.82621002 0 -113910376.82621002 225247216.37371826 0 0 0 0 -48452789.701825142 -115496273.06682587 0 -115496273.06682587 346748544.24710083 0 0 0 0 -60228926.569067001 -127072614.961586 0 -127072614.961586 342301757.39742661 0 0 0 0 -14665315.804390907 -117857034.07824707 0 -117857034.07824707 276694129.06289673 0 0 0 0 12399077.390432358 -173891491.78435516 0 -173891491.78435516 281031253.90568542 0 0 0 0 -46333656.301599503 -46905720.997846603 0 -46905720.997846603 313844491.53285217 0 0 0 0 -31990726.968647957 -34689680.231311798 0 -34689680.231311798 229808197.44807434 0 0 0 0 -41641276.66668129 -69536478.670982361 0 -69536478.670982361 244352895.25376892 0 0 0 0 -53708158.798013687 -75201535.199020386 0 -75201535.199020386 324664891.82673645 0 0 0 0 -28288674.384254456 -84344708.983562469 0 -84344708.983562469 227826822.3392334 0 0 0 0 -79761690.239757538 -65745070.471710205 0 -65745070.471710205 335353185.44122314 0 0 0 0 -79207121.241256714 -133959465.28623199 0 -133959465.28623199 447009607.28096771 0 0 0 0 -89242383.227294922 -57512404.083368301 0 -57512404.083368301 484305389.48617554 0 0 0 0 -104713432.90577602 -133835457.69177246 0 -133835457.69177246 493794828.39893341 0 0 0 0 -107518770.26501536 -128861044.27881479 0 -128861044.27881479 502220638.66290283 0 0 0 0 -109797391.31882 -146186453.55024719 0 -146186453.55024719 484925478.006073 0 0 0 0 -108284865.88055003 -121673477.39732885 0 -121673477.39732885 467976310.5447998 0 0 0 0 -112950190.54640865 -136020577.42856979 0 -136020577.42856979 505666813.17563629 0 0 0 0 -34485507.648839951 -196093203.89429474 0 -196093203.89429474 447009611.98603439 0 0 0 0 -35586662.86083436 -192603106.29336452 0 -192603106.29336452 457061830.1438446 0 0 0 0 -57190625.174690247 -160420111.30243301 0 -160420111.30243301 439952638.39175415 0 0 0 0 -114557108.57872486 -89778718.480651855 0 -89778718.480651855 533315984.57556152 0 0 0 0 -109200815.34780002 -155761308.55739021 0 -155761308.55739021 567345513.03860474 0 0 0 0 -22021616.213576317 -285077019.61035156 0 -285077019.61035156 558859513.65225983 0 0 0 0 4893714.0118255615 -404919251.39151764 0 -404919251.39151764 1085990914.559617 0 0 0 0 112867286.55636072 -85847356.224557877 0 -85847356.224557877 192149002.84179688 0 0 0 0 404207810.12274265 -419003857.03993225 0 -419003857.03993225 247352924.65963745 0 0 0 0 45614704.94625473 -241752017.92282486 0 -241752017.92282486 418307343.92181396 0 0 0 0 47555450.549597979 25736493.23843956 0 25736493.23843956 73339116.93031311 0 0 0 0 170743349.68796062 -173700184.86027908 0 -173700184.86027908 194570108.39537048 0 0 0 0 36311949.557945728 -74457490.917662144 0 -74457490.917662144 107527294.69644165 0 0 0 0 27965999.259059906 -54784971.591438293 0 -54784971.591438293 163296028.83184624 0 0 0 0 12844987.869663239 58959384.648223877 0 58959384.648223877 -12545345.025737762 0 0 0 0 162290761.83308029 -106488622.95996857 0 -106488622.95996857 62958111.594208241 0 0 0 0 13396718.930100441 30157167.752815247 0 30157167.752815247 27490455.835632324 0 0 0 0 218179847.14841843 -123537632.23806763 0 -123537632.23806763 -133672701.2345314 0 0 0 0 758888.30736319488 -468790.49736549519 0 -468790.49736549519 295925.72788783209 0 0 0 0 -191112701.29206467 -274564170.13653564 0 -274564170.13653564 1672978207.7486782 0 0 0 0 -95480643.105501935 17855888.903728962 0 17855888.903728962 1108634283.6601257 0 0 0 0 65916584.399468422 -76479448.891967773 0 -76479448.891967773 771925994.215415 0 0 0 0 87809971.65602684 -425485068.3868103 0 -425485068.3868103 627666944.95841217 0 0 0 0 -12933359.829577446 30758160.967735291 0 30758160.967735291 533233722.73062134 0 0 0 0 622120.74778366089 167268920.46289825 0 167268920.46289825 1035375903.7960072 0 0 0 0 643746772.65387917 -475358862.37973022 0 -475358862.37973022 845491594.55254364 0 0 0 0 45271.242884293897 -219433.48822893202 0 -219433.48822893202 115628.18016888574 0 0 0 0 20948404.668411255 140292973.37457275 0 140292973.37457275 279646410.76765442 0 0 0 0 -40825066.621058464 41287858.446678162 0 41287858.446678162 540085564.45690918 0 0 0 0 75402797.06139946 58570985.903839111 0 58570985.903839111 78862175.51725769 0 0 0 0 20649860.491908014 129746185.20823216 0 129746185.20823216 -22700340.530151367 0 0 0 0 -5287588.8561477661 -39412926.797233582 0 -39412926.797233582 23867753.428939819 0 0 0 0 39491688.715342522 7187548.2440013885 0 7187548.2440013885 36202797.452514648 0 0 0 0 73111387.0383358 -33562610.820404053 0 -33562610.820404053 83968751.43951416 0 0 0 0 -59575105.586220741 10370245.141456604 0 10370245.141456604 3868152.813659668 0 0 0 0 43801934.689922094 28953813.559358239 0 28953813.559358239 205178370.92099762 0 0 0 0 -219654.40512560541 -749173.27442193124 0 -749173.27442193124 445259.41514999419 0 0 0 0 -33186908.95377636 -38439172.596260071 0 -38439172.596260071 8852668.4090995789 0 0 0 0 -375215.57876095595 -718972.57509279437 0 -718972.57509279437 1976851.8324823957 0 0 0 0 1152180572.678441 -779441365.45669556 0 -779441365.45669556 730481910.85180664 0 0 0 0 -33279656.663094521 1800376.7319412231 0 1800376.7319412231 29800228.181861877 0 0 0 0 53236909.03792572 -36075770.058963776 0 -36075770.058963776 27709926.080581665 0 0 0 0 4145.4392050402239 -379582.53541205358 0 -379582.53541205358 818538.42692465521 0 0 0 0 78574741.784855843 17040430.953983307 0 17040430.953983307 -28424491.047142029 0 0 0 0 -330371398.42918444 992301709.79538345 0 992301709.79538345 -160871314.88761902 0 0 0 0 294245.09685682302 -606400.46529350802 0 -606400.46529350802 1180708.029144913 0 0 0 0 392808834.48382711 -192912855.23366547 0 -192912855.23366547 -247419017.53057861 0 0 0 0 394624861.65729904 -451130151.22953415 0 -451130151.22953415 108133690.5322876 0 0 0 0 352982264.90147781 -377325100.04663086 0 -377325100.04663086 -17393208.146774292 0 0 0 0 61027726.961575508 -479101992.71074677 0 -479101992.71074677 592691286.49625397 0 0 0 0 -169348248.93602371 -93845134.773155212 0 -93845134.773155212 136904296.72967529 0 0 0 0 79613076.995387077 -71367479.504547119 0 -71367479.504547119 -23053134.052932739 0 0 0 0 79945230.586258024 -34032200.49629426 0 -34032200.49629426 -65300450.319763184 0 0 0 0 274451791.21105814 -163905833.48060989 0 -163905833.48060989 20889174.482215881 0 0 0 0 231090964.65072346 6961522.5461235046 0 6961522.5461235046 -29266762.45552063 0 0 0 0 184123561.32958674 -66158550.836799622 0 -66158550.836799622 -14623230.046691895 0 0 0 0 145105500.79277992 -106890736.10521317 0 -106890736.10521317 -48818415.391769409 0 0 0 0 168671470.27448082 -20797357.716033936 0 -20797357.716033936 -23762035.407623291 0 0 0 0 103131882.73481369 -194847.1639251709 0 -194847.1639251709 -14255762.125144958 0 0 0 0 133852790.73101377 -46324096.404941559 0 -46324096.404941559 -3397118.6027526855 0 0 0 0 87633612.667014122 -72619409.432098389 0 -72619409.432098389 39620807.131790161 0 0 0 0 66036666.509672165 -116781674.36238861 0 -116781674.36238861 38919451.284759521 0 0 0 0 85230043.485518456 -70864132.120254517 0 -70864132.120254517 88261218.279060364 0 0 0 0 58806051.527854443 -150910943.7933979 0 -150910943.7933979 -97992447.006072998 0 0 0 0 -33264643.773113251 -117633617.10474586 0 -117633617.10474586 260985125.38659668 0 0 0 0 25175097.46029377 -105428078.62346649 0 -105428078.62346649 110399908.67962646 0 0 0 0 79231732.161491394 -1383231.3651428223 0 -1383231.3651428223 112518822.36746979 0 0 0 0 42976483.634931564 -25987460.762775421 0 -25987460.762775421 244103136.28838348 0 0 0 0 47868580.816514969 40749644.588256836 0 40749644.588256836 301061325.00976944 0 0 0 0 56701487.124334812 -27256094.131637573 0 -27256094.131637573 141506293.66447449 0 0 0 0 -15695539.083293915 22559387.355514526 0 22559387.355514526 307109165.10118103 0 0 0 0 -35787430.416843414 8402645.5846290588 0 8402645.5846290588 465338202.0848465 0 0 0 0 -18156668.99780941 -88433349.244941711 0 -88433349.244941711 288741530.05456161 0 0 0 0 -102621429.0103817 -110643714.02259064 0 -110643714.02259064 500503687.57225037 0 0 0 0 -113132079.61133003 -61000844.035079956 0 -61000844.035079956 847662982.27264404 0 0 0 0 -18361611.466781616 -168326560.17689514 0 -168326560.17689514 377918839.84687424 0 0 0 0 -22544436.091544092 -63697202.697920322 0 -63697202.697920322 286119881.7731781 0 0 0 0 -100632822.6889143 -115770671.78530407 0 -115770671.78530407 504497703.27184296 0 0 0 0 -13373098.818630219 -178842736.64602661 0 -178842736.64602661 384234887.01215363 0 0 0 0 163154586.20782089 -131838420.88856125 0 -131838420.88856125 137747821.90560913 0 0 0 0 192335904.8054409 -249538802.72222519 0 -249538802.72222519 245167027.95140457 0 0 0 0 34749633.766613483 -67699858.319229126 0 -67699858.319229126 162699283.56081772 0 0 0 0 -363268785.14102745 -151892192.43069553 0 -151892192.43069553 -32282659.754417419 0 0 0 0 973887.93802935118 652571.84167560469 0 652571.84167560469 365422.55284567177 0 0 0 0 71335279.64738965 -74951171.530925751 0 -74951171.530925751 117794019.9780159 0 0 0 0 -67748939.625818729 -31661299.450309753 0 -31661299.450309753 -9063895.2725524902 0 0 0 0 99517.174342670478 248738.5701514408 0 248738.5701514408 398372.04861934669 0 0 0 0 590069.66308692959 1115856.5815333594 0 1115856.5815333594 2210692.1801992729 0 0 0 0 1056799.6105936766 926577.54309272766 0 926577.54309272766 1174861.5231781006 0 0 0 0 535529.34622859955 4653769.4821434021 0 4653769.4821434021 6597312.4151802063 0 0 0 0 -133159.2415741838 349409.7976924954 0 349409.7976924954 413515.53481967933 0 0 0 0 -167218139.45467234 -147008302.77671134 0 -147008302.77671134 -29018898.390258789 0 0 0 0 1009369.878411606 924451.54768818617 0 924451.54768818617 678228.18343353271 0 0 0 0 2156508.3277690476 1791110.8676908538 0 1791110.8676908538 1724678.7991402615 0 0 0 0 1012968.1676824093 839897.72821426392 0 839897.72821426392 1241583.9864959717 0 0 0 0 12797472.650556564 -120981167.04920578 0 -120981167.04920578 -106633307.74780273 0 0 0 0 1102608.362313509 866461.7670917511 0 866461.7670917511 1241379.8134078979 0 0 0 0 2362059.6984180985 1185956.6403358523 0 1185956.6403358523 1566385.2578842519 0 0 0 0 72375268.874486923 -18463697.314476013 0 -18463697.314476013 -216953253.45784378 0 0 0 0 3265848.5431890488 -80215415.415996552 0 -80215415.415996552 -272130459.72779083 0 0 0 0 440448105.60826778 -142112434.24703979 0 -142112434.24703979 -264013846.56201363 0 0 0 0 161515331.40913534 92295204.061975479 0 92295204.061975479 -13509257.165412903 0 0 0 0 -16008706.466126442 -379193319.5887661 0 -379193319.5887661 -41922380.38117981 0 0 0 0 683106792.97754955 -344334243.8998909 0 -344334243.8998909 -57168523.129980087 0 0 0 0 897296259.67443681 418199726.21904945 0 418199726.21904945 111044846.18678284 0 0 0 0 162674584.39600182 -766133277.21401978 0 -766133277.21401978 1496825627.453392 0 0 0 0 923039261.83679724 -441824773.93843365 0 -441824773.93843365 44249964.796646118 0 0 0 0 28803.009427728597 -852608.21566728922 0 -852608.21566728922 1631296.9994855672 0 0 0 0 776179336.58475304 -912593247.08294201 0 -912593247.08294201 539574475.15396118 0 0 0 0 308177946.08896255 16141614.03817749 0 16141614.03817749 -216017512.15746307 0 0 0 0 340994246.08664227 -467765681.55548096 0 -467765681.55548096 199994286.86370087 0 0 0 0 530062479.07908058 -425187603.62246704 0 -425187603.62246704 48481052.301139832 0 0 0 0 122103476.33731222 455002202.3217392 0 455002202.3217392 1054750792.5202255 0 0 0 0 264972170.23648739 182372839.23445892 0 182372839.23445892 61205843.47102356 0 0 0 0 260753.44346070907 166167.50343847321 0 166167.50343847321 413039.65602388233 0 0 0 0 -976530680.82769775 144471778.1877327 0 144471778.1877327 1542571893.9154968 0 0 0 0 -175986975.44013977 -15785825.139305115 0 -15785825.139305115 1270149656.8640099 0 0 0 0 468388910.17408085 -654506351.10442257 0 -654506351.10442257 805408458.39193726 0 0 0 0 -116874001.07271481 -158106011.15990448 0 -158106011.15990448 710051409.69897461 0 0 0 0 88274428.327495098 -348618794.24685097 0 -348618794.24685097 527784109.74661255 0 0 0 0 -72371336.57217598 -24259043.660812378 0 -24259043.660812378 541367862.57432556 0 0 0 0 -73921110.393908501 -14172959.7758255 0 -14172959.7758255 551606604.00978851 0 0 0 0 5150323.8916244507 111439443.83826065 0 111439443.83826065 294912005.5844574 0 0 0 0 -59185176.738912582 -13156214.0652771 0 -13156214.0652771 342818002.17172241 0 0 0 0 51919712.448099136 358348151.51582336 0 358348151.51582336 841554949.95928955 0 0 0 0 -55996066.244242668 -78603210.2921772 0 -78603210.2921772 711354278.51469421 0 0 0 0 7897353.7731723785 183251232.28388977 0 183251232.28388977 579147121.60498047 0 0 0 0 15036806.339362621 95427452.175415039 0 95427452.175415039 232220970.29585266 0 0 0 0 93822110.842125893 121166088.30911636 0 121166088.30911636 209277610.20941925 0 0 0 0 11119412.358861923 107606192.54457092 0 107606192.54457092 227828756.06349182 0 0 0 0 63598267.590939522 133759157.0055809 0 133759157.0055809 -28900711.373596191 0 0 0 0 61818968.558817863 88226399.001357079 0 88226399.001357079 124109119.46220398 0 0 0 0 80807597.990802765 32041206.077857971 0 32041206.077857971 -348180.34135437012 0 0 0 0 39351310.384471893 17056689.785629272 0 17056689.785629272 26389432.651489258 0 0 0 0 48541012.417808533 16329976.507980347 0 16329976.507980347 7701555.316619873 0 0 0 0 51193571.187231064 -26201574.443000793 0 -26201574.443000793 -36926180.718231201 0 0 0 0 65084867.884211779 -64456798.486086845 0 -64456798.486086845 -134808406.76841736 0 0 0 0 -82161878.597613335 -98699852.272697449 0 -98699852.272697449 -34932450.534889221 0 0 0 0 -18370651.433462143 30285642.480628967 0 30285642.480628967 258603017.28370667 0 0 0 0 19598259.335172653 13403449.764308929 0 13403449.764308929 142569643.66755676 0 0 0 0 8739703.566324234 36159715.296882629 0 36159715.296882629 209126199.29158401 0 0 0 0 -4897110.6972122192 48334708.589431763 0 48334708.589431763 280743356.47753143 0 0 0 0 50945512.368370533 23688727.118965149 0 23688727.118965149 33193701.40802002 0 0 0 0 41980905.630279541 -2900521.3127746582 0 -2900521.3127746582 42210470.936851501 0 0 0 0 7124838.5573863983 22928715.467414856 0 22928715.467414856 140463055.91791725 0 0 0 0 15996858.998204231 -8915908.7793083191 0 -8915908.7793083191 45094229.428497314 0 0 0 0 -1648868.8772758795 644635.68599039502 0 644635.68599039502 5317158.3595157228 0 0 0 0 33830500.514129639 -8938185.9528198242 0 -8938185.9528198242 -84177519.429813385 0 0 0 0 -3743082.408434391 5008680.7698822021 0 5008680.7698822021 10896649.075157166 0 0 0 0 27044677.39421463 10647896.162857056 0 10647896.162857056 -81920779.346605301 0 0 0 0 25595539.856653214 -19674848.995674133 0 -19674848.995674133 -51156815.004516602 0 0 0 0 1877283.3728237152 -3214137.4972381592 0 -3214137.4972381592 -15362376.061431885 0 0 0 0 -3273785.3339517117 -18737436.759589195 0 -18737436.759589195 -6779988.9538574219 0 0 0 0 10678067.191085815 11826266.64692688 0 11826266.64692688 35363010.025039673 0 0 0 0 38870550.619548798 -5314255.1023254395 0 -5314255.1023254395 -18182771.275665283 0 0 0 0 37625393.901000977 -1791287.8631286621 0 -1791287.8631286621 -58787864.91545105 0 0 0 0 27788022.010995865 -5214284.2470550537 0 -5214284.2470550537 -18098818.542358398 0 0 0 0 35410394.633804321 -7716341.890838623 0 -7716341.890838623 -51958781.681808472 0 0 0 0 39484986.928095341 -10756225.432361603 0 -10756225.432361603 -43878913.845336914 0 0 0 0 30286769.046859741 374054.94976806641 0 374054.94976806641 -46609662.830757141 0 0 0 0 42821256.329566956 405159.44967651367 0 405159.44967651367 -48782962.644668579 0 0 0 0 27186668.690036774 -7902769.9728240967 0 -7902769.9728240967 23279168.679767609 0 0 0 0 39950285.779565811 3993926.2924804688 0 3993926.2924804688 -24087800.236663818 0 0 0 0 36005691.583781242 -18875882.661684036 0 -18875882.661684036 -21036178.302124023 0 0 0 0 29012179.411151886 -1660371.7917633057 0 -1660371.7917633057 -54625840.630401611 0 0 0 0 22295796.141372681 -11139159.633377075 0 -11139159.633377075 -39112913.177581787 0 0 0 0 35619264.680028915 -1349162.1656188965 0 -1349162.1656188965 -54982444.570800781 0 0 0 0 25605249.598800659 253770.55921936035 0 253770.55921936035 -54277490.189239502 0 0 0 0 35435549.329267502 8941654.7550888062 0 8941654.7550888062 -68382532.147949219 0 0 0 0 43094937.801441193 -3493028.9516296387 0 -3493028.9516296387 -67217178.444274902 0 0 0 0 1842575.3050174713 -30003561.768890381 0 -30003561.768890381 -76627673.996551514 0 0 0 0 -25423735.654037476 -18853603.047592163 0 -18853603.047592163 -8607553.9777832031 0 0 0 0 -41814937.58134532 -21267632.526256561 0 -21267632.526256561 9073966.4082489014 0 0 0 0 -5853263.9187245369 -34770327.166677475 0 -34770327.166677475 -16827969.261810303 0 0 0 0 -37076611.646471024 -46088686.336349487 0 -46088686.336349487 -15888183.914627075 0 0 0 0 13637863.896837234 -48854840.738670349 0 -48854840.738670349 -23688776.607635498 0 0 0 0 7100004.1030216217 -28744917.267120361 0 -28744917.267120361 -17234712.391998291 0 0 0 0 23147157.796562195 -5053221.8698425293 0 -5053221.8698425293 -35361591.957992554 0 0 0 0 21237054.41934967 -32828427.386932373 0 -32828427.386932373 -28667188.535858154 0 0 0 0 -8038188.6328778267 -22333343.767959595 0 -22333343.767959595 -29397084.544677734 0 0 0 0 -5141764.1425666809 -19038194.885482788 0 -19038194.885482788 -27152659.429794312 0 0 0 0 -14755352.882514954 17898580.941116333 0 17898580.941116333 -51233329.118209839 0 0 0 0 -16794839.972846985 -12670590.256896973 0 -12670590.256896973 -30355718.963409424 0 0 0 0 3250669.1371994019 -472218.73385620117 0 -472218.73385620117 -44135204.758880615 0 0 0 0 8951541.5376930237 -6488790.2249908447 0 -6488790.2249908447 -40237167.424255371 0 0 0 0 9434891.1611404419 9306456.0561523438 0 9306456.0561523438 -58414578.79750061 0 0 0 0 -14684009.544425964 1776428.3096923828 0 1776428.3096923828 -39558051.291313171 0 0 0 0 -14197314.969593048 -18895588.885559082 0 -18895588.885559082 -29210618.897216797 0 0 0 0 -35642965.800697327 4563391.5921325684 0 4563391.5921325684 -34458470.140930176 0 0 0 0 -34259265.429813385 -11484763.141891479 0 -11484763.141891479 -21472589.342674255 0 0 0 0 -10338908.688930511 -9076620.9435882568 0 -9076620.9435882568 -29347438.439941406 0 0 0 0 -25604594.119439125 -21220697.080116272 0 -21220697.080116272 -19145454.161590576 0 0 0 0 -21150879.734696388 -24042586.499801636 0 -24042586.499801636 -20102048.663909912 0 0 0 0 -1339550.4554427604 660477.2174003087 0 660477.2174003087 3302092.3432216756 0 0 0 0 -705976023.34296036 24106500.291404724 0 24106500.291404724 30919071.798324585 0 0 0 0 -1901749.013391475 -845308.87940401305 0 -845308.87940401305 4817636.9678768031 0 0 0 0 -442594105.80172729 89907254.088085175 0 89907254.088085175 -73175037.580467224 0 0 0 0 219925244.2521162 -215595839.65381241 0 -215595839.65381241 108681719.56575775 0 0 0 0 -719594111.27907491 236978876.03261471 0 236978876.03261471 21327114.265731812 0 0 0 0 129823669.77977943 -234956603.42054749 0 -234956603.42054749 178822850.65647888 0 0 0 0 -952863.41011403059 -979651.50454070745 0 -979651.50454070745 749561.08430866338 0 0 0 0 151991392.47408867 -242256244.6061821 0 -242256244.6061821 166506182.25963783 0 0 0 0 234163755.08398151 -204100306.49325752 0 -204100306.49325752 -32681296.460159302 0 0 0 0 -329314975.49543953 58378950.336863518 0 58378950.336863518 128289209.48397827 0 0 0 0 41892620.655235291 -212325044.48162079 0 -212325044.48162079 159344739.75456619 0 0 0 0 -409715.83535810839 -2015472.4943787535 0 -2015472.4943787535 4532964.2655522674 0 0 0 0 -382823179.61192894 -123018318.12778854 0 -123018318.12778854 85250227.549179077 0 0 0 0 -70103521.943076134 -67657906.709148407 0 -67657906.709148407 -55108741.359283447 0 0 0 0 -61630644.302980423 -147386654.76465607 0 -147386654.76465607 95936002.256946564 0 0 0 0 -151944702.76927376 -21784752.120506287 0 -21784752.120506287 10066542.680107117 0 0 0 0 -370938.45783116459 -443524.32270544209 0 -443524.32270544209 304033.65169547126 0 0 0 0 -3576834.8286778927 -829419.40937423706 0 -829419.40937423706 5373123.0624160767 0 0 0 0 -2424857.9958686829 -1649429.6770324707 0 -1649429.6770324707 4202413.4650878906 0 0 0 0 -2700763.7107095718 -1372617.1116333008 0 -1372617.1116333008 3481341.4428405762 0 0 0 0 -2553116.2964713573 -707390.61400985718 0 -707390.61400985718 6446310.1739807129 0 0 0 0 -1989939.4946393967 -3307899.0266189575 0 -3307899.0266189575 8830794.9077301025 0 0 0 0 -2549423.0743770599 -1639424.4648742676 0 -1639424.4648742676 4659268.1574554443 0 0 0 0 -1723292.9162979126 -586500.40754699707 0 -586500.40754699707 6324289.6740875244 0 0 0 0 -633116668.16423452 65110235.093050599 0 65110235.093050599 -296945032.54886627 0 0 0 0 -2516787.1414085198 -1956604.1697803219 0 -1956604.1697803219 7384294.6261112988 0 0 0 0 -612379761.5167073 169915347.73109436 0 169915347.73109436 58121602.263763428 0 0 0 0 -563416216.92047024 -63450748.393596649 0 -63450748.393596649 8166602.1059303284 0 0 0 0 -1903902.8833705937 -1802393.2808355247 0 -1802393.2808355247 1536320.4669920355 0 0 0 0 -614521426.85054517 739155847.06886077 0 739155847.06886077 -338100351.96090698 0 0 0 0 -131970.04544215417 -236605.6569175357 0 -236605.6569175357 594720.22767934063 0 0 0 0 133023342.10750866 -115528753.19812012 0 -115528753.19812012 10057743.146080017 0 0 0 0 -465988569.19534683 318467039.8459816 0 318467039.8459816 -99119745.864875793 0 0 0 0 -1718075.8190732002 255023.21926307678 0 255023.21926307678 1499535.5477828979 0 0 0 0 -196443.50005626678 90988.790428161621 0 90988.790428161621 271551.52986526489 0 0 0 0 -931727.64206406183 -1016667.1977309138 0 -1016667.1977309138 5050742.641404599 0 0 0 0 231978.23420476913 1226362.1672210693 0 1226362.1672210693 2480372.9452819824 0 0 0 0 -3867493.9467263222 -1264401.5024032593 0 -1264401.5024032593 -1577252.8298454285 0 0 0 0 -2096728.5679478897 -1844972.1623572418 0 -1844972.1623572418 6014429.0266059991 0 0 0 0 -1586217.6331569841 -2311707.2605687026 0 -2311707.2605687026 7023970.0683836667 0 0 0 0 -29435630.004993439 -20072332.84173584 0 -20072332.84173584 -6651960.5657958984 0 0 0 0 -3087824.9295511246 -1621267.80103302 0 -1621267.80103302 10457293.616999626 0 0 0 0 -4243592.0706653595 -3000688.0158920288 0 -3000688.0158920288 12638433.32472229 0 0 0 0 -2929322.661867857 -420746.66619110107 0 -420746.66619110107 13268559.373291016 0 0 0 0 -4287939.5803277791 -3011895.2558708191 0 -3011895.2558708191 14239798.024856567 0 0 0 0 -550802.36584377289 -1989678.7303924561 0 -1989678.7303924561 10289825.152050018 0 0 0 0 55678.27436658449 -294637.83085041353 0 -294637.83085041353 -225745.07995597832 0 0 0 0 285819.07249426842 1673857.3271570206 0 1673857.3271570206 6177609.4486999512 0 0 0 0 -1901534.9131877422 -12897190.887264252 0 -12897190.887264252 1837190.0896453857 0 0 0 0 9929684.9757499695 7598606.6869735718 0 7598606.6869735718 1200186.564227581 0 0 0 0 6093134.5774755478 -8278938.2956466675 0 -8278938.2956466675 9455847.7713737488 0 0 0 0 -1642031.9509315491 -1206844.9092636108 0 -1206844.9092636108 11058223.532318115 0 0 0 0 1022990.6785011292 -2814700.1521530151 0 -2814700.1521530151 3818332.7585601807 0 0 0 0 362801.89444541931 -1116894.8734703064 0 -1116894.8734703064 -501846.50555419922 0 0 0 0 -2276080.2075910568 -1233984.4524497986 0 -1233984.4524497986 3389502.9783554077 0 0 0 0 -8878462.6699678898 260792.97080230713 0 260792.97080230713 3336175.4675674438 0 0 0 0 -1564791.3088806272 -5397633.1899757385 0 -5397633.1899757385 8399471.9094390869 0 0 0 0 -953826.11701131472 -3355513.0152873956 0 -3355513.0152873956 4504506.7712620981 0 0 0 0 -870526.08031512541 -1651625.9017392024 0 -1651625.9017392024 5055640.445508156 0 0 0 0 62101647.641103983 -45471990.887138367 0 -45471990.887138367 -71002268.77845192 0 0 0 0 -3522999.0436999202 90099407.640348434 0 90099407.640348434 45104301.202251434 0 0 0 0 -21767356.523295522 -34432571.980556488 0 -34432571.980556488 -102183997.86780167 0 0 0 0 -77534568.329434276 133611944.74805069 0 133611944.74805069 21903314.908103943 0 0 0 0 -1639475.3985753059 -2422602.9889678955 0 -2422602.9889678955 3437377.7416152954 0 0 0 0 -800570.086218843 -1416486.1594686909 0 -1416486.1594686909 4350813.0885660462 0 0 0 0 -979623.12949562073 -3421121.514289856 0 -3421121.514289856 4666700.110244751 0 0 0 0 -770798424.35546541 304042566.53615761 0 304042566.53615761 81567448.092544556 0 0 0 0 -2169087.1343415631 -607446.96378885955 0 -607446.96378885955 7722045.3146589734 0 0 0 0 -2306811.1105575562 -1828030.1979827881 0 -1828030.1979827881 4253954.3050136566 0 0 0 0 499995913.62096226 -488425444.17597389 0 -488425444.17597389 -52419844.26776123 0 0 0 0 -254267322.706182 318883399.06241798 0 318883399.06241798 699373159.05986023 0 0 0 0 65479146.303209543 -242068768.03508759 0 -242068768.03508759 185117885.72429657 0 0 0 0 -1887338.6612800278 -3981830.4204162355 0 -3981830.4204162355 6866583.8958842214 0 0 0 0 -371183383.94896758 108525437.56377792 0 108525437.56377792 132150407.09449768 0 0 0 0 -258843024.34575784 58251017.753318787 0 58251017.753318787 75961128.937711716 0 0 0 0 -158040.52955061034 -363601.00946152885 0 -363601.00946152885 836145.74425652996 0 0 0 0 -434100628.79905564 270311383.06281948 0 270311383.06281948 77938710.083198547 0 0 0 0 -247123170.48226893 211048734.72613144 0 211048734.72613144 57926559.393966675 0 0 0 0 -71218847.188929021 45707733.367115021 0 45707733.367115021 29616801.512831688 0 0 0 0 -160984962.79791999 210914664.23630905 0 210914664.23630905 -169205264.37211609 0 0 0 0 66263184.475278735 -5805830.9319496155 0 -5805830.9319496155 81593706.550422668 0 0 0 0 -76548241.711412296 66077258.138599992 0 66077258.138599992 106232177.75023651 0 0 0 0 -80045736.543006212 101933329.2270546 0 101933329.2270546 253750565.48471832 0 0 0 0 -76029877.290999591 -165464958.85007477 0 -165464958.85007477 700225495.25889587 0 0 0 0 9642444.3207494617 -143022073.20156097 0 -143022073.20156097 239111296.80878448 0 0 0 0 -385896116.34763348 -65659863.73045826 0 -65659863.73045826 400385580.99391937 0 0 0 0 -175663430.60526556 -195202992.7289505 0 -195202992.7289505 45983529.651733398 0 0 0 0 -171008364.82744476 -78636710.020198822 0 -78636710.020198822 493911983.73175812 0 0 0 0 98696277.060082972 -485270949.47807312 0 -485270949.47807312 501700074.26305628 0 0 0 0 25927652.242047369 -108601286.39142942 0 -108601286.39142942 134050258.88635254 0 0 0 0 -189992294.98519975 -406702994.25918388 0 -406702994.25918388 1376045872.1786079 0 0 0 0 -126975987.06854963 -214890492.30959511 0 -214890492.30959511 676554127.06086731 0 0 0 0 -434145957.93042499 -474803314.03409767 0 -474803314.03409767 2205276773.3875031 0 0 0 0 -231335357.70054942 -691608279.03643608 0 -691608279.03643608 1322156465.6666908 0 0 0 0 -128793963.83400175 -996031708.53103209 0 -996031708.53103209 2201400052.1074905 0 0 0 0 -322280455.44967073 -47199842.329717636 0 -47199842.329717636 2204818805.5076599 0 0 0 0 -370976173.27139169 -279228012.3716526 0 -279228012.3716526 1509629345.9190979 0 0 0 0 -206184709.71734118 -173042382.50486374 0 -173042382.50486374 1548895641.2639446 0 0 0 0 146886860.95872867 118148902.7296648 0 118148902.7296648 209292220.59763718 0 0 0 0 81697355.072789729 286290746.33182526 0 286290746.33182526 749156930.35650635 0 0 0 0 76953996.620628491 -78316491.392355084 0 -78316491.392355084 291770287.23557281 0 0 0 0 64317526.522475064 103098585.83736992 0 103098585.83736992 338327514.30824661 0 0 0 0 69005056.370522499 87858109.42906189 0 87858109.42906189 71588569.742713928 0 0 0 0 -80548818.455391675 52242909.667964935 0 52242909.667964935 -39651469.141921997 0 0 0 0 -69764067.929986686 -80358929.070405006 0 -80358929.070405006 253513887.80517578 0 0 0 0 640668.1075521626 -2738074.1403418728 0 -2738074.1403418728 2001482.989775775 0 0 0 0 52119784.434795916 179539634.79692841 0 179539634.79692841 61500916.242635727 0 0 0 0 211697.78721150063 -918053.5567414253 0 -918053.5567414253 1029391.9276985303 0 0 0 0 327323132.21381146 -525103344.51508331 0 -525103344.51508331 375278132.05196381 0 0 0 0 118066958.64249104 682484052.00129032 0 682484052.00129032 1760749721.8790245 0 0 0 0 573500330.85262835 -18152454.431623459 0 -18152454.431623459 2204617813.8448448 0 0 0 0 97117080.372835442 -390455281.85529518 0 -390455281.85529518 2159441361.839406 0 0 0 0 -195661892.89540005 12723718.757512093 0 12723718.757512093 2204643084.1437378 0 0 0 0 -51379880.521780699 422129022.15332031 0 422129022.15332031 2138228035.076828 0 0 0 0 -33059952.18730928 -324802561.8258419 0 -324802561.8258419 954695893.80788803 0 0 0 0 -105234041.87206626 -326853403.32237244 0 -326853403.32237244 2302495974.5927291 0 0 0 0 -428314555.08634841 143223741.1280365 0 143223741.1280365 2136853250.8864594 0 0 0 0 -92399445.633227691 -194581156.00314653 0 -194581156.00314653 611275279.30233002 0 0 0 0 -97446931.746333361 11538463.850532532 0 11538463.850532532 624419550.35452843 0 0 0 0 252645526.22843805 -129620707.89873314 0 -129620707.89873314 -146454131.80252457 0 0 0 0 -3405538.2204439938 -4272879.3146028519 0 -4272879.3146028519 13571225.710716248 0 0 0 0 15051.697861822904 -13509.158888973296 0 -13509.158888973296 -17249.060328647494 0 0 0 0 -10208256.041350655 8043315.0559870005 0 8043315.0559870005 6330350.4148483276 0 0 0 0 -9802262.9087769985 -3835113.626411438 0 -3835113.626411438 9760163.0923271179 0 0 0 0 174018.61601573229 -3296627.2497215271 0 -3296627.2497215271 7873771.3725204468 0 0 0 0 -3274646.5775585175 -3856915.2219085693 0 -3856915.2219085693 9122590.5159072876 0 0 0 0 -184035.06789169711 -2640523.9448020551 0 -2640523.9448020551 4078726.7763957242 0 0 0 0 -1143607.6562319449 -2809106.5243976954 0 -2809106.5243976954 5197419.5481382506 0 0 0 0 406861.76334440708 -3997601.6300468445 0 -3997601.6300468445 8614142.1529159546 0 0 0 0 180857.49006164074 -3680721.6200828552 0 -3680721.6200828552 8179519.809135437 0 0 0 0 -248782.46444317698 -1882420.5425376892 0 -1882420.5425376892 12926049.842681885 0 0 0 0 1077954.2546285987 -4887937.3213233948 0 -4887937.3213233948 11748667.179351807 0 0 0 0 3838866.1615159512 -2577664.2728118896 0 -2577664.2728118896 12370016.486761093 0 0 0 0 2182732.6155800223 -2430757.3219528198 0 -2430757.3219528198 12745467.512039185 0 0 0 0 1569023.5225412846 -3021446.2319641113 0 -3021446.2319641113 8452296.747882843 0 0 0 0 1655085.0552443266 -5499958.7625007629 0 -5499958.7625007629 7670250.8816680908 0 0 0 0 2382179.4166529179 -5169262.5024261475 0 -5169262.5024261475 13558190.203659058 0 0 0 0 647086.3645772934 -821491.12174987793 0 -821491.12174987793 16783376.605484009 0 0 0 0 1585477.0370325744 -3024900.7972621918 0 -3024900.7972621918 17860223.111572266 0 0 0 0 4919453.7167969346 -64935.391799926758 0 -64935.391799926758 18613198.845626831 0 0 0 0 1491175.6302068233 -3251112.2212905884 0 -3251112.2212905884 25907739.471221924 0 0 0 0 1646941.5040817261 1680496.7885742188 0 1680496.7885742188 30683891.12286377 0 0 0 0 1348542.4170618057 3416311.244140625 0 3416311.244140625 36881811.837921143 0 0 0 0 -2326289.2174169421 -2960966.9254703522 0 -2960966.9254703522 20632136.717102051 0 0 0 0 2404751.5279779434 -3873892.1273651123 0 -3873892.1273651123 21942533.193481445 0 0 0 0 8950060.1494362354 3359367.6476898193 0 3359367.6476898193 23926664.814849854 0 0 0 0 1649780.6415882111 -5884467.3704986572 0 -5884467.3704986572 22520914.738311768 0 0 0 0 -1264663.0926017761 1185878.1617584229 0 1185878.1617584229 17227713.93347168 0 0 0 0 709730.81680965424 -2261634.8236694336 0 -2261634.8236694336 19269049.299407959 0 0 0 0 1267608.0049785376 -2337458.1537513733 0 -2337458.1537513733 18020343.394454956 0 0 0 0 2389322.0534100533 -4566751.8801574707 0 -4566751.8801574707 19201331.282432556 0 0 0 0 1119622.1763576269 -2186707.5029449463 0 -2186707.5029449463 25806278.580566406 0 0 0 0 2203808.4901695251 -1837669.4938201904 0 -1837669.4938201904 22362116.379241943 0 0 0 0 471819.69325828552 -4697820.0512390137 0 -4697820.0512390137 30166336.523376465 0 0 0 0 1362860.7734712362 -5200221.416015625 0 -5200221.416015625 23648308.968444824 0 0 0 0 1908334.946734786 -4737121.114151001 0 -4737121.114151001 22220438.47354126 0 0 0 0 1072452.9345498085 -5472100.8997192383 0 -5472100.8997192383 21674115.422210693 0 0 0 0 601291.44103288651 -5895141.7877044678 0 -5895141.7877044678 26847857.590530396 0 0 0 0 -1323253.7151055336 -2481611.8120651245 0 -2481611.8120651245 13729574.492927551 0 0 0 0 -583738.62974405289 -3949804.5161437988 0 -3949804.5161437988 22408266.064880371 0 0 0 0 196092.5724709034 -3147919.4318637848 0 -3147919.4318637848 18173570.278717041 0 0 0 0 -2626970.0694184303 -2057632.121307373 0 -2057632.121307373 18647275.673667908 0 0 0 0 -355483.74395346642 -4782321.6467971802 0 -4782321.6467971802 16606063.499481201 0 0 0 0 -2634057.3719325066 -4331059.1042861938 0 -4331059.1042861938 21662521.634086609 0 0 0 0 -5581335.9609286785 -3379320.4001617432 0 -3379320.4001617432 18845121.015808105 0 0 0 0 -3949638.00270769 -493104.59348583221 0 -493104.59348583221 10010179.821868896 0 0 0 0 -2737455.3458237648 -1955053.173789978 0 -1955053.173789978 19557763.07686615 0 0 0 0 -3396886.7668342292 3124685.2941665649 0 3124685.2941665649 6016540.429145813 0 0 0 0 -9788590.7728849649 -695389.8422088623 0 -695389.8422088623 14110733.668426514 0 0 0 0 236494.91139507294 -2380480.7292175293 0 -2380480.7292175293 9616546.3669586182 0 0 0 0 22755.71498249186 -23605.032676948234 0 -23605.032676948234 -27247.09111046046 0 0 0 0 -701342.17874196172 -9261333.5465927124 0 -9261333.5465927124 20643829.856781006 0 0 0 0 -3592103.6899148822 -3300881.5532875061 0 -3300881.5532875061 18339313.986662388 0 0 0 0 -3157544.1178851575 -2384838.4328298569 0 -2384838.4328298569 19766222.479309082 0 0 0 0 13341.727586214591 -13123.75083226338 0 -13123.75083226338 -14990.08315448463 0 0 0 0 -9322798.1655736864 4353389.9037132263 0 4353389.9037132263 12225662.537239075 0 0 0 0 -7421094.3204345852 -8247093.3001594543 0 -8247093.3001594543 18380992.102706909 0 0 0 0 183087.25962290168 -10898030.41802597 0 -10898030.41802597 16416790.434806824 0 0 0 0 -2653384.7780877054 -4945298.2117233276 0 -4945298.2117233276 15264967.724765778 0 0 0 0 754622.68448147178 -6843710.2407302856 0 -6843710.2407302856 13434638.095420837 0 0 0 0 -1724685.5855235388 -8249802.8824261129 0 -8249802.8824261129 12640900.442695618 0 0 0 0 -1727278.6177762449 -7294835.5053939819 0 -7294835.5053939819 11492193.097183228 0 0 0 0 1973929.9836674631 -7976351.8363800049 0 -7976351.8363800049 6439381.7958755493 0 0 0 0 5022.8435334563255 -7246962.0886764526 0 -7246962.0886764526 6361002.591583252 0 0 0 0 186245.13936284184 -5370077.9029388428 0 -5370077.9029388428 1523191.0825805664 0 0 0 0 -120803.45381265879 -4182475.3195037842 0 -4182475.3195037842 9399262.2921218872 0 0 0 0 -1046249.6941764355 -8222804.4158706665 0 -8222804.4158706665 5852805.7029953003 0 0 0 0 2215339.6458822489 -6211789.5346603394 0 -6211789.5346603394 472102.46321868896 0 0 0 0 -3382310.935053885 -3161697.8030395508 0 -3161697.8030395508 6481098.1294059753 0 0 0 0 -1319997.7155216038 -8273785.216375351 0 -8273785.216375351 10143569.07535553 0 0 0 0 2016669.6916098595 -5921050.720741272 0 -5921050.720741272 4027622.6363010406 0 0 0 0 1657455.1554444432 -4822030.3627243042 0 -4822030.3627243042 4324516.1601276398 0 0 0 0 3577058.7158971429 -17050413.238811493 0 -17050413.238811493 20450121.404518127 0 0 0 0 6249032.8457562923 -5597377.3308753967 0 -5597377.3308753967 11081218.808815002 0 0 0 0 3567074.2057052255 -8528916.9829521179 0 -8528916.9829521179 734112.81072998047 0 0 0 0 172118.27868821291 -2763215.2461436819 0 -2763215.2461436819 3702515.0388253005 0 0 0 0 60120268.038515925 -20662783.737174988 0 -20662783.737174988 -30961205.765808105 0 0 0 0 153127566.00970131 6215764.0385131836 0 6215764.0385131836 -55370297.010147095 0 0 0 0 -52813.641660298279 -2774664.933183305 0 -2774664.933183305 3822831.2539540376 0 0 0 0 970922.77006885409 -1342206.8469810486 0 -1342206.8469810486 -6285045.2713623047 0 0 0 0 -185191438.07460117 6386946.7793388367 0 6386946.7793388367 610703935.58743286 0 0 0 0 -91261023.906156957 167451752.17465591 0 167451752.17465591 607015193.72023606 0 0 0 0 -271818432.71739799 241788972.03157043 0 241788972.03157043 1290398469.0106621 0 0 0 0 -392626276.93276811 233809620.29733467 0 233809620.29733467 1306815706.9315109 0 0 0 0 -146211407.32024333 578910631.05811882 0 578910631.05811882 1068963917.9255638 0 0 0 0 -136997298.76262483 264570023.06707191 0 264570023.06707191 967765409.55148315 0 0 0 0 -430102688.84218884 476029579.12306023 0 476029579.12306023 2205455964.4160728 0 0 0 0 1438221247.7494543 712233064.20514107 0 712233064.20514107 93304344.137992859 0 0 0 0 154054.90857981262 -735994.61287794914 0 -735994.61287794914 2637547.7318584397 0 0 0 0 -91848846.314856112 688018630.02545547 0 688018630.02545547 1274931138.8509865 0 0 0 0 400316506.18806833 1539621761.3224716 0 1539621761.3224716 2200888306.5986938 0 0 0 0 134046128.7007575 -42345234.256484985 0 -42345234.256484985 53005344.419151306 0 0 0 0 66384192.974361897 197930721.22029495 0 197930721.22029495 301788849.65119839 0 0 0 0 945501699.55761468 561153134.28724289 0 561153134.28724289 247143838.42272949 0 0 0 0 -438871.02419235237 -2230703.6113061849 0 -2230703.6113061849 3754474.7737959214 0 0 0 0 56945621.099760771 -9116287.4875297546 0 -9116287.4875297546 28319149.363456726 0 0 0 0 -1460847.7696477771 -3995029.1970977783 0 -3995029.1970977783 12092711.731262207 0 0 0 0 168497753.62198091 308919035.10144615 0 308919035.10144615 327890898.19766235 0 0 0 0 3853065.8057500124 -6613717.2972412109 0 -6613717.2972412109 -9358651.0901603699 0 0 0 0 -2129531.5877101049 -7706582.2664852142 0 -7706582.2664852142 24818.207626342773 0 0 0 0 287109.92938779696 16416.247282786295 0 16416.247282786295 -588170.56140065566 0 0 0 0 1797346.5632975101 -8195255.2457427979 0 -8195255.2457427979 -10005574.715900421 0 0 0 0 -50828.783596973968 -91938.185050951317 0 -91938.185050951317 432087.7089579124 0 0 0 0 -1780509.7483839989 -9314047.0157394409 0 -9314047.0157394409 -2402921.0424499512 0 0 0 0 -1553865.1493041217 -2919146.1823682785 0 -2919146.1823682785 -4299577.2292785645 0 0 0 0 -1959619.8425198793 -6413437.6708374023 0 -6413437.6708374023 1561451.3591570854 0 0 0 0 1829875.5277869999 -5951709.0881881714 0 -5951709.0881881714 -3563374.5882263184 0 0 0 0 768106.43747426569 -4973431.1617355347 0 -4973431.1617355347 -146050.43423461914 0 0 0 0 2067140.1966190934 -5756551.3445205688 0 -5756551.3445205688 324591.1604385376 0 0 0 0 3326897.8572274745 -3680780.6011657715 0 -3680780.6011657715 -564652.59033584595 0 0 0 0 1346082.2464093268 -4150686.0254058838 0 -4150686.0254058838 72343.934127807617 0 0 0 0 1407485.0606981665 -3955081.6735115051 0 -3955081.6735115051 -581047.46592712402 0 0 0 0 476564.17469143867 -5844441.8719863892 0 -5844441.8719863892 -483203.74585342407 0 0 0 0 -721747.2148039788 -6560192.9941558838 0 -6560192.9941558838 3270112.3883361816 0 0 0 0 2395624.798045069 -2443726.8674850464 0 -2443726.8674850464 -1313107.5141525269 0 0 0 0 3705001.6356174946 -3119398.9259719849 0 -3119398.9259719849 -1019043.6470108032 0 0 0 0 -151331.8273249772 -1298241.5683276672 0 -1298241.5683276672 1937926.8780390881 0 0 0 0 559531.91356748343 -2364029.5384979248 0 -2364029.5384979248 -878969.42652893066 0 0 0 0 323236.40800526645 -3258339.9827766418 0 -3258339.9827766418 4517114.8477554321 0 0 0 0 330186.88826474641 342403.78846359253 0 342403.78846359253 6948348.5426635742 0 0 0 0 -529201.66812165908 -921771.42944880016 0 -921771.42944880016 1347026.2295770422 0 0 0 0 -833369.67650542618 -1707146.2700727042 0 -1707146.2700727042 3877723.3011664152 0 0 0 0 702867.75846099854 -3456757.920211792 0 -3456757.920211792 -1745008.3311508894 0 0 0 0 -12415671.96016854 -160933182.56818962 0 -160933182.56818962 -6390016.5143661499 0 0 0 0 531494.24418541789 -3436953.9359359741 0 -3436953.9359359741 -1223067.2368011475 0 0 0 0 444203.38429686427 -2715405.4256057739 0 -2715405.4256057739 -1750157.07472229 0 0 0 0 -1225189.9709297121 -1254522.4944672585 0 -1254522.4944672585 2441227.0591430664 0 0 0 0 383722.99071216583 -2984423.4585723877 0 -2984423.4585723877 -15075.035419464111 0 0 0 0 -163844421.59940767 121403341.36415863 0 121403341.36415863 147703612.4913826 0 0 0 0 35055638.075356454 267894054.43993759 0 267894054.43993759 400710691.02798462 0 0 0 0 -99613.358370072034 -302736.06053890754 0 -302736.06053890754 4576159.4652097132 0 0 0 0 -16139640.586050261 15780320.727640152 0 15780320.727640152 -17885540.624351501 0 0 0 0 -706095.07527250051 -528233.72771835327 0 -528233.72771835327 1291818.5005760193 0 0 0 0 -1235859.9803238006 -850166.85039456747 0 -850166.85039456747 4789698.3547352124 0 0 0 0 -7771011.0206636786 -1030150.9181137085 0 -1030150.9181137085 3639468.4190673828 0 0 0 0 -42764070.237872571 -16063915.845428467 0 -16063915.845428467 -500394346.22171021 0 0 0 0 -47409.107927141638 -8817.6283454112709 0 -8817.6283454112709 41945.545441810042 0 0 0 0 -198281.98551672004 -241370.36378318258 0 -241370.36378318258 1539931.6451650932 0 0 0 0 -16096879.03248322 -234899061.90861511 0 -234899061.90861511 -110422653.79881287 0 0 0 0 339052346.85257733 318523879.97824097 0 318523879.97824097 259464420.11147308 0 0 0 0 157300636.01115596 -126848398.28705597 0 -126848398.28705597 -131303647.67668533 0 0 0 0 -147552043.99409622 -93793221.749076843 0 -93793221.749076843 -7097461.3355407715 0 0 0 0 197734917.17011175 305346871.08197784 0 305346871.08197784 344975953.30064392 0 0 0 0 -259788.27669957513 -769285.06060254667 0 -769285.06060254667 1230649.0697846711 0 0 0 0 -320142034.60782629 201817746.89147186 0 201817746.89147186 2197451995.9759102 0 0 0 0 206399913.97821534 -758456670.2973175 0 -758456670.2973175 1029725709.9634018 0 0 0 0 91262866.814970851 444302579.87902069 0 444302579.87902069 513660008.0760498 0 0 0 0 178640468.98188949 -689853124.50567627 0 -689853124.50567627 2201068413.8488374 0 0 0 0 245139.09356291557 12908896.090307236 0 12908896.090307236 194901596.13256836 0 0 0 0 -23080433.76150449 -449251076.76652145 0 -449251076.76652145 2055728947.3459969 0 0 0 0 -70299462.078598469 -77346626.946151733 0 -77346626.946151733 -57616724.647773743 0 0 0 0 69151.671369342541 -155535.16607747972 0 -155535.16607747972 363559.02370447852 0 0 0 0 355144714.79164159 -600000721.04483223 0 -600000721.04483223 1011374706.9775238 0 0 0 0 -336150183.65951443 334527708.84732819 0 334527708.84732819 2366377603.0138912 0 0 0 0 5295.7878491205629 -314456.13458799198 0 -314456.13458799198 913770.74710170366 0 0 0 0 -429549.54669849324 -912161.29738764651 0 -912161.29738764651 2005846.1406993717 0 0 0 0 -58728200.984864317 -40575239.608753204 0 -40575239.608753204 45721004.497238159 0 0 0 0 -48192413.450155228 14355229.964393616 0 14355229.964393616 21756835.748340607 0 0 0 0 -48131301.521833777 -49131720.531082153 0 -49131720.531082153 -27474753.849594116 0 0 0 0 -59505666.131717622 25804426.036819458 0 25804426.036819458 70482086.888629913 0 0 0 0 29717290.842277862 -7391171.1718103886 0 -7391171.1718103886 -30252977.527359009 0 0 0 0 26328579.820146281 46925681.114867687 0 46925681.114867687 -25588747.166229248 0 0 0 0 157620.14238220229 -891610.65501253493 0 -891610.65501253493 2370771.6833611205 0 0 0 0 -113945.33301841546 -376855.66132052802 0 -376855.66132052802 252868.8758379817 0 0 0 0 7044486.9941871529 -12572188.830776215 0 -12572188.830776215 -11735519.425384521 0 0 0 0 1340766.825210663 211094.8900604248 0 211094.8900604248 2972178.0614814758 0 0 0 0 -363003.69419020799 1751085.0289764404 0 1751085.0289764404 11125448.241321564 0 0 0 0 236246.48948607402 -856348.87135228328 0 -856348.87135228328 2177932.8977896981 0 0 0 0 -7317362.9104141966 -15617981.961547852 0 -15617981.961547852 -9537357.0818767548 0 0 0 0 -15820.008885864849 -301991.26674381766 0 -301991.26674381766 13286706.678489685 0 0 0 0 -3492102.9145485349 4521491.5544967651 0 4521491.5544967651 -1671768.2027416229 0 0 0 0 -3012094.0937841274 -9576642.5072669983 0 -9576642.5072669983 8068042.0106964111 0 0 0 0 7565364.0299835578 -9837989.0663070679 0 -9837989.0663070679 -3860075.799949646 0 0 0 0 778202.22062247247 907567.10285568237 0 907567.10285568237 -2360842.1103210449 0 0 0 0 6633124.1396687906 12535095.349517822 0 12535095.349517822 26388197.554382324 0 0 0 0 -91741.733481502059 -255483.06482827384 0 -255483.06482827384 347488.10117933899 0 0 0 0 6986077.4898896515 -1585709.7574462891 0 -1585709.7574462891 -6015913.8421096802 0 0 0 0 2587759.5939285308 -3534238.1777763367 0 -3534238.1777763367 -14148.278900146484 0 0 0 0 5397027.4074991047 -4406683.1915435791 0 -4406683.1915435791 -436514.95318603516 0 0 0 0 3941979.1666629836 -5188997.7429351807 0 -5188997.7429351807 2813074.7992706299 0 0 0 0 2142453.4446316957 -4564923.8071594238 0 -4564923.8071594238 912519.15643692017 0 0 0 0 2933848.59890908 -6731757.6077194214 0 -6731757.6077194214 4651611.2508850098 0 0 0 0 1272636.1182099283 -8415840.133430481 0 -8415840.133430481 10124458.301025391 0 0 0 0 3695437.6253336444 -7127845.8388137817 0 -7127845.8388137817 4473016.1928863525 0 0 0 0 5661352.9162226096 -10755492.258045197 0 -10755492.258045197 9472886.6455383301 0 0 0 0 3150573.9659227729 -8955382.4586257935 0 -8955382.4586257935 10091277.462551594 0 0 0 0 4825286.4286578298 -5271439.0257873535 0 -5271439.0257873535 7058134.992225647 0 0 0 0 9286048.449031949 -6609674.8979568481 0 -6609674.8979568481 2061021.4249362946 0 0 0 0 12570941.399390265 -9577840.688911438 0 -9577840.688911438 8622196.6940841675 0 0 0 0 5573302.5527387932 -7642035.8198165894 0 -7642035.8198165894 20028395.526847839 0 0 0 0 12157123.856479794 -12354094.277763367 0 -12354094.277763367 13674432.814945221 0 0 0 0 -1470863.2718097121 -15126505.824802399 0 -15126505.824802399 25868355.003303528 0 0 0 0 2346487.346606344 -8492479.3503494263 0 -8492479.3503494263 12204675.502513885 0 0 0 0 2062884.218083933 -21905595.746696472 0 -21905595.746696472 48608356.648449659 0 0 0 0 -13964899.347830892 -3299036.2841997147 0 -3299036.2841997147 27895601.912849426 0 0 0 0 30484935.456549399 -10021588.685918808 0 -10021588.685918808 18657645.36554718 0 0 0 0 12490158.282379154 10461143.44134903 0 10461143.44134903 47019597.944889069 0 0 0 0 -389250.5316069331 3175286.4292144775 0 3175286.4292144775 31235575.319618225 0 0 0 0 13227.901765746599 -5310723.8108949913 0 -5310723.8108949913 15571581.663879395 0 0 0 0 3306012.2099889927 -960492.25538253784 0 -960492.25538253784 18410905.50630188 0 0 0 0 3150398.2685067439 -4986119.346198082 0 -4986119.346198082 21853992.675369263 0 0 0 0 -27613938.0657686 -91310685.318439275 0 -91310685.318439275 -137932059.36556339 0 0 0 0 4041383.3902345374 -8008533.84018635 0 -8008533.84018635 9745273.2984078098 0 0 0 0 -77909794.460748196 -131216696.31394029 0 -131216696.31394029 -93457210.903072596 0 0 0 0 39829577.713963509 341137929.88893056 0 341137929.88893056 256357553.04032469 0 0 0 0 -84071409.643209457 -50110562.009871244 0 -50110562.009871244 -35419215.353895783 0 0 0 0 -556831999.8041544 -49060634.969599485 0 -49060634.969599485 87890180.915824533 0 0 0 0 -123779565.99351382 -147499391.55257952 0 -147499391.55257952 -197427494.09498787 0 0 0 0 -187773040.0796299 -144880430.01731491 0 -144880430.01731491 -43836901.657320023 0 0 0 0 -130607430.51982498 -27965823.086883545 0 -27965823.086883545 16951175.230937958 0 0 0 0 921334.92159984959 -1604245.2146943172 0 -1604245.2146943172 -871501.96284980688 0 0 0 0 -219668261.62230682 -97960996.265607834 0 -97960996.265607834 79599612.306824684 0 0 0 0 -137468186.80350113 -18296332.139560699 0 -18296332.139560699 19940937.317659378 0 0 0 0 -146947724.34528732 -2067723.6545906067 0 -2067723.6545906067 167339336.04428101 0 0 0 0 -101525582.94480252 -28476573.837221146 0 -28476573.837221146 267002952.25861359 0 0 0 0 -103886234.5578804 -49707871.597015381 0 -49707871.597015381 76294050.264160156 0 0 0 0 -36020669.093605042 -183573861.61610413 0 -183573861.61610413 -135874303.94752789 0 0 0 0 -66354922.462108135 -74214467.095623016 0 -74214467.095623016 -88296158.19934082 0 0 0 0 -76389205.067280293 -75716088.174916267 0 -75716088.174916267 86163751.895202637 0 0 0 0 -52210617.761770248 -195179922.5423708 0 -195179922.5423708 22057449.051170349 0 0 0 0 -193802638.60626602 -41897117.696344376 0 -41897117.696344376 92989439.932466507 0 0 0 0 -68150826.67067343 -45715412.518733919 0 -45715412.518733919 451251792.48457241 0 0 0 0 4049635.8634852548 -5943699.619177687 0 -5943699.619177687 6449558.3923775125 0 0 0 0 -23795919.875423372 213870163.83928335 0 213870163.83928335 368657639.47195673 0 0 0 0 -206515740.29131317 -273592172.21700478 0 -273592172.21700478 -56855978.956348419 0 0 0 0 181769680.21836221 419978816.61706352 0 419978816.61706352 675544465.26271296 0 0 0 0 174176111.59805298 7950212.9668340683 0 7950212.9668340683 401788538.52271795 0 0 0 0 254616891.55931604 350370829.04123801 0 350370829.04123801 589351320.04160118 0 0 0 0 89556485.187594414 593505741.83268929 0 593505741.83268929 776076354.26103759 0 0 0 0 -50824628.352847576 398722578.50919485 0 398722578.50919485 916865104.62897396 0 0 0 0 43082673.766541481 783699689.66875935 0 783699689.66875935 765507385.00843811 0 0 0 0 -1193739.0596803897 -131776.94492569054 0 -131776.94492569054 657701.31191672792 0 0 0 0 -33648453.445368767 104942290.40273952 0 104942290.40273952 497121164.60626101 0 0 0 0 -98704575.798033714 173030573.47642994 0 173030573.47642994 886953056.62287569 0 0 0 0 -192546996.80915737 151605956.75567228 0 151605956.75567228 416217934.56447363 0 0 0 0 -93397536.390147209 301017058.96113729 0 301017058.96113729 720953802.45821762 0 0 0 0 64679236.34025383 190156160.72125554 0 190156160.72125554 394682312.1593914 0 0 0 0 243169389.97991753 201927490.98010826 0 201927490.98010826 350767365.28734159 0 0 0 0 166838320.12505484 279459029.76032382 0 279459029.76032382 1290796250.6572256 0 0 0 0 88273210.761108398 61905678.691390753 0 61905678.691390753 700045157.75975609 0 0 0 0 252098902.2749815 389645815.52788925 0 389645815.52788925 1424461466.5046377 0 0 0 0 187805430.31803942 777002570.35180378 0 777002570.35180378 164570233.74237633 0 0 0 0 79916582.457409859 1069675309.2808428 0 1069675309.2808428 516935067.75297356 0 0 0 0 -103514824.11450577 755499076.35130882 0 755499076.35130882 432291821.06469107 0 0 0 0 109195476.35817838 807754588.0278244 0 807754588.0278244 104987062.7480545 0 0 0 0 12613041.914648056 532158392.37805748 0 532158392.37805748 -45844087.962863922 0 0 0 0 -462458772.29673004 376695397.37333155 0 376695397.37333155 -123948298.98758793 0 0 0 0 -225527356.49637604 -151909972.49653947 0 -151909972.49653947 1995596278.8674331 0 0 0 0 537011.9199278492 71086.111745631439 0 71086.111745631439 383081.31078599067 0 0 0 0 38218669.987403393 135145993.01290512 0 135145993.01290512 927965264.71455812 0 0 0 0 117440558.34233904 113417936.16073644 0 113417936.16073644 691149436.04355609 0 0 0 0 51445423.238689899 -30538872.879964679 0 -30538872.879964679 610110401.00020301 0 0 0 0 -632846.4842095566 -60215.64581228164 0 -60215.64581228164 355022.03831556451 0 0 0 0 45759233.85264802 418779738.00458461 0 418779738.00458461 639319702.73279381 0 0 0 0 31937087.353115082 -48133068.491884977 0 -48133068.491884977 857335402.60080338 0 0 0 0 17160806.591000319 -3374662.8718420565 0 -3374662.8718420565 810506242.83199072 0 0 0 0 34577327.847607613 -46625306.068212897 0 -46625306.068212897 745564365.00682294 0 0 0 0 -50143844.79594326 -26421114.805784255 0 -26421114.805784255 1101250845.6136706 0 0 0 0 1577081.9843968777 1039042.2403113309 0 1039042.2403113309 1424275.603377589 0 0 0 0 10965848.523235798 65054349.226534426 0 65054349.226534426 661480874.36970997 0 0 0 0 47301979.627349854 -5002042.3560838699 0 -5002042.3560838699 710899350.66308308 0 0 0 0 5813328.1653137207 65859006.65656364 0 65859006.65656364 797259290.68051291 0 0 0 0 41027059.530223131 -5506488.6837254837 0 -5506488.6837254837 718220138.19047308 0 0 0 0 51635079.96284771 -18116408.358296849 0 -18116408.358296849 629200551.37155628 0 0 0 0 70270106.582481384 -6076817.8557135761 0 -6076817.8557135761 380369636.28828794 0 0 0 0 82456867.211903095 90692361.301194251 0 90692361.301194251 417615108.54808146 0 0 0 0 -118674579.54378796 -133447185.72746012 0 -133447185.72746012 341931336.90680641 0 0 0 0 83845931.263128996 304835306.33305997 0 304835306.33305997 252572515.45571291 0 0 0 0 168504732.19318724 200311835.3075439 0 200311835.3075439 381525348.0922451 0 0 0 0 123158178.91938591 28801372.238980204 0 28801372.238980204 426258184.39393324 0 0 0 0 -183025466.54231429 -170124594.39081481 0 -170124594.39081481 425641496.81306171 0 0 0 0 -187394211.37075806 -372024706.37607604 0 -372024706.37607604 171001095.43738222 0 0 0 0 336835389.08186519 159506092.85789752 0 159506092.85789752 -50273064.808321714 0 0 0 0 847962.0411119482 -153597.47114241699 0 -153597.47114241699 191836.15440176497 0 0 0 0 205302237.25986618 38505951.620172381 0 38505951.620172381 -42895230.724995613 0 0 0 0 67408098.926067829 -109403226.00528932 0 -109403226.00528932 -88801790.896802187 0 0 0 0 -102986651.3341589 -90178625.129725218 0 -90178625.129725218 -5516027.1251420975 0 0 0 0 11965343.389897346 134537345.14269692 0 134537345.14269692 128359820.07895586 0 0 0 0 2628433.6600711048 -397812.5970986567 0 -397812.5970986567 453984.9576277223 0 0 0 0 -197417849.29555082 -178225218.28250894 0 -178225218.28250894 76483466.52693443 0 0 0 0 32093859.396009445 -27664998.630313165 0 -27664998.630313165 -83118125.406345814 0 0 0 0 4772623.5451518949 -440995.77831159101 0 -440995.77831159101 397575.7971753258 0 0 0 0 -58701980.330400467 -263590595.98481768 0 -263590595.98481768 -70349109.017720371 0 0 0 0 47344889.46264948 -22239684.486444533 0 -22239684.486444533 -8967340.1218323708 0 0 0 0 22042701.55380106 -33433567.651036263 0 -33433567.651036263 -1969031.5435068607 0 0 0 0 48673523.04757864 -2486528.4255694151 0 -2486528.4255694151 2636732.0164022446 0 0 0 0 -121118412.41209602 -161447388.79345 0 -161447388.79345 -195975206.72864246 0 0 0 0 587315.66793453274 -84188.001426071045 0 -84188.001426071045 -357681.33278600709 0 0 0 0 -112087506.39918089 -25115933.138725519 0 -25115933.138725519 22288006.125184059 0 0 0 0 -38166529.813776016 -92413345.469865799 0 -92413345.469865799 -5547163.4382012486 0 0 0 0 44333387.370624065 -21070784.207312584 0 -21070784.207312584 -5999692.9074456692 0 0 0 0 58959829.419832468 -41853077.59551096 0 -41853077.59551096 -30603820.716945648 0 0 0 0 38181001.191221237 -62569696.037801027 0 -62569696.037801027 -42079914.313704491 0 0 0 0 32396027.490285397 -52246492.486052513 0 -52246492.486052513 24789685.900753021 0 0 0 0 55302297.898412704 -109301915.03503132 0 -109301915.03503132 26223595.278032064 0 0 0 0 -7962323.5979795456 -47050167.298261642 0 -47050167.298261642 -20238798.817825317 0 0 0 0 -22863315.618106127 -9437902.1244181395 0 -9437902.1244181395 -31695230.718000412 0 0 0 0 -53939014.158493042 -16907045.311885595 0 -16907045.311885595 21657723.142054558 0 0 0 0 -95449542.808336258 68723611.846750259 0 68723611.846750259 -55450384.877896786 0 0 0 0 81875565.144976854 -25568937.225349903 0 -25568937.225349903 -281751237.71928787 0 0 0 0 185491818.961483 -437887511.13051701 0 -437887511.13051701 -48187077.217630386 0 0 0 0 144024916.87436485 266919286.21106339 0 266919286.21106339 -673120261.31329918 0 0 0 0 -172682.38341961964 -410731.25895531732 0 -410731.25895531732 616844.00129642151 0 0 0 0 -72649678.75253582 -23619416.96917522 0 -23619416.96917522 36498942.562149048 0 0 0 0 -3893603.7653071498 780791.92850237712 0 780791.92850237712 5406862.6419454413 0 0 0 0 -80835518.819815636 145975701.6873529 0 145975701.6873529 -130743004.13755798 0 0 0 0 -244427.09487342834 -2657707.9802627563 0 -2657707.9802627563 1155634.9412801266 0 0 0 0 -7259348.87266922 -4007072.9326152802 0 -4007072.9326152802 16130763.3904953 0 0 0 0 -1351477.8572170315 -5101588.5080327634 0 -5101588.5080327634 9842915.6201053038 0 0 0 0 -886437.29479217529 -4048017.2882966995 0 -4048017.2882966995 -10891973.059598923 0 0 0 0 -1454435.482361808 -4422121.323555328 0 -4422121.323555328 7841905.0179849388 0 0 0 0 -26325428.256761551 5688277.1605300903 0 5688277.1605300903 21647018.367828369 0 0 0 0 -6484325.4504274912 569831.75385769457 0 569831.75385769457 8160486.4105938692 0 0 0 0 -39424379.093854904 22089583.527980804 0 22089583.527980804 8490455.7776947021 0 0 0 0 -31499380.391763687 13257906.793909073 0 13257906.793909073 12972443.555740356 0 0 0 0 -42228527.042049408 -3113657.3235435486 0 -3113657.3235435486 16385371.052376747 0 0 0 0 -61648447.487503052 13650037.920188904 0 13650037.920188904 13330736.049650192 0 0 0 0 -20664441.608385086 -49606727.054608047 0 -49606727.054608047 -4990783.8279409409 0 0 0 0 -51156575.436401367 1552474.0394744873 0 1552474.0394744873 15977399.25541687 0 0 0 0 -785672.39834602363 -2059521.1587193124 0 -2059521.1587193124 2080186.3659228212 0 0 0 0 1281212.0867444281 -9555785.694671277 0 -9555785.694671277 14444525.676454179 0 0 0 0 -110628672.12918472 -39436236.240264505 0 -39436236.240264505 20120949.893300056 0 0 0 0 -50502214.56565094 2585431.401550293 0 2585431.401550293 16793220.494369507 0 0 0 0 -50239283.770299911 33078176.604297638 0 33078176.604297638 26232934.53755188 0 0 0 0 -98687597.946770668 21583196.216574669 0 21583196.216574669 33726976.072471619 0 0 0 0 -86030213.745563507 -16806401.681976318 0 -16806401.681976318 6650882.4727668762 0 0 0 0 -131793615.12395382 -24073744.606748581 0 -24073744.606748581 37712254.401023865 0 0 0 0 2895584.3158120252 -10071663.898148358 0 -10071663.898148358 12636670.683072843 0 0 0 0 -44029181.455284119 15279474.776243448 0 15279474.776243448 57366790.923051596 0 0 0 0 -2881827.9909925628 769270.25068780908 0 769270.25068780908 2922783.0915071415 0 0 0 0 -162512358.94501781 -435101836.71313345 0 -435101836.71313345 -17556470.571988583 0 0 0 0 -95929785.540943146 94279103.180625916 0 94279103.180625916 74185543.476554871 0 0 0 0 -111141288.53303814 109839007.30409336 0 109839007.30409336 331419155.87283325 0 0 0 0 -93516328.764621735 83162916.803861618 0 83162916.803861618 107950087.02955627 0 0 0 0 -94491845.665496826 30192048.765903473 0 30192048.765903473 49086197.538312912 0 0 0 0 -106530186.26981544 56668349.902877808 0 56668349.902877808 67846794.272109985 0 0 0 0 -148689873.7055521 -100104.81097507477 0 -100104.81097507477 74257750.844329834 0 0 0 0 -66556701.722885132 71273556.437854767 0 71273556.437854767 27744810.612724304 0 0 0 0 -29747557.54416275 69641571.257526398 0 69641571.257526398 25679268.553174973 0 0 0 0 -54775630.295748234 105799761.19492817 0 105799761.19492817 77318656.798194885 0 0 0 0 16712230.626163483 126712459.15457535 0 126712459.15457535 12115066.645690918 0 0 0 0 3246391.2637095451 41136094.96969223 0 41136094.96969223 -24423836.508003235 0 0 0 0 -18253487.625473022 74837471.669498444 0 74837471.669498444 -44342116.788032532 0 0 0 0 -28417692.923763275 33032223.099388123 0 33032223.099388123 -24722156.477798462 0 0 0 0 -20288866.096176147 34121026.883232117 0 34121026.883232117 7582642.4686003923 0 0 0 0 -54973387.56180954 42539291.028953552 0 42539291.028953552 7434902.3123092651 0 0 0 0 -25889453.165765762 40897786.700206757 0 40897786.700206757 -594799.73178100586 0 0 0 0 -4048223.9948448725 1720594.9839875856 0 1720594.9839875856 6644955.0113651184 0 0 0 0 -32062163.951124191 -6329830.18201828 0 -6329830.18201828 28123690.256736755 0 0 0 0 -6455051.5299034119 9530140.9436302185 0 9530140.9436302185 11277121.529445648 0 0 0 0 -6477346.593185477 29926936.613702033 0 29926936.613702033 -7787666.4312133789 0 0 0 0 -2073789.7754118312 -9012.6737441737205 0 -9012.6737441737205 2471929.7715955302 0 0 0 0 -2675053.5686364481 2137030.7398191607 0 2137030.7398191607 5666743.5222336706 0 0 0 0 -6236240.4711341858 15835149.644039154 0 15835149.644039154 14719472.402526855 0 0 0 0 3570379.8749923706 18501222.388877869 0 18501222.388877869 -21408998.676635742 0 0 0 0 1743271.1640815735 24355787.988288879 0 24355787.988288879 -18979307.05368042 0 0 0 0 12032580.344759941 24970681.125408173 0 24970681.125408173 -47292249.576980591 0 0 0 0 8265020.574215889 2706902.0482597351 0 2706902.0482597351 -26801623.457984924 0 0 0 0 -785482.80252872524 2201661.5729711982 0 2201661.5729711982 -325287.4601027146 0 0 0 0 -149007400.49905872 7430891.4766159058 0 7430891.4766159058 -4578615.1951904297 0 0 0 0 -226061015.25801468 9453594.198059082 0 9453594.198059082 22357500.250437737 0 0 0 0 -39988.788095557131 67852.125539140776 0 67852.125539140776 218098.5987193092 0 0 0 0 -152928.19547936157 558255.22314693779 0 558255.22314693779 -241793.02023936622 0 0 0 0 44345677.353021622 -26793590.497713089 0 -26793590.497713089 -443837222.39321899 0 0 0 0 6947448.7359576225 33856377.359095097 0 33856377.359095097 -44431627.765899658 0 0 0 0 50685204.051330566 36860627.403606415 0 36860627.403606415 -72274760.734634399 0 0 0 0 871854.04563140869 26829950.899490356 0 26829950.899490356 -47359383.290061951 0 0 0 0 -413416529.44745445 160917925.42582703 0 160917925.42582703 -82195415.614151001 0 0 0 0 -147539413.36643982 625767.09425354004 0 625767.09425354004 -39986616.923774719 0 0 0 0 -136427304.39461136 -72571008.311225891 0 -72571008.311225891 -74143727.933263779 0 0 0 0 9357876.7412319183 -68707088.69140625 0 -68707088.69140625 -48039413.636814117 0 0 0 0 -14505652.873548031 -6830988.7201709747 0 -6830988.7201709747 -54449689.873153687 0 0 0 0 170317545.31740856 -89988750.383552551 0 -89988750.383552551 -28895751.543045044 0 0 0 0 125900386.79567766 -8406101.5632266998 0 -8406101.5632266998 -102028864.1014328 0 0 0 0 273767354.64220238 -140370777.02583313 0 -140370777.02583313 -37399665.083999634 0 0 0 0 225879440.55691338 -72535450.60761261 0 -72535450.60761261 -133453820.51598358 0 0 0 0 342017043.90471172 -205806484.31385422 0 -205806484.31385422 -61547259.545578003 0 0 0 0 276032568.77268076 -135665497.93444061 0 -135665497.93444061 -133822736.65914154 0 0 0 0 5576731.9667756557 12088720.084770203 0 12088720.084770203 -99843350.344413757 0 0 0 0 305270925.3093853 -37275710.244571686 0 -37275710.244571686 -247534210.65949631 0 0 0 0 387050726.39640713 -194783305.37718964 0 -194783305.37718964 -91745075.292221069 0 0 0 0 397430278.49564409 -105548466.2762804 0 -105548466.2762804 2281650.6030883789 0 0 0 0 609246905.1799736 -319170346.39944458 0 -319170346.39944458 78544712.537273407 0 0 0 0 213597738.96025085 -169102589.4304657 0 -169102589.4304657 42070010.104175568 0 0 0 0 216736338.12957668 -167031900.00406265 0 -167031900.00406265 41052526.318695068 0 0 0 0 294856294.56638551 -318885907.70769691 0 -318885907.70769691 316571474.93897247 0 0 0 0 85211457.80038166 -149377610.60795212 0 -149377610.60795212 257327201.56426239 0 0 0 0 61494627.566267967 61197970.466236115 0 61197970.466236115 191180827.51873016 0 0 0 0 65946185.939055443 56114830.819098473 0 56114830.819098473 679151353.25600433 0 0 0 0 80224933.548538923 33109264.854886055 0 33109264.854886055 232860538.48275757 0 0 0 0 -95503198.822052479 -230675874.5424881 0 -230675874.5424881 644820397.69434834 0 0 0 0 453630569.61365223 -364549690.23920822 0 -364549690.23920822 448091110.35017395 0 0 0 0 365858194.49147987 -469756439.36703491 0 -469756439.36703491 433960599.17572784 0 0 0 0 655889748.46493769 91512340.958109856 0 91512340.958109856 231113017.62440491 0 0 0 0 -21806392.162162781 -119734304.82142258 0 -119734304.82142258 959477708.62211609 0 0 0 0 534512572.73242378 -525179861.6466713 0 -525179861.6466713 609571995.95020676 0 0 0 0 11328911.679138184 -116509202.15415955 0 -116509202.15415955 569095566.93278122 0 0 0 0 1669164.9290866852 11144622.007724762 0 11144622.007724762 195943442.11615753 0 0 0 0 34018084.693151474 131396027.84716415 0 131396027.84716415 290318433.15724564 0 0 0 0 -63201707.017700195 246379702.43315125 0 246379702.43315125 48486966.874740601 0 0 0 0 -61159196.833949044 140877836.8059901 0 140877836.8059901 336988242.96904755 0 0 0 0 16388535.504588604 134497490.58473873 0 134497490.58473873 -173438100.24264526 0 0 0 0 -229550494.17493439 469898308.31284714 0 469898308.31284714 -89653819.746387482 0 0 0 0 257034471.3871789 162825584.13563633 0 162825584.13563633 -487522954.20929718 0 0 0 0 -111723919.56549454 -267856634.80015182 0 -267856634.80015182 68789238.255474091 0 0 0 0 -70537820.041808128 209014952.68616486 0 209014952.68616486 -238535761.80833435 0 0 0 0 -7393487.1541600227 2631532.4304199219 0 2631532.4304199219 4059749.3848762512 0 0 0 0 366092.92726244545 2073678.4974031383 0 2073678.4974031383 3956866.6117435172 0 0 0 0 176452.25474488735 1420997.6570777893 0 1420997.6570777893 807382.18824768066 0 0 0 0 -3529081.1243391037 167508.06372070312 0 167508.06372070312 1047510.695224762 0 0 0 0 -256757.48181492498 1808904.0477874205 0 1808904.0477874205 1766517.9091968155 0 0 0 0 99736.422127682483 934968.98640063778 0 934968.98640063778 361805.70067961514 0 0 0 0 -1098849.4594800174 -1184328.0225673984 0 -1184328.0225673984 595829.1176587902 0 0 0 0 317641.46558642387 -3474017.0436840057 0 -3474017.0436840057 3562773.1484375 0 0 0 0 -7190560.8818082809 -1609498.4027862549 0 -1609498.4027862549 8632582.1860809326 0 0 0 0 -19392789.745730877 -17759286.149894714 0 -17759286.149894714 -13171344.859115601 0 0 0 0 41959020.075166702 -56606325.950279236 0 -56606325.950279236 -458345.52349090576 0 0 0 0 94978952.513952732 61655886.852996826 0 61655886.852996826 39968934.249038696 0 0 0 0 -906249.2386264801 -619468.94032287598 0 -619468.94032287598 92425.843780517578 0 0 0 0 -365949.40941430663 -101065.38616563287 0 -101065.38616563287 316515.43016213365 0 0 0 0 310506745.9131211 -67933864.463996887 0 -67933864.463996887 -89062063.754653931 0 0 0 0 109582709.82391834 -39162167.522403717 0 -39162167.522403717 -89396999.824119866 0 0 0 0 164945164.77042055 -103259112.14332199 0 -103259112.14332199 -29756657.218681335 0 0 0 0 252117208.56878805 -140661748.16327477 0 -140661748.16327477 -29771747.908569336 0 0 0 0 56629353.730893135 -116233194.98453522 0 -116233194.98453522 74642782.879676819 0 0 0 0 32809993.289539337 -45667550.473373413 0 -45667550.473373413 54179100.586549759 0 0 0 0 29462826.310475349 22926727.768718719 0 22926727.768718719 146126297.22403717 0 0 0 0 19616574.161593437 63805270.226795197 0 63805270.226795197 -3686670.4055023193 0 0 0 0 -46450572.103867531 -88834825.312414169 0 -88834825.312414169 84481734.677085876 0 0 0 0 -387523.76988577412 -420115.91751951817 0 -420115.91751951817 230396.49067919515 0 0 0 0 -4410131.5116682053 -32168218.70708847 0 -32168218.70708847 23061016.110069275 0 0 0 0 688555.0882024765 -16767060.531822205 0 -16767060.531822205 -8817919.6267309189 0 0 0 0 -139708025.48540354 6369243.6466445923 0 6369243.6466445923 77855677.066879272 0 0 0 0 -18264.282443384174 1650772.2313368404 0 1650772.2313368404 4018582.1747798249 0 0 0 0 -17654290.962714136 8486783.9305648804 0 8486783.9305648804 3885418.9066925049 0 0 0 0 -384049963.79208136 515952287.18246078 0 515952287.18246078 59682444.851284027 0 0 0 0 -27939104.750274658 17719838.591842651 0 17719838.591842651 -89925149.658914566 0 0 0 0 180712583.97995543 48250774.928676605 0 48250774.928676605 -297736557.7256546 0 0 0 0 374841973.06132698 -554910202.573349 0 -554910202.573349 258246042.02486515 0 0 0 0 68156008.622006416 -579078987.58435822 0 -579078987.58435822 559008121.42139435 0 0 0 0 76919468.141958237 -469658026.38406372 0 -469658026.38406372 522439869.0669632 0 0 0 0 -10182683.007318497 220625401.34720612 0 220625401.34720612 1451271090.2606583 0 0 0 0 -13745823.428269982 286370759.29089093 0 286370759.29089093 528884108.42822266 0 0 0 0 -139734353.95965385 -439482928.54437637 0 -439482928.54437637 840097690.94380951 0 0 0 0 -195048891.12244242 -195518265.34373856 0 -195518265.34373856 318307969.70381165 0 0 0 0 -405919910.16425991 -197047701.43261337 0 -197047701.43261337 458845131.17616272 0 0 0 0 -115286900.4285326 -412423330.87136459 0 -412423330.87136459 503196762.01027679 0 0 0 0 20225105.126416028 -432465546.78647518 0 -432465546.78647518 375831971.38306427 0 0 0 0 -98943162.2165647 -133669567.83160758 0 -133669567.83160758 111194279.31975555 0 0 0 0 117188924.04146701 -350924633.55138397 0 -350924633.55138397 291469121.05241394 0 0 0 0 87887803.225529373 -319321934.02680969 0 -319321934.02680969 593290312.5031662 0 0 0 0 -511568593.47083491 108056278.33690882 0 108056278.33690882 295244072.39303589 0 0 0 0 -63417467.029099941 88773541.062948227 0 88773541.062948227 83613911.873584747 0 0 0 0 -64851895.238856792 50827083.108638763 0 50827083.108638763 -10495302.445656776 0 0 0 0 -373135.46690816281 962636.71920726169 0 962636.71920726169 3288195.1033148915 0 0 0 0 148862530.4393816 96728467.6861763 0 96728467.6861763 -61463517.472419739 0 0 0 0 -8750363.6069192886 56731418.368255615 0 56731418.368255615 28731558.884681702 0 0 0 0 92212095.787996292 144299432.2974472 0 144299432.2974472 94464037.298244476 0 0 0 0 353916173.20648289 38042916.292510986 0 38042916.292510986 -107140000.92085648 0 0 0 0 -300338.9326758692 241943.67385260388 0 241943.67385260388 1375767.4454728831 0 0 0 0 16785094.138518572 578864864.85639668 0 578864864.85639668 599145966.07357025 0 0 0 0 369042107.87296373 19225649.592937469 0 19225649.592937469 596188901.29624939 0 0 0 0 853489345.42209542 56005980.238972187 0 56005980.238972187 230822717.85542297 0 0 0 0 943231033.33430302 -374857360.61036491 0 -374857360.61036491 -378820915.01656342 0 0 0 0 345044353.59814835 -580828678.90646935 0 -580828678.90646935 -3653058.6629238129 0 0 0 0 473704461.56064939 -362617417.03616524 0 -362617417.03616524 135141829.3053112 0 0 0 0 474419287.02064562 -222902533.51879883 0 -222902533.51879883 34745577.232116699 0 0 0 0 300914404.79965997 -154156963.88235474 0 -154156963.88235474 354625411.11038971 0 0 0 0 152826407.70667458 -282707344.88984489 0 -282707344.88984489 243441007.68029404 0 0 0 0 96933030.015528679 -222306094.77082062 0 -222306094.77082062 382758644.0782795 0 0 0 0 43938254.84996891 -439262199.8895874 0 -439262199.8895874 377754889.22070885 0 0 0 0 126831879.01619029 -248616074.61268997 0 -248616074.61268997 379772870.47960663 0 0 0 0 -11826193.376707554 -352748376.45588303 0 -352748376.45588303 445501194.32180405 0 0 0 0 83569340.651765347 -280704094.58230972 0 -280704094.58230972 357124865.57744217 0 0 0 0 85424438.321371436 -276322933.69174147 0 -276322933.69174147 239589070.29894257 0 0 0 0 83854937.365163803 -278433509.00073242 0 -278433509.00073242 237543262.45116043 0 0 0 0 45465691.996452332 -187961750.24064636 0 -187961750.24064636 171360926.73384476 0 0 0 0 131166447.09471512 -243357266.06362152 0 -243357266.06362152 205063009.69998169 0 0 0 0 135914007.63260269 -261212351.37899399 0 -261212351.37899399 192079055.88253021 0 0 0 0 139756327.76235914 -255350368.52116776 0 -255350368.52116776 171335849.36517334 0 0 0 0 91136983.967072487 -307620120.08883667 0 -307620120.08883667 302684363.02496338 0 0 0 0 143630149.52179527 -396537397.55534363 0 -396537397.55534363 279956007.10871887 0 0 0 0 163871649.71235943 -410568028.44077682 0 -410568028.44077682 226848412.92051029 0 0 0 0 318757064.87131357 -346645839.56798172 0 -346645839.56798172 137331231.14472961 0 0 0 0 542399966.60382509 62750685.137434006 0 62750685.137434006 26088178.446342468 0 0 0 0 325083848.08511066 -32492308.696475983 0 -32492308.696475983 24224053.368545949 0 0 0 0 362852209.46768951 -73618369.112003326 0 -73618369.112003326 -70609623.951637268 0 0 0 0 191402428.63511658 -170191260.68472672 0 -170191260.68472672 66227863.206771851 0 0 0 0 109165452.97731113 -52353173.334108353 0 -52353173.334108353 -48491909.666862488 0 0 0 0 155099940.73122406 -49850720.904018402 0 -49850720.904018402 77193446.929458618 0 0 0 0 119504339.37181282 -169710111.92553711 0 -169710111.92553711 130508291.11943054 0 0 0 0 289934360.734869 -108156438.4694252 0 -108156438.4694252 230890501.98246765 0 0 0 0 986358897.96057081 -230598474.79407215 0 -230598474.79407215 80955662.778793335 0 0 0 0 384758787.48566818 -267359464.60919571 0 -267359464.60919571 243201980.3603363 0 0 0 0 285088.12133160466 -1246212.7869302421 0 -1246212.7869302421 832502.02241327427 0 0 0 0 -123757688.55744648 19801476.037796021 0 19801476.037796021 24946796.570106506 0 0 0 0 192915.11769145366 -395404.60631849151 0 -395404.60631849151 225923.24542134255 0 0 0 0 165403577.64644051 228646735.57586479 0 228646735.57586479 273134957.48225403 0 0 0 0 174517053.0707531 239608884.12228966 0 239608884.12228966 40529112.065597534 0 0 0 0 192053695.11736012 200498352.09859848 0 200498352.09859848 -51602261.223144531 0 0 0 0 113612420.88581276 217857567.88304138 0 217857567.88304138 264101769.40824604 0 0 0 0 97913341.460573196 152221870.66733551 0 152221870.66733551 31062282.953414917 0 0 0 0 170640804.14815378 198842127.49698067 0 198842127.49698067 32226425.0493927 0 0 0 0 -12287392.087269545 57075683.702994347 0 57075683.702994347 -41121046.469604492 0 0 0 0 -354589092.15457487 -6213841.696149826 0 -6213841.696149826 134778033.55722618 0 0 0 0 430161.25769002142 -911671.61178817274 0 -911671.61178817274 610596.90594540536 0 0 0 0 -67541642.662016869 -50186843.149330139 0 -50186843.149330139 -30479990.218559265 0 0 0 0 -222645667.45704746 -47245.412868499756 0 -47245.412868499756 40058184.754821777 0 0 0 0 -145058529.92989349 86726674.072551727 0 86726674.072551727 25928995.762889862 0 0 0 0 568300.45209048013 -2777801.8486471251 0 -2777801.8486471251 2682815.7056883499 0 0 0 0 100605855.26687908 79599353.769892693 0 79599353.769892693 57639881.630069733 0 0 0 0 332046.54228915763 -658534.38924775738 0 -658534.38924775738 300169.49427437596 0 0 0 0 20130092.872830868 -54704497.086523056 0 -54704497.086523056 -80949267.642227173 0 0 0 0 55390312.881371498 -154152529.15003204 0 -154152529.15003204 -79580914.576135159 0 0 0 0 283760716.67274761 -25789375.924295425 0 -25789375.924295425 -54089688.008766174 0 0 0 0 176875549.10432148 -114760066.01093292 0 -114760066.01093292 -52721715.52114296 0 0 0 0 342042068.14241862 -52672685.3589921 0 -52672685.3589921 -72953049.574127197 0 0 0 0 185317380.16076088 -162357939.28525162 0 -162357939.28525162 -118652571.50601959 0 0 0 0 -8791895.3292894363 -27099475.531013489 0 -27099475.531013489 -182247137.66298676 0 0 0 0 233322064.75265694 -153203971.49112988 0 -153203971.49112988 -157903266.28761864 0 0 0 0 2864942.8356631459 -3461990.5921873627 0 -3461990.5921873627 3460752.2193357041 0 0 0 0 137065600.87370145 585432688.89312553 0 585432688.89312553 250863929.1337738 0 0 0 0 166231912.17695343 245826619.74624872 0 245826619.74624872 452370713.24320984 0 0 0 0 556404192.47391081 346809635.06363964 0 346809635.06363964 370978916.04759884 0 0 0 0 234130148.44810402 374098334.4403944 0 374098334.4403944 564088746.0144558 0 0 0 0 1068099.88502049 -1065434.998644223 0 -1065434.998644223 977785.62416194938 0 0 0 0 560232113.41606045 496637350.88626385 0 496637350.88626385 847233857.62751389 0 0 0 0 767878283.93559933 573103485.32094193 0 573103485.32094193 -620395267.65825081 0 0 0 0 230553263.33425081 -196059839.10564524 0 -196059839.10564524 -141598853.59326935 0 0 0 0 61412157.668017149 -242108008.84070969 0 -242108008.84070969 -137410777.47760487 0 0 0 0 600990.55795597739 -3236265.2987905662 0 -3236265.2987905662 4594225.5532810558 0 0 0 0 -40616337.567261219 -215299209.41351414 0 -215299209.41351414 -61888150.374834061 0 0 0 0 -260327126.3802042 -98684504.388319016 0 -98684504.388319016 177455606.78588867 0 0 0 0 -154126320.70218801 30110726.219845772 0 30110726.219845772 297261008.85033417 0 0 0 0 538819148.25798798 -376555691.76810455 0 -376555691.76810455 -10037566.803207397 0 0 0 0 -864063420.34521317 -207302534.16744375 0 -207302534.16744375 2033164887.8562737 0 0 0 0 187315310.0583353 -256385019.67572594 0 -256385019.67572594 51170117.380146027 0 0 0 0 930346378.2533102 -597490821.85440063 0 -597490821.85440063 -144707877.11042786 0 0 0 0 477149.78659815359 -2513812.0433546784 0 -2513812.0433546784 5058082.3128322447 0 0 0 0 778890013.80174351 13530392.554037094 0 13530392.554037094 -129941088.96370697 0 0 0 0 783782543.59530604 -503533980.21556944 0 -503533980.21556944 54206183.098731995 0 0 0 0 1708619533.707366 -477532906.16320801 0 -477532906.16320801 128960305.13152122 0 0 0 0 673279030.79128695 -352398638.96472168 0 -352398638.96472168 274429574.74776459 0 0 0 0 237635.60369639093 -890252.25914922578 0 -890252.25914922578 2296535.5853757132 0 0 0 0 811348262.9290328 889388820.57224655 0 889388820.57224655 -69983233.003358841 0 0 0 0 617937707.2849071 969522412.31567478 0 969522412.31567478 742673036.90590858 0 0 0 0 629491304.61129415 259394672.91423702 0 259394672.91423702 846884010.01680183 0 0 0 0 560989099.98569036 220114960.92012978 0 220114960.92012978 438873362.24056768 0 0 0 0 658828542.91765738 287376890.01767349 0 287376890.01767349 464243697.71097755 0 0 0 0 436440547.26575667 96356416.015797615 0 96356416.015797615 396763366.54108429 0 0 0 0 311171181.76756668 301391735.24980164 0 301391735.24980164 404340587.79070914 0 0 0 0 524526450.32364583 148343024.06000948 0 148343024.06000948 474185772.99199867 0 0 0 0 522860380.64892435 135888032.44278955 0 135888032.44278955 397834977.88492966 0 0 0 0 1013462111.7597313 127271720.56911469 0 127271720.56911469 -600885929.13915539 0 0 0 0 548462139.13181782 -165480537.44863319 0 -165480537.44863319 1024709916.3799977 0 0 0 0 987971026.07463813 89901540.592700958 0 89901540.592700958 348187313.97818375 0 0 0 0 -150045679.4276495 -154038877.94494057 0 -154038877.94494057 50577093.015205383 0 0 0 0 -215727085.92698669 -5960755.2265605927 0 -5960755.2265605927 103800034.04296875 0 0 0 0 -24450151.752227783 8558925.8551864624 0 8558925.8551864624 4618569.3858413696 0 0 0 0 31757564.010186195 -185657386.18278885 0 -185657386.18278885 175804560.98323059 0 0 0 0 10567294.558088303 -201526721.95425034 0 -201526721.95425034 208116040.24765587 0 0 0 0 33214297.563483238 -140171667.05644226 0 -140171667.05644226 82236250.316596985 0 0 0 0 -103621438.07044983 -120759668.21863365 0 -120759668.21863365 141900785.39862061 0 0 0 0 -30442682.714144707 -193726799.29171562 0 -193726799.29171562 143314421.80448151 0 0 0 0 55198279.782715321 -186519907.09720612 0 -186519907.09720612 136674525.2658844 0 0 0 0 80400104.787901044 -300322165.509902 0 -300322165.509902 200873774.88524628 0 0 0 0 87215896.225313187 -217653911.60601234 0 -217653911.60601234 149627388.06581497 0 0 0 0 -66251716.412293434 -284022613.53324699 0 -284022613.53324699 156810272.60093689 0 0 0 0 -107672429.8518877 -105729651.85385132 0 -105729651.85385132 103782105.72030258 0 0 0 0 70853479.384643078 -247163819.4179039 0 -247163819.4179039 63847725.69965744 0 0 0 0 259195700.79144061 -384535662.16197968 0 -384535662.16197968 50705698.371032715 0 0 0 0 59783025.041023493 -262174129.35030365 0 -262174129.35030365 132045938.34296608 0 0 0 0 223503682.91784066 -355546308.21739197 0 -355546308.21739197 143044233.10463047 0 0 0 0 235078366.14730334 -229308444.91900635 0 -229308444.91900635 217219989.14943123 0 0 0 0 306953096.59864056 -369436100.41786671 0 -369436100.41786671 213144093.10202408 0 0 0 0 289119040.53177142 -274299415.69536591 0 -274299415.69536591 220441530.18996048 0 0 0 0 558332520.09720039 -245577971.59544563 0 -245577971.59544563 80206030.024997711 0 0 0 0 612350408.03683555 -297481641.40863037 0 -297481641.40863037 -91337745.477787018 0 0 0 0 501860416.92687839 -560708902.47143221 0 -560708902.47143221 145042663.06739426 0 0 0 0 602956441.24374819 -332577071.500597 0 -332577071.500597 -94933256.626126528 0 0 0 0 644366294.05334449 -491022605.20074844 0 -491022605.20074844 98280797.71799469 0 0 0 0 65760267.43493931 -422669377.51429015 0 -422669377.51429015 572553814.6803894 0 0 0 0 49271594.014377393 -218349106.61175156 0 -218349106.61175156 22379291.89670372 0 0 0 0 -88600940.940988302 -464840233.70645809 0 -464840233.70645809 254211444.38345337 0 0 0 0 233476820.96147346 -302869086.57525826 0 -302869086.57525826 9700097.0597991943 0 0 0 0 -239857809.7053864 -113388224.80518341 0 -113388224.80518341 6541226.0188674927 0 0 0 0 -257642735.27121782 -248710572.32513618 0 -248710572.32513618 150811489.68083 0 0 0 0 -516435652.70899737 185846497.929842 0 185846497.929842 -250554529.04198456 0 0 0 0 -467948326.53639603 -246047761.24604511 0 -246047761.24604511 64873361.831504822 0 0 0 0 -523249010.88206339 28849506.503128052 0 28849506.503128052 -215748049.37540054 0 0 0 0 -1898435.3259780663 -1543555.4725629557 0 -1543555.4725629557 1705850.3484932501 0 0 0 0 -697397649.87190866 74460152.411563873 0 74460152.411563873 103384393.91915894 0 0 0 0 -595310968.88022566 320155662.84873962 0 320155662.84873962 -115199611.60999298 0 0 0 0 -240700928.8948482 45207251.029224277 0 45207251.029224277 -74625984.35515213 0 0 0 0 153801910.45047238 -11766417.714864731 0 -11766417.714864731 189400356.25137615 0 0 0 0 -347613.09230426099 -906921.06248681201 0 -906921.06248681201 1930037.1640447546 0 0 0 0 -404073.86284099292 -1367989.5501895421 0 -1367989.5501895421 4230793.5535237845 0 0 0 0 440892833.82440329 -237613387.71369267 0 -237613387.71369267 92953966.847801208 0 0 0 0 -752875209.20407534 510792325.61752892 0 510792325.61752892 232925978.22443199 0 0 0 0 -1117746.6310361288 -2489373.0788928866 0 -2489373.0788928866 5785409.328186769 0 0 0 0 -1229385.9256000731 -689218.19625343475 0 -689218.19625343475 1380309.7199051417 0 0 0 0 -1411985001.8366344 369906842.33571053 0 369906842.33571053 318328629.54120255 0 0 0 0 -521133667.46861088 -29004762.550076008 0 -29004762.550076008 -502160395.70729065 0 0 0 0 -921666478.6716814 -301017609.49195194 0 -301017609.49195194 142981888.48691177 0 0 0 0 -981512659.33039713 625625682.15920067 0 625625682.15920067 690770424.53165817 0 0 0 0 93094082.330902368 488117570.39635658 0 488117570.39635658 -560617812.48692703 0 0 0 0 72754202.497141287 713506302.79457664 0 713506302.79457664 944560348.95231247 0 0 0 0 -124874438.71306348 123073388.0163765 0 123073388.0163765 95682105.655467987 0 0 0 0 -534533973.26828647 -276113594.62083799 0 -276113594.62083799 388734827.13451767 0 0 0 0 -101006569.0840576 -9175063.7393429279 0 -9175063.7393429279 792597051.58021927 0 0 0 0 384502652.05617976 -85279014.698863983 0 -85279014.698863983 411597941.5090456 0 0 0 0 454592387.01612025 518148156.41859055 0 518148156.41859055 255718292.69785118 0 0 0 0 390449424.5475952 607128000.97203016 0 607128000.97203016 1607026262.9320564 0 0 0 0 228721255.46060836 940131179.61966705 0 940131179.61966705 1559420796.2995892 0 0 0 0 211001270.22780696 1065930901.2191873 0 1065930901.2191873 677895109.41633987 0 0 0 0 196507563.5570358 1173253815.6483083 0 1173253815.6483083 1458341704.0498905 0 0 0 0 44911716.175086007 1003896800.6341791 0 1003896800.6341791 1677227779.1475449 0 0 0 0 20680501.784580622 1628450387.1652603 0 1628450387.1652603 2199652172.8429108 0 0 0 0 -195087237.21809676 1255845956.7770386 0 1255845956.7770386 1506328405.0222092 0 0 0 0 -132883995.56110072 1330257384.6191568 0 1330257384.6191568 556015910.26288605 0 0 0 0 -297059.03270509391 16548.738919440424 0 16548.738919440424 473879.21773742326 0 0 0 0 -410603537.47113562 -86261631.729408264 0 -86261631.729408264 -838870427.09799957 0 0 0 0 369731390.68193054 -598900199.21073246 0 -598900199.21073246 2187275797.7562141 0 0 0 0 214334124.47160167 1546504297.5674706 0 1546504297.5674706 1797471944.4924698 0 0 0 0 -38879.884497144732 -1119049.2401407582 0 -1119049.2401407582 2220542.520762397 0 0 0 0 -403173.9334760062 -1370219.620853622 0 -1370219.620853622 1514911.6262731366 0 0 0 0 1006229314.2724657 -1262522589.258379 0 -1262522589.258379 1055228926.8669472 0 0 0 0 10262461.043895334 254263863.73297024 0 254263863.73297024 193845766.95988464 0 0 0 0 397436054.48692858 -483925862.59352398 0 -483925862.59352398 81292110.743927002 0 0 0 0 789661919.33712542 -240010709.20099163 0 -240010709.20099163 1614451943.6701937 0 0 0 0 36768081.467937291 -163774512.61844921 0 -163774512.61844921 1568932859.9166431 0 0 0 0 363523066.03302497 224566550.3570047 0 224566550.3570047 1089082851.6312561 0 0 0 0 274082003.55523604 22924748.774118423 0 22924748.774118423 944886465.78174782 0 0 0 0 322938051.57893056 -15192092.20548135 0 -15192092.20548135 1834934632.1345997 0 0 0 0 334859148.94462538 838854222.46606636 0 838854222.46606636 1396731682.8247728 0 0 0 0 1191593880.9063914 -901779015.34928417 0 -901779015.34928417 856599103.46182632 0 0 0 0 462738047.42169154 -436963501.14958 0 -436963501.14958 1694604049.6859989 0 0 0 0 1088503595.1770966 744620574.02872658 0 744620574.02872658 1120542410.0302219 0 0 0 0 1371800945.6232936 199502175.61171889 0 199502175.61171889 1473642493.735302 0 0 0 0 522056984.78005755 674256822.91155338 0 674256822.91155338 2205447272.0997009 0 0 0 0 482457231.07145613 441498308.25542164 0 441498308.25542164 1450486074.0936127 0 0 0 0 435899703.02885723 244215920.66384315 0 244215920.66384315 2204255179.0619659 0 0 0 0 255658990.72544408 59926603.610800743 0 59926603.610800743 1793951485.4752579 0 0 0 0 -15591365.949635586 -10128897.305854797 0 -10128897.305854797 2204921408.9721012 0 0 0 0 228640528.89527535 -49287464.04727602 0 -49287464.04727602 1805981037.2397728 0 0 0 0 -101985302.2968539 -211407816.82938004 0 -211407816.82938004 1736125122.6652527 0 0 0 0 -265124613.22865483 -305599941.60670519 0 -305599941.60670519 2204474284.0576315 0 0 0 0 -28896167.213512436 -377305451.24555302 0 -377305451.24555302 1404138758.1194305 0 0 0 0 112664318.34509692 -112099657.36825752 0 -112099657.36825752 1768722210.1615415 0 0 0 0 -525779256.15517062 -715839347.97835112 0 -715839347.97835112 2205234596.3554029 0 0 0 0 -375980860.26056755 -567058759.18328428 0 -567058759.18328428 1656735811.4248228 0 0 0 0 -395944121.6660679 -323683702.44118595 0 -323683702.44118595 1684572529.0047307 0 0 0 0 -196127679.96381837 -538921203.59593773 0 -538921203.59593773 775013537.09300423 0 0 0 0 -226463.4520451976 41967.802575393813 0 41967.802575393813 820508.85228651203 0 0 0 0 -649633105.57460272 902911613.80264616 0 902911613.80264616 348187672.84500957 0 0 0 0 -443476764.20805442 306340279.56083798 0 306340279.56083798 1819191439.2962112 0 0 0 0 260596352.32790506 718255348.16630459 0 718255348.16630459 1116171285.0386209 0 0 0 0 369448347.53862977 203251001.77093029 0 203251001.77093029 5691552.919137001 0 0 0 0 -70107529.757101536 134665166.74328518 0 134665166.74328518 1291055847.7529116 0 0 0 0 373489193.29293489 -850627099.17061186 0 -850627099.17061186 1416864165.4300165 0 0 0 0 6334329.2032801397 80394065.365468979 0 80394065.365468979 1525362721.4134092 0 0 0 0 -267465.69745628949 -122278.98236393509 0 -122278.98236393509 1060857.6412689704 0 0 0 0 -392532338.98853749 -486270677.59634256 0 -486270677.59634256 561262262.69869232 0 0 0 0 -306689752.49411875 -595778709.46087646 0 -595778709.46087646 -266252143.20882416 0 0 0 0 257179278.44822776 -76250666.333606958 0 -76250666.333606958 371479884.96393967 0 0 0 0 -310808991.7356571 -220809253.71077633 0 -220809253.71077633 1281695708.1771393 0 0 0 0 120687411.9114517 52878580.469009399 0 52878580.469009399 486046191.83813858 0 0 0 0 350665985.37881589 241824211.3097477 0 241824211.3097477 246159884.70996094 0 0 0 0 93396385.791046858 258619226.7850647 0 258619226.7850647 378822325.13220024 0 0 0 0 296303446.27247357 257543975.29715633 0 257543975.29715633 295466826.2401886 0 0 0 0 -4986882.4267590046 330841373.22914982 0 330841373.22914982 284469929.36358643 0 0 0 0 -9951878.9614980221 178572363.50579166 0 178572363.50579166 12626984.218697548 0 0 0 0 96973983.541208327 213781480.33272576 0 213781480.33272576 125395817.17201614 0 0 0 0 -168251700.55215997 59590546.477915645 0 59590546.477915645 117956144.58237457 0 0 0 0 -187199902.68676925 194359451.7027235 0 194359451.7027235 251946318.26889038 0 0 0 0 120821213.99276401 54736341.387966454 0 54736341.387966454 -104134263.15806198 0 0 0 0 -494571450.68778485 -128403711.66799197 0 -128403711.66799197 111259828.465271 0 0 0 0 -592343.80680036254 -56808.747191305389 0 -56808.747191305389 1899807.9410220133 0 0 0 0 -472428741.14271712 164430179.15198421 0 164430179.15198421 214197377.80082989 0 0 0 0 11988816.998174161 223965734.48924035 0 223965734.48924035 -370489.10147094727 0 0 0 0 25329406.045776367 -172637077.34892273 0 -172637077.34892273 175715575.13468909 0 0 0 0 -298418800.18542767 -30632348.630239487 0 -30632348.630239487 -50053230.067022324 0 0 0 0 -224053819.68281651 109672974.90644073 0 109672974.90644073 -35358558.016061187 0 0 0 0 -312119306.33443928 124842602.29411316 0 124842602.29411316 197342607.73571301 0 0 0 0 -204866220.20321596 81610385.914628983 0 81610385.914628983 -6470985.0544185638 0 0 0 0 221218451.26008403 419138950.04317093 0 419138950.04317093 -97009700.271465302 0 0 0 0 236503.34732621524 199497.67614870612 0 199497.67614870612 98686.849584334996 0 0 0 0 1699678.0100957453 114109081.59382647 0 114109081.59382647 176662268.89600945 0 0 0 0 -160162.90183569374 -41287.139757201192 0 -41287.139757201192 396244.62895249296 0 0 0 0 361119.22620211495 523852.93703751033 0 523852.93703751033 481172.48107467964 0 0 0 0 -21675533.230514526 -85316643.794717789 0 -85316643.794717789 111931250.90210533 0 0 0 0 1870216.1820044518 16311517.897349358 0 16311517.897349358 60981345.355792046 0 0 0 0 -763011790.59378147 3096694.84025383 0 3096694.84025383 181388560.35432053 0 0 0 0 -160237276.85158205 -252488335.42727137 0 -252488335.42727137 -256099934.51039124 0 0 0 0 4412522.2823860645 324690637.05835199 0 324690637.05835199 233512637.04276085 0 0 0 0 -657398161.59097004 599594475.34092236 0 599594475.34092236 -17769640.008702278 0 0 0 0 65791549.73788929 490500615.55845737 0 490500615.55845737 -569341720.03790665 0 0 0 0 102073844.35084337 86971725.910717964 0 86971725.910717964 773391041.66439629 0 0 0 0 58477256.060514212 -73899376.617650032 0 -73899376.617650032 198391307.95845795 0 0 0 0 358967877.85192966 425710025.83307648 0 425710025.83307648 473572009.83282471 0 0 0 0 176214321.0910306 500692580.91010094 0 500692580.91010094 375264263.2195344 0 0 0 0 235730024.77755928 387142608.55182171 0 387142608.55182171 581118347.89003563 0 0 0 0 -621030.5204181805 -133917.73586934106 0 -133917.73586934106 378065.68040840724 0 0 0 0 313542495.01062274 174532900.10604191 0 174532900.10604191 435691277.04828453 0 0 0 0 248420000.35753077 369456877.6855092 0 369456877.6855092 -19728037.7056427 0 0 0 0 -27553777.209616661 579339054.45489883 0 579339054.45489883 393537645.5635581 0 0 0 0 105660991.49967325 469024050.49752235 0 469024050.49752235 447126831.82603836 0 0 0 0 249958872.7448287 400572570.77760744 0 400572570.77760744 359453395.98370552 0 0 0 0 125078545.31238915 393749527.04597473 0 393749527.04597473 422484467.22846794 0 0 0 0 109635900.57249677 334589868.17576122 0 334589868.17576122 196587548.85263824 0 0 0 0 116041465.76104474 611555491.16687393 0 611555491.16687393 350182206.15087986 0 0 0 0 69385700.994564891 549647635.4172349 0 549647635.4172349 268093485.42224884 0 0 0 0 -66568316.146051109 90871063.754077315 0 90871063.754077315 -63753081.442375183 0 0 0 0 -57364652.670883596 121799785.63385558 0 121799785.63385558 -144793094.16335297 0 0 0 0 -145942818.57929611 153688911.59085369 0 153688911.59085369 -71598321.805866241 0 0 0 0 -51809555.405748963 93190624.101650238 0 93190624.101650238 -75437599.534620285 0 0 0 0 -52110839.757047415 64895142.796823502 0 64895142.796823502 -27045354.628775597 0 0 0 0 -57723812.497195967 41346543.52138567 0 41346543.52138567 5820234.1221618652 0 0 0 0 -54881228.056847058 67138911.579367816 0 67138911.579367816 -28827037.692716599 0 0 0 0 -16197199.389138401 12117785.262927771 0 12117785.262927771 -13180011.361831665 0 0 0 0 -19368875.938267767 39895016.031853676 0 39895016.031853676 -64366168.521948814 0 0 0 0 -4353453.7206782615 2111807.565234561 0 2111807.565234561 3890363.2499799025 0 0 0 0 -17365592.292604446 -2999846.1886358261 0 -2999846.1886358261 4062688.3902130127 0 0 0 0 4998962.8210366722 -1000732.4682811499 0 -1000732.4682811499 -29388972.666812897 0 0 0 0 -52478521.363539457 34656032.244558334 0 34656032.244558334 -37714642.790793419 0 0 0 0 -3408316.9459415488 139828.18789570942 0 139828.18789570942 1956116.0613038051 0 0 0 0 6324112.2283172607 21609078.332857132 0 21609078.332857132 7265956.1408948898 0 0 0 0 -892347.09721469879 43842018.885234833 0 43842018.885234833 -103431484.8979702 0 0 0 0 -54282097.639864087 -57371560.067553759 0 -57371560.067553759 -32682492.329257965 0 0 0 0 2115335.847700119 -12728758.649116516 0 -12728758.649116516 -185553622.46485138 0 0 0 0 10473652.046239376 52682816.910441399 0 52682816.910441399 -462404826.33003235 0 0 0 0 -310191671.66563225 586879612.66469574 0 586879612.66469574 -628882315.59064102 0 0 0 0 -701960717.18913078 178070088.82966518 0 178070088.82966518 -91386526.337450504 0 0 0 0 -43720705.394556046 287395535.75802422 0 287395535.75802422 -846586758.64194584 0 0 0 0 -1189998.1819442203 -23009.504530913197 0 -23009.504530913197 615204.5277233778 0 0 0 0 -598247448.48921335 656347414.86145353 0 656347414.86145353 -299696254.88417435 0 0 0 0 -381168748.68304873 67864833.381542206 0 67864833.381542206 -4579346.4902744293 0 0 0 0 -519829873.19104862 407635681.55832481 0 407635681.55832481 44399015.130435944 0 0 0 0 -298559609.34044266 147848410.00502968 0 147848410.00502968 47296326.458469562 0 0 0 0 -100379805.40633893 170534041.83013391 0 170534041.83013391 -163922350.37534142 0 0 0 0 -107834453.21632099 160429401.34857178 0 160429401.34857178 -171868912.05603087 0 0 0 0 -185381114.21608353 279748522.68480873 0 279748522.68480873 -283228930.49205875 0 0 0 0 -187863621.58347559 264006825.8776741 0 264006825.8776741 -373116347.30523014 0 0 0 0 -317107420.16741252 186459304.28455496 0 186459304.28455496 -31619869.382364273 0 0 0 0 -182667148.17800426 222248614.78575134 0 222248614.78575134 -150106400.27199531 0 0 0 0 -216176256.24312657 151857352.06659651 0 151857352.06659651 -23002732.224428177 0 0 0 0 -173071312.65531611 184227506.06896162 0 184227506.06896162 -29378228.743659019 0 0 0 0 -222339890.07690144 158344162.7302494 0 158344162.7302494 -24243460.47753334 0 0 0 0 -242053445.40831375 73507087.73822546 0 73507087.73822546 -9024949.6541597843 0 0 0 0 -269539056.93125415 137350201.32363939 0 137350201.32363939 -28020922.277713776 0 0 0 0 -407267.47170648118 -195071.01651968155 0 -195071.01651968155 675817.49895020388 0 0 0 0 73083921.377739906 -240882980.73941517 0 -240882980.73941517 321400878.16203356 0 0 0 0 -218611778.30186415 141671604.9386878 0 141671604.9386878 -63171162.735207558 0 0 0 0 -275865227.12341809 335801301.37772274 0 335801301.37772274 -60311626.575021543 0 0 0 0 -126096.37078099954 -137.07112497254275 0 -137.07112497254275 322338.02281775326 0 0 0 0 -249292852.78916228 238781215.74757433 0 238781215.74757433 251839735.18189907 0 0 0 0 -159543319.07947206 151767518.54698133 0 151767518.54698133 34054810.342803001 0 0 0 0 -187209279.43179753 120395324.39943647 0 120395324.39943647 182110190.59769726 0 0 0 0 -141519064.15131384 175878330.39310455 0 175878330.39310455 31359793.622491837 0 0 0 0 -130986402.74065942 149961675.91685295 0 149961675.91685295 -9622599.6834954023 0 0 0 0 -92999738.388380885 113328434.89159298 0 113328434.89159298 -15459334.252702713 0 0 0 0 -117437651.37030549 135327738.93565056 0 135327738.93565056 -35071233.226400375 0 0 0 0 -116317740.75649714 156884971.6122303 0 156884971.6122303 -76044289.23981142 0 0 0 0 -99201806.240939558 102022390.58034039 0 102022390.58034039 2115593.3721008301 0 0 0 0 -119517600.31160945 121816245.69159126 0 121816245.69159126 52867086.89379406 0 0 0 0 -98560264.781544149 94580213.131094933 0 94580213.131094933 12610932.169418335 0 0 0 0 -164372194.73945963 102187227.70916033 0 102187227.70916033 69518922.403517246 0 0 0 0 -182955064.84556499 102068976.50115836 0 102068976.50115836 79189543.682672501 0 0 0 0 -248757521.99849093 41724840.227936745 0 41724840.227936745 138611270.45358086 0 0 0 0 -203528514.20110554 5129954.2149181366 0 5129954.2149181366 94313336.876533031 0 0 0 0 -222169160.37367183 98710610.341251373 0 98710610.341251373 182104800.70756149 0 0 0 0 -188260172.28778321 -2700550.6152005196 0 -2700550.6152005196 457549138.35536194 0 0 0 0 -191905274.58071899 -46815241.183342934 0 -46815241.183342934 320605476.53443146 0 0 0 0 -135818217.53657281 -122345549.85931492 0 -122345549.85931492 185184090.80109692 0 0 0 0 -136304363.33163947 -179595573.70270205 0 -179595573.70270205 286090090.85299778 0 0 0 0 -119906714.10327259 -142222891.18537188 0 -142222891.18537188 84820826.265022755 0 0 0 0 -319581246.08776748 -197702707.17912865 0 -197702707.17912865 49436510.568863869 0 0 0 0 -303477591.96248716 -28941412.250265658 0 -28941412.250265658 47995421.316469193 0 0 0 0 -224539767.75244308 -84034913.824672222 0 -84034913.824672222 -60340668.774318695 0 0 0 0 -266421276.30966544 -55495542.95210743 0 -55495542.95210743 170019011.62914944 0 0 0 0 -128849347.79586756 16320830.083965659 0 16320830.083965659 760497347.27985764 0 0 0 0 -77329806.942011595 -218999679.73458433 0 -218999679.73458433 800952227.69572103 0 0 0 0 -129185248.88209605 -53161770.77782917 0 -53161770.77782917 335555023.54375839 0 0 0 0 -141752882.06559885 -163843413.99005175 0 -163843413.99005175 481035939.64926434 0 0 0 0 -99090412.048548341 -368579103.0787611 0 -368579103.0787611 361362311.70715141 0 0 0 0 196932439.473943 -224770740.02377152 0 -224770740.02377152 507188619.00448036 0 0 0 0 -495714710.64655089 -292162816.84124207 0 -292162816.84124207 1189616958.841073 0 0 0 0 59978443.1947577 -348354622.99969912 0 -348354622.99969912 543752828.15492892 0 0 0 0 -761778.05795556586 -97209.201269137906 0 -97209.201269137906 1956834.174989905 0 0 0 0 24339811.963769555 -241676532.45869589 0 -241676532.45869589 393214471.33026981 0 0 0 0 -1180483.1773218759 -461170.93648529972 0 -461170.93648529972 2157210.8869995596 0 0 0 0 485637175.49687093 -1383174520.7469213 0 -1383174520.7469213 2202551954.6125031 0 0 0 0 -418836234.38231969 119837313.85799384 0 119837313.85799384 159346306.59561777 0 0 0 0 15187277.847615974 -703359063.05572271 0 -703359063.05572271 1227158069.6966693 0 0 0 0 -387726408.86535376 -164880457.45036817 0 -164880457.45036817 57158314.135085106 0 0 0 0 -328335954.98646355 155079611.96840954 0 155079611.96840954 -251354415.33334002 0 0 0 0 -452367437.18537629 16683348.913879395 0 16683348.913879395 -44229384.280699253 0 0 0 0 498265350.10766292 -389603691.52850246 0 -389603691.52850246 -273646185.09302235 0 0 0 0 -444319151.8804059 -326214750.3379755 0 -326214750.3379755 -343993814.64720917 0 0 0 0 -80127.243377579143 -59559.88927067758 0 -59559.88927067758 93022.725119988259 0 0 0 0 91692866.547874421 -212345162.15812969 0 -212345162.15812969 957227.32451629639 0 0 0 0 38436370.015210629 -328854370.87412786 0 -328854370.87412786 82765070.594379902 0 0 0 0 -30847129.852392972 -426866449.83331537 0 -426866449.83331537 392197376.15593147 0 0 0 0 32524360.472016811 -323711174.57230783 0 -323711174.57230783 80639399.71298027 0 0 0 0 507684726.72347677 -796969218.10713387 0 -796969218.10713387 107451859.10006869 0 0 0 0 -188822938.00917989 -1282508153.0961328 0 -1282508153.0961328 2194049294.4700651 0 0 0 0 -523017587.27519017 -203907959.28173274 0 -203907959.28173274 634381915.1486969 0 0 0 0 -360630352.07116514 -548582579.72296011 0 -548582579.72296011 1362801474.4767542 0 0 0 0 754333811.48234177 -708737903.18988156 0 -708737903.18988156 390465770.75121307 0 0 0 0 -989561.64959112485 1233719.4284744917 0 1233719.4284744917 2413360.3019693797 0 0 0 0 50463164.699062616 597680537.03780222 0 597680537.03780222 2200694201.3958426 0 0 0 0 -40953228.506957084 74461369.679448605 0 74461369.679448605 1232183292.9620872 0 0 0 0 -1402835.4278110792 554277.27045549126 0 554277.27045549126 2741005.3980106455 0 0 0 0 -4487824.3306779861 -3025087.5794153214 0 -3025087.5794153214 10129259.472637653 0 0 0 0 -3480979.5835471153 -1243988.3716497421 0 -1243988.3716497421 8073122.834145546 0 0 0 0 -3327985.102070272 -239104.92294597626 0 -239104.92294597626 14660115.542689323 0 0 0 0 -109842369.59048298 -228415838.35430944 0 -228415838.35430944 2205450988.8316612 0 0 0 0 -2418413.6469798088 3349997.5265378952 0 3349997.5265378952 13006451.288349628 0 0 0 0 -917506.43468771491 678260.89234390552 0 678260.89234390552 1886952.3904834371 0 0 0 0 -13580553.389502555 -307762424.97920227 0 -307762424.97920227 2016573830.5918493 0 0 0 0 107128835.2359644 -492999020.19690561 0 -492999020.19690561 2205622211.1298294 0 0 0 0 -5922583.9938673973 -7651402.7760038376 0 -7651402.7760038376 36179060.052743912 0 0 0 0 -5084302.0824522972 -8480613.3407897949 0 -8480613.3407897949 24569105.036159515 0 0 0 0 72039.208866265602 224008.73857788858 0 224008.73857788858 -101983.9814956435 0 0 0 0 4341924.3397927284 -16054525.434196472 0 -16054525.434196472 30403678.629059792 0 0 0 0 9064525.2101449966 -7928636.925907135 0 -7928636.925907135 18273344.427747726 0 0 0 0 2716623.3128628731 -9039456.7459506989 0 -9039456.7459506989 10833168.464518309 0 0 0 0 3127663.1763892174 -1441587.999174118 0 -1441587.999174118 684413.11457192898 0 0 0 0 339322.33923512872 -2673945.1872397885 0 -2673945.1872397885 333704.35870847176 0 0 0 0 4111.0619133114815 -12013410.752608538 0 -12013410.752608538 14455762.963263512 0 0 0 0 2806666.7408845425 -10156475.322510242 0 -10156475.322510242 10997225.028722286 0 0 0 0 122082.94275569916 -4189572.2911980152 0 -4189572.2911980152 3184976.8563632965 0 0 0 0 549655.62864496023 -2248644.3949999195 0 -2248644.3949999195 -543128.79055829253 0 0 0 0 -739034.67417573929 -5000338.5454609394 0 -5000338.5454609394 3506360.4340569973 0 0 0 0 -227321.55508815049 -2524843.3499632571 0 -2524843.3499632571 4531021.031461224 0 0 0 0 -213187876.43124086 32804219.430487394 0 32804219.430487394 20350135.090432167 0 0 0 0 -245973660.28782248 -5912438.8051054478 0 -5912438.8051054478 45596726.788628578 0 0 0 0 -240845.29235323984 -2561247.0155518977 0 -2561247.0155518977 4722568.2651234632 0 0 0 0 -168480081.42018998 23885899.089147568 0 23885899.089147568 335666482.03776979 0 0 0 0 -223646363.3440308 84568824.876066208 0 84568824.876066208 610384842.17361069 0 0 0 0 -166161873.18847769 147010209.6248703 0 147010209.6248703 629473704.24570274 0 0 0 0 -528344957.62675703 265902454.50187588 0 265902454.50187588 2206145405.0271072 0 0 0 0 -378145690.8199268 -193014221.78882599 0 -193014221.78882599 1649085495.1044292 0 0 0 0 -495084390.18491179 261644642.44650888 0 261644642.44650888 1232220906.5541878 0 0 0 0 -175064763.59493965 352001529.98504257 0 352001529.98504257 1241818473.9483202 0 0 0 0 -273864608.40977609 947618091.37334442 0 947618091.37334442 2200299429.3949127 0 0 0 0 -10928468.99454549 -11529026.847393036 0 -11529026.847393036 -454427.80230140686 0 0 0 0 502169767.95778692 443195035.44110012 0 443195035.44110012 202445971.94758415 0 0 0 0 137563611.818414 197671283.78889084 0 197671283.78889084 168027256.55511665 0 0 0 0 20182980.306298196 -68719128.938188553 0 -68719128.938188553 83222179.01341629 0 0 0 0 -31671399.379534841 -90849365.53259182 0 -90849365.53259182 112492528.5782795 0 0 0 0 997563.03712081909 -8625165.5653362274 0 -8625165.5653362274 13413280.990322113 0 0 0 0 -367297.73991077958 -482492.81523476681 0 -482492.81523476681 442303.66524821799 0 0 0 0 -119131727.32315929 427954660.28888702 0 427954660.28888702 2203283391.942255 0 0 0 0 785938814.73427093 594474469.41864681 0 594474469.41864681 288860912.08746529 0 0 0 0 322447.22313162306 -446191.2637482076 0 -446191.2637482076 2527803.6573731671 0 0 0 0 -149931169.40225202 -313873496.26560688 0 -313873496.26560688 1982165000.1444943 0 0 0 0 -342567.79437501816 311681.98794958973 0 311681.98794958973 734271.29774485575 0 0 0 0 139715615.1685425 -4913197.2491950989 0 -4913197.2491950989 11024193.827608109 0 0 0 0 37185403.068559244 -30012327.248193264 0 -30012327.248193264 42641291.747275352 0 0 0 0 61299283.201107264 -319781770.52837181 0 -319781770.52837181 2399419603.2765408 0 0 0 0 497902.71070772683 353602.36355207348 0 353602.36355207348 4121834.5406961609 0 0 0 0 -8083052.2102239132 275552.26500797272 0 275552.26500797272 9199853.2163581848 0 0 0 0 8588467.9078947417 -30928.922926783562 0 -30928.922926783562 13256184.846094131 0 0 0 0 878448.74569961336 -2911067.0076682935 0 -2911067.0076682935 279612.19741609122 0 0 0 0 19163.161639690399 -3996375.7027181387 0 -3996375.7027181387 10059095.513630867 0 0 0 0 2018536.117000103 -6333478.8319767714 0 -6333478.8319767714 11178973.107495308 0 0 0 0 -37503684.279125571 33321854.087769508 0 33321854.087769508 19642971.449224472 0 0 0 0 -45559059.779676914 12892638.154738426 0 12892638.154738426 7126951.5013017654 0 0 0 0 -2590127.5400668019 645688.21282634977 0 645688.21282634977 8104536.3153344411 0 0 0 0 -39799563.292183161 55097936.031428337 0 55097936.031428337 -71021192.649980545 0 0 0 0 -791165.0558455626 -602771.94513401901 0 -602771.94513401901 1806054.5574680613 0 0 0 0 -81357202.787491798 57182854.390345573 0 57182854.390345573 48316885.921138763 0 0 0 0 -26282385.425234556 -37828586.005238533 0 -37828586.005238533 102888734.5395546 0 0 0 0 277733930.08500099 -297266536.52314949 0 -297266536.52314949 218490357.73899841 0 0 0 0 12748235.802572727 -67299713.789256096 0 -67299713.789256096 313825426.07387161 0 0 0 0 129799968.03955007 -249050467.67794228 0 -249050467.67794228 322496469.80135345 0 0 0 0 -203750967.17440462 198081664.56018829 0 198081664.56018829 -353515023.69779968 0 0 0 0 -247806.50840005116 -185195.86392683629 0 -185195.86392683629 581238.8177881611 0 0 0 0 -176715974.49777514 249239309.73933077 0 249239309.73933077 -256721610.92121887 0 0 0 0 -168335.61225704814 -33176.76762075047 0 -33176.76762075047 439514.31410956755 0 0 0 0 -30240086.531491756 -45141202.889606476 0 -45141202.889606476 -64656798.711868286 0 0 0 0 -223975000.53400075 225108847.72408009 0 225108847.72408009 -350354347.39072418 0 0 0 0 -319022910.3350668 78590700.531478882 0 78590700.531478882 332946499.79506326 0 0 0 0 53392636.736225963 -5042117.0660271645 0 -5042117.0660271645 43079599.31933403 0 0 0 0 16431848.449107125 -70269072.722785532 0 -70269072.722785532 38076848.912153244 0 0 0 0 182204.356617607 -1287741.5329724252 0 -1287741.5329724252 1542114.5282989172 0 0 0 0 10016289.628624082 -17287730.418862343 0 -17287730.418862343 -46421552.891059875 0 0 0 0 5634336.9062770605 -27646689.455231667 0 -27646689.455231667 11508654.553768158 0 0 0 0 -7157750.9980605841 -16358757.862361908 0 -16358757.862361908 1550050.7229156494 0 0 0 0 -26938647.130249977 -15113199.900216103 0 -15113199.900216103 32691266.640726089 0 0 0 0 -2572946.0107153291 1209675.3898615683 0 1209675.3898615683 8109471.5069114268 0 0 0 0 -17784267.477172852 923352.8245100975 0 923352.8245100975 13863351.279700518 0 0 0 0 -38147814.237974763 8128117.2831299305 0 8128117.2831299305 11071883.129583359 0 0 0 0 -1068064.8088349104 -7489111.8046765327 0 -7489111.8046765327 9883196.8327655792 0 0 0 0 -70033507.574030876 -154257410.82559013 0 -154257410.82559013 520622707.75340366 0 0 0 0 -63549350.419244528 -121674773.70412731 0 -121674773.70412731 663054792.69726229 0 0 0 0 -81543059.533711195 -27747626.658414125 0 -27747626.658414125 451280117.03826904 0 0 0 0 -423009.77582338359 -1243348.8271598979 0 -1243348.8271598979 1980678.7754405036 0 0 0 0 103199605.24208874 -147633256.99517822 0 -147633256.99517822 404627820.66504383 0 0 0 0 -135880557.52287093 -109006997.75858045 0 -109006997.75858045 745484691.18211746 0 0 0 0 35555882.323014438 -94638880.776161194 0 -94638880.776161194 693061868.89247131 0 0 0 0 -17448869.252513602 -268487699.1547029 0 -268487699.1547029 1081965911.2942867 0 0 0 0 346679075.16749752 -433585541.10808754 0 -433585541.10808754 1114978382.8355579 0 0 0 0 -176908570.73601621 131727879.8841157 0 131727879.8841157 1095209939.3165464 0 0 0 0 -102431744.60422829 -330795260.32568467 0 -330795260.32568467 372263127.44313812 0 0 0 0 79818937.627324045 351503290.94939137 0 351503290.94939137 72018435.230310917 0 0 0 0 97473059.388263941 1570202.033205986 0 1570202.033205986 32364056.498497009 0 0 0 0 8135497.9464221001 -62176137.283425331 0 -62176137.283425331 136443554.8363533 0 0 0 0 -60094322.446448326 19895923.949026108 0 19895923.949026108 159582723.55657387 0 0 0 0 9471753.1837091446 -8602705.230381012 0 -8602705.230381012 122664417.57263184 0 0 0 0 18034497.484518528 -5417817.1070156097 0 -5417817.1070156097 7718430.2951107025 0 0 0 0 16860290.950157642 6306142.7328701019 0 6306142.7328701019 33174019.522583961 0 0 0 0 25786305.21366024 -15284339.750603676 0 -15284339.750603676 13561281.188703537 0 0 0 0 -34291326.091064453 181476.93987846375 0 181476.93987846375 44272392.281805038 0 0 0 0 -31671214.190360546 -15874525.919969559 0 -15874525.919969559 61116895.745090485 0 0 0 0 -51942538.185259104 33101371.763328552 0 33101371.763328552 14538920.055262566 0 0 0 0 -53379681.841292858 16521302.515607834 0 16521302.515607834 30429316.8033638 0 0 0 0 -108852829.74771544 68115703.40639472 0 68115703.40639472 40200785.939128876 0 0 0 0 -91024434.424205303 47423711.538186073 0 47423711.538186073 64018112.596572876 0 0 0 0 -28383422.769975185 -5246651.155292511 0 -5246651.155292511 55805646.88824749 0 0 0 0 -99893538.506461382 35375628.339862823 0 35375628.339862823 63390825.299509048 0 0 0 0 -64398291.265882254 -7003707.901268959 0 -7003707.901268959 104735265.6644516 0 0 0 0 -82606134.351933479 62339339.354318619 0 62339339.354318619 -86319.068296432495 0 0 0 0 -124322775.78089285 9973092.8284807205 0 9973092.8284807205 -8480355.7992229462 0 0 0 0 -66939636.85549736 47086803.821006775 0 47086803.821006775 76127927.341201782 0 0 0 0 -186613557.06411523 42473241.899976254 0 42473241.899976254 47490594.75835228 0 0 0 0 -114669837.97798038 10394055.03887558 0 10394055.03887558 48229506.012016296 0 0 0 0 -125063935.52374387 70424004.433815002 0 70424004.433815002 58627023.542991638 0 0 0 0 19897278.808162451 -13941667.251249313 0 -13941667.251249313 11301316.411560059 0 0 0 0 55846339.906361222 -47219968.204227448 0 -47219968.204227448 19872615.461528778 0 0 0 0 36505997.831449986 43748364.776678085 0 43748364.776678085 72941607.129920959 0 0 0 0 474235.78921116842 -489459.41636439716 0 -489459.41636439716 -387008.54318113951 0 0 0 0 -36033.528337230673 -84478.833800765336 0 -84478.833800765336 202924.87387089012 0 0 0 0 6364325.396392107 -25429694.589635849 0 -25429694.589635849 34104537.889762878 0 0 0 0 10903359.41474098 -8562147.4968117476 0 -8562147.4968117476 25153099.069108963 0 0 0 0 -10283330.300460339 -13540392.3685956 0 -13540392.3685956 22157722.063547134 0 0 0 0 -26495802.885843754 20628447.452106476 0 20628447.452106476 15986147.109978676 0 0 0 0 -12339415.71137476 13471281.217651367 0 13471281.217651367 4933112.5927414894 0 0 0 0 -9008292.8184542656 3875780.601187706 0 3875780.601187706 53228536.089297295 0 0 0 0 -5749832.5743172169 2878466.9378652573 0 2878466.9378652573 14744037.214359283 0 0 0 0 14940215.672988415 27004982.193291664 0 27004982.193291664 13499600.258183479 0 0 0 0 -25396371.703223228 12449766.365169525 0 12449766.365169525 21967712.883249283 0 0 0 0 516743.94727444649 8048949.7952122688 0 8048949.7952122688 -9067714.3994312286 0 0 0 0 -3195086.645534914 2312789.3702029288 0 2312789.3702029288 5495889.4975070534 0 0 0 0 836673.61142444611 23463031.592234612 0 23463031.592234612 -19519479.680521965 0 0 0 0 69863233.857326508 -172502914.75098705 0 -172502914.75098705 384244217.81984949 0 0 0 0 -2872114.2066942551 1770728.7301081242 0 1770728.7301081242 8144378.300058851 0 0 0 0 -1211001.7684203016 -1279403.1030071478 0 -1279403.1030071478 2718278.0221532644 0 0 0 0 -9884000.1261537075 -1027606.0241661072 0 -1027606.0241661072 13268925.613113403 0 0 0 0 -50126.23443052778 -7293.871847456554 0 -7293.871847456554 1237.7480597102549 0 0 0 0 -26791686.572165012 -252329884.62941241 0 -252329884.62941241 702379946.87151098 0 0 0 0 107306461.4712534 -293028394.88387632 0 -293028394.88387632 395419873.02611351 0 0 0 0 75128419.507844925 -146000241.81480694 0 -146000241.81480694 336444616.47638702 0 0 0 0 -2006089.2553362846 -113225.84633755684 0 -113225.84633755684 101194433.98830605 0 0 0 0 293432140.59988403 -141117613.70153236 0 -141117613.70153236 96702996.16232872 0 0 0 0 -39133083.564641953 -91530775.987827301 0 -91530775.987827301 285047860.80226803 0 0 0 0 363024255.63625145 -529819070.41429853 0 -529819070.41429853 562080131.74085617 0 0 0 0 -3827670.4437830667 2370060.8866063282 0 2370060.8866063282 4598673.8605894083 0 0 0 0 144332514.58847713 -106705613.34218216 0 -106705613.34218216 -47525164.379494905 0 0 0 0 -69288558.8176651 6586679.5313589573 0 6586679.5313589573 46838558.483689785 0 0 0 0 -48839761.492359161 7925824.2379617691 0 7925824.2379617691 33018104.828277588 0 0 0 0 5605916.2595435381 1844048.4359817505 0 1844048.4359817505 -20703467.277544975 0 0 0 0 -2873501.204088822 -4509553.9650358558 0 -4509553.9650358558 -10703037.739934921 0 0 0 0 16921601.741430044 7692971.062792778 0 7692971.062792778 -5636317.9645624161 0 0 0 0 -6157085.962477684 -5354528.1394176483 0 -5354528.1394176483 10648717.44146347 0 0 0 0 -17186483.069139838 18970443.01272583 0 18970443.01272583 -21308060.528603554 0 0 0 0 -6428602.8438339233 -3826781.3051948547 0 -3826781.3051948547 2085974.6556768417 0 0 0 0 -19198825.630005956 7962701.7461042404 0 7962701.7461042404 -8747362.1358985901 0 0 0 0 -167678.34134960175 -1484877.6079683304 0 -1484877.6079683304 -11379933.553310394 0 0 0 0 -7952819.0961214304 12039466.162853241 0 12039466.162853241 -16674769.173413277 0 0 0 0 1858468.8443762539 -1096722.4598556494 0 -1096722.4598556494 1064223.739359739 0 0 0 0 14896371.456535339 -16972678.874960899 0 -16972678.874960899 -307496.8576079607 0 0 0 0 52161809.861680031 -39818922.336666048 0 -39818922.336666048 804059428.72864509 0 0 0 0 7866219.6393318176 -25296400.752207547 0 -25296400.752207547 852311898.57765305 0 0 0 0 28635729.171670914 -27073554.634660453 0 -27073554.634660453 797573648.57090259 0 0 0 0 649571.12738964614 -177711.2399201623 0 -177711.2399201623 350864.86740446044 0 0 0 0 53114701.527484894 23978720.762599349 0 23978720.762599349 1013532449.4213895 0 0 0 0 -36568500.937537193 -174835511.62006867 0 -174835511.62006867 1470806546.0962987 0 0 0 0 146061156.02933788 -60724651.968579203 0 -60724651.968579203 484359972.87398118 0 0 0 0 149784256.98864079 -235876522.69890329 0 -235876522.69890329 769362029.7690953 0 0 0 0 136747380.61896628 -75980244.866438478 0 -75980244.866438478 762271159.77357888 0 0 0 0 90933413.671916962 12119824.293300956 0 12119824.293300956 487701371.31148636 0 0 0 0 125715064.2671566 -102821218.34341222 0 -102821218.34341222 743204607.03141856 0 0 0 0 166050886.87746429 -62285108.512222797 0 -62285108.512222797 407711173.546031 0 0 0 0 70210909.613246277 135955884.88577425 0 135955884.88577425 227648051.44303668 0 0 0 0 147501461.67880821 -56725592.901601255 0 -56725592.901601255 486188690.01258093 0 0 0 0 230541529.60610533 5018743.4384046495 0 5018743.4384046495 141518696.92108071 0 0 0 0 -298968102.8166042 -22148425.77854228 0 -22148425.77854228 276457469.61741304 0 0 0 0 309918.55478935339 1299007.2477005657 0 1299007.2477005657 1881080.5851059007 0 0 0 0 -32569737.401016261 252198148.28009507 0 252198148.28009507 -111735241.73319173 0 0 0 0 -38373828.753585815 -61257643.248494089 0 -61257643.248494089 131919509.36688071 0 0 0 0 96803156.817789078 68796652.456204414 0 68796652.456204414 221557540.00692725 0 0 0 0 -67571824.622714043 -108172117.83179861 0 -108172117.83179861 86290724.615570188 0 0 0 0 15424610.705210209 -49046115.209186196 0 -49046115.209186196 494073974.54064226 0 0 0 0 -133588725.39474201 -93502215.957151175 0 -93502215.957151175 481075086.05650043 0 0 0 0 -46132544.420698166 -100379570.58461952 0 -100379570.58461952 746346617.54578686 0 0 0 0 -25410810.25758791 -101563013.87406445 0 -101563013.87406445 462639658.88180482 0 0 0 0 296110626.64578152 -142645666.21697998 0 -142645666.21697998 446187408.22857141 0 0 0 0 298517680.45450592 -433566872.3110826 0 -433566872.3110826 967564489.58286548 0 0 0 0 373360972.95577395 -79570941.572787881 0 -79570941.572787881 706571479.72515345 0 0 0 0 -65383396.352100492 -197199826.00862318 0 -197199826.00862318 669534875.85137844 0 0 0 0 -95131765.358614922 -171181409.63573647 0 -171181409.63573647 1024294903.5346494 0 0 0 0 -134523287.20591545 -159693763.43333769 0 -159693763.43333769 722267551.7505827 0 0 0 0 -115873965.05029011 -96822911.701613665 0 -96822911.701613665 516510916.17136073 0 0 0 0 -70806771.797200203 -191178683.27085829 0 -191178683.27085829 627762413.47921085 0 0 0 0 -11958311.974056393 -157354830.84540248 0 -157354830.84540248 506876920.77024889 0 0 0 0 303716.84290941246 919138.74566858658 0 919138.74566858658 1417704.407749889 0 0 0 0 -39615205.372927628 -161866916.83143342 0 -161866916.83143342 507581980.7721467 0 0 0 0 -8210269.5830526352 5635046.4495015144 0 5635046.4495015144 164710624.81227177 0 0 0 0 -34937184.360411346 -190109789.71263939 0 -190109789.71263939 429576023.86465693 0 0 0 0 367628706.02247107 -627857394.7897172 0 -627857394.7897172 -64836194.816672325 0 0 0 0 120877970.66540813 -534933572.98775387 0 -534933572.98775387 1058163656.8958241 0 0 0 0 -30690.652662467983 238206.0704473902 0 238206.0704473902 536795.28596823988 0 0 0 0 184380953.8557753 -371191971.81659079 0 -371191971.81659079 737837315.01542068 0 0 0 0 267543270.43671489 -137120968.10925293 0 -137120968.10925293 -228860219.32445621 0 0 0 0 295098687.82414591 -13515021.142885208 0 -13515021.142885208 -125262299.43373203 0 0 0 0 -50794.417942007582 341884.55756131414 0 341884.55756131414 2167127.948149866 0 0 0 0 -390943791.67000431 34869873.900836468 0 34869873.900836468 119498553.39955425 0 0 0 0 -85866842.435713291 159998544.00024605 0 159998544.00024605 32300685.014177203 0 0 0 0 -72316616.277846336 -127300423.14172649 0 -127300423.14172649 -58578352.018834114 0 0 0 0 -21350234.67702651 -37988440.008677006 0 -37988440.008677006 -88317855.629303455 0 0 0 0 -19645313.598917574 -74576646.353007764 0 -74576646.353007764 604748807.00931168 0 0 0 0 -385894582.66637856 7889343.4249243736 0 7889343.4249243736 208153443.51060295 0 0 0 0 -32363.666703620787 377705.04969654145 0 377705.04969654145 1665688.3027157038 0 0 0 0 478901837.19937587 787215018.44567013 0 787215018.44567013 -100998477.69726658 0 0 0 0 576187.94334572251 1500140.1404537379 0 1500140.1404537379 2045500.6676982914 0 0 0 0 -157906770.01437473 142807746.23588493 0 142807746.23588493 191971263.29447442 0 0 0 0 190876534.53594327 -422114075.99606895 0 -422114075.99606895 -24623981.042118788 0 0 0 0 393942694.31469679 397613095.26902008 0 397613095.26902008 330331641.12721252 0 0 0 0 158044.14039762673 430710.42505428009 0 430710.42505428009 1146793.1066480882 0 0 0 0 699356789.50555313 196198923.23825812 0 196198923.23825812 31912007.269674301 0 0 0 0 -387708231.884507 -298446655.7373507 0 -298446655.7373507 518312229.34154975 0 0 0 0 71820701.085295916 -309668768.75806248 0 -309668768.75806248 263869556.6081419 0 0 0 0 -207372581.61730772 -27085635.860891581 0 -27085635.860891581 41508060.66798687 0 0 0 0 305148387.34917331 278999264.60079753 0 278999264.60079753 59109686.826789856 0 0 0 0 345873555.01824045 39723153.628050804 0 39723153.628050804 -6709511.4442129135 0 0 0 0 106727695.3229332 17913310.373430252 0 17913310.373430252 23623632.864318848 0 0 0 0 91758663.779729843 42706618.881249428 0 42706618.881249428 66403308.689921379 0 0 0 0 -305109252.9462167 42088083.893035263 0 42088083.893035263 173987274.21786642 0 0 0 0 517580.49000333366 1465960.9211027995 0 1465960.9211027995 3142233.528530078 0 0 0 0 102057820.02983952 24920351.02438736 0 24920351.02438736 9826723.7995681763 0 0 0 0 92509534.707983971 -5447130.5063800812 0 -5447130.5063800812 10732132.329303741 0 0 0 0 -187241.66771055781 -23246.052672328427 0 -23246.052672328427 256433.83137663081 0 0 0 0 -181770983.4091388 73432097.856657743 0 73432097.856657743 -120300861.58669332 0 0 0 0 77305314.714688063 120876705.20375443 0 120876705.20375443 -59420231.833302498 0 0 0 0 80379512.655936718 285504257.51169682 0 285504257.51169682 47863123.307239532 0 0 0 0 81763689.810925722 218356707.16175842 0 218356707.16175842 228489246.04450989 0 0 0 0 767607.98049688339 29973602.590974808 0 29973602.590974808 491414133.7755146 0 0 0 0 107000682.60687494 106748986.0786047 0 106748986.0786047 188994753.05153942 0 0 0 0 103125965.23793626 225060525.66960812 0 225060525.66960812 95439884.847570419 0 0 0 0 6805.0938569788404 224895.32257146272 0 224895.32257146272 648930.42453012802 0 0 0 0 -20289576.276370034 297985230.24717474 0 297985230.24717474 246160447.20251656 0 0 0 0 110702765.26553278 -166952076.23408246 0 -166952076.23408246 222814753.36433792 0 0 0 0 -80335337.750186846 302988826.71316481 0 302988826.71316481 582211156.96431732 0 0 0 0 292215061.48493463 -154244639.28774405 0 -154244639.28774405 12801340.684585571 0 0 0 0 8477807.0095174313 122626471.48892212 0 122626471.48892212 -120962304.8089304 0 0 0 0 4155725.2954390049 13307476.421381235 0 13307476.421381235 105162115.6947403 0 0 0 0 77550173.789607048 -16687430.721813202 0 -16687430.721813202 116672879.55542183 0 0 0 0 -106139999.00441128 50291388.305605888 0 50291388.305605888 -24489162.722625256 0 0 0 0 81827128.909064054 -65209260.361452103 0 -65209260.361452103 33399398.38974762 0 0 0 0 -6990191.5921063423 10290401.530694962 0 10290401.530694962 53952.543306350708 0 0 0 0 88481108.7645154 -9655208.5715503693 0 -9655208.5715503693 -47357990.359052658 0 0 0 0 130443109.47451991 -14676045.969272137 0 -14676045.969272137 -70725264.528324127 0 0 0 0 33824937.287397385 55177283.343519211 0 55177283.343519211 87246046.535561085 0 0 0 0 350076.950951237 513015.54683540703 0 513015.54683540703 -689501.8195923008 0 0 0 0 -172340026.33865529 145736774.73003674 0 145736774.73003674 -18131846.983696938 0 0 0 0 1346265.3768105507 4827765.6851127148 0 4827765.6851127148 -3786633.9922943115 0 0 0 0 1297526.067272871 2178657.8258382408 0 2178657.8258382408 -390844.93665441498 0 0 0 0 64221718.042500019 -36637581.734307766 0 -36637581.734307766 24257920.2917099 0 0 0 0 63158940.48150444 -34335834.407986641 0 -34335834.407986641 19522802.531513214 0 0 0 0 72060944.646722674 -12232862.585337162 0 -12232862.585337162 44590258.237369537 0 0 0 0 53078425.417452812 -27460168.57861805 0 -27460168.57861805 32702385.719184875 0 0 0 0 92396735.934699863 15065113.0790116 0 15065113.0790116 40586379.826599121 0 0 0 0 97427137.284620881 -57124231.406777859 0 -57124231.406777859 21211530.409732819 0 0 0 0 377827.90593334462 316771.11120966915 0 316771.11120966915 -359000.16027632914 0 0 0 0 63214692.256799459 -63785459.922767878 0 -63785459.922767878 30017162.605686188 0 0 0 0 34696608.683001518 -7899109.2262878418 0 -7899109.2262878418 39502522.274685383 0 0 0 0 55909115.860176802 -44617200.038722992 0 -44617200.038722992 16601435.45646286 0 0 0 0 -549390.10354137421 1436641.0283041 0 1436641.0283041 -706113.07544326782 0 0 0 0 241602.4962156415 12306658.272776395 0 12306658.272776395 -9316223.0936126709 0 0 0 0 -196590828.60826445 304667996.22323287 0 304667996.22323287 -101931291.04933569 0 0 0 0 1372830.8485503886 2178108.6345049888 0 2178108.6345049888 3845673.6334247999 0 0 0 0 -248648766.07045496 150448912.18766415 0 150448912.18766415 -11608187.000087023 0 0 0 0 -22911664.493667603 144219883.43146408 0 144219883.43146408 -62616077.441428661 0 0 0 0 68741414.01275301 96648125.387662053 0 96648125.387662053 -263156115.8162756 0 0 0 0 314508469.273489 124226149.90359944 0 124226149.90359944 -111264878.66578165 0 0 0 0 30200859.393377781 124484397.87604895 0 124484397.87604895 -109669632.36307633 0 0 0 0 -43104461.156568289 200918620.83371428 0 200918620.83371428 234034146.18228772 0 0 0 0 -12415631.324920654 83969733.467167616 0 83969733.467167616 -189263436.32302821 0 0 0 0 3085696.8422094467 3288479.7612158163 0 3288479.7612158163 3828120.2685907958 0 0 0 0 1511225.4584608078 228342948.17129683 0 228342948.17129683 -260277248.47539565 0 0 0 0 58694682.744003296 26816793.872124195 0 26816793.872124195 -143809238.04772329 0 0 0 0 52424725.772608757 -34497138.52140975 0 -34497138.52140975 -208769785.77857399 0 0 0 0 208290588.18908405 80260444.742015779 0 80260444.742015779 -205699164.71743229 0 0 0 0 21766764.484086037 4094568.9189372063 0 4094568.9189372063 -152704109.05441773 0 0 0 0 -55731552.053329468 -218016911.53648281 0 -218016911.53648281 -215508329.3999173 0 0 0 0 -97839009.588327408 -166295111.20664811 0 -166295111.20664811 11500868.314063698 0 0 0 0 32032548.067790985 -33369739.272221208 0 -33369739.272221208 -205401676.3625133 0 0 0 0 176986897.66934204 -14050629.485507011 0 -14050629.485507011 -250758827.31714529 0 0 0 0 27752947.28834337 -167690014.27331209 0 -167690014.27331209 -319247983.76484108 0 0 0 0 -43790005.513002396 -46419308.585480332 0 -46419308.585480332 -174750430.33046436 0 0 0 0 -2499212.7994599342 -113120062.55641012 0 -113120062.55641012 -67009314.131060302 0 0 0 0 229767874.82978439 -185299599.31304476 0 -185299599.31304476 -49804667.164081737 0 0 0 0 159770065.1241889 28068599.613477871 0 28068599.613477871 84926066.437205538 0 0 0 0 114694277.69607878 -8673277.900695771 0 -8673277.900695771 -121145631.73641348 0 0 0 0 275541592.99674797 68960445.019182727 0 68960445.019182727 -115560203.94398282 0 0 0 0 685990428.71720457 166225002.49962047 0 166225002.49962047 88481312.031654552 0 0 0 0 99758404.901258945 -150556208.01188675 0 -150556208.01188675 440337086.91051233 0 0 0 0 -105728.05170536041 -1903822.4722968079 0 -1903822.4722968079 245736523.17972955 0 0 0 0 250405645.79946613 235042444.62875235 0 235042444.62875235 259799923.80910581 0 0 0 0 280014387.86300993 176020632.43008703 0 176020632.43008703 -163213664.44904056 0 0 0 0 79451474.727329254 -351252867.40561438 0 -351252867.40561438 767543997.02187705 0 0 0 0 23042.066972341388 481173.50249058253 0 481173.50249058253 782502.54795264662 0 0 0 0 11811101.71070319 -58440095.794235557 0 -58440095.794235557 279293933.91148233 0 0 0 0 -205360480.53094763 -100550677.68699682 0 -100550677.68699682 377182923.90766811 0 0 0 0 -79459581.751616955 154706182.78494704 0 154706182.78494704 207070030.33980921 0 0 0 0 -192348892.25532269 121763669.86912286 0 121763669.86912286 211453668.51582372 0 0 0 0 32198223.396590233 -1076755.5446205363 0 -1076755.5446205363 225961468.56212649 0 0 0 0 47028170.886134148 253578611.75526848 0 253578611.75526848 746700629.45207584 0 0 0 0 -24616877.076283455 -16802443.682723045 0 -16802443.682723045 62258587.795882702 0 0 0 0 1479425.1620044708 16139571.233942032 0 16139571.233942032 -4978265.707818985 0 0 0 0 16676607.266176641 -54050046.62027061 0 -54050046.62027061 5955896.6675376892 0 0 0 0 -3234228.9982174914 -1988729.312915802 0 -1988729.312915802 19050483.701938629 0 0 0 0 -2143961.5813644817 -1914446.9514305354 0 -1914446.9514305354 2642254.6071548127 0 0 0 0 -4327246.4558163881 -311429.36328697205 0 -311429.36328697205 16259770.712367058 0 0 0 0 -2887088.980775103 -2243736.7402558327 0 -2243736.7402558327 17070958.980228424 0 0 0 0 22844216.503894806 -69950925.435016632 0 -69950925.435016632 48234712.967739105 0 0 0 0 -22755355.75108242 -1201087.8679475784 0 -1201087.8679475784 48928672.34129858 0 0 0 0 -3730971.3278104328 -2174892.1853476325 0 -2174892.1853476325 5273525.6659770291 0 0 0 0 -579451.71374527644 269870.03385023505 0 269870.03385023505 6353766.2965080421 0 0 0 0 -56972330.183854103 -54497683.376205444 0 -54497683.376205444 59003484.55036068 0 0 0 0 45408492.947209477 -22975265.920123339 0 -22975265.920123339 -12705805.870994568 0 0 0 0 -6516517.4040985107 28373128.762174129 0 28373128.762174129 -7063291.6579341888 0 0 0 0 62246678.106078625 -77109911.127197504 0 -77109911.127197504 58708188.257623672 0 0 0 0 1013410.7293178202 571005.29278371914 0 571005.29278371914 3240876.755626427 0 0 0 0 9179468.3303010464 -15218512.635086536 0 -15218512.635086536 62756028.122119904 0 0 0 0 36985501.161709785 -24474690.652349472 0 -24474690.652349472 61820433.275445938 0 0 0 0 -63418109.327991486 28165131.570940018 0 28165131.570940018 37034225.891274452 0 0 0 0 8910424.4850735664 -16015623.956966877 0 -16015623.956966877 60573555.563755035 0 0 0 0 -37013298.318830013 17646086.850333214 0 17646086.850333214 62329893.268177032 0 0 0 0 -25502292.110738754 4784801.2492980957 0 4784801.2492980957 86069112.012811661 0 0 0 0 -10719418.244884491 -18614707.666751862 0 -18614707.666751862 99548242.706512451 0 0 0 0 66847096.890136957 -99190832.690548658 0 -99190832.690548658 123133915.73919868 0 0 0 0 -9528877.9277105331 -44688311.925748825 0 -44688311.925748825 113932854.81857967 0 0 0 0 1454816.6163510035 597643.74376662623 0 597643.74376662623 1520051.0476346621 0 0 0 0 -77765240.826325417 35025934.811796188 0 35025934.811796188 -2471312.2583556175 0 0 0 0 -57400043.324257135 -11461221.608751059 0 -11461221.608751059 46991455.518241882 0 0 0 0 -65480721.670539379 94308914.255222321 0 94308914.255222321 -25088741.198767662 0 0 0 0 -54618585.264489174 47813612.570466995 0 47813612.570466995 43033466.466095924 0 0 0 0 68127892.748485088 128250751.88826561 0 128250751.88826561 95556378.085266113 0 0 0 0 70179228.288840503 141725040.33315635 0 141725040.33315635 44454105.142021179 0 0 0 0 -248344621.98178196 -158703191.94977379 0 -158703191.94977379 85030610.193019867 0 0 0 0 -173971882.59809256 208898853.2359705 0 208898853.2359705 682698662.88222218 0 0 0 0 -100968115.49576092 -13657617.095496178 0 -13657617.095496178 197092145.62049007 0 0 0 0 -101857727.12886047 -53322368.843126297 0 -53322368.843126297 9891239.3925819397 0 0 0 0 -54233515.847787142 49783730.418123245 0 49783730.418123245 6237298.8131809235 0 0 0 0 1639998.1474678935 1084861.0553356246 0 1084861.0553356246 -183270.79793051165 0 0 0 0 285211456.22644836 115534669.56916237 0 115534669.56916237 -37623117.327285767 0 0 0 0 120330655.00456583 -36767107.081590652 0 -36767107.081590652 -46459747.171309948 0 0 0 0 420015375.83430958 357274477.78936577 0 357274477.78936577 175630942.73300457 0 0 0 0 -137661.15456867646 -421279.3952759807 0 -421279.3952759807 337310.39636292751 0 0 0 0 -207041198.47645921 -398563003.13607216 0 -398563003.13607216 281897393.8783226 0 0 0 0 749710418.70802689 315088443.33440399 0 315088443.33440399 591703153.05548859 0 0 0 0 406671551.6603992 43813278.825766563 0 43813278.825766563 -32531359.747932673 0 0 0 0 675311.30084545538 346068.80712806736 0 346068.80712806736 -183269.86241173605 0 0 0 0 -54384396.233642653 224819776.40778732 0 224819776.40778732 54765524.557734489 0 0 0 0 105327371.91510403 164590940.62431717 0 164590940.62431717 -46704286.172521591 0 0 0 0 -69374353.865056053 177270824.96899796 0 177270824.96899796 237961532.77994728 0 0 0 0 -27634013.302249536 -67710697.81370163 0 -67710697.81370163 185043359.40376163 0 0 0 0 -57591137.575295791 4322340.3385868073 0 4322340.3385868073 45273672.547599792 0 0 0 0 -31415417.521386445 119148326.2845006 0 119148326.2845006 -40725587.54410553 0 0 0 0 -26523721.780154113 -49112729.88649559 0 -49112729.88649559 52105192.687644958 0 0 0 0 -47426078.606117517 -27416750.13087368 0 -27416750.13087368 30018029.00892067 0 0 0 0 5355991.2198768714 -50153907.102009296 0 -50153907.102009296 14002396.735397339 0 0 0 0 47763157.519636214 -59708574.953237534 0 -59708574.953237534 49452427.574399948 0 0 0 0 -9575752.3823049143 -16943868.690765381 0 -16943868.690765381 20165299.061128616 0 0 0 0 -37537315.528915644 -93771741.810583115 0 -93771741.810583115 -8406749.2739429474 0 0 0 0 -875692.10281744553 -1243418.3054918814 0 -1243418.3054918814 1188107.7413006607 0 0 0 0 -9869635.8193268627 4145203.3178691864 0 4145203.3178691864 9943366.1624889374 0 0 0 0 -35534350.370384879 -16919336.400753021 0 -16919336.400753021 3416371.0363426208 0 0 0 0 -43019232.809266597 -20438452.739622116 0 -20438452.739622116 35893437.634511948 0 0 0 0 -37112794.886588432 2338759.6228809357 0 2338759.6228809357 10903775.210762024 0 0 0 0 -11228982.766342141 -30438016.885341644 0 -30438016.885341644 35970624.931465149 0 0 0 0 -22228.138848547638 1069.2843201654032 0 1069.2843201654032 15878.580939447042 0 0 0 0 13238803.595869273 -4965431.9431724548 0 -4965431.9431724548 11447709.259283066 0 0 0 0 4686557.9791348837 -11187953.742275715 0 -11187953.742275715 6726284.4672403336 0 0 0 0 -41252.490794171557 8092.0984568248969 0 8092.0984568248969 38119.052607035264 0 0 0 0 -14529613.199039057 -25500340.39722681 0 -25500340.39722681 9351139.1667919159 0 0 0 0 -2474446.0888656713 -5851175.173289299 0 -5851175.173289299 12724895.864850283 0 0 0 0 6253758.5837072413 -18678946.94412756 0 -18678946.94412756 -2496192.73133564 0 0 0 0 18228485.932518229 701024.96405410767 0 701024.96405410767 13776218.228013992 0 0 0 0 -40966884.498008303 -31740090.129508615 0 -31740090.129508615 15509719.174627304 0 0 0 0 -6291735.9649817217 -35333866.503265381 0 -35333866.503265381 -816109.5766582489 0 0 0 0 -7715267.8912027236 -35327869.818670273 0 -35327869.818670273 22238834.375799179 0 0 0 0 -5776184.3887570128 -23328536.741680145 0 -23328536.741680145 9109201.2330608368 0 0 0 0 -4962801.8492983151 -25708352.334477425 0 -25708352.334477425 2555264.8380568027 0 0 0 0 -9419707.8613708708 -38267551.59970808 0 -38267551.59970808 -25775883.603657722 0 0 0 0 -269336761.25184578 -207732337.21362972 0 -207732337.21362972 -107309219.23515701 0 0 0 0 -37593566.714521468 -5357085.2598609924 0 -5357085.2598609924 -5799979.1829619408 0 0 0 0 13055437.231986526 -28110064.850969315 0 -28110064.850969315 -8460245.2845211029 0 0 0 0 51575288.650971189 180562837.61427116 0 180562837.61427116 231812038.59940243 0 0 0 0 568619.10548334091 -6665.7545850779861 0 -6665.7545850779861 529488.97154383943 0 0 0 0 41491395.957297564 -82669288.886458397 0 -82669288.886458397 -13284850.433414698 0 0 0 0 -106000197.29519626 246246197.16348898 0 246246197.16348898 733882706.3453064 0 0 0 0 -23336294.867024019 555500655.43906975 0 555500655.43906975 483676217.94455147 0 0 0 0 536677026.39708841 73237522.821140289 0 73237522.821140289 -776036086.84199142 0 0 0 0 4229551.9898545146 -305965.40037155151 0 -305965.40037155151 30055900.939008713 0 0 0 0 3057963.9600271434 -2883396.1085443497 0 -2883396.1085443497 29152656.767367363 0 0 0 0 36027864.489223659 10709740.510408401 0 10709740.510408401 13699529.339574337 0 0 0 0 1029043.8871537686 277542.57067238633 0 277542.57067238633 1726593.89604034 0 0 0 0 3035231.7080566138 6110750.8772163391 0 6110750.8772163391 56325723.290846825 0 0 0 0 401293001.40313053 -241019850.91606903 0 -241019850.91606903 -226170296.35998774 0 0 0 0 -43400383.362768173 15631487.383605957 0 15631487.383605957 107432949.46470547 0 0 0 0 310996.35578299407 551711.92265540455 0 551711.92265540455 3271707.8837313717 0 0 0 0 -659506.01676431298 -1330726.5594921112 0 -1330726.5594921112 38689188.700836539 0 0 0 0 1298839.7290691212 -3119173.971416235 0 -3119173.971416235 32118211.63284111 0 0 0 0 883137.83144146204 -7331902.7184114456 0 -7331902.7184114456 32044355.40280509 0 0 0 0 4884381.6774915755 -4057548.5268006325 0 -4057548.5268006325 18920955.519122124 0 0 0 0 3081860.7995209396 -3009256.1383905411 0 -3009256.1383905411 18660512.152057409 0 0 0 0 -33048.679768948175 15202.824132802198 0 15202.824132802198 43067.255999007262 0 0 0 0 -3658857.7260543285 2243513.8459099531 0 2243513.8459099531 7574833.4205207825 0 0 0 0 -1301393.7433953434 -2916091.3950328827 0 -2916091.3950328827 9323163.8138275146 0 0 0 0 8283455.333071366 -6498187.1663269997 0 -6498187.1663269997 7723281.544084549 0 0 0 0 453827.1783310324 -7094597.5185632706 0 -7094597.5185632706 19095802.752123922 0 0 0 0 -1266354.0956528187 376977.36015033722 0 376977.36015033722 11422138.53758049 0 0 0 0 -4315095.8339080065 -3726183.4822320938 0 -3726183.4822320938 16220091.891843796 0 0 0 0 -1064316.7435549647 -1348057.9066524506 0 -1348057.9066524506 11106194.845565796 0 0 0 0 -4610147.8623328544 -2289704.2694073915 0 -2289704.2694073915 10859497.968227386 0 0 0 0 -3819923.8267809153 7578612.915802002 0 7578612.915802002 -2128959.1547250748 0 0 0 0 -14363.390403379351 8319.2911211843602 0 8319.2911211843602 21161.903168071993 0 0 0 0 -4852591.9423188567 4044895.7452869415 0 4044895.7452869415 17226250.453818321 0 0 0 0 -4036114.7220971882 281807.15197277069 0 281807.15197277069 23986400.293527603 0 0 0 0 -756858.55752080679 -1276250.2194051743 0 -1276250.2194051743 23397098.928430557 0 0 0 0 -829538.41152784228 384857.70287656784 0 384857.70287656784 28313933.673721313 0 0 0 0 -411741.84444779158 -1504222.8708572388 0 -1504222.8708572388 35625566.680018425 0 0 0 0 545970.5331054274 -8984468.7857683897 0 -8984468.7857683897 41918991.722354889 0 0 0 0 1856640.3042496964 -4280668.1481854916 0 -4280668.1481854916 31730487.150657654 0 0 0 0 133870192.07699776 -17317623.191246033 0 -17317623.191246033 107087121.75056171 0 0 0 0 -1000776.4747092562 501451.78170433221 0 501451.78170433221 5388524.8704678686 0 0 0 0 268135.39918524027 -4339550.1408891678 0 -4339550.1408891678 32402561.656476021 0 0 0 0 -1209218.6891634464 -3991516.7276618481 0 -3991516.7276618481 24532227.347808838 0 0 0 0 -832149.44229072332 -5932243.2824058533 0 -5932243.2824058533 30322772.942856312 0 0 0 0 -9195917.3314890862 -380293.51844501495 0 -380293.51844501495 42565588.825065613 0 0 0 0 164372604.67235279 -171165228.80008125 0 -171165228.80008125 92670751.334312439 0 0 0 0 -819569.85618027905 -1310331.772967848 0 -1310331.772967848 2818383.9797022864 0 0 0 0 345489.00717926025 -16066110.64715004 0 -16066110.64715004 53119243.837408066 0 0 0 0 18509647.978104591 -32794775.647323608 0 -32794775.647323608 45384763.955039978 0 0 0 0 86811197.983710259 -231107580.76770282 0 -231107580.76770282 191271054.84789658 0 0 0 0 93605412.326419294 -193730786.58017993 0 -193730786.58017993 146731167.65058899 0 0 0 0 160612480.02642775 -158010050.95270538 0 -158010050.95270538 139864016.38291025 0 0 0 0 36312313.974928439 -97588827.225922346 0 -97588827.225922346 114166760.23688889 0 0 0 0 82985578.488549888 -42297630.450532138 0 -42297630.450532138 212452109.14103699 0 0 0 0 -404202.11720465566 -466971.62362232711 0 -466971.62362232711 1051408.0090017398 0 0 0 0 81762905.92401123 -91201838.046572685 0 -91201838.046572685 129875460.45524395 0 0 0 0 -48097459.140168667 48474493.491285324 0 48474493.491285324 160638822.06403351 0 0 0 0 -92146651.069115639 -41976249.587682724 0 -41976249.587682724 279043281.12810516 0 0 0 0 -149927612.11797017 -16201052.351848602 0 -16201052.351848602 509348155.99075508 0 0 0 0 -53208229.820979357 -53193974.067731857 0 -53193974.067731857 274737707.37994099 0 0 0 0 -25844349.169226527 -96622688.500291824 0 -96622688.500291824 280927947.71767807 0 0 0 0 -151623351.86752129 101087293.61925697 0 101087293.61925697 234696210.67607498 0 0 0 0 -184677228.65667725 -460261524.51966953 0 -460261524.51966953 843951976.81419373 0 0 0 0 -126356163.69502559 -314877484.25109291 0 -314877484.25109291 428772862.81430054 0 0 0 0 -176296043.40208662 -389602557.04813623 0 -389602557.04813623 446172354.46884537 0 0 0 0 -122707596.3780449 -264572123.17655563 0 -264572123.17655563 498661598.42189527 0 0 0 0 -25772878.534921288 -247602017.05025864 0 -247602017.05025864 361169312.25417709 0 0 0 0 -2428595.3538751602 -189445907.03554153 0 -189445907.03554153 223529740.31872749 0 0 0 0 -40329490.613833427 -308184802.19558716 0 -308184802.19558716 274875974.85773468 0 0 0 0 74744750.549510956 -353217012.31002522 0 -353217012.31002522 104961761.08620834 0 0 0 0 55712806.860659659 -371267224.79377556 0 -371267224.79377556 274158236.78085256 0 0 0 0 198339810.43986559 -340023879.72052383 0 -340023879.72052383 102605713.81658173 0 0 0 0 -26399677.521299362 -578276668.69567108 0 -578276668.69567108 160393844.45378494 0 0 0 0 -19256293.603438854 -473416957.10308075 0 -473416957.10308075 140066908.98240662 0 0 0 0 -37323521.433588266 -481309561.61844254 0 -481309561.61844254 454736887.08358669 0 0 0 0 49558442.831804037 -481399048.79781151 0 -481399048.79781151 133701924.25516605 0 0 0 0 50438338.395854473 -485468948.77865219 0 -485468948.77865219 32336081.319763184 0 0 0 0 -47602366.256864548 -564094482.1070137 0 -564094482.1070137 63433758.942115784 0 0 0 0 -36178778.591671467 -512108491.92709732 0 -512108491.92709732 162993143.93782806 0 0 0 0 73815196.755415946 -470318083.37640858 0 -470318083.37640858 -48331697.355762482 0 0 0 0 42520842.553958416 -530562340.08715439 0 -530562340.08715439 -68515704.727771759 0 0 0 0 -130807459.76378775 -371784633.05677032 0 -371784633.05677032 -23493185.98572731 0 0 0 0 154160868.58445275 -366201272.40082741 0 -366201272.40082741 23048183.019390106 0 0 0 0 186758667.94596553 -364230507.56051064 0 -364230507.56051064 73297830.336032867 0 0 0 0 228649766.07434916 -364929533.56229973 0 -364929533.56229973 12943678.100959778 0 0 0 0 155910888.59782881 -443551407.97312546 0 -443551407.97312546 -9993382.4996032715 0 0 0 0 317655543.78502703 -327928397.27144623 0 -327928397.27144623 11875746.156750679 0 0 0 0 241506389.97167921 -339520703.29378319 0 -339520703.29378319 47477550.621898651 0 0 0 0 300489997.49214602 -235580021.49285126 0 -235580021.49285126 7866078.2177352905 0 0 0 0 257492876.25870299 -242662536.63475227 0 -242662536.63475227 40628666.534610748 0 0 0 0 420657505.94875336 -223410856.65707779 0 -223410856.65707779 3408952.5604057312 0 0 0 0 266263058.64755917 -105916581.34799004 0 -105916581.34799004 -1697761.5610847473 0 0 0 0 344639393.1226306 -148432805.99719048 0 -148432805.99719048 9497191.9680404663 0 0 0 0 213054621.38479614 -140688833.88440704 0 -140688833.88440704 38905491.130705833 0 0 0 0 220577033.34501886 -173969659.9209404 0 -173969659.9209404 88369835.020547867 0 0 0 0 140763627.41942692 -240446597.37980652 0 -240446597.37980652 128340356.41947079 0 0 0 0 142652384.39888477 -280980804.03766823 0 -280980804.03766823 177473152.91770267 0 0 0 0 206647963.77929217 -227526035.70645308 0 -227526035.70645308 63384150.271595001 0 0 0 0 807868293.50212836 4432096.0103054047 0 4432096.0103054047 486146772.57635498 0 0 0 0 -11860213.710976958 -621036289.70474195 0 -621036289.70474195 1345018967.7885857 0 0 0 0 -287803879.47361654 172628700.0357573 0 172628700.0357573 1475508765.5071049 0 0 0 0 307203347.4020555 -457926036.96011996 0 -457926036.96011996 1286896285.9332809 0 0 0 0 -283854445.16627568 278176149.52990365 0 278176149.52990365 774531702.7724762 0 0 0 0 -9624.0119034641939 183331.08278530615 0 183331.08278530615 1151439.9390776465 0 0 0 0 -292157573.55031133 -110046533.58766556 0 -110046533.58766556 690651822.06036568 0 0 0 0 -207358338.89231491 -445073632.0274992 0 -445073632.0274992 606251013.00626564 0 0 0 0 -352448600.85727096 -58166898.940392256 0 -58166898.940392256 1163637570.9637966 0 0 0 0 -161703486.86661434 -36883206.918316841 0 -36883206.918316841 620245983.94246745 0 0 0 0 -196778157.6363982 -283065156.22408724 0 -283065156.22408724 755487289.53236008 0 0 0 0 -433701590.25351906 -85263926.948653221 0 -85263926.948653221 1194221850.4415207 0 0 0 0 92001361.280165672 606216010.70255089 0 606216010.70255089 915943690.67272806 0 0 0 0 -175445.85997239428 -359457.04356717679 0 -359457.04356717679 1284453.7063363395 0 0 0 0 -442132684.36701155 -100746912.69353962 0 -100746912.69353962 1546207724.396143 0 0 0 0 1085710179.6072073 -702506611.28677464 0 -702506611.28677464 288835747.92668152 0 0 0 0 -222940111.66224241 -501369344.86409903 0 -501369344.86409903 1226817076.7277069 0 0 0 0 887266001.16568565 421107351.09363794 0 421107351.09363794 443365536.02450943 0 0 0 0 -312864149.58265495 -118968677.25060177 0 -118968677.25060177 1754847283.2273216 0 0 0 0 -180128084.25790358 -156087511.53488922 0 -156087511.53488922 638100016.25471878 0 0 0 0 -248425724.64747286 229436111.49233532 0 229436111.49233532 978195985.26374245 0 0 0 0 126956762.15958405 -925906149.98304176 0 -925906149.98304176 1303834614.5121145 0 0 0 0 -74089077.79576683 -518635040.92076111 0 -518635040.92076111 480886259.18532562 0 0 0 0 -93477673.794216156 -563347731.7622757 0 -563347731.7622757 479801477.20340991 0 0 0 0 145598895.35834312 -547923348.97941399 0 -547923348.97941399 135450718.73383331 0 0 0 0 -74287137.83039403 -143363892.98728371 0 -143363892.98728371 99716253.215377808 0 0 0 0 -526917015.02999282 64892864.556892872 0 64892864.556892872 73066106.826057434 0 0 0 0 -337048529.45469284 -570122529.58899307 0 -570122529.58899307 -38911563.295532227 0 0 0 0 -283515710.78558064 -470263956.83027649 0 -470263956.83027649 132030343.19245529 0 0 0 0 -53378702.40425396 -433802100.04149628 0 -433802100.04149628 -176272934.76342773 0 0 0 0 -762447392.00355911 -313547223.9679451 0 -313547223.9679451 40061544.993207932 0 0 0 0 -248429078.55891323 -399760359.72647667 0 -399760359.72647667 -6721100.74168396 0 0 0 0 -129496502.2002697 -326960290.15249825 0 -326960290.15249825 -257787396.36293793 0 0 0 0 -259391831.49356318 -260384282.67018795 0 -260384282.67018795 -519106616.72608185 0 0 0 0 -731543401.84760547 -314215821.2521944 0 -314215821.2521944 -128892705.72463417 0 0 0 0 -80969948.234892607 17823711.175336838 0 17823711.175336838 17380537.77909565 0 0 0 0 25005.561578518635 -2704260.8010423561 0 -2704260.8010423561 1514422.2457543705 0 0 0 0 -95582.285911445506 -214136.96838020813 0 -214136.96838020813 92175.803393901791 0 0 0 0 1396604.0078486353 9377065.4540274441 0 9377065.4540274441 36902473.038818359 0 0 0 0 -49302370.325187683 -142277541.99165154 0 -142277541.99165154 81867630.34262085 0 0 0 0 -585192.93523810804 -1008713.5872035108 0 -1008713.5872035108 3488887.3715621694 0 0 0 0 -983101.14949292573 -1742496.0132646742 0 -1742496.0132646742 1676734.4873477847 0 0 0 0 -12983609.136216402 -146866856.67639303 0 -146866856.67639303 168814552.41672897 0 0 0 0 -30644175.536202312 53550125.048261166 0 53550125.048261166 22734093.50576973 0 0 0 0 -10636249.524632178 50760487.202980042 0 50760487.202980042 -59085311.089250565 0 0 0 0 34466793.880490303 -38600955.969911575 0 -38600955.969911575 11182186.821857452 0 0 0 0 96611708.258590221 11419311.250938416 0 11419311.250938416 47512705.60660553 0 0 0 0 34990532.190095909 62250693.331948221 0 62250693.331948221 -96050173.809625626 0 0 0 0 309130669.45830762 81535679.232476234 0 81535679.232476234 -279137991.32352304 0 0 0 0 83803.688761846541 -1520877.5069194343 0 -1520877.5069194343 1392351.2104288265 0 0 0 0 175289278.96903563 -120779177.13155746 0 -120779177.13155746 173903187.34571075 0 0 0 0 117186894.56166339 -136261977.68420219 0 -136261977.68420219 197044537.95620728 0 0 0 0 130210236.8045978 -102741796.88815904 0 -102741796.88815904 98954111.63250351 0 0 0 0 273647212.04960942 -135410002.31724548 0 -135410002.31724548 143555880.53743744 0 0 0 0 189631580.110039 -178456810.46376038 0 -178456810.46376038 154743866.71701813 0 0 0 0 130477688.5821171 -94497069.487047046 0 -94497069.487047046 161288804.6757164 0 0 0 0 80658397.914715171 -107227236.96762466 0 -107227236.96762466 185986784.30491066 0 0 0 0 66468852.653464921 -15789663.072751045 0 -15789663.072751045 64206103.293521881 0 0 0 0 -35240363.458967626 48498430.066444874 0 48498430.066444874 27041382.153862 0 0 0 0 43823461.197530366 -44452421.820798576 0 -44452421.820798576 5213376.2066001892 0 0 0 0 17598483.340204954 -34376197.684371948 0 -34376197.684371948 67682764.918457985 0 0 0 0 42398369.931990355 -97117473.382083893 0 -97117473.382083893 150466808.7119751 0 0 0 0 -22922563.094573438 -100291376.68317127 0 -100291376.68317127 117330842.57952118 0 0 0 0 -1331452158.6573215 -408130933.71727276 0 -408130933.71727276 284424400.93971634 0 0 0 0 -214912.35073999246 -1859775.1388106346 0 -1859775.1388106346 1966513.9199422002 0 0 0 0 -562089072.7800107 -409468444.14652061 0 -409468444.14652061 10824045.842681885 0 0 0 0 -276698202.06035709 -383025938.50198936 0 -383025938.50198936 -75943988.466781616 0 0 0 0 -678281203.13859272 -30824015.859674454 0 -30824015.859674454 111717676.80878448 0 0 0 0 -529162235.60194993 -12674923.988568902 0 -12674923.988568902 -124150532.2731781 0 0 0 0 -550693318.13494802 197409623.31402272 0 197409623.31402272 1010532584.2866707 0 0 0 0 -1070929948.4696014 355533971.9883976 0 355533971.9883976 2200744284.7485409 0 0 0 0 443170041.09057939 -911300384.30033159 0 -911300384.30033159 2151723301.0805664 0 0 0 0 -796871142.3552978 842890560.36407185 0 842890560.36407185 1069103039.4611683 0 0 0 0 -311687.0163610499 -1171349.8219570871 0 -1171349.8219570871 934378.47621705383 0 0 0 0 92591591.393759191 -70036763.516052246 0 -70036763.516052246 90921150.101222992 0 0 0 0 158575920.5591073 -172876414.62064838 0 -172876414.62064838 129885122.73988247 0 0 0 0 -726276.81612960866 -365711.00046995329 0 -365711.00046995329 1450240.5063581644 0 0 0 0 75043885.580019131 -832117031.28363514 0 -832117031.28363514 2200928795.2959919 0 0 0 0 143290775.08449095 -117158187.88217783 0 -117158187.88217783 114631124.63422966 0 0 0 0 -106896392.4015298 -294051549.95710468 0 -294051549.95710468 611273348.1033287 0 0 0 0 -453064.75319336518 -123824.26019783062 0 -123824.26019783062 1179932.62910352 0 0 0 0 153701386.5905447 -181187193.29413223 0 -181187193.29413223 160590044.46501422 0 0 0 0 -209772880.86478734 316374113.51534557 0 316374113.51534557 638886528.37542725 0 0 0 0 -267589472.10689521 150382562.77640152 0 150382562.77640152 469831370.22747231 0 0 0 0 340391971.56709832 -359394206.68735695 0 -359394206.68735695 257082414.7712822 0 0 0 0 774072946.99632013 -517599329.3053875 0 -517599329.3053875 271115198.87998056 0 0 0 0 541172399.37438297 -268896273.62353802 0 -268896273.62353802 214091908.57096863 0 0 0 0 564423683.06886506 -188372858.55509949 0 -188372858.55509949 43673146.428901672 0 0 0 0 471940801.69164085 -120091831.94363022 0 -120091831.94363022 -17773811.720516205 0 0 0 0 401053328.43061495 -229599691.34894562 0 -229599691.34894562 33852992.516757965 0 0 0 0 528100914.97550714 -379069590.80815911 0 -379069590.80815911 104989269.51283264 0 0 0 0 386390031.34093559 -287264167.92845917 0 -287264167.92845917 45518939.536094666 0 0 0 0 337932081.1389038 -342806396.95900154 0 -342806396.95900154 13799560.933036804 0 0 0 0 330062386.81306469 -295692772.41363907 0 -295692772.41363907 116650959.16711044 0 0 0 0 206241090.39129683 -419372340.54638195 0 -419372340.54638195 28077426.794258118 0 0 0 0 348842886.0022676 -400258653.1682353 0 -400258653.1682353 6745425.8614959717 0 0 0 0 -231172535.04003024 -277506906.15620041 0 -277506906.15620041 84114249.454667091 0 0 0 0 -193468698.55141199 -383710209.35452652 0 -383710209.35452652 307693413.4269886 0 0 0 0 179621029.97660521 -511596043.22341537 0 -511596043.22341537 186872649.67014503 0 0 0 0 -90636567.97885716 -190447085.88317871 0 -190447085.88317871 417407514.89828014 0 0 0 0 118381992.04677635 -575468560.64058685 0 -575468560.64058685 1070598750.2167721 0 0 0 0 -729723217.30907035 138998168.87506866 0 138998168.87506866 1062281342.2313967 0 0 0 0 -576643902.18240416 -280065616.65825272 0 -280065616.65825272 2205943089.7581177 0 0 0 0 74190444.272141039 -520478910.09655285 0 -520478910.09655285 1075134081.0465279 0 0 0 0 266997498.69676116 -1010789198.1345496 0 -1010789198.1345496 2200255748.0781708 0 0 0 0 604035209.99180222 -208480914.2187686 0 -208480914.2187686 262743919.05428505 0 0 0 0 2216241679.9432402 -1075195053.5079222 0 -1075195053.5079222 534025158.8288517 0 0 0 0 275729627.51976895 1266762468.7452774 0 1266762468.7452774 2200526110.4730759 0 0 0 0 1009174075.5646454 1251333147.6541729 0 1251333147.6541729 1158103748.3997421 0 0 0 0 1442506.3844730949 -644654.39569157804 0 -644654.39569157804 1976606.8836128153 0 0 0 0 456550709.51529527 896019922.95560455 0 896019922.95560455 1250676360.1769104 0 0 0 0 -78650443.308014601 685108716.63751221 0 685108716.63751221 1673951269.2199364 0 0 0 0 -79554749.310663581 665545168.16723001 0 665545168.16723001 1606151851.0762939 0 0 0 0 -96125792.168816745 282491544.18519211 0 282491544.18519211 1223632042.1949501 0 0 0 0 211270818.80989456 617647208.1273613 0 617647208.1273613 1069577122.1673584 0 0 0 0 143803338.42329592 393202857.71031189 0 393202857.71031189 507191958.58543396 0 0 0 0 203340928.78794834 292893578.9668808 0 292893578.9668808 583365035.62487793 0 0 0 0 40237334.437476844 541612475.79472733 0 541612475.79472733 903842186.24808502 0 0 0 0 147488.64408637767 -279715.12770555227 0 -279715.12770555227 -217388.00313195959 0 0 0 0 829105633.9887563 -165621601.24962997 0 -165621601.24962997 -211677305.32769775 0 0 0 0 790679865.54809558 749701488.64726639 0 749701488.64726639 737037039.08364105 0 0 0 0 659581986.86402583 482917099.85078049 0 482917099.85078049 196786929.31781006 0 0 0 0 367402268.55141014 -21578834.428379059 0 -21578834.428379059 -295515042.0549202 0 0 0 0 -131689691.01428139 -139369152.68278313 0 -139369152.68278313 71508061.093738556 0 0 0 0 708944639.31722832 -120674232.00517941 0 -120674232.00517941 14038736.351215363 0 0 0 0 1378183.7768620991 -1613379.5452916448 0 -1613379.5452916448 5677812.0465491079 0 0 0 0 572559.7943119671 -1880882.9040070388 0 -1880882.9040070388 -1219040.0307182614 0 0 0 0 129336788.26657355 102981331.16944504 0 102981331.16944504 166765798.72805023 0 0 0 0 -114337641.47944292 102859322.19902992 0 102859322.19902992 608015308.2360611 0 0 0 0 104420576.81103796 -6830851.1780738831 0 -6830851.1780738831 7681143.0719985962 0 0 0 0 60912670.764590323 33023464.117528915 0 33023464.117528915 -26515466.211853027 0 0 0 0 -593389.44379613991 -869337.53404005244 0 -869337.53404005244 1121156.1298342906 0 0 0 0 -18156854.734407187 7608065.0036849976 0 7608065.0036849976 11098925.534545898 0 0 0 0 581816.14206951857 106887.50930023193 0 106887.50930023193 -40554294.229482651 0 0 0 0 890453.65061355743 -2880494.1895493031 0 -2880494.1895493031 3122977.9255435504 0 0 0 0 306953093.32738113 -6872230.1498432159 0 -6872230.1498432159 3997321.9071497917 0 0 0 0 172948528.03382385 -63201273.429764271 0 -63201273.429764271 53516708.124580383 0 0 0 0 1158025.9335900007 -1928649.3074201455 0 -1928649.3074201455 2740330.209334217 0 0 0 0 20148264.479382038 9839528.6749687195 0 9839528.6749687195 6125089.5806999207 0 0 0 0 28613225.485106781 -14598315.268331528 0 -14598315.268331528 7235677.7531585693 0 0 0 0 -18019590.724283814 -2115328.0585861206 0 -2115328.0585861206 21006724.480636597 0 0 0 0 -4181762.166926384 -16548026.991470337 0 -16548026.991470337 34712720.841323853 0 0 0 0 -27947668.520010412 321980257.52096939 0 321980257.52096939 696665328.69294357 0 0 0 0 65833409.603866756 -76487712.432662964 0 -76487712.432662964 62452797.429111481 0 0 0 0 58809.044927224044 -96304.037213720381 0 -96304.037213720381 180936.97941547725 0 0 0 0 41296842.673507042 -2414097.999522686 0 -2414097.999522686 -9054051.2460746765 0 0 0 0 20748526.203940235 177723586.63240719 0 177723586.63240719 1247446671.2644539 0 0 0 0 -28755589.219474673 68697066.014614105 0 68697066.014614105 1007392146.5215073 0 0 0 0 -123846488.53822851 402910709.39877319 0 402910709.39877319 1310889217.6688118 0 0 0 0 -315369583.99008071 105893531.19714165 0 105893531.19714165 1474265700.0362244 0 0 0 0 -367245933.47086138 414043451.98399353 0 414043451.98399353 2206738953.7283454 0 0 0 0 -269835715.5163601 -213560286.50609589 0 -213560286.50609589 2199467521.8174477 0 0 0 0 -166032149.82701802 -518502992.33048439 0 -518502992.33048439 845360660.87942505 0 0 0 0 -255502.11241654376 -387014.84943356179 0 -387014.84943356179 1258446.3507413184 0 0 0 0 70727193.093754843 -392624062.99193954 0 -392624062.99193954 -24604394.93195343 0 0 0 0 191930923.40238744 724024355.5534668 0 724024355.5534668 2204527539.1827068 0 0 0 0 -119526715.92584211 145160473.09651947 0 145160473.09651947 385296231.64671707 0 0 0 0 -168535010.11863548 -83912675.827152252 0 -83912675.827152252 701103661.92110443 0 0 0 0 -197027170.08299288 67181390.609371185 0 67181390.609371185 840197624.47852325 0 0 0 0 -182884273.77715448 99353520.156299591 0 99353520.156299591 1033578197.9658489 0 0 0 0 63538198.975914314 232256314.99514389 0 232256314.99514389 881982361.20601654 0 0 0 0 -432212451.86088818 -368570527.35505772 0 -368570527.35505772 166393393.49813843 0 0 0 0 -140042765.66311505 157780105.32501984 0 157780105.32501984 1239323124.9655914 0 0 0 0 -164581946.02064365 103792335.93689203 0 103792335.93689203 876819034.00979233 0 0 0 0 -679670803.40924454 -2541080.375743866 0 -2541080.375743866 2204300125.3950729 0 0 0 0 50511.412334899476 -490842.45520894136 0 -490842.45520894136 1075134.4253082909 0 0 0 0 -122714610.1698131 -40634143.972126961 0 -40634143.972126961 852400009.20543671 0 0 0 0 15619596.663135409 -52172731.653633118 0 -52172731.653633118 777605499.18973541 0 0 0 0 117782.64822185008 -211025.33530485258 0 -211025.33530485258 413950.77665491216 0 0 0 0 -276276038.95082283 -20086584.168605804 0 -20086584.168605804 2459332404.0874481 0 0 0 0 -79458678.776177138 -1232544360.3156395 0 -1232544360.3156395 -161464663.10523796 0 0 0 0 74825127.507313251 267853571.17509651 0 267853571.17509651 1331298254.720314 0 0 0 0 16523345.296401381 58843653.611381531 0 58843653.611381531 237615719.41373253 0 0 0 0 76377558.382096678 -607685611.92346501 0 -607685611.92346501 700179517.77150726 0 0 0 0 -93910356.101645231 79106021.222682953 0 79106021.222682953 691104045.93967247 0 0 0 0 -1276176.6033188105 -661372.76560974121 0 -661372.76560974121 1349083.2973957062 0 0 0 0 474219.65024450072 -446111.75861672964 0 -446111.75861672964 603828.74657127168 0 0 0 0 106068463.43893206 -171654638.09283686 0 -171654638.09283686 323154263.03166199 0 0 0 0 -68740931.906256884 72765660.251398087 0 72765660.251398087 51960682.239471436 0 0 0 0 123711209.12112331 -32077602.85193634 0 -32077602.85193634 -43293267.303398132 0 0 0 0 156842.303413043 -120964.12980794348 0 -120964.12980794348 113422.94267189875 0 0 0 0 187150769.45664912 70053274.958385468 0 70053274.958385468 -2103660.3135185242 0 0 0 0 -294066.80074757594 -282102.9452293124 0 -282102.9452293124 569043.1473430749 0 0 0 0 -93746523.155558467 72621014.245910645 0 72621014.245910645 864103446.48440552 0 0 0 0 249751.42926944164 -309439.492015603 0 -309439.492015603 459388.76202700473 0 0 0 0 -67594728.767692626 43997836.152809143 0 43997836.152809143 829402618.71867371 0 0 0 0 -1715463.478919208 -483590.6454372406 0 -483590.6454372406 2125565.1769180298 0 0 0 0 -1564617.6733903885 -105202.14780426025 0 -105202.14780426025 3063341.6569747925 0 0 0 0 -1893293.8114953339 -6674570.3294525146 0 -6674570.3294525146 -2637205.7704811096 0 0 0 0 -4962833.28526894 -4914958.9886646271 0 -4914958.9886646271 6627336.5399398804 0 0 0 0 1114854.0557473823 5246855.9754638672 0 5246855.9754638672 10523091.743854523 0 0 0 0 -365997.96688697487 3912225.1055107117 0 3912225.1055107117 15279473.960323334 0 0 0 0 6850390.140937373 778247.47982025146 0 778247.47982025146 4317614.3767700195 0 0 0 0 2339721.659041658 916388.54109191895 0 916388.54109191895 2454632.4364929199 0 0 0 0 4470097.0701645464 3141031.86810112 0 3141031.86810112 4182504.6834259033 0 0 0 0 2033519.0668303221 3007673.9838027954 0 3007673.9838027954 1650016.5354614258 0 0 0 0 -1754562.3575831503 -140101.33273124695 0 -140101.33273124695 3326928.4201583862 0 0 0 0 -1042099.6393711865 1558444.8594417572 0 1558444.8594417572 337091.19574737549 0 0 0 0 -1132156.3646524549 475841.64348220825 0 475841.64348220825 2685973.9775161743 0 0 0 0 -705780.01074153185 2964667.6703186035 0 2964667.6703186035 5448451.6497421265 0 0 0 0 -6427203.2103264928 14199557.86138916 0 14199557.86138916 6296057.9558258057 0 0 0 0 -948529.04378868639 3933582.0849850178 0 3933582.0849850178 1692379.3539581299 0 0 0 0 583512.08508642251 396201.66925780848 0 396201.66925780848 262650.21000532433 0 0 0 0 -1001170.4172370089 3031976.6946263313 0 3031976.6946263313 -3270162.0649108887 0 0 0 0 -1113.2574307096293 13421.070098436438 0 13421.070098436438 71531.373149267398 0 0 0 0 -4398788.7556517571 4903315.0547485352 0 4903315.0547485352 1705410.7568817139 0 0 0 0 -316633.41380847991 358900.15757751465 0 358900.15757751465 295003.14868164062 0 0 0 0 2272265.6006626505 1642285.2520980835 0 1642285.2520980835 -2217354.3852386475 0 0 0 0 4648221.4811797291 1038351.794380188 0 1038351.794380188 -489089.43609619141 0 0 0 0 2322002.0585481338 1302347.4957027435 0 1302347.4957027435 105603.34161376953 0 0 0 0 2045775.4887358844 2565041.433757782 0 2565041.433757782 1739196.4536132812 0 0 0 0 -1922995.6533293575 2996063.8077354431 0 2996063.8077354431 2318895.1704406738 0 0 0 0 30400730.316638559 4571383.773317337 0 4571383.773317337 -39864341.128265381 0 0 0 0 -166961438.87008217 32795157.600126266 0 32795157.600126266 35700708.644485474 0 0 0 0 -72809004.33162725 -61503769.522218704 0 -61503769.522218704 -76981971.684249878 0 0 0 0 144257.30631737207 219598.94304988906 0 219598.94304988906 655757.90710771643 0 0 0 0 -1273814.9966987371 -84422.906921386719 0 -84422.906921386719 1693354.4761123657 0 0 0 0 17231382.864205711 -47063604.279496193 0 -47063604.279496193 -36944280.253768921 0 0 0 0 -1538141.1022746861 49559746.879150391 0 49559746.879150391 -6422015.1847381592 0 0 0 0 -3166223.6882220209 32592430.042183399 0 32592430.042183399 41817080.217651367 0 0 0 0 -17235784.69986558 -6825840.1889343262 0 -6825840.1889343262 40932801.726929307 0 0 0 0 -1148480.8449185789 38466689.984779358 0 38466689.984779358 -123458229.81549072 0 0 0 0 9428433.2209349126 -41563444.672996521 0 -41563444.672996521 85401840.247344971 0 0 0 0 -117895.71831678742 -114941.82173568476 0 -114941.82173568476 520120.99698489718 0 0 0 0 740430.87918795645 3920466.8573532104 0 3920466.8573532104 3060514.1813278198 0 0 0 0 -392952.86058807373 32262130.332798004 0 32262130.332798004 50104870.291618347 0 0 0 0 7076280.868231792 11032309.65514183 0 11032309.65514183 -20394668.255409241 0 0 0 0 10536.049973240471 -30118.633541826159 0 -30118.633541826159 -142146.78675927967 0 0 0 0 -509013.64431881905 -670162.67710494995 0 -670162.67710494995 3255501.899887085 0 0 0 0 -235606.08382866828 3445920.2574027404 0 3445920.2574027404 2785227.1807722459 0 0 0 0 9690.7843462920573 131380.99561822601 0 131380.99561822601 2454886.9779951274 0 0 0 0 38578854.430286929 -17614834.99379158 0 -17614834.99379158 -31632693.298454285 0 0 0 0 3994444.6118254066 13029993.661144257 0 13029993.661144257 -3426457.0435199738 0 0 0 0 -630799.18371037696 3994882.8328826968 0 3994882.8328826968 1732767.6201248709 0 0 0 0 8610717.2486761212 10870048.196849823 0 10870048.196849823 -14148748.163890839 0 0 0 0 -2876735.4982750863 15148475.490385056 0 15148475.490385056 22064177.250488281 0 0 0 0 301692.81164050102 1755147.7525253296 0 1755147.7525253296 1330924.6073036194 0 0 0 0 -106449.31500458717 -301826.8233499527 0 -301826.8233499527 2632634.8204803467 0 0 0 0 633440.22559623723 -3646.1067825658247 0 -3646.1067825658247 2203749.6305255089 0 0 0 0 1005790.9870800823 1731472.5680618286 0 1731472.5680618286 1151425.393371582 0 0 0 0 2374696.3511660695 1971588.5760574341 0 1971588.5760574341 -503667.02323913574 0 0 0 0 427905.97306752205 -752181.82061386108 0 -752181.82061386108 1820043.9736595154 0 0 0 0 53925.951664314227 116723.91932170838 0 116723.91932170838 2304539.6875488339 0 0 0 0 -13005494.633456528 -21064690.914821625 0 -21064690.914821625 -13390930.546085358 0 0 0 0 -6192225.8296301067 9039082.2172718048 0 9039082.2172718048 22731262.854095459 0 0 0 0 -1984370.1242283583 10848151.894821167 0 10848151.894821167 8777346.1789741516 0 0 0 0 -694532.59253257106 3446894.9904967621 0 3446894.9904967621 5177289.275681491 0 0 0 0 -931207.22253549099 1712569.4494132996 0 1712569.4494132996 3105921.782541275 0 0 0 0 251945.96653366997 -194924.26056651864 0 -194924.26056651864 6483707.6479125721 0 0 0 0 -1037908.1355749918 3588359.5646410026 0 3588359.5646410026 7007286.6720106713 0 0 0 0 1039027.4787657857 -321449.77175521851 0 -321449.77175521851 2503907.5320014954 0 0 0 0 3357500.8833757639 -568787.09843063354 0 -568787.09843063354 1299895.7874641418 0 0 0 0 836824.83132009208 506182.2366206646 0 506182.2366206646 1628153.0153274536 0 0 0 0 2527463.128956154 249003.40064239502 0 249003.40064239502 552335.73719024658 0 0 0 0 1447853.5480115414 -2192287.2341804504 0 -2192287.2341804504 3367775.9775848389 0 0 0 0 1338769.2151803374 -1725028.7370014191 0 -1725028.7370014191 1366337.8865585327 0 0 0 0 -131006.78318620782 -596877.62052406929 0 -596877.62052406929 6509515.7410484459 0 0 0 0 1058285.3755482547 -648316.99215590954 0 -648316.99215590954 3647743.7106170654 0 0 0 0 -4197989.616932869 530804.27422332764 0 530804.27422332764 6922026.1460647583 0 0 0 0 117529.17751014233 594172.18869590759 0 594172.18869590759 2787252.0615463257 0 0 0 0 -1470349.734172225 -948680.54095649719 0 -948680.54095649719 4917666.6307525635 0 0 0 0 1500470.7103977203 -804152.15005493164 0 -804152.15005493164 7221880.7562179565 0 0 0 0 -3083855.938492775 35401.390365600586 0 35401.390365600586 3766346.3403739929 0 0 0 0 -1189163.6750459671 2843013.2756195068 0 2843013.2756195068 1488943.4622268677 0 0 0 0 -49104107.858860016 3441305.4563560486 0 3441305.4563560486 28994778.593635559 0 0 0 0 -1535725.8793183635 850821.80615764763 0 850821.80615764763 8893797.758775657 0 0 0 0 14314.905308762565 -106536.50307265949 0 -106536.50307265949 107107.37641634105 0 0 0 0 -819224.03154068836 4215691.4009731011 0 4215691.4009731011 3049908.2366581075 0 0 0 0 -9590273.9987998009 6713062.9870247841 0 6713062.9870247841 9219751.5117530823 0 0 0 0 -667154.93265558686 -3210584.2790480223 0 -3210584.2790480223 8972390.4101310987 0 0 0 0 -7459036.5948867798 6216153.9473609924 0 6216153.9473609924 9256030.0804138184 0 0 0 0 -4885583.5996780396 8247486.8420639038 0 8247486.8420639038 9711298.8938674927 0 0 0 0 -3034939.4093155051 1227763.9604080589 0 1227763.9604080589 5950650.0070674336 0 0 0 0 -288258.1440667836 87784.581172959763 0 87784.581172959763 356212.06986470101 0 0 0 0 -19210686.880981445 -2544985.0096282959 0 -2544985.0096282959 15802061.2240448 0 0 0 0 -1823399.147819519 2189078.6971664429 0 2189078.6971664429 28897037.514824867 0 0 0 0 -2417697.6402350925 90282.368902166374 0 90282.368902166374 8484613.9126130175 0 0 0 0 3726807.760597229 150950.29735183716 0 150950.29735183716 26848230.275844574 0 0 0 0 -12915900.667785645 6143090.8819465637 0 6143090.8819465637 26541129.662231445 0 0 0 0 -8922219.7300376892 8856376.6633739471 0 8856376.6633739471 24352684.87322998 0 0 0 0 1823481.4711933136 1640735.8743915558 0 1640735.8743915558 22257059.300888062 0 0 0 0 -10603962.780818939 10508704.148075104 0 10508704.148075104 18521166.223917007 0 0 0 0 16848907.716266632 -1629942.0551834106 0 -1629942.0551834106 16644045.96206665 0 0 0 0 8742958.9106140137 4211022.7434692383 0 4211022.7434692383 12836181.410484314 0 0 0 0 2058573.8731765747 -4627729.6066913605 0 -4627729.6066913605 24197836.472923279 0 0 0 0 4309602.33253479 -8118627.9818840027 0 -8118627.9818840027 29604593.933709145 0 0 0 0 -190533.33589363098 1095758.6864299774 0 1095758.6864299774 27951654.19940567 0 0 0 0 -14619343.728647232 -10303585.953491211 0 -10303585.953491211 36001562.534141541 0 0 0 0 553344.36881756689 -1331495.7243801951 0 -1331495.7243801951 -224679.04314125888 0 0 0 0 -275067.24548709393 -6381896.8163723946 0 -6381896.8163723946 32935493.905609131 0 0 0 0 1699204.7929840088 -14644423.976028442 0 -14644423.976028442 43571489.007875919 0 0 0 0 2300929.5272893906 -15154670.108223915 0 -15154670.108223915 23881761.744659424 0 0 0 0 8468241.3619346619 -9349626.8419380188 0 -9349626.8419380188 26970822.478485107 0 0 0 0 23234159.573913574 -38107484.169410706 0 -38107484.169410706 48558754.191841125 0 0 0 0 -8179111.6281099319 -19426438.426631927 0 -19426438.426631927 48907568.754562378 0 0 0 0 217058.09615898132 -12777494.239852905 0 -12777494.239852905 33265357.338039398 0 0 0 0 -2521966.7560844421 -12407727.395318985 0 -12407727.395318985 33386002.632041931 0 0 0 0 -1470738.2289886475 -16139172.413791656 0 -16139172.413791656 43374699.447431087 0 0 0 0 14135634.526826382 -15875819.142293453 0 -15875819.142293453 24271975.584243774 0 0 0 0 -21892608.569185555 -1433903.4569506645 0 -1433903.4569506645 1155883.8749389648 0 0 0 0 -22250851.257064819 -5621080.0476760864 0 -5621080.0476760864 1012641.9520874023 0 0 0 0 -3415053.6116762161 -71083184.914402008 0 -71083184.914402008 12109054.072313786 0 0 0 0 -495311.60669415764 -13815.118094010046 0 -13815.118094010046 2760163.933115324 0 0 0 0 -389205.69071172958 19786.278023191262 0 19786.278023191262 6086106.4965900518 0 0 0 0 -123361.54472249746 -1510871.037229538 0 -1510871.037229538 3072843.3905944824 0 0 0 0 -18156172.084539413 41566691.041167259 0 41566691.041167259 9160427.0937347412 0 0 0 0 106512063.92712212 47169013.238328934 0 47169013.238328934 -34541272.172134399 0 0 0 0 -17202609.64760828 -4603312.0136432648 0 -4603312.0136432648 641865.11961364746 0 0 0 0 -958472.50469671539 639218.97264672536 0 639218.97264672536 4125960.6379309017 0 0 0 0 -3457111.2896027565 -2344355.0430469513 0 -2344355.0430469513 3825046.2832336426 0 0 0 0 -5789761.3669766188 -3777162.0514125824 0 -3777162.0514125824 5782548.1096801758 0 0 0 0 4045894.4923629761 -10448136.408172607 0 -10448136.408172607 13965463.920394897 0 0 0 0 -1016646.5834816187 -2200599.3959818273 0 -2200599.3959818273 4561391.1042663231 0 0 0 0 6648213.8452739716 -4420386.0962715149 0 -4420386.0962715149 8130705.674407959 0 0 0 0 6505400.0202083588 -12665780.943641663 0 -12665780.943641663 9678486.5890450478 0 0 0 0 -7945907.8436641693 1220184.991979599 0 1220184.991979599 12316636.525794983 0 0 0 0 4029719.5301113129 -10528134.77627182 0 -10528134.77627182 16948357.149673462 0 0 0 0 8556241.7669010162 -13535332.611244202 0 -13535332.611244202 -13822330.600811005 0 0 0 0 1681819.6586612305 -3189215.7282081102 0 -3189215.7282081102 3152674.5357868038 0 0 0 0 -348581.42244032759 402865.27132120775 0 402865.27132120775 294724.75654982496 0 0 0 0 200728751.48317444 -58177933.629400611 0 -58177933.629400611 21536861.823757172 0 0 0 0 -2697494.533642292 -2192996.9463653564 0 -2192996.9463653564 -325513.26547241211 0 0 0 0 -17170704.700353146 -2439986.6502895355 0 -2439986.6502895355 425199.15997314453 0 0 0 0 -950869.14463746164 -4370583.1506907027 0 -4370583.1506907027 5924032.5578271896 0 0 0 0 281083232.27349472 -80061764.262294769 0 -80061764.262294769 14083697.128037453 0 0 0 0 -4185036.365359962 -2899883.8966560364 0 -2899883.8966560364 4158560.2027664185 0 0 0 0 -4805996.0598194748 -4714029.6961145401 0 -4714029.6961145401 6174178.0934066772 0 0 0 0 7828393.6894060373 -14080832.924835205 0 -14080832.924835205 12474828.809387207 0 0 0 0 7869468.5876478469 -4578899.4687428325 0 -4578899.4687428325 2782240.3848495483 0 0 0 0 10512803.457720906 97036.546703338623 0 97036.546703338623 367862.34358978271 0 0 0 0 8108843.9029319882 -4848810.7460327148 0 -4848810.7460327148 2480159.9949645996 0 0 0 0 4078505.5965416729 -8089.7364959716797 0 -8089.7364959716797 583397.28560447693 0 0 0 0 5263926.8813111559 -143384.51705741882 0 -143384.51705741882 -78449.96102142334 0 0 0 0 4794228.2328953966 -2886876.8071312904 0 -2886876.8071312904 1677055.7120742798 0 0 0 0 3052124.5698415041 -6282980.5112228394 0 -6282980.5112228394 4858685.7936630249 0 0 0 0 5132575.7736124396 -3010139.9718704224 0 -3010139.9718704224 1521852.5373535156 0 0 0 0 13008727.485325374 192349371.26825714 0 192349371.26825714 1053667885.8953133 0 0 0 0 729945.85870511353 85232332.23994796 0 85232332.23994796 404288749.7815094 0 0 0 0 145192720.40717483 32775968.61217308 0 32775968.61217308 67071353.139160156 0 0 0 0 -93239.680279906854 -19483.535163547844 0 -19483.535163547844 323285.15147045068 0 0 0 0 -230239139.96251172 719144105.76641273 0 719144105.76641273 2198357671.9086685 0 0 0 0 163765919.68621945 453908426.15239334 0 453908426.15239334 954885030.4440937 0 0 0 0 516803248.29976857 1156072357.7369652 0 1156072357.7369652 709237859.91684723 0 0 0 0 630906.71303437813 -117136.57216538209 0 -117136.57216538209 1966040.9145471826 0 0 0 0 645549665.73256993 792105677.04231739 0 792105677.04231739 -50689279.435501099 0 0 0 0 87499163.875912428 -52637635.129995823 0 -52637635.129995823 -115521267.82280731 0 0 0 0 102095096.82355121 -141441393.80399323 0 -141441393.80399323 45784924.345535278 0 0 0 0 -61478.982145884773 -23234.190927578136 0 -23234.190927578136 175192.4855734054 0 0 0 0 50853115.831914499 -106462614.01601791 0 -106462614.01601791 413407689.2257309 0 0 0 0 18721308.571303785 -2522464.9561767578 0 -2522464.9561767578 63260016.303071976 0 0 0 0 160403082.81760621 84552757.043193817 0 84552757.043193817 88918395.228721619 0 0 0 0 -198315477.27844262 -25382757.175888062 0 -25382757.175888062 107393420.15913773 0 0 0 0 -36870198.621325254 -30974710.9544487 0 -30974710.9544487 106466234.7385025 0 0 0 0 -129473647.58938634 -39799778.552577972 0 -39799778.552577972 -33895209.991188049 0 0 0 0 -635342.56529754319 -201581.87902133074 0 -201581.87902133074 5618077.1375943981 0 0 0 0 -246358978.11422503 78139661.3309021 0 78139661.3309021 75432163.070892334 0 0 0 0 10623918.671152961 -5625276.0363388062 0 -5625276.0363388062 -16971529.895072937 0 0 0 0 -23398588.081851706 12858160.196691513 0 12858160.196691513 14098849.737197876 0 0 0 0 -397879802.98701811 -12407023.428848267 0 -12407023.428848267 210416304.6981163 0 0 0 0 -442190353.62520313 277110016.77910614 0 277110016.77910614 -23409395.103700995 0 0 0 0 572112.79058617866 370167.25205739494 0 370167.25205739494 3737259.9382597096 0 0 0 0 -68661740.119466588 -579547004.28218651 0 -579547004.28218651 2201685520.0951843 0 0 0 0 -242162921.01179206 261199611.20937157 0 261199611.20937157 2201956203.5965652 0 0 0 0 -138922282.7380839 -149845878.75843048 0 -149845878.75843048 590690055.73462677 0 0 0 0 136531043.08563554 281937874.57821274 0 281937874.57821274 321586751.31820679 0 0 0 0 101212133.76796398 -163413880.33911514 0 -163413880.33911514 -40541290.647674561 0 0 0 0 157106052.64945579 -105690239.14061737 0 -105690239.14061737 -106696715.93061066 0 0 0 0 1617548829.5265605 -1157850577.3198638 0 -1157850577.3198638 456854535.3316803 0 0 0 0 354632950.10758674 614280418.52817535 0 614280418.52817535 724589637.43976974 0 0 0 0 -38371.898931610936 -1113106.8327011464 0 -1113106.8327011464 1491857.8995350115 0 0 0 0 123010005.87572983 -1405133257.3942604 0 -1405133257.3942604 2201380000.1008587 0 0 0 0 -424225520.14061093 -504324225.09174156 0 -504324225.09174156 1195324055.1935654 0 0 0 0 -369653169.82268476 -1280939346.7324371 0 -1280939346.7324371 568772200.3193512 0 0 0 0 394234945.80431706 -1559714989.6960831 0 -1559714989.6960831 667613428.23485184 0 0 0 0 916957518.51990795 -624348756.95072937 0 -624348756.95072937 97822570.360702515 0 0 0 0 336799976.67847204 -543953348.71601868 0 -543953348.71601868 873498963.2624054 0 0 0 0 405805603.42509198 -390335017.20795441 0 -390335017.20795441 621554454.81771851 0 0 0 0 747448583.34888935 -828452188.59838867 0 -828452188.59838867 808412369.12612152 0 0 0 0 130675918.02000543 -94471797.943431139 0 -94471797.943431139 1124602369.3996582 0 0 0 0 -134412.38929709155 -69215.122052675113 0 -69215.122052675113 314611.32923015207 0 0 0 0 2733226.9505507201 15285776.627082825 0 15285776.627082825 11706325.235768795 0 0 0 0 207421223.99999237 -138204715.94421768 0 -138204715.94421768 22046269.326530457 0 0 0 0 75932067.889751852 194961357.62467003 0 194961357.62467003 407837489.57537842 0 0 0 0 -67902566.02421242 -70904330.457443237 0 -70904330.457443237 -64471544.772712708 0 0 0 0 -280223.66279460426 -1089426.3124517915 0 -1089426.3124517915 3829128.7287183665 0 0 0 0 -327077889.66042924 -9883021.5601425171 0 -9883021.5601425171 476086393.57690048 0 0 0 0 -410071.04775644705 -161628.66709555313 0 -161628.66709555313 529351.03516720235 0 0 0 0 -12142231.316382885 -37262034.357748985 0 -37262034.357748985 -74760890.917312622 0 0 0 0 -5113990.9619740397 -3921700.6883735657 0 -3921700.6883735657 5652927.2214260101 0 0 0 0 -715157.23861238675 1715243.5436510667 0 1715243.5436510667 4799288.5439731032 0 0 0 0 -6502698.3054801822 -8281731.6783218384 0 -8281731.6783218384 6381394.2371063232 0 0 0 0 -1238747.8321744541 -979677.18972695898 0 -979677.18972695898 2836033.3574960586 0 0 0 0 -159451576.9056057 -99198105.032547474 0 -99198105.032547474 7291598.2625427246 0 0 0 0 -127424098.50430423 215468514.10926056 0 215468514.10926056 -172623722.21056557 0 0 0 0 59910231.370124668 -205569165.00695038 0 -205569165.00695038 -280414456.97392082 0 0 0 0 -18580798.680230003 14599440.303379059 0 14599440.303379059 18710388.683887482 0 0 0 0 4354163.0268499553 -21802955.832214355 0 -21802955.832214355 29344417.530075073 0 0 0 0 201506026.92421681 343934482.54145813 0 343934482.54145813 -137106304.65879822 0 0 0 0 -487372.12144470715 -419129.41461843625 0 -419129.41461843625 1619058.1550807077 0 0 0 0 4729737.7057704199 1993107.7898977101 0 1993107.7898977101 806744.19194793701 0 0 0 0 -876870.12254673254 -807040.5116859125 0 -807040.5116859125 1559507.8585458808 0 0 0 0 -1294352.491419116 189276.52073304582 0 189276.52073304582 8404176.9433617387 0 0 0 0 -6538889.3624876868 -13654503.200939894 0 -13654503.200939894 17741911.733840942 0 0 0 0 -21702443.800697662 -5569849.3910446167 0 -5569849.3910446167 37011653.964202881 0 0 0 0 8058189.3215930695 -11086619.766268611 0 -11086619.766268611 18993411.32699585 0 0 0 0 4519896.9482182777 25009812.615088463 0 25009812.615088463 9150505.3282699585 0 0 0 0 -10344065.772927459 2965520.0877685547 0 2965520.0877685547 8566039.669708252 0 0 0 0 -11059983.363253959 7606624.9197425842 0 7606624.9197425842 35752260.774650574 0 0 0 0 -2254095.3978848914 6548933.3381576538 0 6548933.3381576538 766050.12497329712 0 0 0 0 -3846294.1014209613 2523275.3896636963 0 2523275.3896636963 6390619.620803833 0 0 0 0 -596083.22925694135 3598553.7185757477 0 3598553.7185757477 776929.14018069394 0 0 0 0 14310192.542775631 15816290.405532837 0 15816290.405532837 -50428976.666183472 0 0 0 0 -18479.257271631155 98170.145337363705 0 98170.145337363705 254991.22297196463 0 0 0 0 -23008498.577108324 83345449.235109329 0 83345449.235109329 -223800454.24609375 0 0 0 0 31618.702610720269 340810.30176983407 0 340810.30176983407 32283.522645570338 0 0 0 0 -11485319.688107312 4888467.5053081512 0 4888467.5053081512 10536601.119140625 0 0 0 0 -1926207.0379530531 -517707.61755442288 0 -517707.61755442288 8600909.8779455498 0 0 0 0 -104591059.13849366 -8246297.0057411194 0 -8246297.0057411194 7876339.872756958 0 0 0 0 -158804343.60218722 21186467.98752284 0 21186467.98752284 22418858.718734741 0 0 0 0 -61461677.167188406 19236986.095420837 0 19236986.095420837 30507334.426132202 0 0 0 0 -61270018.392032623 15101028.902809143 0 15101028.902809143 -103366129.2881012 0 0 0 0 -280458648.98922443 -5509137.6093139648 0 -5509137.6093139648 26615250.786987305 0 0 0 0 22589314.61894846 -36041121.961414337 0 -36041121.961414337 2696391.6826553345 0 0 0 0 -78964459.354092002 21935231.266065598 0 21935231.266065598 18630886.348861694 0 0 0 0 -68039300.820634604 -30335331.441310883 0 -30335331.441310883 -26235650.763290405 0 0 0 0 -121494802.95292325 -48651.239186048508 0 -48651.239186048508 -4525508.5514526367 0 0 0 0 -114695981.81853294 8888078.2396697998 0 8888078.2396697998 6530286.0051398277 0 0 0 0 -127790404.98027873 -1162108.2139701843 0 -1162108.2139701843 -447991.96714401245 0 0 0 0 -65892.145156106737 -84694.041023816913 0 -84694.041023816913 155000.16982230917 0 0 0 0 -141138294.72641948 -53764253.319550991 0 -53764253.319550991 -30999492.657211304 0 0 0 0 -12081513.091435865 34645569.725662231 0 34645569.725662231 22309241.274810791 0 0 0 0 -28817850.161187291 -80047182.509044647 0 -80047182.509044647 -24906258.839323044 0 0 0 0 -61897.549631209229 -173656.18390102312 0 -173656.18390102312 275434.24198319204 0 0 0 0 -24216764.88374877 -40986854.714214325 0 -40986854.714214325 -31166975.9585495 0 0 0 0 -36878580.493184566 -5252957.12550354 0 -5252957.12550354 -16506595.33455658 0 0 0 0 -9571665.2202050686 -22703813.502147675 0 -22703813.502147675 -13071463.19123745 0 0 0 0 -28004566.776398182 -23401680.689413071 0 -23401680.689413071 57140285.21622467 0 0 0 0 -17289959.029133439 -51508282.266986847 0 -51508282.266986847 94982263.067649841 0 0 0 0 44933109.046854019 -77204143.48588562 0 -77204143.48588562 57156143.431058913 0 0 0 0 2898868.3232315779 -88025405.2123909 0 -88025405.2123909 117919591.6663208 0 0 0 0 -4502193.8732457161 -8104553.3530349731 0 -8104553.3530349731 -10208190.582950592 0 0 0 0 -19466.797789770557 -94601.187707627192 0 -94601.187707627192 144059.2559373416 0 0 0 0 -25707153.785143331 -52632920.989347458 0 -52632920.989347458 141735683.40769958 0 0 0 0 46045819.644076049 -119700904.52033234 0 -119700904.52033234 112036523.0249424 0 0 0 0 89606563.991846263 -96885700.972381592 0 -96885700.972381592 -41719152.203502655 0 0 0 0 -162925.41629687825 -123273265.90553497 0 -123273265.90553497 140868708.18287659 0 0 0 0 357987.51194891206 -123269109.69887543 0 -123269109.69887543 140838634.47024918 0 0 0 0 57869988.478903309 91206912.268238068 0 91206912.268238068 112353778.67386818 0 0 0 0 47251408.484041817 -119956539.70511246 0 -119956539.70511246 22769519.177909851 0 0 0 0 -47996968.516659856 17620940.162403584 0 17620940.162403584 90371864.361595154 0 0 0 0 65967896.970429793 122195079.25270653 0 122195079.25270653 110194378.60917664 0 0 0 0 -109342.03737774184 32903.795681513846 0 32903.795681513846 315198.67229333892 0 0 0 0 -1715177.4150230181 -3419778.4055252075 0 -3419778.4055252075 14121190.563381195 0 0 0 0 -2165633.666596761 -3077518.3662204742 0 -3077518.3662204742 18599484.586082458 0 0 0 0 -1834.6479313788441 -1195784.4758987427 0 -1195784.4758987427 10846190.860351562 0 0 0 0 4274.4128825388862 -946138.04537496041 0 -946138.04537496041 5138337.6854476929 0 0 0 0 39634.850116714129 -322869.17804958485 0 -322869.17804958485 537703.43080615439 0 0 0 0 457335.73629615735 -3686564.2952384949 0 -3686564.2952384949 8538299.3113670349 0 0 0 0 474569.63796070154 -1999520.9439037591 0 -1999520.9439037591 4566818.7342376709 0 0 0 0 -193824.13592107582 -372920.35552603938 0 -372920.35552603938 672600.03519812785 0 0 0 0 48552718.236887693 -134200524.21380234 0 -134200524.21380234 142125622.3115921 0 0 0 0 64224099.883168653 -49415036.636527538 0 -49415036.636527538 92374538.814056396 0 0 0 0 467888.18301540019 -2574186.7552540898 0 -2574186.7552540898 -7234147.0066986084 0 0 0 0 570580.53179493803 -5307725.7875862122 0 -5307725.7875862122 9242441.4302444458 0 0 0 0 -1822742.6776154155 -6137130.2397384644 0 -6137130.2397384644 9115469.9173431396 0 0 0 0 -5082233.389514436 -8093102.760641098 0 -8093102.760641098 20442540.570068359 0 0 0 0 -5223423.6440583114 -5219733.7726593018 0 -5219733.7726593018 19948259.316457748 0 0 0 0 -10502915.289960418 -10649067.086341858 0 -10649067.086341858 26967375.212720394 0 0 0 0 18211136.45935744 -15683680.878297806 0 -15683680.878297806 -58391269.896400452 0 0 0 0 -481193.71125854395 -260267.03315024264 0 -260267.03315024264 1520452.5627569389 0 0 0 0 -2779911.3657639227 -15725772.054943085 0 -15725772.054943085 3695616.9856033325 0 0 0 0 -5854077.4015236637 -17536082.245101929 0 -17536082.245101929 25861969.67907238 0 0 0 0 4665501.279447794 -144493331.56747818 0 -144493331.56747818 248828626.14050293 0 0 0 0 -402572.05358763336 -357023.02262865566 0 -357023.02262865566 990045.41263133287 0 0 0 0 -95124641.560379982 -88030335.218162537 0 -88030335.218162537 94303694.801433563 0 0 0 0 -29264903.198248386 -69711756.46105957 0 -69711756.46105957 -9049847.6298828125 0 0 0 0 -207496999.80792624 -78853248.757277489 0 -78853248.757277489 -413139.08372497559 0 0 0 0 -242456416.52814198 172075196.84503174 0 172075196.84503174 -146829921.07818604 0 0 0 0 -116558775.0430522 73241941.374992371 0 73241941.374992371 22077863.088806152 0 0 0 0 -93164172.546706319 1496947.8861618042 0 1496947.8861618042 219407353.32858276 0 0 0 0 63191933.356388927 -54848299.751579285 0 -54848299.751579285 96470727.493721008 0 0 0 0 -10139526.883008003 -110964775.63234711 0 -110964775.63234711 275762573.02390671 0 0 0 0 27294960.424709797 -16273954.793388367 0 -16273954.793388367 127605560.96980572 0 0 0 0 -33323202.84294486 31628502.292495728 0 31628502.292495728 117328362.90242004 0 0 0 0 -120857263.73170757 65424467.356826782 0 65424467.356826782 44755220.283081055 0 0 0 0 -463622.9221098423 -21241317.50970459 0 -21241317.50970459 95465556.5366745 0 0 0 0 -112303328.97151852 33322839.028106689 0 33322839.028106689 40445294.619018555 0 0 0 0 22246158.292506754 -11593037.601168156 0 -11593037.601168156 -128894389.87524414 0 0 0 0 -111779248.72180653 34199064.76802063 0 34199064.76802063 -1798897.7616882324 0 0 0 0 -6506598.6937391162 5877004.5845413208 0 5877004.5845413208 16080378.261772156 0 0 0 0 2106500.7005375624 39383429.495187759 0 39383429.495187759 13852488.904808044 0 0 0 0 -10408602.667546749 20957961.159212112 0 20957961.159212112 122809512.6360321 0 0 0 0 17699.586732029915 382770.41226959229 0 382770.41226959229 95690634.632225037 0 0 0 0 -464487.13050372963 -148884.3149638921 0 -148884.3149638921 2311670.4536715355 0 0 0 0 1598425.419367075 -46872762.829975128 0 -46872762.829975128 170737256.51495361 0 0 0 0 18468415.827769384 -55073099.50469017 0 -55073099.50469017 47187671.165008545 0 0 0 0 77859416.298165679 41225217.588014603 0 41225217.588014603 -77508433.317329407 0 0 0 0 -47388484.608216107 12122546.355640411 0 12122546.355640411 151860269.48681641 0 0 0 0 30665021.521960437 -107471281.6580162 0 -107471281.6580162 150573915.47108459 0 0 0 0 -19527801.694793504 -19659886.570690155 0 -19659886.570690155 114729561.68662262 0 0 0 0 14744121.721605061 56861164.834934235 0 56861164.834934235 81587590.678817749 0 0 0 0 24881508.615689285 32869159.811580658 0 32869159.811580658 32511044.419372559 0 0 0 0 10470828.039779626 -1643999.06665802 0 -1643999.06665802 3380536.1295938492 0 0 0 0 53380723.426869251 29036218.101905823 0 29036218.101905823 7423742.1715545654 0 0 0 0 -158096.43891136773 -77179.69170824904 0 -77179.69170824904 476541.15307394415 0 0 0 0 -7447419.0317329299 854845.96097278595 0 854845.96097278595 10613855.378646851 0 0 0 0 6165746.0361347049 -134900.68893432617 0 -134900.68893432617 5828416.8149795532 0 0 0 0 -4348312.6290394971 147533.57862091064 0 147533.57862091064 8375687.8759841919 0 0 0 0 3037938.4004140086 -1273675.748008728 0 -1273675.748008728 3760510.8143997192 0 0 0 0 -6062392.2661175365 1685951.8391838074 0 1685951.8391838074 4258306.111328125 0 0 0 0 6155204.6722910777 8471644.509557724 0 8471644.509557724 9972724.6747894287 0 0 0 0 -2561298.7811454982 1328678.26587677 0 1328678.26587677 6297499.1792068481 0 0 0 0 6926869.6753146201 1829298.1381378174 0 1829298.1381378174 3129965.8796768188 0 0 0 0 1779956.285959716 3883813.1816911697 0 3883813.1816911697 8352501.7381896973 0 0 0 0 11344868.740511334 14770785.606639862 0 14770785.606639862 16214052.247421265 0 0 0 0 14219607.350817919 3129878.4526443481 0 3129878.4526443481 6144083.8272781372 0 0 0 0 30609174.986335762 9413089.2528533936 0 9413089.2528533936 3330085.3975219727 0 0 0 0 5897778.7969798986 5040528.8632602692 0 5040528.8632602692 10463504.691894531 0 0 0 0 8647065.5750008374 15246453.428611755 0 15246453.428611755 16210188.690605164 0 0 0 0 4540232.2334583327 12611480.626522064 0 12611480.626522064 20845086.934432983 0 0 0 0 8668175.2345513552 19983536.34022522 0 19983536.34022522 23944281.962665558 0 0 0 0 7996278.0266555063 8480995.8758773804 0 8480995.8758773804 9480832.5725326538 0 0 0 0 4768296.0681455657 4070802.8005752563 0 4070802.8005752563 7064030.3344726562 0 0 0 0 2694567.3334535584 7027864.6425170898 0 7027864.6425170898 16350853.499846458 0 0 0 0 3065024.7579120174 9936375.6949119568 0 9936375.6949119568 16033410.109660625 0 0 0 0 941892.02543966658 11073668.005332947 0 11073668.005332947 24411117.918365479 0 0 0 0 -2911516.6087326203 11855212.231263161 0 11855212.231263161 32255829.527603149 0 0 0 0 -7512321.5839745663 5246732.4532623291 0 5246732.4532623291 41331455.347341537 0 0 0 0 -1083734.6052559391 18920088.000076294 0 18920088.000076294 49675428.712272644 0 0 0 0 -3837502.4503954798 12837502.037208557 0 12837502.037208557 36351494.212532043 0 0 0 0 -10982748.12424748 -7434142.9459648132 0 -7434142.9459648132 36581116.024673462 0 0 0 0 -5074849.29711546 -1261900.2255401611 0 -1261900.2255401611 27396761.4516716 0 0 0 0 -8620333.3703999352 979106.94146347046 0 979106.94146347046 26109417.43762207 0 0 0 0 -3674580.3243482914 7575624.9206809998 0 7575624.9206809998 26968374.450557709 0 0 0 0 -3215354.670181239 6714172.8884735107 0 6714172.8884735107 27638608.601420403 0 0 0 0 -222895.61124892905 7318070.4228096008 0 7318070.4228096008 18994524.233917236 0 0 0 0 -172869.18424334936 6944861.8230209351 0 6944861.8230209351 21772792.707080841 0 0 0 0 -3127825.1745403279 5212123.527053833 0 5212123.527053833 23957090.480735779 0 0 0 0 -2950120.6594661949 2934355.9175379276 0 2934355.9175379276 22189616.021636963 0 0 0 0 -1041053.4672695091 3571846.5881538391 0 3571846.5881538391 21613780.009277344 0 0 0 0 866158.84804369137 4411407.2358398438 0 4411407.2358398438 20797665.013778687 0 0 0 0 606.42683537822768 2780581.295627594 0 2780581.295627594 20383520.252876282 0 0 0 0 -707012.41325217451 2770835.7109642029 0 2770835.7109642029 21086241.447563171 0 0 0 0 -4383.1653460134739 2348854.0844726562 0 2348854.0844726562 21231575.339529991 0 0 0 0 -1429123.4070003629 1992652.7800350189 0 1992652.7800350189 22408203.485874176 0 0 0 0 -3639280.3144873129 -1080529.9962654114 0 -1080529.9962654114 21333343.590366364 0 0 0 0 -4444457.4576285165 -2608487.9791936874 0 -2608487.9791936874 18635478.358299255 0 0 0 0 -728.33796591019313 -135651.84805669222 0 -135651.84805669222 17617826.162742615 0 0 0 0 -9537128.2538559437 31690266.48059845 0 31690266.48059845 83514348.229902983 0 0 0 0 -53575698.743371487 12466834.400094986 0 12466834.400094986 120371468.98266602 0 0 0 0 -1077954.6139365244 -877849.04486031737 0 -877849.04486031737 9538453.234734647 0 0 0 0 -526513.82062941766 331202.82150443085 0 331202.82150443085 1372635.9377683215 0 0 0 0 126506464.99458086 185322069.38077164 0 185322069.38077164 -42673351.716796875 0 0 0 0 -104198718.61036551 69199520.079444885 0 69199520.079444885 -20017807.314201355 0 0 0 0 -13488542.449817628 3662137.5310287476 0 3662137.5310287476 24892658.232971191 0 0 0 0 219057850.36619258 -94428796.760414124 0 -94428796.760414124 -42125312.479278564 0 0 0 0 -324843667.28486156 14709343.76550293 0 14709343.76550293 83070886.889543533 0 0 0 0 42809694.737408221 -31612241.181091309 0 -31612241.181091309 66460021.314323425 0 0 0 0 -11720697.172527105 168242904.82454252 0 168242904.82454252 330439130.83953857 0 0 0 0 182706657.60302016 238871013.63958955 0 238871013.63958955 165214506.85118103 0 0 0 0 -104307600.69776388 15349715.538936317 0 15349715.538936317 86827222.728347778 0 0 0 0 -4908073.3682251424 -56616015.872779846 0 -56616015.872779846 16456512.168640137 0 0 0 0 -80116724.655800581 8334117.861656189 0 8334117.861656189 68590422.391342163 0 0 0 0 -10038991.205904007 -2379624.7765169144 0 -2379624.7765169144 24388647.439716339 0 0 0 0 -86426237.953017712 -767537.0315246582 0 -767537.0315246582 55930219.154548645 0 0 0 0 -3434874.8145533768 3186843.1476893146 0 3186843.1476893146 17328352.715480879 0 0 0 0 -3661769.9482337846 -2383726.354312527 0 -2383726.354312527 8726497.9041828252 0 0 0 0 -10223604.486964226 -634774.9848613739 0 -634774.9848613739 31366209.074455261 0 0 0 0 -8492605.1219348907 3864552.4804916382 0 3864552.4804916382 25664972.576040268 0 0 0 0 -3230439.9799575806 -7883935.6289043427 0 -7883935.6289043427 43879597.464752197 0 0 0 0 -2498049.7010312192 -2508141.212902159 0 -2508141.212902159 7489450.4687709445 0 0 0 0 -13092373.044771194 -12830204.386198044 0 -12830204.386198044 62342481.733509064 0 0 0 0 -5050893.8754119873 1959159.024974823 0 1959159.024974823 8952337.5995235443 0 0 0 0 -2991792.8041927782 369112.57458928437 0 369112.57458928437 9843678.1416450404 0 0 0 0 -2347468.8030335307 822918.72445487976 0 822918.72445487976 16612259.932766557 0 0 0 0 -1449799.0333435014 439418.19302129745 0 439418.19302129745 16657504.387487411 0 0 0 0 -3125518.071586132 -2080206.3269805908 0 -2080206.3269805908 6196684.59425354 0 0 0 0 -3596587.3422756903 -186695.80786554259 0 -186695.80786554259 12748864.399196737 0 0 0 0 -3696508.1020339131 977799.26322746277 0 977799.26322746277 4746005.0697546005 0 0 0 0 -3568657.9332823604 939543.31097650528 0 939543.31097650528 20553690.74612236 0 0 0 0 -2632583.0141183138 179481.74025249481 0 179481.74025249481 20510294.506090164 0 0 0 0 -3123669.3970465884 618677.05483988626 0 618677.05483988626 10383047.990948215 0 0 0 0 -3802408.6965462342 221961.83135521412 0 221961.83135521412 21553113.384094238 0 0 0 0 -2520295.722636342 -1025120.6034564972 0 -1025120.6034564972 21596616.818381488 0 0 0 0 -2680221.1591719985 -3769708.5231246948 0 -3769708.5231246948 24892338.533552885 0 0 0 0 -3563242.6797866225 -2174745.0693864822 0 -2174745.0693864822 26396627.07837677 0 0 0 0 -3499601.0961299576 -936657.11826840043 0 -936657.11826840043 22800923.862186432 0 0 0 0 -2080774.0523508787 -4394885.1417388916 0 -4394885.1417388916 23532603.81167984 0 0 0 0 -8826068.4253218677 506001.16951751709 0 506001.16951751709 1327421.9700012207 0 0 0 0 -9063130.9734458923 -130415.63259887695 0 -130415.63259887695 954258.7629699707 0 0 0 0 -3003816.6057274146 4141465.2535711946 0 4141465.2535711946 7907951.8333553746 0 0 0 0 -2798330.1339688301 -152227.9973077774 0 -152227.9973077774 19933917.972568512 0 0 0 0 -1600513.9684452415 -3440308.0345458984 0 -3440308.0345458984 19809205.393140793 0 0 0 0 -220306.96819317742 1641886.4836983753 0 1641886.4836983753 1864971.5556226559 0 0 0 0 -3984666.6092858315 1332591.3674850464 0 1332591.3674850464 2732054.4177856445 0 0 0 0 -2288947.564950461 -628293.71478714235 0 -628293.71478714235 10877156.130314773 0 0 0 0 -679652.83417946682 2189014.9658038067 0 2189014.9658038067 2071273.7706820089 0 0 0 0 -5033194.925647378 2473639.0099143982 0 2473639.0099143982 3344142.5997085571 0 0 0 0 -4319731.2860174179 1274071.600151062 0 1274071.600151062 20002004.923595905 0 0 0 0 -2668636.5326400995 2004828.9676094055 0 2004828.9676094055 3359040.1656799316 0 0 0 0 -3918465.5236318111 277184.78995513916 0 277184.78995513916 4320661.4856987 0 0 0 0 -1245737.8887615204 1370496.0200576782 0 1370496.0200576782 2347845.7816467285 0 0 0 0 -2856915.7452221122 1959149.6862565875 0 1959149.6862565875 2535112.3858566284 0 0 0 0 -2143775.5772974109 2874171.0877501052 0 2874171.0877501052 9721880.2190045305 0 0 0 0 -2865188.6295130253 1763444.5671768188 0 1763444.5671768188 3066658.3295974731 0 0 0 0 -1366613.5915908178 4455779.2774537839 0 4455779.2774537839 6597909.7345805168 0 0 0 0 -2191056.3209235687 2516532.6953656259 0 2516532.6953656259 2578219.386063464 0 0 0 0 -1017133.7618738029 2465314.3068242832 0 2465314.3068242832 1812398.4831961356 0 0 0 0 -14631484.564385414 -2135659.5921020508 0 -2135659.5921020508 -17198919.370056152 0 0 0 0 -8842907.1114524901 558308.9386138916 0 558308.9386138916 1461559.0518798828 0 0 0 0 -2683709.7112119906 1754729.0105121713 0 1754729.0105121713 8554701.413221091 0 0 0 0 -6420399.4595320225 824248.34407424927 0 824248.34407424927 3509255.393737793 0 0 0 0 1856799.1984963417 2056877.3377609253 0 2056877.3377609253 15842009.130004883 0 0 0 0 -720372.31192061864 -709373.296138593 0 -709373.296138593 11669916.029646585 0 0 0 0 -2936827.8682354949 -1700637.7806972712 0 -1700637.7806972712 15397192.630595364 0 0 0 0 -3198812.9453094006 5158777.6885528564 0 5158777.6885528564 21185176.108909607 0 0 0 0 -8878804.75984478 -270103.20236206055 0 -270103.20236206055 20068229.20765686 0 0 0 0 -11973793.833198547 -1492643.9368286133 0 -1492643.9368286133 22087172.762756348 0 0 0 0 -7263701.2046659887 5468535.4450511932 0 5468535.4450511932 23822021.948165894 0 0 0 0 -4698704.4609684944 8491242.6604957581 0 8491242.6604957581 15863004.710021973 0 0 0 0 -6131962.2857890129 3736610.2783031464 0 3736610.2783031464 20724167.235443115 0 0 0 0 -4266924.0293840468 6475775.6939849854 0 6475775.6939849854 19526765.473587036 0 0 0 0 -4722987.5294218063 6972375.3643951416 0 6972375.3643951416 20013135.605312347 0 0 0 0 -5985530.0659911633 3915015.770111084 0 3915015.770111084 34768964.846138 0 0 0 0 -3151114.5856583118 8759194.7682342529 0 8759194.7682342529 22504746.300743103 0 0 0 0 -11264428.874137402 -7723305.9128093719 0 -7723305.9128093719 60669426.102050781 0 0 0 0 -650670.53172636032 -6512917.9691314697 0 -6512917.9691314697 33619500.64111042 0 0 0 0 -2979327.151955843 -1838088.4417381287 0 -1838088.4417381287 24358100.684379578 0 0 0 0 -2109641.2875891924 410321.9915971756 0 410321.9915971756 28198650.110412598 0 0 0 0 2295091.9150327696 8764168.1469726562 0 8764168.1469726562 24410740.762680054 0 0 0 0 -7023668.0721827205 10752933.707241058 0 10752933.707241058 49288817.744880676 0 0 0 0 -14634752.021379352 -1082498.7971000671 0 -1082498.7971000671 47643341.481666565 0 0 0 0 -15997512.72749421 5297684.5917739868 0 5297684.5917739868 93109062.610023499 0 0 0 0 655482.82478761673 24035602.403766632 0 24035602.403766632 48647379.310165405 0 0 0 0 5385636.2957062125 -9460337.77917099 0 -9460337.77917099 82259729.094388962 0 0 0 0 11610897.542573929 55055041.975578308 0 55055041.975578308 -84722142.071563721 0 0 0 0 -523704.69654141704 -109174.27988522872 0 -109174.27988522872 3491567.1889342219 0 0 0 0 -36831522.607772931 -16528587.733454704 0 -16528587.733454704 106042114.3896637 0 0 0 0 -47553140.519070409 61838781.876186013 0 61838781.876186013 28915338.170333862 0 0 0 0 21512493.987600684 -21193461.296607971 0 -21193461.296607971 33688276.18069458 0 0 0 0 5286364.8182860613 3374064.8339424133 0 3374064.8339424133 8939304.8248291016 0 0 0 0 -8085731.8722897768 -36778262.278114319 0 -36778262.278114319 68419344.789596558 0 0 0 0 -6205101.7115795612 -37424050.157062531 0 -37424050.157062531 27625129.912528992 0 0 0 0 3369380.2320539951 -73789791.120582581 0 -73789791.120582581 54565941.422691345 0 0 0 0 -50412375.522530794 -52803651.835126877 0 -52803651.835126877 66641561.614822388 0 0 0 0 49905335.37806654 -55617102.846721649 0 -55617102.846721649 33484249.448417664 0 0 0 0 -592084.43888766936 522246.57490313798 0 522246.57490313798 2420498.3337367214 0 0 0 0 -254505620.41618299 -78527570.998947144 0 -78527570.998947144 460676146.84161377 0 0 0 0 45768609.9044559 -17028698.344039917 0 -17028698.344039917 15578479.214881897 0 0 0 0 -309671514.15383887 -381376830.46670532 0 -381376830.46670532 324094740.95323181 0 0 0 0 -46549863.805297211 -258431781.14267731 0 -258431781.14267731 -67026419.808959961 0 0 0 0 -31853360.53814888 35313677.991394043 0 35313677.991394043 54219469.76348114 0 0 0 0 -1561182.8740174249 -41161506.212528706 0 -41161506.212528706 66837455.647415161 0 0 0 0 173392225.71734047 313123337.16275024 0 313123337.16275024 129817100.381073 0 0 0 0 -742634.97337007069 155077.00566767156 0 155077.00566767156 1651530.9281033678 0 0 0 0 -864047.70399394026 -113552.10430229828 0 -113552.10430229828 5359162.5302780755 0 0 0 0 26614380.729092598 117545980.54349518 0 117545980.54349518 -86411482.097278595 0 0 0 0 -32027542.392819405 267778519.95930481 0 267778519.95930481 152628852.48820496 0 0 0 0 29398349.735908508 -54148328.383956909 0 -54148328.383956909 53752406.807746887 0 0 0 0 34038805.733533144 -81592150.707790375 0 -81592150.707790375 195900274.50119019 0 0 0 0 -3364138.0938744545 -40467865.428199768 0 -40467865.428199768 49881885.332740784 0 0 0 0 -11498933.566154003 -16677839.412014008 0 -16677839.412014008 12120885.527542114 0 0 0 0 -32050598.923765182 -9980916.1938018799 0 -9980916.1938018799 19903237.118179321 0 0 0 0 -52234338.098876953 -17010308.813110352 0 -17010308.813110352 16941558.026428223 0 0 0 0 -26433037.333707809 -27519517.043243408 0 -27519517.043243408 4266633.3573303223 0 0 0 0 -32886557.369297028 -30438005.578765869 0 -30438005.578765869 3422818.3098144531 0 0 0 0 -33406450.395797729 -9497553.968460083 0 -9497553.968460083 19732530.218704224 0 0 0 0 -18851336.020899296 -59518327.693138123 0 -59518327.693138123 96633741.899459839 0 0 0 0 -21527066.475509882 -51883328.009963989 0 -51883328.009963989 104166337.67179108 0 0 0 0 68965743.66251111 -67323630.734954834 0 -67323630.734954834 -177028571.06031799 0 0 0 0 -112377479.5400033 -63666886.681617737 0 -63666886.681617737 443639075.92604828 0 0 0 0 -19783855.440670967 -58833907.124145508 0 -58833907.124145508 106049250.5888443 0 0 0 0 -47831604.066071987 -82892249.660934448 0 -82892249.660934448 109555432.5345974 0 0 0 0 -31760711.925198317 36267702.278030396 0 36267702.278030396 -54645806.420295715 0 0 0 0 -56566926.895990372 -503725602.26596069 0 -503725602.26596069 111165560.08608246 0 0 0 0 -90682345.099639893 409000948.09463501 0 409000948.09463501 795580163.48602295 0 0 0 0 47867448.891135693 119373271.558815 0 119373271.558815 241820694.49594879 0 0 0 0 86240748.971089363 -45849490.283075333 0 -45849490.283075333 24130338.471229553 0 0 0 0 60481001.846713066 -13058538.294830322 0 -13058538.294830322 -2180320.0286941528 0 0 0 0 498655.97910837311 -506037.45531955548 0 -506037.45531955548 -53347.885295160115 0 0 0 0 51769878.737258196 19961468.143424988 0 19961468.143424988 34422341.338043213 0 0 0 0 -106249.26851811935 -88509.237375073135 0 -88509.237375073135 168522.98493899405 0 0 0 0 -5189028.2003298998 -34142726.275913239 0 -34142726.275913239 90694738.93548584 0 0 0 0 -689011.61810684204 -7191184.9354324341 0 -7191184.9354324341 42331461.773083687 0 0 0 0 -34185504.676640272 21662430.717581749 0 21662430.717581749 144890840.33798218 0 0 0 0 -33527018.640642643 -52759181.283937454 0 -52759181.283937454 113763977.83432007 0 0 0 0 -35167635.732696533 -47467222.014251709 0 -47467222.014251709 191653787.76342773 0 0 0 0 -33033251.484363556 32269793.76449585 0 32269793.76449585 195574494.60096455 0 0 0 0 -7696292.6698105335 -2609226.7681427002 0 -2609226.7681427002 43003775.451715469 0 0 0 0 -546271.27967210545 -267648.49887766317 0 -267648.49887766317 1479439.8851952404 0 0 0 0 -8644165.057123106 5728575.537364006 0 5728575.537364006 5232748.5529022217 0 0 0 0 -1944086.67390728 -104863.08992004395 0 -104863.08992004395 3085594.5278015137 0 0 0 0 -4191682.0323283938 -766065.17438793182 0 -766065.17438793182 1201850.4510498047 0 0 0 0 -370435.43584680161 198021.18050307035 0 198021.18050307035 3078921.1835401841 0 0 0 0 -872442.17249088641 -1876147.7021846659 0 -1876147.7021846659 2546394.575663358 0 0 0 0 -2014062.0286055058 -1698595.7372360229 0 -1698595.7372360229 2663525.7235946655 0 0 0 0 10889834.388639212 -7331305.1368255615 0 -7331305.1368255615 -899712.54309511185 0 0 0 0 -334425.11506145902 -391417.72783491388 0 -391417.72783491388 669760.38727905229 0 0 0 0 -7513929.5816674232 1622060.1133995056 0 1622060.1133995056 6581062.4752807617 0 0 0 0 -625103.77942740917 -1411317.098865509 0 -1411317.098865509 -3090847.8477783203 0 0 0 0 -8346725.1930236612 -4208225.7877960205 0 -4208225.7877960205 4596705.3633995056 0 0 0 0 -838306.23730562627 -4070851.2347357273 0 -4070851.2347357273 -7276016.8041229248 0 0 0 0 -423859.36820401734 -93821.981901613995 0 -93821.981901613995 2768038.8437282443 0 0 0 0 -18872673.655656099 -22207651.991134644 0 -22207651.991134644 22680899.197631836 0 0 0 0 -13484941.488761187 -6995222.6177711487 0 -6995222.6177711487 18438738.979354858 0 0 0 0 14471779.18185091 -15413537.863334656 0 -15413537.863334656 9328700.0383911133 0 0 0 0 -759394.30334765895 -1260085.1722822357 0 -1260085.1722822357 4550540.5338721424 0 0 0 0 1461693.2615776062 -12940077.75320816 0 -12940077.75320816 8906142.9200935364 0 0 0 0 967304.56392747164 -530521.07014465332 0 -530521.07014465332 -1706331.9555625916 0 0 0 0 -2323693.8491683006 -3756870.0694293976 0 -3756870.0694293976 6930680.3777313232 0 0 0 0 -743440.76155371964 -2107345.791132682 0 -2107345.791132682 13140183.753790317 0 0 0 0 -19029792.108185768 -5928273.5027313232 0 -5928273.5027313232 21690530.93756485 0 0 0 0 -13450021.662482262 -8840593.2079124451 0 -8840593.2079124451 15248693.286768913 0 0 0 0 -10979156.824524403 -2426371.68247509 0 -2426371.68247509 16157455.861343384 0 0 0 0 -12616818.619734764 -2770033.4839515686 0 -2770033.4839515686 24268040.906166077 0 0 0 0 -8061763.0311255455 -8137045.4667789936 0 -8137045.4667789936 13737532.537872314 0 0 0 0 -11192951.293737411 -9593003.7001438141 0 -9593003.7001438141 16980523.328763962 0 0 0 0 -8977149.215013504 -10189542.120483398 0 -10189542.120483398 16884694.709281921 0 0 0 0 -15617811.883274078 -3941308.8593139648 0 -3941308.8593139648 14097043.934289932 0 0 0 0 -5500597.2307415009 1973443.5102462769 0 1973443.5102462769 14323831.976074219 0 0 0 0 -1078624.241065572 -3713920.712801144 0 -3713920.712801144 14418842.083858632 0 0 0 0 -2066140.73648661 36854.553310360759 0 36854.553310360759 5046771.3821152784 0 0 0 0 -15689642.481438637 4602120.9501533508 0 4602120.9501533508 15837360.269309998 0 0 0 0 -29718787.433481216 1939154.0477828979 0 1939154.0477828979 16667694.545661926 0 0 0 0 -687883.54280090332 -11481386.045166016 0 -11481386.045166016 45981839.560119629 0 0 0 0 -7868370.5220012665 -6616128.1613016129 0 -6616128.1613016129 18101394.552074432 0 0 0 0 -5195638.236287117 -13099247.860008717 0 -13099247.860008717 21104095.625541687 0 0 0 0 -318957.97078032116 5396820.3895981126 0 5396820.3895981126 7106204.9400641872 0 0 0 0 -2912590.3264427185 7640645.4124889374 0 7640645.4124889374 19151609.633676529 0 0 0 0 -1207973.5213813782 1635690.5522460938 0 1635690.5522460938 1929965.7759094238 0 0 0 0 -2121163.7879223647 -3535786.9914025282 0 -3535786.9914025282 2181522.0007851329 0 0 0 0 704298.54434779193 600530.89312503301 0 600530.89312503301 7546787.4989206828 0 0 0 0 -3402631.9164437591 3241121.9182489663 0 3241121.9182489663 17792067.527673788 0 0 0 0 -6700878.4657707214 7711775.1830310822 0 7711775.1830310822 20890297.275339127 0 0 0 0 -62689954.906049222 -24793963.822160721 0 -24793963.822160721 3671258.5187683105 0 0 0 0 -6822440.7943429947 6186495.0381097794 0 6186495.0381097794 17537961.946720123 0 0 0 0 31565642.749988154 -31019973.596847534 0 -31019973.596847534 -159761989.98551178 0 0 0 0 -9053344.8386086226 12610911.006851912 0 12610911.006851912 51008535.445953369 0 0 0 0 -2357058.3385616438 126863.62536951154 0 126863.62536951154 8641331.0240512919 0 0 0 0 11419133.816531286 31341536.714546204 0 31341536.714546204 108808499.72311401 0 0 0 0 -15709184.758600235 -8343417.5254497528 0 -8343417.5254497528 48125223.941670418 0 0 0 0 -2774358.2770287991 -2034149.1325063705 0 -2034149.1325063705 48098193.424678802 0 0 0 0 -26174356.591166496 14984987.156918526 0 14984987.156918526 33805672.462928772 0 0 0 0 -7206541.6480250359 5718330.5541210175 0 5718330.5541210175 28327650.296211243 0 0 0 0 -2955382.6948153079 11752837.232126728 0 11752837.232126728 16695302.33367157 0 0 0 0 -7799636.9728717804 13376181.297271729 0 13376181.297271729 22351908.769403458 0 0 0 0 -9055490.4780368805 16508521.013961792 0 16508521.013961792 16133161.61756897 0 0 0 0 -6057921.4217758179 12817097.550037384 0 12817097.550037384 16519461.774501324 0 0 0 0 -904231.06687875558 1024292.1114171213 0 1024292.1114171213 5194761.5582962353 0 0 0 0 -5826348.3228588104 13945437.340259552 0 13945437.340259552 15202128.623447418 0 0 0 0 -349831.80296760844 361354.37615994923 0 361354.37615994923 2104156.4139826037 0 0 0 0 -23422912.401561737 37610859.996733665 0 37610859.996733665 -15173856.22420311 0 0 0 0 -71702132.711155891 24215999.135080338 0 24215999.135080338 35138550.374839783 0 0 0 0 -36643627.052186012 -45564985.09544754 0 -45564985.09544754 -3888809.7885007858 0 0 0 0 -82515048.581316948 -24242382.338718414 0 -24242382.338718414 50469715.129451752 0 0 0 0 -57846343.461029053 -9422089.1289215088 0 -9422089.1289215088 59318143.339170456 0 0 0 0 -15055909.647561073 -10924470.292201996 0 -10924470.292201996 24588394.34160614 0 0 0 0 -6717458.1838150024 -17534273.786687851 0 -17534273.786687851 18163615.274425507 0 0 0 0 -6551366.5095586777 -10108924.589061737 0 -10108924.589061737 16512966.342433929 0 0 0 0 -31181687.294681549 -24837916.941768646 0 -24837916.941768646 16984428.348040104 0 0 0 0 -13071756.681217194 -2755989.9190673828 0 -2755989.9190673828 26696807.747498512 0 0 0 0 -35464060.207645416 5585825.3246240616 0 5585825.3246240616 41424189.730991364 0 0 0 0 -46299862.340421677 13430071.490436554 0 13430071.490436554 71439862.081611633 0 0 0 0 -36861564.96901226 6262838.6109886169 0 6262838.6109886169 51459463.831548691 0 0 0 0 -37526393.10285759 33379790.732646942 0 33379790.732646942 62996837.516087532 0 0 0 0 -25950119.433643103 28885599.663267612 0 28885599.663267612 36491065.16431427 0 0 0 0 -23009057.839173317 18701267.824777603 0 18701267.824777603 49563068.949872971 0 0 0 0 -12271955.394388199 17611171.577981949 0 17611171.577981949 45884442.668379784 0 0 0 0 -15107756.989411592 7384988.6400332451 0 7384988.6400332451 41413479.020900726 0 0 0 0 -8287586.2190151215 7614774.4501438141 0 7614774.4501438141 34918891.172496796 0 0 0 0 -9926697.1674437523 11580404.287540913 0 11580404.287540913 30603553.311595917 0 0 0 0 -5156478.6800823212 7032659.8227672577 0 7032659.8227672577 32100022.904257774 0 0 0 0 -19700481.211215973 32786162.040973663 0 32786162.040973663 31209331.945888519 0 0 0 0 -6686958.5052947998 13598434.896673203 0 13598434.896673203 15262905.181434631 0 0 0 0 -4867471.0491199493 -1940802.9272041321 0 -1940802.9272041321 96575529.48708725 0 0 0 0 -39991.478018403985 -52240.95577896852 0 -52240.95577896852 1222556.9981269359 0 0 0 0 -236997.51737308502 29995791.021333694 0 29995791.021333694 -8445305.0861206055 0 0 0 0 -13257603.512334824 23054550.947814941 0 23054550.947814941 137204872.37238693 0 0 0 0 44546980.075942993 39502683.217834473 0 39502683.217834473 140349299.790802 0 0 0 0 23062209.752625465 4078285.0823516846 0 4078285.0823516846 41538918.340023041 0 0 0 0 -106704.83984286478 1948670.3044283353 0 1948670.3044283353 3461587.9672672786 0 0 0 0 -128003.66519361595 67248.941376320086 0 67248.941376320086 3830581.5342580779 0 0 0 0 -2493154.2356128693 -556242.68710708618 0 -556242.68710708618 61270122.386634827 0 0 0 0 79905.551952362061 9857917.7311782837 0 9857917.7311782837 51749145.031013489 0 0 0 0 -1295230.230427742 18043287.849529266 0 18043287.849529266 35020289.381259918 0 0 0 0 -333364.52331304178 1765815.0408638101 0 1765815.0408638101 5083932.5393618047 0 0 0 0 -1066863.1906871796 1652708.6417312622 0 1652708.6417312622 6027994.5368995667 0 0 0 0 4117166.5346508026 4286013.7093200684 0 4286013.7093200684 29271989.127239227 0 0 0 0 -764388.86287975311 -729149.98313522339 0 -729149.98313522339 7523955.9830169678 0 0 0 0 -500545.69974327087 214731.38810539246 0 214731.38810539246 6771759.6564712524 0 0 0 0 -1700755.7019224167 -654657.12075042725 0 -654657.12075042725 7745302.5632019043 0 0 0 0 -1814196.1378364563 -277814.01445388794 0 -277814.01445388794 7279653.5626144409 0 0 0 0 -9697615.5778808594 9102303.6230621338 0 9102303.6230621338 4348427.697052002 0 0 0 0 -4568190.9400691986 3396845.0325622559 0 3396845.0325622559 4178451.1269226074 0 0 0 0 -9807737.4645118713 7850265.7719802856 0 7850265.7719802856 5609903.2292785645 0 0 0 0 -9808783.9262524843 7786803.27196455 0 7786803.27196455 1959675.884765625 0 0 0 0 -7411359.6132726669 13388971.396950722 0 13388971.396950722 -2765154.0354003906 0 0 0 0 -9749668.619852066 8291271.7470321655 0 8291271.7470321655 3583857.4320068359 0 0 0 0 -13851199.730224609 13370089.484222412 0 13370089.484222412 -2359664.0686035156 0 0 0 0 -16001203.869987488 5635149.5506896973 0 5635149.5506896973 4873825.3580932617 0 0 0 0 -14773655.972637177 6349792.0891113281 0 6349792.0891113281 1637198.002532959 0 0 0 0 -17728145.554525375 5256291.6089363098 0 5256291.6089363098 5127323.9005126953 0 0 0 0 -695241.99285575724 2773937.2870343593 0 2773937.2870343593 9033925.7901003473 0 0 0 0 -8778260.7879867554 -3687457.2486991882 0 -3687457.2486991882 7790284.8065490723 0 0 0 0 -12702375.647049427 -3259973.7812490463 0 -3259973.7812490463 10508537.124298096 0 0 0 0 -19736046.423774719 350473.28321838379 0 350473.28321838379 14347122.289916992 0 0 0 0 929282.86538542155 551601.61225118698 0 551601.61225118698 -1345989.9965966009 0 0 0 0 -3468863.6555342674 13372001.983049691 0 13372001.983049691 39540194.161964417 0 0 0 0 -19433766.311386108 7530488.3023834229 0 7530488.3023834229 -15663922.152496338 0 0 0 0 -2836531.8416568125 4190256.023034621 0 4190256.023034621 6644862.3324609781 0 0 0 0 -3608125.75157547 9404691.7573394775 0 9404691.7573394775 35983010.987487793 0 0 0 0 11756867.438819885 21646663.263252258 0 21646663.263252258 32817002.049957275 0 0 0 0 1905329.1439220905 18230142.093701363 0 18230142.093701363 40291020.127838135 0 0 0 0 951778.36600875854 12461123.117485046 0 12461123.117485046 31399498.856124878 0 0 0 0 -5680075.605632782 31264319.762176514 0 31264319.762176514 22620456.376434326 0 0 0 0 16703697.947570801 16070026.701324463 0 16070026.701324463 -10953795.440483093 0 0 0 0 -6258008.3410301208 -9153595.5312347412 0 -9153595.5312347412 14842645.170681 0 0 0 0 6840842.6246147156 -917849.74816131592 0 -917849.74816131592 19946755.155883789 0 0 0 0 -14194567.063611984 -5593708.9176368713 0 -5593708.9176368713 23939300.78364563 0 0 0 0 7563112.8264865875 -4282055.9707717896 0 -4282055.9707717896 35183086.615234375 0 0 0 0 6635621.1216087341 14737231.869749069 0 14737231.869749069 24360560.845832825 0 0 0 0 6450151.8139476776 12698975.342353821 0 12698975.342353821 31403460.823860168 0 0 0 0 -3939742.2486305237 1111038.2944259644 0 1111038.2944259644 28135968.609672546 0 0 0 0 -232653.84324865742 623948.12457924988 0 623948.12457924988 6942014.7437563669 0 0 0 0 -10442102.339273453 427824.12072372437 0 427824.12072372437 29559331.368947983 0 0 0 0 -14065039.985422373 -1139903.3718652427 0 -1139903.3718652427 28885012.448760986 0 0 0 0 -2294849.9941680171 1881616.4504969942 0 1881616.4504969942 10122018.41768322 0 0 0 0 -8903656.9436016083 6545389.0149230957 0 6545389.0149230957 3286742.6834411621 0 0 0 0 -9763748.5703430176 6422525.8628005981 0 6422525.8628005981 4082448.5813217163 0 0 0 0 -10311530.959064484 3831153.722442627 0 3831153.722442627 -1052026.7308959961 0 0 0 0 -3228084.3968735412 2468749.4932722766 0 2468749.4932722766 10126838.756385913 0 0 0 0 -2527240.4572372437 920709.25112915039 0 920709.25112915039 1920845.0859012604 0 0 0 0 -713442.45007112995 -173467.32193898875 0 -173467.32193898875 11992847.663688324 0 0 0 0 2145290.9857902527 4447945.4801111221 0 4447945.4801111221 31074454.811588287 0 0 0 0 -855487.87769753765 218791.16267597862 0 218791.16267597862 5415329.2741289865 0 0 0 0 -9243624.7855405807 6280035.5750980377 0 6280035.5750980377 27017625.094905853 0 0 0 0 264874.35588944668 865964.14420803729 0 865964.14420803729 1289201.8464785628 0 0 0 0 -1312973.2106876983 1856962.3452959743 0 1856962.3452959743 9801072.6694520582 0 0 0 0 -269895.35645584995 81492.76131920144 0 81492.76131920144 1739759.2051664526 0 0 0 0 4001596.9747591019 5302087.8731575012 0 5302087.8731575012 30978808.367671967 0 0 0 0 -7674633.9801018238 3873384.88814044 0 3873384.88814044 30887171.992507935 0 0 0 0 1284137.2123565674 3201904.0194778442 0 3201904.0194778442 33071310.526850462 0 0 0 0 -9056060.9856014252 24212934.945930481 0 24212934.945930481 52155638.065019608 0 0 0 0 -7325862.1945159435 -3783361.0289814472 0 -3783361.0289814472 16170316.790874481 0 0 0 0 6591352.1757049561 14708465.776622295 0 14708465.776622295 23106351.20042038 0 0 0 0 -3782532.8533000946 8268420.9430923462 0 8268420.9430923462 28117393.897199631 0 0 0 0 -6747680.073628664 -7632589.5925579071 0 -7632589.5925579071 8523377.7406311035 0 0 0 0 -9496.3377173097324 -93244.112721545622 0 -93244.112721545622 117685.82202969119 0 0 0 0 -9292599.9633831084 6597270.8734130859 0 6597270.8734130859 7055671.6681671143 0 0 0 0 -1536482.1616467834 3822217.2716026306 0 3822217.2716026306 4817738.328666687 0 0 0 0 8008873.563361764 -510799.70063781738 0 -510799.70063781738 7628031.5618591309 0 0 0 0 -8884239.110778762 2766150.2521286011 0 2766150.2521286011 24336855.594604492 0 0 0 0 10341768.702648044 12872910.761817932 0 12872910.761817932 27716714.631549835 0 0 0 0 -8033588.1868635416 3902146.9379272461 0 3902146.9379272461 29378699.512405396 0 0 0 0 -10118491.031433292 13733119.355256081 0 13733119.355256081 22064392.066619873 0 0 0 0 -1695111.0901960731 3525903.7075271606 0 3525903.7075271606 15672006.837127686 0 0 0 0 -1835164.2091799481 -1256821.5228792578 0 -1256821.5228792578 8136335.7892162912 0 0 0 0 -8033184.5614510775 4010300.792388916 0 4010300.792388916 22779058.236358643 0 0 0 0 -2245365.9429683685 369723.72303771973 0 369723.72303771973 13538697.773696899 0 0 0 0 -1496247.7494846471 -74528.678859438747 0 -74528.678859438747 6804121.3018593919 0 0 0 0 -5598390.1961779594 3823662.4175605774 0 3823662.4175605774 -1485251.7611618042 0 0 0 0 -940736.96892476082 -2908671.9994049072 0 -2908671.9994049072 7194603.250579834 0 0 0 0 -141804.50337541103 3707442.3650932312 0 3707442.3650932312 4827797.3759918213 0 0 0 0 1274271.6927845478 1903516.0641174316 0 1903516.0641174316 4311346.5419158936 0 0 0 0 1446865.0073053837 -2923615.460647583 0 -2923615.460647583 -2174302.0528793335 0 0 0 0 6654198.7709423304 5217898.7590637207 0 5217898.7590637207 4999496.214225769 0 0 0 0 19313927.259151578 -3178966.4647369385 0 -3178966.4647369385 22858086.655834198 0 0 0 0 3137676.841111064 1233262.7499313354 0 1233262.7499313354 21953237.638900757 0 0 0 0 2833149.9443020821 4870455.700958252 0 4870455.700958252 23063652.091316223 0 0 0 0 184870.94211006165 -2736838.4082260132 0 -2736838.4082260132 19466338.816223145 0 0 0 0 7954066.0014129877 605430.53249359131 0 605430.53249359131 11218685.825714111 0 0 0 0 1000598.3824794888 -2138547.6883106232 0 -2138547.6883106232 10330457.962677002 0 0 0 0 2384048.8457500935 -2947296.321521759 0 -2947296.321521759 11111849.103256226 0 0 0 0 -3016182.525847435 1594242.1849441528 0 1594242.1849441528 16543315.742645264 0 0 0 0 -2311764.8780824244 -5778683.9380245209 0 -5778683.9380245209 11220183.723968506 0 0 0 0 -5140775.5818090737 -5694819.8975067139 0 -5694819.8975067139 11226847.794799805 0 0 0 0 -4807724.7291574478 -472845.983253479 0 -472845.983253479 10267951.494270325 0 0 0 0 876434.45013356209 4827035.1098594666 0 4827035.1098594666 24912836.558258057 0 0 0 0 -505369.27066063881 -757326.37750244141 0 -757326.37750244141 18718068.22203064 0 0 0 0 1051626.1194622517 8994758.3635406494 0 8994758.3635406494 31472712.062011719 0 0 0 0 5858293.3612685204 7315486.0827636719 0 7315486.0827636719 19533834.317715645 0 0 0 0 -442009.45824384229 1038753.7012941428 0 1038753.7012941428 3455524.7296941597 0 0 0 0 8275982.5328426398 12217113.20063591 0 12217113.20063591 24418714.782783508 0 0 0 0 7415225.7352719307 12979205.615409851 0 12979205.615409851 28161108.368858337 0 0 0 0 1867492.8438270092 4029782.4802856445 0 4029782.4802856445 24337897.091392517 0 0 0 0 14940215.921868488 22582660.480148315 0 22582660.480148315 28463495.650268555 0 0 0 0 1758554.9056139365 4320115.160548687 0 4320115.160548687 47330799.350509644 0 0 0 0 -338235.7058224678 10993001.843093872 0 10993001.843093872 -491268.08149719238 0 0 0 0 3668210.7891840935 9122043.7852210999 0 9122043.7852210999 -13656222.592544556 0 0 0 0 4404408.958573103 4706752.4669380188 0 4706752.4669380188 -3025837.0961151123 0 0 0 0 13395523.444633484 18181897.220420837 0 18181897.220420837 22008218.748684883 0 0 0 0 5571277.5478261709 2149728.7447052002 0 2149728.7447052002 -20604136.044158936 0 0 0 0 -308684.08172599622 568890.63868668675 0 568890.63868668675 1966146.0899387226 0 0 0 0 4429689.5895042419 19337432.133197784 0 19337432.133197784 41201960.073692322 0 0 0 0 -1689881.1617229162 998298.62722771615 0 998298.62722771615 8908805.8572645821 0 0 0 0 -737163.08972740173 3180396.0911827087 0 3180396.0911827087 1913484.6239776611 0 0 0 0 -3375256.7860051394 5134315.4966049194 0 5134315.4966049194 26037368.842292309 0 0 0 0 299745.07654583943 5622103.4278576039 0 5622103.4278576039 2102729.0934028551 0 0 0 0 -734230.20226192474 3285262.4949264526 0 3285262.4949264526 4455714.8253340721 0 0 0 0 -692182.69300167076 1891391.8931968194 0 1891391.8931968194 4751590.49357423 0 0 0 0 77894.124792098999 1063231.206073761 0 1063231.206073761 1593530.4638366699 0 0 0 0 -41977.10228885914 462606.98565873504 0 462606.98565873504 600326.78876948275 0 0 0 0 -5392496.1042678058 3862242.5547027588 0 3862242.5547027588 29237803.262283325 0 0 0 0 -3719256.3070628643 -2805437.0944137573 0 -2805437.0944137573 53884005.736480713 0 0 0 0 -681046.83974349941 -69831.112063083798 0 -69831.112063083798 862053.50198078528 0 0 0 0 593229.37723469734 11542510.739906311 0 11542510.739906311 -4621646.5546722412 0 0 0 0 841542.36715182848 3688289.009529924 0 3688289.009529924 1766463.9510363527 0 0 0 0 -408919.48324447125 3103182.7209067345 0 3103182.7209067345 3147728.0372009277 0 0 0 0 -174629.64166545868 3143783.6185112 0 3143783.6185112 1872411.4847564697 0 0 0 0 904003.33997080126 5602123.5686680069 0 5602123.5686680069 791612.19328071177 0 0 0 0 -1554836.0267982483 9302497.7686309814 0 9302497.7686309814 -223852.9994354248 0 0 0 0 -27428627.490578175 26068036.781784058 0 26068036.781784058 -8440561.2054672241 0 0 0 0 7565022.0879377127 7158914.1412448883 0 7158914.1412448883 -43341778.637756348 0 0 0 0 -106041.2795951697 1290690.9320976455 0 1290690.9320976455 532245.42522588 0 0 0 0 -18530438.594839573 14625221.173942566 0 14625221.173942566 3918584.3101916313 0 0 0 0 -7268767.6581192017 33389306.065853119 0 33389306.065853119 -36341127.905273438 0 0 0 0 7709999.099401474 13373258.249015808 0 13373258.249015808 -14116198.864408493 0 0 0 0 5453670.1971691847 19376370.140644073 0 19376370.140644073 -23649040.513961792 0 0 0 0 14987337.6503492 12103166.480122566 0 12103166.480122566 -30314209.876571655 0 0 0 0 12046503.475985289 1667732.5407104492 0 1667732.5407104492 -51620554.189689636 0 0 0 0 -22446991.510967135 38850047.479679108 0 38850047.479679108 -32088032.582107544 0 0 0 0 4010079.4535157681 28898939.280700684 0 28898939.280700684 -59276586.513698578 0 0 0 0 7707593.5659790039 8693614.2314968109 0 8693614.2314968109 -18889341.436965942 0 0 0 0 2771650.3618509769 5784648.8829803467 0 5784648.8829803467 -20333702.122695923 0 0 0 0 -1153455.5792472363 -560700.76442527771 0 -560700.76442527771 -22100690.403533936 0 0 0 0 8358887.8547270298 9940531.7549591064 0 9940531.7549591064 -25617713.760650635 0 0 0 0 13886781.080729961 5943375.8913040161 0 5943375.8913040161 -28197806.617092133 0 0 0 0 19324668.007756472 -2258633.9967765808 0 -2258633.9967765808 -19760555.717910767 0 0 0 0 12007155.393180966 1965143.3931798935 0 1965143.3931798935 -19009549.465255737 0 0 0 0 6029945.4139909744 3583287.3739013672 0 3583287.3739013672 -15228388.599220276 0 0 0 0 5766200.9032967687 -191607.26489877701 0 -191607.26489877701 -7097083.1152496338 0 0 0 0 1531647.7819848061 -4224386.3384552002 0 -4224386.3384552002 5367505.5015296936 0 0 0 0 12221668.699966192 -5694842.9207839966 0 -5694842.9207839966 -8309770.9534378052 0 0 0 0 831861.31863427162 -2991045.2530937195 0 -2991045.2530937195 3242505.2136383057 0 0 0 0 2864661.6128775924 -5255189.1444948912 0 -5255189.1444948912 1464727.4871520996 0 0 0 0 2833718.0203779563 -6133517.2390959263 0 -6133517.2390959263 4407969.0104675293 0 0 0 0 19253827.181417465 -12961727.036457062 0 -12961727.036457062 -1586428.3157196045 0 0 0 0 11781876.735013247 -1973604.468208313 0 -1973604.468208313 -15663933.314613342 0 0 0 0 587801.1507024765 -727777.34434509277 0 -727777.34434509277 10879635.577598572 0 0 0 0 22312847.01190877 -12856747.862792969 0 -12856747.862792969 -1584332.3199234009 0 0 0 0 2487939.7116575241 -10427532.174411774 0 -10427532.174411774 18781082.605484009 0 0 0 0 7817027.5486898422 -15276937.933288574 0 -15276937.933288574 36434515.0170784 0 0 0 0 -679053.05566740036 -3919287.7141838074 0 -3919287.7141838074 5536183.6612854004 0 0 0 0 225560.76924753189 -3051354.2792930603 0 -3051354.2792930603 6324716.7224273682 0 0 0 0 4549031.5200238228 22918368.500701904 0 22918368.500701904 -25268191.190216064 0 0 0 0 8962592.6895859241 21052617.821434021 0 21052617.821434021 -12935298.815956116 0 0 0 0 22387343.47803545 29512116.153327942 0 29512116.153327942 -23320650.852508545 0 0 0 0 37992434.367886543 -799004.30838775635 0 -799004.30838775635 -28622050.748040199 0 0 0 0 6453572.5662389994 12664116.296039581 0 12664116.296039581 -7616115.3270111084 0 0 0 0 38214935.943646193 -1486582.3217391968 0 -1486582.3217391968 -4204306.7206630707 0 0 0 0 55695914.084088475 21361225.013844967 0 21361225.013844967 21200289.305831909 0 0 0 0 48336682.130862474 -34317117.859687805 0 -34317117.859687805 16112290.122131348 0 0 0 0 76028840.565009117 -36444582.54850769 0 -36444582.54850769 37009672.765321732 0 0 0 0 30014241.961024493 30204993.956764221 0 30204993.956764221 -9373893.8404998779 0 0 0 0 41065609.138561726 1271391.2925186157 0 1271391.2925186157 -1760771.6892776489 0 0 0 0 13224676.770221949 13271800.802093506 0 13271800.802093506 14779522.007499695 0 0 0 0 2022296.1136946678 14179067.892608643 0 14179067.892608643 -3465320.6157455444 0 0 0 0 672708.28764247894 30400629.752044678 0 30400629.752044678 -30460127.231643677 0 0 0 0 15117357.726492301 24972895.996561527 0 24972895.996561527 -19511299.58883667 0 0 0 0 -5297533.0087587833 32176159.852302551 0 32176159.852302551 -9882546.732460022 0 0 0 0 11477428.411980122 31798123.335477829 0 31798123.335477829 -24551954.989151001 0 0 0 0 -17038076.520662785 42146817.844806671 0 42146817.844806671 -19862762.058410645 0 0 0 0 -4135669.0602288246 31143082.784700394 0 31143082.784700394 -30425338.491287231 0 0 0 0 -3076157.3202365637 38411174.444519043 0 38411174.444519043 -30739061.639396667 0 0 0 0 -3253633.5313415527 40792631.980659485 0 40792631.980659485 -21943577.739936829 0 0 0 0 -22211794.010130882 33017752.5286026 0 33017752.5286026 -32147981.522720337 0 0 0 0 -48828095.363883495 33856781.154022217 0 33856781.154022217 -21222297.085113525 0 0 0 0 -18119701.780601859 41776192.555545807 0 41776192.555545807 -27395647.33972168 0 0 0 0 -19125886.502390146 25531974.259902954 0 25531974.259902954 -20338054.638214111 0 0 0 0 -37090184.060609221 47291431.927181244 0 47291431.927181244 -32820473.547576904 0 0 0 0 -56625689.202089906 49942966.840776443 0 49942966.840776443 -25034450.28125 0 0 0 0 19197091.012153864 7137164.357131958 0 7137164.357131958 -18239761.854476929 0 0 0 0 -46074507.456612587 32991550.284797668 0 32991550.284797668 -39478029.995544434 0 0 0 0 -20028848.945816755 16921519.31782341 0 16921519.31782341 2861060.7925338745 0 0 0 0 -44145562.627142906 -50711214.872215271 0 -50711214.872215271 -9085788.2089309692 0 0 0 0 1361158.1187433719 937270.19609281607 0 937270.19609281607 -138057.53432147764 0 0 0 0 -21539719.199432373 15813673.583404541 0 15813673.583404541 37343261.431182861 0 0 0 0 -15412376.520807743 -2356170.2024269104 0 -2356170.2024269104 -71529381.027160645 0 0 0 0 1082818.0575570217 3619793.0482403394 0 3619793.0482403394 4852317.6371608451 0 0 0 0 -41125884.74330616 72704308.110908508 0 72704308.110908508 -42609404.58404541 0 0 0 0 -10855274.712422371 8936158.0594444275 0 8936158.0594444275 3878250.3677749634 0 0 0 0 6017503.8964881897 63922211.556976318 0 63922211.556976318 -74480048.686618328 0 0 0 0 -5377325.5460672379 54953035.67906189 0 54953035.67906189 -49727199.183822632 0 0 0 0 16191305.739177704 3859174.1226921082 0 3859174.1226921082 -30137158.761528015 0 0 0 0 -47852798.820243835 22225764.112380981 0 22225764.112380981 -29158160.776910305 0 0 0 0 1319281.4130497214 932026.50218013301 0 932026.50218013301 -1482574.3310931697 0 0 0 0 2131058.802263001 1645382.9033693429 0 1645382.9033693429 -28162.890786487609 0 0 0 0 -20642947.679914474 27814749.173339844 0 27814749.173339844 -25644568.994827271 0 0 0 0 -3544253.0566701889 19416887.476905823 0 19416887.476905823 -37330031.293914795 0 0 0 0 -69562520.422222137 -8800599.2553939819 0 -8800599.2553939819 -36357611.402938843 0 0 0 0 -81819550.845729828 11859676.167869568 0 11859676.167869568 -17015917.490859985 0 0 0 0 40308742.966714859 952838.66375732422 0 952838.66375732422 -75711923.450027466 0 0 0 0 13352092.807748318 71165909.258623123 0 71165909.258623123 7229584.5375976562 0 0 0 0 -19314674.159473419 44000345.961288452 0 44000345.961288452 29554350.29573822 0 0 0 0 -3269159.3927192688 5194564.5679092407 0 5194564.5679092407 252757.12120056152 0 0 0 0 -1321083.6621494293 1864143.1155929565 0 1864143.1155929565 3033804.0047492981 0 0 0 0 -7379082.8844738007 4472158.8536186218 0 4472158.8536186218 5336931.4294891357 0 0 0 0 -2407814.6844997406 -371514.51628112793 0 -371514.51628112793 7183645.1048574448 0 0 0 0 -5418288.4185190201 1048162.1895179749 0 1048162.1895179749 7328166.907081604 0 0 0 0 -3249189.1980037689 1303572.4599151611 0 1303572.4599151611 5257246.7319447994 0 0 0 0 -3808952.4755868912 2429240.8659172058 0 2429240.8659172058 5589876.4540100098 0 0 0 0 -1749195.1656723022 1351482.7284965515 0 1351482.7284965515 5689099.3836097717 0 0 0 0 -2743522.2103197575 1302230.0739961863 0 1302230.0739961863 6333268.3881607056 0 0 0 0 -2825845.1652229428 -293943.22038602829 0 -293943.22038602829 7425536.0482635498 0 0 0 0 -1804903.2841320038 1873083.8871688843 0 1873083.8871688843 6159344.8741531372 0 0 0 0 1246131.1778048377 3224102.4445401011 0 3224102.4445401011 3234389.1212526634 0 0 0 0 -1280093.5101928711 1450602.844417572 0 1450602.844417572 5332265.9459381104 0 0 0 0 -10234745.999996185 19695267.297225952 0 19695267.297225952 1615882.2436218262 0 0 0 0 2461130.7939186096 52310772.916595459 0 52310772.916595459 -1431849.8870239258 0 0 0 0 1376695.8546830157 871674.30933269486 0 871674.30933269486 -1969160.5763999 0 0 0 0 -16414511.704944611 34620010.313110352 0 34620010.313110352 25110179.6534729 0 0 0 0 -10026350.432641983 15425502.419630051 0 15425502.419630051 -26603345.783660889 0 0 0 0 -31126360.574913025 18163477.232116699 0 18163477.232116699 -20523205.793273926 0 0 0 0 -8391088.8861751556 13177475.240177155 0 13177475.240177155 -43105795.996063232 0 0 0 0 -19338781.322978973 41452342.931488037 0 41452342.931488037 -4383661.6499938965 0 0 0 0 -14460118.176597595 22878467.751983643 0 22878467.751983643 -9386301.6743774414 0 0 0 0 -15945606.639228821 35007300.959365845 0 35007300.959365845 -6090675.873664856 0 0 0 0 -16084677.535568237 30992176.237724304 0 30992176.237724304 4388105.940612793 0 0 0 0 -14779782.360919952 31254812.244636536 0 31254812.244636536 -18698272.046691895 0 0 0 0 -13075231.885810852 25709337.056732178 0 25709337.056732178 -22097797.333587646 0 0 0 0 -14471733.289537907 23328229.592523098 0 23328229.592523098 -25371466.311645508 0 0 0 0 -8833538.5074768066 30140286.449768066 0 30140286.449768066 -23107775.302314758 0 0 0 0 -22145782.061607361 6739409.7406005859 0 6739409.7406005859 14150546.966750145 0 0 0 0 216356.12911987305 14092671.964477539 0 14092671.964477539 -54631852.912231445 0 0 0 0 2016829.0397796631 22414311.378250122 0 22414311.378250122 -55360051.090637207 0 0 0 0 5708219.4402961731 36355980.627761841 0 36355980.627761841 -46592971.043167114 0 0 0 0 -352008.03424171638 -154870.21371127851 0 -154870.21371127851 818081.87951277196 0 0 0 0 -4875244.1627044678 21642110.698364258 0 21642110.698364258 -31534800.368667603 0 0 0 0 -10874276.619972229 26201336.272735596 0 26201336.272735596 -30389617.420776367 0 0 0 0 -10417274.313426971 7015730.4456863403 0 7015730.4456863403 -7375160.9259719849 0 0 0 0 -28188080.021430969 15820555.469497681 0 15820555.469497681 4559731.4957771301 0 0 0 0 -12289884.539222717 8614501.5577468872 0 8614501.5577468872 -5650539.959815979 0 0 0 0 4655877.6690738797 4278299.1218624115 0 4278299.1218624115 -31323534.993637085 0 0 0 0 -13821345.965028763 18337205.53527832 0 18337205.53527832 -28936151.879699707 0 0 0 0 3418883.0416900199 3674167.6010111589 0 3674167.6010111589 -843060.75785429403 0 0 0 0 -46375393.215049744 4898816.2820739746 0 4898816.2820739746 20471896.628845215 0 0 0 0 -22008264.977333069 -10751635.852630615 0 -10751635.852630615 -24661860.748153687 0 0 0 0 -10515076.381622314 12798274.472839355 0 12798274.472839355 -2465827.8455619812 0 0 0 0 -8808818.122882843 10253694.384918213 0 10253694.384918213 -1565395.8218841553 0 0 0 0 -12775548.194595337 29758696.077468872 0 29758696.077468872 17125627.811107635 0 0 0 0 2693138.5985844135 25354031.436584473 0 25354031.436584473 -26130863.784849167 0 0 0 0 -16606067.986852467 35809755.987427235 0 35809755.987427235 -30411348.235214233 0 0 0 0 28327417.70293045 1315045.4171142578 0 1315045.4171142578 -8207318.7467346191 0 0 0 0 2638241.0100974711 2704629.1893466869 0 2704629.1893466869 -746868.49735109136 0 0 0 0 -15627839.997306347 40828992.07201767 0 40828992.07201767 -29915094.35168457 0 0 0 0 1143979.802489958 536870.83098927373 0 536870.83098927373 -754496.50821678713 0 0 0 0 -18261209.198163986 42864727.284324646 0 42864727.284324646 -2606086.6249389648 0 0 0 0 -19348187.309394836 45903456.698348999 0 45903456.698348999 17790542.251724243 0 0 0 0 2988.3859930891977 1499849.3892707825 0 1499849.3892707825 3740081.9649124146 0 0 0 0 789338.28134818631 1689858.4189381301 0 1689858.4189381301 2282749.7333374023 0 0 0 0 81153.210299649276 2192578.6018600464 0 2192578.6018600464 2096714.1053924561 0 0 0 0 789593.53127701208 1721330.5685501099 0 1721330.5685501099 2370980.0702056885 0 0 0 0 222235.62767989282 4728929.9389762878 0 4728929.9389762878 154205.54497528076 0 0 0 0 62805.9905877602 3503164.1604886055 0 3503164.1604886055 2690696.2427825928 0 0 0 0 175692.66734332358 5148070.5786247253 0 5148070.5786247253 8214866.9297714233 0 0 0 0 -1215.3473965684557 2712266.7318534851 0 2712266.7318534851 17136645.903106689 0 0 0 0 1885699.4665575358 3280793.1807899475 0 3280793.1807899475 9715770.6505279541 0 0 0 0 132812.55238923529 4174538.4579916 0 4174538.4579916 18250653.96685791 0 0 0 0 198953.45464083576 3800090.6641168594 0 3800090.6641168594 20325171.509765625 0 0 0 0 624827.28850520123 5597534.8847446442 0 5597534.8847446442 24374863.502807617 0 0 0 0 6713917.6872318462 1778045.1666717529 0 1778045.1666717529 -3463113.719871521 0 0 0 0 2418188.5076986286 5543998.7680740356 0 5543998.7680740356 19333222.145736694 0 0 0 0 2864.1887601667559 15464.029655627906 0 15464.029655627906 22550.477131603751 0 0 0 0 -4106628.7847031131 657270.56391906738 0 657270.56391906738 3230928.6912918091 0 0 0 0 248847.1264282912 5299761.2842216492 0 5299761.2842216492 20446396.899139404 0 0 0 0 715990.8253580411 4222963.2295484543 0 4222963.2295484543 19883890.607498169 0 0 0 0 498233.28772916645 5629920.7756824493 0 5629920.7756824493 18994294.240447998 0 0 0 0 567476.17959865741 3800384.9509506226 0 3800384.9509506226 20821818.27293396 0 0 0 0 -184033.94928137586 3899187.4202690125 0 3899187.4202690125 16996986.57359314 0 0 0 0 1529278.5269332603 7534693.4689178467 0 7534693.4689178467 18160520.827659607 0 0 0 0 7319.8658796953987 49859.935610057786 0 49859.935610057786 68552.204062891193 0 0 0 0 -121418.14578796178 182663.17282867432 0 182663.17282867432 1149911.4857254028 0 0 0 0 787829.27523165196 -123227.38626861572 0 -123227.38626861572 1011383.3061141968 0 0 0 0 826075.98671291023 4700011.7882156372 0 4700011.7882156372 17480364.028564453 0 0 0 0 154231.64959296957 26804.214350700378 0 26804.214350700378 985820.52452087402 0 0 0 0 -46247.309552966864 17916.232784118503 0 17916.232784118503 131821.69369985163 0 0 0 0 -412845.7403094396 -1605900.9877548218 0 -1605900.9877548218 3413719.0550003052 0 0 0 0 91234.37013206468 3699326.6127693653 0 3699326.6127693653 -702815.86905670166 0 0 0 0 -23045.73406804353 1104879.8938140869 0 1104879.8938140869 -546868.29820346832 0 0 0 0 -1343234.6700182185 1019733.3545608521 0 1019733.3545608521 1215704.3177642822 0 0 0 0 -1507722.5043937732 659317.69915771484 0 659317.69915771484 1249659.4906311035 0 0 0 0 -1201462.5546644572 302255.10693359375 0 302255.10693359375 802449.64044952393 0 0 0 0 -380358.66423934698 -473637.2833404541 0 -473637.2833404541 1257183.1349563599 0 0 0 0 -196240.82530712595 90872.356774820015 0 90872.356774820015 470076.43281390704 0 0 0 0 -828893.88486092538 1077913.4053039551 0 1077913.4053039551 491664.70696258545 0 0 0 0 -408556.62381558865 -610431.41034889221 0 -610431.41034889221 906506.51626586914 0 0 0 0 -483523.16706427885 465656.77777021471 0 465656.77777021471 1829244.2220916115 0 0 0 0 -161800.58561934441 -496903.01128657977 0 -496903.01128657977 -111901.53200304881 0 0 0 0 -1128346.1038502958 -675359.31456756592 0 -675359.31456756592 -519948.49545288086 0 0 0 0 -1407848.6093413141 -2169425.2855687141 0 -2169425.2855687141 -1334191.3959960938 0 0 0 0 -834270.27137225214 -195649.52990529127 0 -195649.52990529127 1560251.1560973376 0 0 0 0 -1466060.510799814 295466.88283920288 0 295466.88283920288 -690344.62163543701 0 0 0 0 -225770.514602907 -324502.85618591309 0 -324502.85618591309 566869.42945861816 0 0 0 0 -134819.9345343262 125782.03956604004 0 125782.03956604004 656554.01909255981 0 0 0 0 -163204.50504465401 -98324.645965576172 0 -98324.645965576172 1243444.935710907 0 0 0 0 -82786.795263867825 151707.10508346558 0 151707.10508346558 561994.04977416992 0 0 0 0 2955879.3585749641 2877549.7280578613 0 2877549.7280578613 9831714.4035491943 0 0 0 0 11154.930707456821 99862.401771083474 0 99862.401771083474 119927.59742113994 0 0 0 0 -81389.160227879882 108796.33788299561 0 108796.33788299561 503430.33201599121 0 0 0 0 963309.9200212881 2050625.2382602692 0 2050625.2382602692 11831842.797286987 0 0 0 0 1998400.9154236689 4597616.9314575195 0 4597616.9314575195 14696854.127815247 0 0 0 0 1669674.486517098 5386952.4656360149 0 5386952.4656360149 14245409.659500122 0 0 0 0 6304121.6538423449 6535361.022857666 0 6535361.022857666 10247680.323898315 0 0 0 0 3303296.88957569 2520757.0357513428 0 2520757.0357513428 10890020.902603149 0 0 0 0 -1141795.4465543628 3841665.5860137939 0 3841665.5860137939 11694887.958188057 0 0 0 0 3124974.4562652111 2936820.8313026428 0 2936820.8313026428 11756096.038803101 0 0 0 0 3863774.1159504838 1317811.4039077759 0 1317811.4039077759 6292286.7107849121 0 0 0 0 -155410.67910386372 -283542.11437105527 0 -283542.11437105527 -47875.435913126916 0 0 0 0 2475329.5761406412 -4332690.8769359589 0 -4332690.8769359589 6358217.2909545898 0 0 0 0 689704.93063318729 563902.86572265625 0 563902.86572265625 748088.89332580566 0 0 0 0 -1160.2610876768058 -16901.37390191853 0 -16901.37390191853 -9350.97663772339 0 0 0 0 848970.55803583097 -360600.98939323425 0 -360600.98939323425 -1688670.0430145264 0 0 0 0 -132653.2733188197 93013.803924560547 0 93013.803924560547 583607.70362854004 0 0 0 0 -2851.4980197786181 -14791.046503118239 0 -14791.046503118239 -3604.4172648452222 0 0 0 0 -6176117.6569396146 -6976703.1126327515 0 -6976703.1126327515 -132120.41827392578 0 0 0 0 2950434.4024130385 -7545971.6759328842 0 -7545971.6759328842 -1642669.226776123 0 0 0 0 -497305.00596553728 237607.30031707883 0 237607.30031707883 2142156.1448379084 0 0 0 0 3067503.7618750408 -1988283.831993103 0 -1988283.831993103 3447089.9934539795 0 0 0 0 2851761.2965431288 -1353394.7249603271 0 -1353394.7249603271 9971680.0921478271 0 0 0 0 -4323209.0669906139 2797970.8249053955 0 2797970.8249053955 1418157.0622024536 0 0 0 0 3713404.3383995593 3070660.3031768799 0 3070660.3031768799 8237034.5020675659 0 0 0 0 4136586.7433842495 3269247.3804321289 0 3269247.3804321289 2551891.8600006104 0 0 0 0 -467409.37546374829 47074.488488653675 0 47074.488488653675 2450825.5777401961 0 0 0 0 -10277115.286812197 -7024331.5673828125 0 -7024331.5673828125 3675998.2567443848 0 0 0 0 -2392760.8202729225 -15206869.582118988 0 -15206869.582118988 39077458.673980713 0 0 0 0 -29542.761783106034 -2328970.6909561157 0 -2328970.6909561157 -1876665.4133911133 0 0 0 0 -9642617.1474661827 353019.68128395081 0 353019.68128395081 9700109.6194763184 0 0 0 0 -14965487.129314899 -3340815.2994537354 0 -3340815.2994537354 14463095.165985107 0 0 0 0 -16473730.884352267 -15155328.481891632 0 -15155328.481891632 10980184.184341431 0 0 0 0 7592219.4200296402 18144470.839782715 0 18144470.839782715 -14592249.709831238 0 0 0 0 -9122952.655872345 -2785445.0832366943 0 -2785445.0832366943 10964949.854469299 0 0 0 0 -70102.678881604283 282491.97936226428 0 282491.97936226428 305278.21716652811 0 0 0 0 -12280866.842171669 -5673588.9747695923 0 -5673588.9747695923 13974505.264129639 0 0 0 0 -5429960.0199375153 -2963574.6979522705 0 -2963574.6979522705 15553918.576034546 0 0 0 0 6225118.766228199 1948471.861946106 0 1948471.861946106 6820457.8068771362 0 0 0 0 -976899.38629627228 5335205.3851699829 0 5335205.3851699829 20091736.261627197 0 0 0 0 5023673.8417739868 6919654.0588912964 0 6919654.0588912964 -8569785.0486469269 0 0 0 0 -3135856.789313674 -13985474.096772194 0 -13985474.096772194 -2956572.5085754395 0 0 0 0 15726620.690171242 -663288.6607131958 0 -663288.6607131958 5145534.9499511719 0 0 0 0 -43350.98001019191 767650.82957028411 0 767650.82957028411 776719.32977385446 0 0 0 0 -15864589.654308558 10294027.053302765 0 10294027.053302765 18153071.854766846 0 0 0 0 4695120.5349264145 4100510.6962356567 0 4100510.6962356567 2301153.0582427979 0 0 0 0 -3651328.9288716316 3916849.4084777832 0 3916849.4084777832 21080577.327910423 0 0 0 0 -6974908.3618898392 739571.40821838379 0 739571.40821838379 4841805.825378418 0 0 0 0 -303455.37440776825 5824043.2658233643 0 5824043.2658233643 4154914.6928100586 0 0 0 0 -682020.49791145325 31898102.804672241 0 31898102.804672241 18598728.210418701 0 0 0 0 21197482.457445145 22101676.406013489 0 22101676.406013489 4347778.2104415894 0 0 0 0 9270506.0481500626 30260750.573165894 0 30260750.573165894 17077689.111373901 0 0 0 0 -4574846.6138591766 30361072.426376343 0 30361072.426376343 53429182.534074783 0 0 0 0 12634599.044456482 6412164.4706366062 0 6412164.4706366062 17798507.846237183 0 0 0 0 -6213900.5347104073 10053835.213691711 0 10053835.213691711 46350282.314796448 0 0 0 0 1472159.6476898193 -3564902.3438262939 0 -3564902.3438262939 -37109634.17956543 0 0 0 0 -127278.99693484418 167643.52092173323 0 167643.52092173323 653406.8736525476 0 0 0 0 11995516.10976696 12460518.479743958 0 12460518.479743958 -87004957.805282593 0 0 0 0 1622236.0828094482 -14311842.676818848 0 -14311842.676818848 11700831.431272507 0 0 0 0 -5770470.2386527061 9830952.8631286621 0 9830952.8631286621 -15814437.061416626 0 0 0 0 -58003729.104848862 90190246.851898193 0 90190246.851898193 33964076.683654785 0 0 0 0 11432319.984671354 6457954.1484260559 0 6457954.1484260559 4739987.6199302673 0 0 0 0 7409273.1970952749 46462073.442295074 0 46462073.442295074 -29647898.906921387 0 0 0 0 78310730.454839706 -115518039.59100342 0 -115518039.59100342 -9544215.5629119873 0 0 0 0 -66918.215478348196 78056.758768107742 0 78056.758768107742 129806.68783720583 0 0 0 0 40806.06323037605 174213.08605320938 0 174213.08605320938 46920.793936628848 0 0 0 0 369188.07950496674 -1227771.6194763184 0 -1227771.6194763184 -3425686.1438903809 0 0 0 0 956966.3578875924 993453.9625831265 0 993453.9625831265 236302.45665182546 0 0 0 0 17873308.29419446 1462399.4494476318 0 1462399.4494476318 -4542212.9221191406 0 0 0 0 -168021.14344439353 610834.1852184888 0 610834.1852184888 1273921.812368799 0 0 0 0 5252279.9137444496 -2420488.9408493042 0 -2420488.9408493042 924632.6492805481 0 0 0 0 -4103850.5229072571 1658507.9045028687 0 1658507.9045028687 -1063746.4866027832 0 0 0 0 31081.646496772766 8132020.5392608643 0 8132020.5392608643 -17033667.191577911 0 0 0 0 852877.85136032104 301158.48360443115 0 301158.48360443115 -4223768.5401611328 0 0 0 0 2923135.2277755737 -3816139.7507476807 0 -3816139.7507476807 -2642168.0372200012 0 0 0 0 4560756.6262061596 -1334237.1649055481 0 -1334237.1649055481 951330.4100189209 0 0 0 0 1787123.2462460995 -3256930.0725593567 0 -3256930.0725593567 1810038.6589660645 0 0 0 0 933969.17618632317 -2451651.0729522705 0 -2451651.0729522705 4885041.7222290039 0 0 0 0 407924.39009666443 -2313968.6205978394 0 -2313968.6205978394 4959644.1012992859 0 0 0 0 526517.48989665508 -1579147.8402485847 0 -1579147.8402485847 4617093.4938049316 0 0 0 0 3010125.6688730717 1511573.4956798553 0 1511573.4956798553 1652517.5815734863 0 0 0 0 -680377.83088207245 -28092.671401977539 0 -28092.671401977539 1271469.7528076172 0 0 0 0 3883598.6271820068 -1581347.4028625488 0 -1581347.4028625488 2419607.7016706467 0 0 0 0 5085546.1116228104 -472548.06796264648 0 -472548.06796264648 4101976.0876407623 0 0 0 0 5332353.9119619727 -1541057.6715917587 0 -1541057.6715917587 3225914.7961273193 0 0 0 0 39261.342412230093 132614.93653977849 0 132614.93653977849 58570.40627651941 0 0 0 0 7088531.9651353359 -1326122.9791793823 0 -1326122.9791793823 1131482.9099197388 0 0 0 0 -131051.28500317148 685025.20525006857 0 685025.20525006857 1176843.2457027808 0 0 0 0 -5895195.2080243006 269057.59599304199 0 269057.59599304199 1070408.5019378662 0 0 0 0 -7794195.221707806 -1477807.1906051636 0 -1477807.1906051636 9631339.6465911865 0 0 0 0 -5446931.5418682322 6562861.5451507568 0 6562861.5451507568 11325633.016891479 0 0 0 0 12648033.944111563 -13743831.775924683 0 -13743831.775924683 -24196315.355102539 0 0 0 0 7696111.0381897129 13119175.722991943 0 13119175.722991943 160629.60612487793 0 0 0 0 4442709.0911248792 15249215.416389465 0 15249215.416389465 18850409.156585693 0 0 0 0 -5514150.1287056096 -5070569.4777259827 0 -5070569.4777259827 -11557395.859069824 0 0 0 0 -13682821.22114889 -4917343.9365692139 0 -4917343.9365692139 23793419.335189819 0 0 0 0 -305436.58477086993 288996.06405728869 0 288996.06405728869 623647.06384715019 0 0 0 0 -1535210.6219148636 1742017.3696670532 0 1742017.3696670532 -1369158.7739105225 0 0 0 0 -177661.44636122382 414237.9672993701 0 414237.9672993701 606250.71818644367 0 0 0 0 -175308.41415882111 301313.39528656006 0 301313.39528656006 226316.86245727539 0 0 0 0 -25444.070430303254 319480.67843239871 0 319480.67843239871 651036.702111274 0 0 0 0 12895308.216529561 14838112.445991516 0 14838112.445991516 9528087.4004364014 0 0 0 0 -17813.883342275622 270303.11349296011 0 270303.11349296011 476411.14754405385 0 0 0 0 3582539.2989538312 399415.72254943848 0 399415.72254943848 -958843.25836181641 0 0 0 0 -169237.20883717085 57761.191610153764 0 57761.191610153764 203837.57661998458 0 0 0 0 1037849.8892539628 1487413.2274627686 0 1487413.2274627686 1548350.8392066956 0 0 0 0 31580268.11849881 11401878.469306946 0 11401878.469306946 -6558356.3308410645 0 0 0 0 16332.352188002842 100736.98488661624 0 100736.98488661624 51396.523219682276 0 0 0 0 840297.93000413477 -4998233.7003860474 0 -4998233.7003860474 3225634.0707092285 0 0 0 0 5217295.9969550353 -2513844.3087272644 0 -2513844.3087272644 1001619.1352844238 0 0 0 0 -942424.96338001732 -835685.116979599 0 -835685.116979599 2075125.0684051514 0 0 0 0 -363126.39917838853 707700.66810703278 0 707700.66810703278 1519860.1156005859 0 0 0 0 -799219.436830841 -957052.78201293945 0 -957052.78201293945 1172082.865234375 0 0 0 0 45805.209688524963 317008.22910966282 0 317008.22910966282 171478.83799318597 0 0 0 0 -1177625.7609597342 196789.48976516724 0 196789.48976516724 2556730.5751342773 0 0 0 0 -1008599.1689881859 -287734.5044708252 0 -287734.5044708252 2616749.5767211914 0 0 0 0 -1028939.3951281197 339855.78676605225 0 339855.78676605225 1807399.60597229 0 0 0 0 -392548.07572555169 95842.501266479492 0 95842.501266479492 1790865.2808837891 0 0 0 0 -901445.55210790131 -387084.55816268921 0 -387084.55816268921 1332726.0452270508 0 0 0 0 4776976.5273951143 5704639.0187911987 0 5704639.0187911987 -3821967.1470947266 0 0 0 0 -979748.6595039377 1604839.1416158676 0 1604839.1416158676 2308883.7988739014 0 0 0 0 -13101674.371939771 2830821.7314987183 0 2830821.7314987183 16450812.063934326 0 0 0 0 -849.88484900959156 105817.21965085156 0 105817.21965085156 85969.48321775347 0 0 0 0 6812116.3276034892 2914476.6676025391 0 2914476.6676025391 -1280406.4106140137 0 0 0 0 1937806.0283311456 7067178.6923446655 0 7067178.6923446655 -4189058.861366272 0 0 0 0 3209541.0083028823 3922017.6834716797 0 3922017.6834716797 -3608037.4803924561 0 0 0 0 4809428.6346610188 4118278.3858032227 0 4118278.3858032227 -3764385.8722686768 0 0 0 0 -1044150.5654120892 2802557.4236526489 0 2802557.4236526489 1796614.2490539551 0 0 0 0 -886.40992513960737 322410.05120479129 0 322410.05120479129 261613.02987726778 0 0 0 0 1793271.1491469219 1325212.9131736755 0 1325212.9131736755 -88580.39953994751 0 0 0 0 -1343322.1270238757 907425.58543395996 0 907425.58543395996 1757076.2588500977 0 0 0 0 593885.31794554275 1186914.4862705711 0 1186914.4862705711 1252946.5984940901 0 0 0 0 997819.53630340099 744412.00747680664 0 744412.00747680664 1088825.6238708496 0 0 0 0 316072.82540915604 486679.65248443093 0 486679.65248443093 81702.041579350829 0 0 0 0 -390332.79787428747 101237.12049057055 0 101237.12049057055 647632.01811883226 0 0 0 0 1163237.8225215077 2825449.2840423584 0 2825449.2840423584 1268926.7392272949 0 0 0 0 -502467.37688541412 138255.80839920044 0 138255.80839920044 318466.0678062439 0 0 0 0 -386894.53266096255 536193.25983715057 0 536193.25983715057 961813.09555053711 0 0 0 0 -873669.44801223651 610572.06099128723 0 610572.06099128723 1131200.7350006104 0 0 0 0 -880756.00775069185 563151.84041595459 0 563151.84041595459 1509478.6549377441 0 0 0 0 -1142455.5365635455 193325.27038574219 0 193325.27038574219 1706254.013092041 0 0 0 0 -952216.47063968331 421680.48329162598 0 421680.48329162598 1295095.1973876953 0 0 0 0 -1330517.9023692384 -112462.57456207275 0 -112462.57456207275 1209046.1178588867 0 0 0 0 -10538.884949650967 26866.889988029376 0 26866.889988029376 36970.344687692821 0 0 0 0 -1292518.6756521128 260742.43087768555 0 260742.43087768555 2583994.4290351868 0 0 0 0 -1217584.8387818299 686778.849609375 0 686778.849609375 2003469.9639663696 0 0 0 0 -1108515.0595705509 450654.44470977783 0 450654.44470977783 1888348.2218856812 0 0 0 0 -1127427.9061899371 797564.91876602173 0 797564.91876602173 1299850.7296447754 0 0 0 0 -1309359.6642891788 819768.70467185974 0 819768.70467185974 2280502.5479354858 0 0 0 0 -970725.04177903291 907556.76744842529 0 907556.76744842529 1214908.6724052429 0 0 0 0 -1097608.0794828394 464128.9617600441 0 464128.9617600441 2117110.1236190796 0 0 0 0 -1188795.0458958959 1534625.4072742462 0 1534625.4072742462 4076613.2783889771 0 0 0 0 -1892520.6166909896 550512.41828918457 0 550512.41828918457 2944083.7180747986 0 0 0 0 -1722628.5450495239 -450654.51765441895 0 -450654.51765441895 4813955.333114624 0 0 0 0 -7531961.9465318099 -1285299.8899536133 0 -1285299.8899536133 4724118.6499671936 0 0 0 0 -2097536.6257397374 2068464.4602737427 0 2068464.4602737427 6198166.6385726929 0 0 0 0 99626.812722576782 2473176.2884960175 0 2473176.2884960175 5751550.2522583008 0 0 0 0 8890.1937919671909 154677.40931422263 0 154677.40931422263 376806.77578196907 0 0 0 0 -779176.43745444855 1848064.7592182159 0 1848064.7592182159 5688386.5541152954 0 0 0 0 -244198.0859437543 1743751.5834388733 0 1743751.5834388733 5344823.7139053345 0 0 0 0 -964318.54621769302 828793.08084106445 0 828793.08084106445 4211061.6262788773 0 0 0 0 155451.76074582245 714021.77020263672 0 714021.77020263672 4433133.4323177338 0 0 0 0 -21994.887441772968 767533.76257324219 0 767533.76257324219 5607147.0386619568 0 0 0 0 -1948.2456387067577 1610423.8997182515 0 1610423.8997182515 6623083.1062164307 0 0 0 0 4249.4417483716779 1601075.3942451477 0 1601075.3942451477 4493565.1650009155 0 0 0 0 446.2651269111185 609.63887419365346 0 609.63887419365346 798.4971029534936 0 0 0 0 348477.59869192634 1585669.5806312561 0 1585669.5806312561 4322748.7320480347 0 0 0 0 -258586.86173188197 631030.40522956848 0 631030.40522956848 2149260.7411956787 0 0 0 0 329326.52092959732 1683322.4992752075 0 1683322.4992752075 4029605.8018093109 0 0 0 0 218.78418662591855 274.43184983730316 0 274.43184983730316 335.62951138243079 0 0 0 0 946404.18192703906 1830338.7975845337 0 1830338.7975845337 2172961.8522071838 0 0 0 0 1173.0122232520905 817626.53401184082 0 817626.53401184082 1787811.0670166016 0 0 0 0 817658.22947241948 1549037.523976326 0 1549037.523976326 2350560.385848999 0 0 0 0 -6215991.066424571 6564842.9181442261 0 6564842.9181442261 37975023.674888611 0 0 0 0 2983654.9610737413 18092201.444625854 0 18092201.444625854 -1931270.2060089111 0 0 0 0 -6025742.3960346058 8084159.0308189392 0 8084159.0308189392 69168592.047058105 0 0 0 0 -1268166.7325393409 6291102.6988601685 0 6291102.6988601685 37871973.382858276 0 0 0 0 16401725.338813215 2810200.2333679199 0 2810200.2333679199 -26775451.95010376 0 0 0 0 10462459.115585625 33994459.672515869 0 33994459.672515869 111185074.40301514 0 0 0 0 10225128.434409723 9593025.9887619019 0 9593025.9887619019 36562345.015533447 0 0 0 0 40520079.761267513 -2661491.6572265625 0 -2661491.6572265625 66596045.897132874 0 0 0 0 7781370.1043156683 3151131.7227935791 0 3151131.7227935791 66001587.3021698 0 0 0 0 54786527.615781873 28062836.717803955 0 28062836.717803955 52587506.540679932 0 0 0 0 27931089.925854683 32398248.008758545 0 32398248.008758545 52365389.273490906 0 0 0 0 5779938.0382791907 6149382.9218826294 0 6149382.9218826294 33717898.677062988 0 0 0 0 3284264.5602046549 30465172.5779953 0 30465172.5779953 19640752.389389038 0 0 0 0 740471.1046859622 894921.42554473877 0 894921.42554473877 33929267.517787933 0 0 0 0 -117319.65657309342 30504.065707147121 0 30504.065707147121 212887.17893930338 0 0 0 0 16669057.765895829 -34381083.924362183 0 -34381083.924362183 45381812.594247818 0 0 0 0 -19388277.583504833 11295481.224784851 0 11295481.224784851 -3995510.0274085999 0 0 0 0 -9081434.4430793002 49604703.976823807 0 49604703.976823807 -36542716.85067749 0 0 0 0 995979.97429728508 728747.66917800903 0 728747.66917800903 -26143437.980422974 0 0 0 0 -983.9532657805081 17818392.056680731 0 17818392.056680731 -219711.67906188965 0 0 0 0 16699567.116629655 -49582739.697471619 0 -49582739.697471619 81978247.679174364 0 0 0 0 -13790.890366987536 18397199.674956888 0 18397199.674956888 -37316026.142951965 0 0 0 0 -95793.395891990906 11506.147858904675 0 11506.147858904675 168092.90539420396 0 0 0 0 87616.114439272613 1813558.3765511389 0 1813558.3765511389 81238623.53692627 0 0 0 0 18722715.363689858 -22394075.368278503 0 -22394075.368278503 52432181.986579895 0 0 0 0 21249.82571188427 104293.01968036406 0 104293.01968036406 332800.03473293595 0 0 0 0 -13631169.771464542 -4895826.5704193115 0 -4895826.5704193115 53550395.809745789 0 0 0 0 7518384.0583182871 -23626767.079551697 0 -23626767.079551697 47417153.076123238 0 0 0 0 27977430.61559134 -26736336.865950584 0 -26736336.865950584 42983382.076805115 0 0 0 0 5721879.164508203 -10620279.3174963 0 -10620279.3174963 33109058.715301514 0 0 0 0 8404185.503078863 -2679140.5560798645 0 -2679140.5560798645 6640916.4901065826 0 0 0 0 346210.74311819673 3021378.8403530121 0 3021378.8403530121 7652835.2528381348 0 0 0 0 -2572628.9214498699 -3488396.9619255066 0 -3488396.9619255066 25181663.214645386 0 0 0 0 7617222.3031009436 -13962437.279960632 0 -13962437.279960632 23801617.462742805 0 0 0 0 3103697.9327899516 -8864068.377155304 0 -8864068.377155304 19765401.880203247 0 0 0 0 998937.72403258085 -10948656.633270264 0 -10948656.633270264 30677467.891738892 0 0 0 0 8745032.9057931304 -17681089.649597168 0 -17681089.649597168 26701275.665977478 0 0 0 0 9073889.7449731082 -16027886.481256485 0 -16027886.481256485 32677416.795066833 0 0 0 0 3331473.9550286233 -15130637.874385834 0 -15130637.874385834 30093297.732589722 0 0 0 0 20982339.389210328 -23199337.891059875 0 -23199337.891059875 32252140.888315678 0 0 0 0 -43875305.867991626 -19739057.649513245 0 -19739057.649513245 3725538.8299331665 0 0 0 0 34379.559947282287 9231.7826174944639 0 9231.7826174944639 3531.0859950855374 0 0 0 0 -6313857.2311714292 56154425.467178345 0 56154425.467178345 99220815.997723579 0 0 0 0 -25151405.941746026 26246919.878910065 0 26246919.878910065 13078273.957443237 0 0 0 0 -50873320.026033163 -6477640.394733429 0 -6477640.394733429 61580386.474136353 0 0 0 0 -26591728.900168598 39282892.499944687 0 39282892.499944687 98394381.28678894 0 0 0 0 -171540.61685159447 15456.212212784216 0 15456.212212784216 235068.81548257917 0 0 0 0 10311150.904493421 -23169199.994911194 0 -23169199.994911194 33587160.541825294 0 0 0 0 12114856.188156143 -18813216.735342026 0 -18813216.735342026 26259383.237503052 0 0 0 0 2956109.7609924674 -14742219.755596161 0 -14742219.755596161 28966919.354644775 0 0 0 0 5766930.8050074577 -13387909.151893616 0 -13387909.151893616 23414153.828132883 0 0 0 0 136093.67167264223 -11597480.630332947 0 -11597480.630332947 34687788.526493073 0 0 0 0 331172.57704854012 -12164533.478164673 0 -12164533.478164673 26474405.677307129 0 0 0 0 2563167.4438304305 -17850229.803470612 0 -17850229.803470612 31182722.006454468 0 0 0 0 2225621.2556169033 -14377660.893852234 0 -14377660.893852234 22065796.218963623 0 0 0 0 1930141.7482248545 -12372864.733474731 0 -12372864.733474731 19536719.211807251 0 0 0 0 -254176.36654353142 -12137645.248474121 0 -12137645.248474121 22839383.971973419 0 0 0 0 1397119.845603317 -9669337.6450042725 0 -9669337.6450042725 18745218.215026855 0 0 0 0 838389.33796061575 -15059967.637594223 0 -15059967.637594223 28972211.353240967 0 0 0 0 3986483.9161472321 -15299906.517532349 0 -15299906.517532349 24410435.585086823 0 0 0 0 156630.40082681179 -10675618.979911804 0 -10675618.979911804 26793976.002658844 0 0 0 0 196573.55863893032 -7181935.8335189819 0 -7181935.8335189819 20331312.411249161 0 0 0 0 1931528.3180468082 -12107108.919029236 0 -12107108.919029236 19365669.846069336 0 0 0 0 304754.29280465841 -3598977.8556747437 0 -3598977.8556747437 13319907.267654419 0 0 0 0 1875015.3601576686 -8865624.1323394775 0 -8865624.1323394775 11489943.736541748 0 0 0 0 2030730.6935514212 -10046711.672943115 0 -10046711.672943115 18560001.769668579 0 0 0 0 2322868.8231657147 -1751461.1724700928 0 -1751461.1724700928 6437410.8735351562 0 0 0 0 -666089.57184123993 250703.89176177979 0 250703.89176177979 4627585.2393188477 0 0 0 0 -716103.89414405823 -1796087.0745697021 0 -1796087.0745697021 19516437.420119286 0 0 0 0 2112415.153092742 -2580545.1997451782 0 -2580545.1997451782 5692580.3177185059 0 0 0 0 307429.7150682807 -61023.3313331604 0 -61023.3313331604 5016417.3625183105 0 0 0 0 -4393664.7014657259 982298.59670257568 0 982298.59670257568 3813468.2892913818 0 0 0 0 -131835.54096338811 134002.45812026714 0 134002.45812026714 380988.88868957758 0 0 0 0 -1452793.5274480283 2538147.0507278442 0 2538147.0507278442 2914096.6656188965 0 0 0 0 -2781128.624550283 2109606.8788757324 0 2109606.8788757324 2232084.0853118896 0 0 0 0 454513.83917403221 -803146.64422607422 0 -803146.64422607422 2274977.6331634521 0 0 0 0 1832060.9437526464 -4991051.751739502 0 -4991051.751739502 6252252.6104927063 0 0 0 0 3481620.4458777905 -2572163.2416229248 0 -2572163.2416229248 -2106062.2816467285 0 0 0 0 3214016.4164056778 -7890521.498588562 0 -7890521.498588562 5081595.0833435059 0 0 0 0 15381.73955193596 61470.613279055338 0 61470.613279055338 18072.548492513597 0 0 0 0 -7264571.7125382274 1229185.5175905228 0 1229185.5175905228 3009494.5194549561 0 0 0 0 1094672.815274775 -3174005.7032165527 0 -3174005.7032165527 5858319.0561828613 0 0 0 0 827372.04726958275 -8992942.4897384644 0 -8992942.4897384644 11138590.061401367 0 0 0 0 1790880.6829273701 -8771667.262878418 0 -8771667.262878418 11026702.183624268 0 0 0 0 730732.13920539618 -9844933.5525131226 0 -9844933.5525131226 18765204.939605713 0 0 0 0 3382077.9059089869 -7307548.9597129822 0 -7307548.9597129822 9917919.1683197021 0 0 0 0 4544781.7053884864 -5544452.7803974152 0 -5544452.7803974152 -3547855.4552001953 0 0 0 0 -648145.59007239342 -7908781.0170898438 0 -7908781.0170898438 9908490.4195098877 0 0 0 0 4909951.0602792501 -2451040.4127388 0 -2451040.4127388 -6849596.4116668701 0 0 0 0 387461.51827324758 451616.78603501618 0 451616.78603501618 280121.16013873369 0 0 0 0 209261.39298584877 220806.98906284571 0 220806.98906284571 22561.949326508911 0 0 0 0 -49654.249387204647 66784.990104198456 0 66784.990104198456 27718.888946533203 0 0 0 0 2285224.0894064903 1553608.4384651184 0 1553608.4384651184 857211.68494415283 0 0 0 0 1006777.5239413977 -400836.6447467804 0 -400836.6447467804 1573707.1475830078 0 0 0 0 532240.05845388444 415748.58594335429 0 415748.58594335429 182073.02491895109 0 0 0 0 401237.3334236145 381422.54425811768 0 381422.54425811768 2529292.2304620743 0 0 0 0 110197.00880933445 -36011.262801770121 0 -36011.262801770121 -174994.61976399459 0 0 0 0 5216983.5895200968 6387803.8739738464 0 6387803.8739738464 -7884069.1093673706 0 0 0 0 -292373.04235559702 -4693397.2137832642 0 -4693397.2137832642 5201326.8474731445 0 0 0 0 12626126.310915947 -14466089.46812439 0 -14466089.46812439 14088425.129600525 0 0 0 0 8389952.0215502083 -3520636.7979850769 0 -3520636.7979850769 11850420.098144531 0 0 0 0 6766400.7943180799 -3982975.718460083 0 -3982975.718460083 4699298.0517349243 0 0 0 0 8782139.6092407703 -13087108.224967957 0 -13087108.224967957 18182441.131465912 0 0 0 0 3695735.5284799337 -13063448.421470642 0 -13063448.421470642 18513648.671524048 0 0 0 0 18563494.029402733 -28503040.852775574 0 -28503040.852775574 33485842.435251236 0 0 0 0 4581726.7456025481 -11795409.64957428 0 -11795409.64957428 27745359.011306763 0 0 0 0 13698181.717485905 -15355415.22744751 0 -15355415.22744751 29526731.083358765 0 0 0 0 17489073.229963183 -17755623.788833618 0 -17755623.788833618 17074015.576713562 0 0 0 0 19775353.52546984 -38128125.812057495 0 -38128125.812057495 55738941.647331238 0 0 0 0 15608158.019586563 -27545099.083473206 0 -27545099.083473206 31379404.396983147 0 0 0 0 11940209.641228199 -23801685.854351044 0 -23801685.854351044 -29613977.522232056 0 0 0 0 -2196476.3972336054 -10285286.222156525 0 -10285286.222156525 76448104.861495972 0 0 0 0 13311.236252327828 10235.102846123278 0 10235.102846123278 12482.931029200554 0 0 0 0 -14111942.484256744 -253407.48773193359 0 -253407.48773193359 24921067.105186462 0 0 0 0 9630818.4741678834 -38755027.46963501 0 -38755027.46963501 26593937.430923462 0 0 0 0 -6865986.1958494615 -1539941.1528360844 0 -1539941.1528360844 50516669.142410278 0 0 0 0 -6604064.5149898659 -13081516.078161001 0 -13081516.078161001 35210650.565612793 0 0 0 0 7849543.6472008824 -13611264.32963562 0 -13611264.32963562 60226616.698394775 0 0 0 0 11176398.920281157 2451825.8287649155 0 2451825.8287649155 79009156.789505005 0 0 0 0 -19363806.770303607 25463726.503614426 0 25463726.503614426 175175296.36133575 0 0 0 0 16724427.733706415 59327451.869560242 0 59327451.869560242 153845407.71139526 0 0 0 0 -10801290.991871767 20832139.328041077 0 20832139.328041077 56125231.175430298 0 0 0 0 -8224266.6327921152 33191721.112300873 0 33191721.112300873 114503606.68686295 0 0 0 0 -5373024.5670246184 10970009.075454712 0 10970009.075454712 33996291.042617798 0 0 0 0 -8132814.5054006279 46859079.037712097 0 46859079.037712097 191751500.30438995 0 0 0 0 -2149.4953814370674 40343.048617796972 0 40343.048617796972 23535.997363538481 0 0 0 0 2501.2275435718184 66838.481404423714 0 66838.481404423714 36605.646627327427 0 0 0 0 268595.00876411796 -298632.54501724243 0 -298632.54501724243 52333709.473167419 0 0 0 0 -4152305.7024890184 3630684.1497039795 0 3630684.1497039795 65478489.313117981 0 0 0 0 -5609112.5879780054 6170962.8276519775 0 6170962.8276519775 51453843.189044952 0 0 0 0 2132454.1503754705 864281.49696540833 0 864281.49696540833 33899103.261360168 0 0 0 0 -1515065.5497200489 4751348.063949585 0 4751348.063949585 31912323.102218628 0 0 0 0 -18673823.052261949 -4580123.0798110962 0 -4580123.0798110962 63419673.738101959 0 0 0 0 -10578160.447708488 -1361912.2825317383 0 -1361912.2825317383 43037737.688796997 0 0 0 0 -9985201.8368228078 -261113.40063095093 0 -261113.40063095093 34801433.347976685 0 0 0 0 16117.233321195788 15875.072416650131 0 15875.072416650131 45747.377652416006 0 0 0 0 -348941.60867786407 -558527.98864746094 0 -558527.98864746094 -476723.79678344727 0 0 0 0 1961677.3803108931 -8499746.7365036011 0 -8499746.7365036011 28622556.073860168 0 0 0 0 -7416.6529945208749 -642.63090427406132 0 -642.63090427406132 15327.401868510991 0 0 0 0 -13510609.093293309 -14588068.768333435 0 -14588068.768333435 24330550.4741745 0 0 0 0 -1796509.735138908 -8059694.4217643738 0 -8059694.4217643738 30629992.041564941 0 0 0 0 172866.55161967245 -37282.243027472869 0 -37282.243027472869 -42152.819739193656 0 0 0 0 -194916.96675879712 -36464.10109135136 0 -36464.10109135136 188865.11447556689 0 0 0 0 3303832.1012719274 -9342387.3121032715 0 -9342387.3121032715 23410103.929064512 0 0 0 0 2941757.0670668483 -9313734.4038085938 0 -9313734.4038085938 28649786.447410583 0 0 0 0 -4453076.8273022473 -2358657.028301239 0 -2358657.028301239 -823472.13026809692 0 0 0 0 1926954.4648510218 -8000299.8939819336 0 -8000299.8939819336 -19342671.125843048 0 0 0 0 -25706558.594983637 -29300443.856937408 0 -29300443.856937408 -27596470.29057312 0 0 0 0 -31718056.373631693 -36156768.70174408 0 -36156768.70174408 -28866963.41368103 0 0 0 0 -35549388.14289245 -23132084.066604614 0 -23132084.066604614 -26087108.134765625 0 0 0 0 63088.287738537088 5739.4114590901881 0 5739.4114590901881 -21130.939096477814 0 0 0 0 -35939454.206879571 -29296470.539451599 0 -29296470.539451599 -26985218.825458527 0 0 0 0 1425231.894034259 2215139.9915485382 0 2215139.9915485382 58597377.997718811 0 0 0 0 5696656.7474756688 4520193.7771186829 0 4520193.7771186829 35174711.695075989 0 0 0 0 -2507164.3872183412 7187593.9714050293 0 7187593.9714050293 53410802.813583374 0 0 0 0 14023580.454674557 820540.00256347656 0 820540.00256347656 52140817.945281982 0 0 0 0 -367321.65177685022 47361807.922245026 0 47361807.922245026 74394822.692459106 0 0 0 0 13842548.497126579 48614848.947029114 0 48614848.947029114 -46983389.212188721 0 0 0 0 24523020.430841163 35372815.610626221 0 35372815.610626221 -39979194.006347656 0 0 0 0 -10095490.069044247 17477993.101703644 0 17477993.101703644 45192823.557441711 0 0 0 0 4155.8010282776377 29172.725871756673 0 29172.725871756673 15694.208413778804 0 0 0 0 3179942.7841536477 -7817995.7752952576 0 -7817995.7752952576 66396819.537391663 0 0 0 0 -42501824.066883266 11327398.805282593 0 11327398.805282593 99426200.190673828 0 0 0 0 -69389332.007654577 -21465840.845428467 0 -21465840.845428467 35150093.023414612 0 0 0 0 -18350.875497248035 -48140.486191701144 0 -48140.486191701144 263380.01245855168 0 0 0 0 -61901026.351550341 38993190.484848022 0 38993190.484848022 60465101.736434937 0 0 0 0 -59606013.700160205 12834190.751754761 0 12834190.751754761 -29869435.670684814 0 0 0 0 -3159046.288680613 35180186.817836761 0 35180186.817836761 -21269889.825820923 0 0 0 0 -8909184.9164995253 24267688.413543701 0 24267688.413543701 18292529.97313118 0 0 0 0 -31042352.309446573 14657808.057918549 0 14657808.057918549 16360839.258987427 0 0 0 0 -20915.258269330305 -4047.3033790970221 0 -4047.3033790970221 230956.95352410898 0 0 0 0 3080.2714281096214 2785477.3488578796 0 2785477.3488578796 -2288560.3553848267 0 0 0 0 -3109.0534148546399 1451682.1213150024 0 1451682.1213150024 -1319986.4444122314 0 0 0 0 -3487783.5529279802 1554801.1949901581 0 1554801.1949901581 -372329.09294128418 0 0 0 0 -2563216.2781841573 2787662.8222961426 0 2787662.8222961426 -1964550.9952087402 0 0 0 0 -1716907.0426449608 143859.05643463135 0 143859.05643463135 395930.39791107178 0 0 0 0 -23722554.885392874 3246860.7146987915 0 3246860.7146987915 62836074.39617157 0 0 0 0 3671225.823288098 17771771.411613464 0 17771771.411613464 -88227829.596679688 0 0 0 0 -43445175.29731369 -28032762.639038086 0 -28032762.639038086 -22008683.976470947 0 0 0 0 -49249333.519419789 -42464912.674636841 0 -42464912.674636841 -7297770.5368652344 0 0 0 0 -15852482.330892414 -81982562.80255127 0 -81982562.80255127 28910301.157211304 0 0 0 0 -41748309.034048542 -21643571.632476807 0 -21643571.632476807 -26245252.173614502 0 0 0 0 -52981848.869594291 -36655839.973892212 0 -36655839.973892212 -11017564.687194824 0 0 0 0 -5063.0149900857523 -94163.294763559476 0 -94163.294763559476 179994.46582665294 0 0 0 0 -42924001.081497908 -26040546.819778442 0 -26040546.819778442 -22918512.84601593 0 0 0 0 -50648721.609509647 -24101663.670127869 0 -24101663.670127869 -21894581.819366455 0 0 0 0 -40354027.76422593 -29174107.342536926 0 -29174107.342536926 -19511368.088348389 0 0 0 0 637.66147848062701 -931.76282577449456 0 -931.76282577449456 7322.2479789815843 0 0 0 0 10947460.41715014 18938407.508377075 0 18938407.508377075 61729163.756874084 0 0 0 0 22338280.271875978 55513607.543914795 0 55513607.543914795 134893112.27337646 0 0 0 0 9860.7588840092212 21643828.830562592 0 21643828.830562592 56216201.932777405 0 0 0 0 28942.577578527558 46714.841237705201 0 46714.841237705201 89779.194652469829 0 0 0 0 -204916.51814484023 190351.00394248962 0 190351.00394248962 -126428.65695953369 0 0 0 0 -2877640.8435328398 20864722.709495544 0 20864722.709495544 64386609.548961639 0 0 0 0 38206430.476127982 7525641.4682273865 0 7525641.4682273865 24112871.855209351 0 0 0 0 3574228.9505412579 11843065.223884583 0 11843065.223884583 -468561.73899650574 0 0 0 0 50464408.274392247 10781269.867574692 0 10781269.867574692 -792308.09741210938 0 0 0 0 58875108.744947553 -10692612.728862762 0 -10692612.728862762 -2955031.3785018921 0 0 0 0 42274240.329783201 -6901077.251701355 0 -6901077.251701355 -3820967.3119277954 0 0 0 0 60332924.359649897 -5491852.8474693298 0 -5491852.8474693298 30275284.158245087 0 0 0 0 53319900.827299595 33312249.238521576 0 33312249.238521576 55687587.362731934 0 0 0 0 45981596.240522087 28022211.807102203 0 28022211.807102203 11855800.929901123 0 0 0 0 34298627.207709312 7563828.1658325195 0 7563828.1658325195 29524373.467025757 0 0 0 0 23164140.520925999 44133314.389076233 0 44133314.389076233 41379581.034618378 0 0 0 0 8375982.2606356144 28857749.733158112 0 28857749.733158112 36488461.234542847 0 0 0 0 26926066.000335693 23821411.718757629 0 23821411.718757629 56948328.401138306 0 0 0 0 10174013.931300879 42452999.893508911 0 42452999.893508911 77139820.596694946 0 0 0 0 27348678.550804138 35369436.162548065 0 35369436.162548065 -8556990.3213043213 0 0 0 0 3588435.7033159733 34854116.474449158 0 34854116.474449158 36416604.792449951 0 0 0 0 20951063.837541342 49706689.460083008 0 49706689.460083008 -7096371.5737409592 0 0 0 0 8547655.1572508812 70288322.246559143 0 70288322.246559143 -32834832.481521606 0 0 0 0 15493590.830087185 20087171.451400757 0 20087171.451400757 26240053.200241089 0 0 0 0 22964926.247764587 43308272.094543457 0 43308272.094543457 4688103.4616470337 0 0 0 0 17066078.445955992 37320986.895835876 0 37320986.895835876 -418071.71676635742 0 0 0 0 16487599.945227146 17006096.17880249 0 17006096.17880249 -23654546.343582153 0 0 0 0 -12933298.649702549 54826603.764543533 0 54826603.764543533 -10052205.366256714 0 0 0 0 -14473422.51667881 51840480.554275513 0 51840480.554275513 -70044106.517715454 0 0 0 0 -33580057.629088998 34671761.745708466 0 34671761.745708466 -23099761.22052002 0 0 0 0 28619209.257810101 91469702.897660017 0 91469702.897660017 -18148301.931716919 0 0 0 0 -34167516.11371851 33545811.007068634 0 33545811.007068634 -28999247.790367126 0 0 0 0 -42247903.164511442 84061215.168563843 0 84061215.168563843 3567311.4474487305 0 0 0 0 -12728108.562764406 111232926.52740479 0 111232926.52740479 24917083.940628052 0 0 0 0 28245042.472478509 -6240371.7162246704 0 -6240371.7162246704 -30397776.875160217 0 0 0 0 -17351859.193646908 10278763.73077774 0 10278763.73077774 -16409401.173919678 0 0 0 0 364486.24254361331 257567.29339566268 0 257567.29339566268 -422038.9904900305 0 0 0 0 -109192528.17234755 89069337.812583923 0 89069337.812583923 -32702231.825653076 0 0 0 0 -74054119.54042387 85842617.960540771 0 85842617.960540771 -59585627.367935181 0 0 0 0 -30191564.908685207 43223855.224655151 0 43223855.224655151 -45241498.155517578 0 0 0 0 -101687242.33713892 47446093.695217133 0 47446093.695217133 -25872968.822753906 0 0 0 0 -8344510.6434621811 23139332.715377808 0 23139332.715377808 -37428767.442842484 0 0 0 0 -11979762.278326213 18433260.080915451 0 18433260.080915451 -16915358.660980225 0 0 0 0 17311399.653318882 12099870.585639954 0 12099870.585639954 -29506129.770744324 0 0 0 0 -37083175.021704197 37909417.813232422 0 37909417.813232422 -32499097.024597168 0 0 0 0 1034303.5814116001 18073390.446739197 0 18073390.446739197 -38144231.227771759 0 0 0 0 34020818.224197984 6413519.8296966553 0 6413519.8296966553 -21354301.06162262 0 0 0 0 -6125324.1996104121 11595455.753190994 0 11595455.753190994 -14547904.199508667 0 0 0 0 27664702.048068762 -13421181.364547729 0 -13421181.364547729 -5387876.9227294922 0 0 0 0 35472570.831633091 -3750827.8432693481 0 -3750827.8432693481 -16535784.24949646 0 0 0 0 13197739.071818352 -615842.16526031494 0 -615842.16526031494 -4565460.1523590088 0 0 0 0 25911190.238310099 7003330.8535032272 0 7003330.8535032272 -19671372.276306152 0 0 0 0 23307633.227142423 -1999053.8956365585 0 -1999053.8956365585 11816139.385925293 0 0 0 0 47757621.489756584 -14749276.135971069 0 -14749276.135971069 -6970930.5195083618 0 0 0 0 49857529.490772009 -10122603.323387146 0 -10122603.323387146 -495397.38955688477 0 0 0 0 64990611.99322319 -24658351.931594849 0 -24658351.931594849 11186141.78187561 0 0 0 0 81806602.427802086 -18440410.26133728 0 -18440410.26133728 4863202.3169403076 0 0 0 0 38949342.073773265 -1992140.1014060974 0 -1992140.1014060974 25433698.232971191 0 0 0 0 127837975.59741306 -18122733.90398407 0 -18122733.90398407 85238.098571777344 0 0 0 0 115935020.785923 -16439928.316497803 0 -16439928.316497803 7632807.461730957 0 0 0 0 88323566.919261456 331724.97884941101 0 331724.97884941101 14187121.995819092 0 0 0 0 22684.524193107791 133280.44527032948 0 133280.44527032948 54814.072554439306 0 0 0 0 -1942865.8705917299 9370589.2146413326 0 9370589.2146413326 15963207.970245361 0 0 0 0 3885.4434855738073 7623.9994890298694 0 7623.9994890298694 10940.458012942225 0 0 0 0 63686420.761133194 -8193630.9264831543 0 -8193630.9264831543 16743393.411586761 0 0 0 0 110866589.12959862 11454019.046508789 0 11454019.046508789 -7372670.445810318 0 0 0 0 -127316.33797165198 -28892.461240002187 0 -28892.461240002187 929521.91286580637 0 0 0 0 59400806.892244101 -8037320.1723518372 0 -8037320.1723518372 -3742787.830291748 0 0 0 0 62425165.261311054 -10187707.775756836 0 -10187707.775756836 -6333517.1615219116 0 0 0 0 -2932910.1257773638 2697140.1197013855 0 2697140.1197013855 -1181352.7842254639 0 0 0 0 44269477.942092121 -19753240.530081749 0 -19753240.530081749 -4235084.1753234863 0 0 0 0 35395648.3668437 -15625053.647878855 0 -15625053.647878855 -1394935.0138244629 0 0 0 0 48317617.596400976 -13718820.288879395 0 -13718820.288879395 -8297805.3432121277 0 0 0 0 52975385.534406304 -20483453.701854706 0 -20483453.701854706 -2796958.477645874 0 0 0 0 -2172546.9587197304 1962149.1581954956 0 1962149.1581954956 5504410.6453104019 0 0 0 0 7900145.1674370766 -674419.45008087158 0 -674419.45008087158 498939.18633460999 0 0 0 0 228150.63004293013 302921.52857019752 0 302921.52857019752 203550.83065955108 0 0 0 0 -1229722.3340651989 1430316.5287780762 0 1430316.5287780762 -390731.79612255096 0 0 0 0 -2082718.4643208608 -2106208.0050771236 0 -2106208.0050771236 10263382.240524292 0 0 0 0 1838683.8167164326 -745977.99385070801 0 -745977.99385070801 -1620293.278547287 0 0 0 0 1288456.3009086847 1500998.9138336182 0 1500998.9138336182 -2534130.6583175659 0 0 0 0 10174385.72729063 -6883633.8845558167 0 -6883633.8845558167 843630.58367538452 0 0 0 0 1421423.9060598612 5933094.8389091492 0 5933094.8389091492 -437627.14608001709 0 0 0 0 45096.929814100266 3656710.3083724976 0 3656710.3083724976 -4054178.9301643372 0 0 0 0 -15344455.36458981 4347551.3682861328 0 4347551.3682861328 5003525.6207008362 0 0 0 0 -164435.57625934482 3949785.6783018112 0 3949785.6783018112 -982845.2613067627 0 0 0 0 6609287.5575038791 9297047.7764015198 0 9297047.7764015198 -4853778.3299407959 0 0 0 0 13358715.967692614 -9002936.6843643188 0 -9002936.6843643188 8584609.8591461182 0 0 0 0 11775084.241371304 -6604893.1487197876 0 -6604893.1487197876 18692275.165588379 0 0 0 0 46708192.743393898 -16153558.417125702 0 -16153558.417125702 4439.6322250366211 0 0 0 0 17142439.062996253 -17627528.196881056 0 -17627528.196881056 8419562.6668395996 0 0 0 0 -75802.869006345485 -45623.495665421244 0 -45623.495665421244 796775.65964930877 0 0 0 0 46746805.583168983 -10197322.389812469 0 -10197322.389812469 -5151388.1932373047 0 0 0 0 53132588.206037283 -9773553.900680542 0 -9773553.900680542 -12833044.469394684 0 0 0 0 54812255.370919585 10201949.240009308 0 10201949.240009308 28302275.451366425 0 0 0 0 49502902.768334985 -20111293.937051773 0 -20111293.937051773 4008295.749786377 0 0 0 0 -38198.628820869366 -38775.067921662005 0 -38775.067921662005 620440.43978230283 0 0 0 0 -12765406.435235739 -6064583.9922103882 0 -6064583.9922103882 43844508.917358398 0 0 0 0 100088447.61202127 37300843.126768112 0 37300843.126768112 -22734148.922332764 0 0 0 0 132964333.14824939 149165717.96972656 0 149165717.96972656 154289423.80293274 0 0 0 0 -8249.4113788293071 -14484.412309761159 0 -14484.412309761159 256372.54517681897 0 0 0 0 53239651.456979454 65670941.242362976 0 65670941.242362976 166182051.96520996 0 0 0 0 60872651.481289744 61697780.86101532 0 61697780.86101532 89819608.385070801 0 0 0 0 30958190.150893211 -25703896.218097687 0 -25703896.218097687 13807651.443580627 0 0 0 0 -26821613.352264807 -436363.46575379372 0 -436363.46575379372 18591057.997047424 0 0 0 0 44637233.638330817 -88529220.701068878 0 -88529220.701068878 113748043.73189545 0 0 0 0 53453338.905408025 -7042162.4954795837 0 -7042162.4954795837 -26719693.981567383 0 0 0 0 29801763.826083422 -47230393.073483467 0 -47230393.073483467 87826004.223434448 0 0 0 0 13235238.50412029 -18599666.527721405 0 -18599666.527721405 120048870.27922058 0 0 0 0 19708934.036709189 1573391.4185638428 0 1573391.4185638428 116266319.55263138 0 0 0 0 -15327010.969424963 -38770152.171878815 0 -38770152.171878815 299042877.58498383 0 0 0 0 72602252.41476649 116659054.82094955 0 116659054.82094955 234174217.39130402 0 0 0 0 144766959.84078431 67901596.592617035 0 67901596.592617035 156491564.57808733 0 0 0 0 19528157.371092916 50002167.985351562 0 50002167.985351562 177699838.8991127 0 0 0 0 20809748.163751185 81951943.998020172 0 81951943.998020172 240997820.3179245 0 0 0 0 33241258.641135693 87675159.659950256 0 87675159.659950256 161910650.43435287 0 0 0 0 -7560920.4903732538 58210014.813064575 0 58210014.813064575 267107255.74773026 0 0 0 0 35057218.427819848 121767630.29355431 0 121767630.29355431 320688715.98391724 0 0 0 0 70492654.853085518 7854935.8639678955 0 7854935.8639678955 301710042.54576111 0 0 0 0 46281425.521260619 55664351.854389191 0 55664351.854389191 231841889.48947144 0 0 0 0 4739949.4637940042 56747740.108381569 0 56747740.108381569 230593148.9041748 0 0 0 0 -6365831.8945977688 76167376.689163208 0 76167376.689163208 263882123.89350128 0 0 0 0 8731597.9920134544 49897245.242889404 0 49897245.242889404 302600468.75481796 0 0 0 0 20940133.212416172 123692910.59449005 0 123692910.59449005 247941312.9261322 0 0 0 0 14160269.158753991 60676104.580989838 0 60676104.580989838 322833465.85421753 0 0 0 0 29635731.023718953 31762902.818496704 0 31762902.818496704 229991429.40868378 0 0 0 0 64094073.50992322 -31507502.319908142 0 -31507502.319908142 346031268.85359192 0 0 0 0 142148.59843885899 42741126.588874817 0 42741126.588874817 293347247.39683533 0 0 0 0 42185728.866247773 28290347.384189606 0 28290347.384189606 177630879.87556458 0 0 0 0 43540435.797701836 41915714.007034302 0 41915714.007034302 153105330.5383606 0 0 0 0 59272596.028059721 -4742931.2651443481 0 -4742931.2651443481 231016482.21891856 0 0 0 0 79032899.171680927 36737760.128416061 0 36737760.128416061 161493045.23783875 0 0 0 0 77925307.076445103 9432018.9061050415 0 9432018.9061050415 136246832.91591644 0 0 0 0 66391461.343793064 35950981.821359634 0 35950981.821359634 102182770.17008972 0 0 0 0 67059820.842643298 -4352884.6376737356 0 -4352884.6376737356 113478077.21818542 0 0 0 0 59619172.889823198 26014122.454734802 0 26014122.454734802 73674875.929344177 0 0 0 0 58055704.96840632 -5631467.7590904236 0 -5631467.7590904236 53628171.474433899 0 0 0 0 9804588.6640100479 58353166.007396698 0 58353166.007396698 150821761.53665161 0 0 0 0 33046326.051953316 40703046.687133789 0 40703046.687133789 113762144.79306459 0 0 0 0 5343812.9369320869 46082438.089244843 0 46082438.089244843 121599904.71287537 0 0 0 0 -8190665.8878531456 43867363.772094727 0 43867363.772094727 121351840.53022766 0 0 0 0 18368123.181529284 44243575.732357025 0 44243575.732357025 113597629.75823975 0 0 0 0 17912938.526148796 34796604.472381592 0 34796604.472381592 78625140.313613892 0 0 0 0 45258422.278163433 41779846.891960144 0 41779846.891960144 68690827.196556091 0 0 0 0 67605579.284245729 11355116.004898071 0 11355116.004898071 67670345.313045502 0 0 0 0 36131180.916311383 36326856.82522583 0 36326856.82522583 101498048.69316101 0 0 0 0 35175788.456273198 53260380.49679184 0 53260380.49679184 151486777.06082153 0 0 0 0 69077246.223106146 31066197.158859253 0 31066197.158859253 102313740.6303463 0 0 0 0 58370106.470694542 47864775.733127594 0 47864775.733127594 151544691.88725281 0 0 0 0 70427186.973070383 45959795.354919434 0 45959795.354919434 136347036.3216095 0 0 0 0 100682710.42497468 21565964.255104065 0 21565964.255104065 155971196.01677704 0 0 0 0 75441928.394201279 16602241.312667847 0 16602241.312667847 217826372.83929443 0 0 0 0 78010280.378554225 78766371.656360626 0 78766371.656360626 200050221.12686157 0 0 0 0 44525101.729631186 88089802.818222046 0 88089802.818222046 199347544.57591248 0 0 0 0 -2736880.6044194698 85439033.732322693 0 85439033.732322693 240140204.53636169 0 0 0 0 19502030.081529379 53144844.15965271 0 53144844.15965271 151979825.48205566 0 0 0 0 -20717515.76222682 55145338.092582703 0 55145338.092582703 181375705.42738342 0 0 0 0 -17569109.676406622 68201719.830734253 0 68201719.830734253 220582235.83071899 0 0 0 0 45598292.156708241 155552200.64860916 0 155552200.64860916 351559253.50553894 0 0 0 0 1575113.0594620705 70463965.488960266 0 70463965.488960266 237348391.06005859 0 0 0 0 -53924317.249886751 50130022.109603882 0 50130022.109603882 335362718.39816284 0 0 0 0 162852941.47126412 12279793.910774231 0 12279793.910774231 217986552.67048407 0 0 0 0 167813178.62115598 68312876.711349487 0 68312876.711349487 200390883.60237503 0 0 0 0 371945356.02404737 -5054059.2733154297 0 -5054059.2733154297 253524513.66174507 0 0 0 0 128938248.37689018 34506574.483882904 0 34506574.483882904 248692560.94317627 0 0 0 0 94762113.017155409 -260187013.07373047 0 -260187013.07373047 172393210.67785645 0 0 0 0 86129348.151901126 -71835133.385921478 0 -71835133.385921478 550937236.68983459 0 0 0 0 66352778.903431416 224803482.27980804 0 224803482.27980804 658688079.44230652 0 0 0 0 43398311.920386314 183652335.0198822 0 183652335.0198822 351397173.57859802 0 0 0 0 -41391027.692695856 -19449268.249076843 0 -19449268.249076843 242511631.44871521 0 0 0 0 -74066272.10884738 18637711.510101318 0 18637711.510101318 391215380.56443596 0 0 0 0 -60224151.589530945 -19738109.109912872 0 -19738109.109912872 259167618.40333557 0 0 0 0 -6939633.0167956352 -79188193.769515991 0 -79188193.769515991 240247484.7842865 0 0 0 0 -22246121.977890968 -39918975.415237427 0 -39918975.415237427 157162326.4295578 0 0 0 0 -43091615.407477379 -1262573.5738067627 0 -1262573.5738067627 198572434.42803192 0 0 0 0 -23470294.765123248 -41307745.241439819 0 -41307745.241439819 165623906.76519775 0 0 0 0 -40125274.91099894 -16547365.95843792 0 -16547365.95843792 217258647.11135864 0 0 0 0 -62747433.545563698 32827189.786224365 0 32827189.786224365 192289426.46907425 0 0 0 0 -42107540.725253224 1109674.5176620483 0 1109674.5176620483 149919484.59819031 0 0 0 0 -29092749.66203618 47327537.190998077 0 47327537.190998077 158620182.8024292 0 0 0 0 -37627146.510134697 28811843.584495544 0 28811843.584495544 121564110.30820847 0 0 0 0 -55447866.513603449 59632901.206521988 0 59632901.206521988 159327797.73290253 0 0 0 0 -48818121.459785461 11748399.61516571 0 11748399.61516571 189452632.20458984 0 0 0 0 -58942385.352455139 46632962.214790344 0 46632962.214790344 221086253.42422485 0 0 0 0 -87922763.407926083 45479097.978309631 0 45479097.978309631 228077214.22065735 0 0 0 0 -79156342.809367657 45333704.725646973 0 45333704.725646973 221440091.09896851 0 0 0 0 -71199361.223529577 38404264.475601196 0 38404264.475601196 224660596.89064026 0 0 0 0 -68301528.056714058 43914191.902946472 0 43914191.902946472 234995841.52738571 0 0 0 0 -61882587.137414455 34184887.266212463 0 34184887.266212463 242968360.74282837 0 0 0 0 -53217872.857703686 36432928.955882311 0 36432928.955882311 236532524.15261841 0 0 0 0 -63592403.155665398 26914305.239242554 0 26914305.239242554 257981968.9887619 0 0 0 0 -63930667.206833124 21762701.073993683 0 21762701.073993683 227141972.37872314 0 0 0 0 72943942.173736751 90854390.909506798 0 90854390.909506798 54599020.10761261 0 0 0 0 79071990.010942459 153660288.38040161 0 153660288.38040161 51968366.547014236 0 0 0 0 -61778801.935487747 87903860.067504883 0 87903860.067504883 218546680.47315216 0 0 0 0 -66724308.10626179 118210675.6719532 0 118210675.6719532 255028632.43704224 0 0 0 0 -87252436.018981457 50247176.287723541 0 50247176.287723541 261071154.53058243 0 0 0 0 -42604974.855638027 189566097.23993301 0 189566097.23993301 401402906.51603699 0 0 0 0 117510581.90807629 245223353.18860245 0 245223353.18860245 198910867.8961792 0 0 0 0 121320337.59494725 150785487.06546056 0 150785487.06546056 -56068483.401824951 0 0 0 0 -85247583.937700868 147376520.32226562 0 147376520.32226562 756731830.70413971 0 0 0 0 -122372457.14949894 19637497.304775238 0 19637497.304775238 340804263.9705143 0 0 0 0 -57439112.607400417 -20377716.2943573 0 -20377716.2943573 244276923.53953409 0 0 0 0 -75959296.188869715 34603059.366569519 0 34603059.366569519 249637635.31352234 0 0 0 0 -81944743.748280525 23922327.712497711 0 23922327.712497711 231902501.80862427 0 0 0 0 -61619526.961384296 6826713.2594566345 0 6826713.2594566345 137194376.41838074 0 0 0 0 -65229592.078609467 31130260.201705933 0 31130260.201705933 126368191.07037354 0 0 0 0 -20018646.024408817 11255861.588508606 0 11255861.588508606 72774545.600646973 0 0 0 0 -32821792.227463722 31345194.356987 0 31345194.356987 86908235.74430275 0 0 0 0 15759166.85880322 27896190.47814095 0 27896190.47814095 41696080.661201477 0 0 0 0 18637705.310794353 -43942812.519104004 0 -43942812.519104004 95649991.564910889 0 0 0 0 -59628960.235026836 42991755.548881531 0 42991755.548881531 191519516.83271027 0 0 0 0 -58817483.626990557 42166870.732177734 0 42166870.732177734 174847455.86458588 0 0 0 0 -49492687.240662098 64415776.544269562 0 64415776.544269562 235356596.98321533 0 0 0 0 -58171548.307378292 45027990.823501587 0 45027990.823501587 192363826.24025726 0 0 0 0 -76486574.877652884 48977719.149730682 0 48977719.149730682 231754351.70761108 0 0 0 0 -79003523.885877609 43478183.571548462 0 43478183.571548462 219846636.39805603 0 0 0 0 -74752032.946578503 38263972.768295288 0 38263972.768295288 210377078.89778137 0 0 0 0 -84918876.511749744 30500172.422119141 0 30500172.422119141 211890141.50232697 0 0 0 0 -65897298.358658329 21151552.998317719 0 21151552.998317719 150206653.70950317 0 0 0 0 -64894852.358065367 37083657.677963257 0 37083657.677963257 143760404.86061859 0 0 0 0 -77794409.814566135 7862520.7283248901 0 7862520.7283248901 196147330.13344955 0 0 0 0 -74044486.295577049 39862475.325027466 0 39862475.325027466 99434987.410118103 0 0 0 0 -57839739.558695316 14255519.395059586 0 14255519.395059586 113723495.73530579 0 0 0 0 -48001782.063536167 39069544.528068542 0 39069544.528068542 116991441.55018616 0 0 0 0 -41011420.401167154 23484509.081943512 0 23484509.081943512 97065398.312133789 0 0 0 0 -30265970.336305141 51556799.227310181 0 51556799.227310181 180078104.58916473 0 0 0 0 -34211123.789755821 38537801.372032166 0 38537801.372032166 140010858.92703247 0 0 0 0 -10845467.291716576 31788636.251888275 0 31788636.251888275 86048178.852996826 0 0 0 0 -35754462.888901711 41384439.669799805 0 41384439.669799805 140225848.07473469 0 0 0 0 -18238347.414917946 33109238.032051086 0 33109238.032051086 86128241.140070438 0 0 0 0 -19167387.070006609 23685358.982002258 0 23685358.982002258 46374667.869613647 0 0 0 0 -45684332.644035816 29401777.929443359 0 29401777.929443359 95698337.807983398 0 0 0 0 -43023004.048572302 29216913.92080307 0 29216913.92080307 63443915.322570801 0 0 0 0 -31876837.297724843 17559126.018283844 0 17559126.018283844 5200502.8339996338 0 0 0 0 1666514.5354841948 23791135.562202454 0 23791135.562202454 -13790585.541778564 0 0 0 0 -34294334.886741638 21472976.573486328 0 21472976.573486328 46279519.199969769 0 0 0 0 21845900.864433646 51671638.441784859 0 51671638.441784859 -66979575.803024292 0 0 0 0 178503.47648382187 24912884.354568481 0 24912884.354568481 -13165101.936008453 0 0 0 0 -4221948.3590824604 9779591.4689216614 0 9779591.4689216614 -61975783.325836182 0 0 0 0 -74137998.347345352 7992561.5297012329 0 7992561.5297012329 3697554.3643951416 0 0 0 0 43288461.974085331 28512792.702896118 0 28512792.702896118 -125099025.91242981 0 0 0 0 -27749380.337306023 -1711263.9974365234 0 -1711263.9974365234 -67103704.776885986 0 0 0 0 -40688640.586060047 -43043089.374872208 0 -43043089.374872208 -122968660.11932373 0 0 0 0 13075287.512233734 -17576262.869674683 0 -17576262.869674683 -123795445.36070251 0 0 0 0 12479835.42094326 -10103937.909942627 0 -10103937.909942627 -161795660.35879517 0 0 0 0 45527787.474508762 61757601.781059265 0 61757601.781059265 -63096770.918991089 0 0 0 0 -124110787.83801806 40383089.478736877 0 40383089.478736877 -68470657.4559021 0 0 0 0 -138184537.51327074 81771201.046190262 0 81771201.046190262 -57247571.995941162 0 0 0 0 -53218649.004347801 83493547.985992432 0 83493547.985992432 -125926031.90896606 0 0 0 0 -86638073.167240143 77325115.043304443 0 77325115.043304443 -126877523.78443527 0 0 0 0 -328583418.39468336 91886558.620651245 0 91886558.620651245 -81106969.698413849 0 0 0 0 -114456974.39947891 58115132.954772949 0 58115132.954772949 -52843063.380096436 0 0 0 0 -66530609.528021336 4065624.1793212891 0 4065624.1793212891 -25518884.350317001 0 0 0 0 -171720281.33646059 -6276457.6810455322 0 -6276457.6810455322 -26024499.309051514 0 0 0 0 -119098355.46485376 32395992.141296387 0 32395992.141296387 16256256.704406738 0 0 0 0 -81555048.418399811 58072732.703887939 0 58072732.703887939 -19088403.952400208 0 0 0 0 -122208391.85164881 45389712.375823975 0 45389712.375823975 -22784172.807220459 0 0 0 0 -72977962.32266283 67437845.703170776 0 67437845.703170776 -55519131.127288818 0 0 0 0 -74742780.064409256 36198704.847999573 0 36198704.847999573 8530134.4497833252 0 0 0 0 -63775714.517349005 42796048.452894211 0 42796048.452894211 35038507.177810669 0 0 0 0 -82369716.936438203 53709295.961537361 0 53709295.961537361 31575257.579040527 0 0 0 0 -69432306.10842371 10128133.561477661 0 10128133.561477661 53308816.410507202 0 0 0 0 -66758480.964078426 36620470.651275635 0 36620470.651275635 38828023.858337402 0 0 0 0 -75772237.952363849 20050300.359404564 0 20050300.359404564 19243134.301177979 0 0 0 0 -63348705.566998482 17873441.260437012 0 17873441.260437012 100779004.12928009 0 0 0 0 -55807820.512981415 32112792.241947174 0 32112792.241947174 80930915.189941406 0 0 0 0 -70872892.859174728 18121402.239685059 0 18121402.239685059 75524057.223556519 0 0 0 0 -52374513.151975632 19177856.310516357 0 19177856.310516357 74308087.112831116 0 0 0 0 -52134223.900977612 53015698.111022949 0 53015698.111022949 42879091.2474823 0 0 0 0 -28716358.680466175 33349638.710174561 0 33349638.710174561 20320403.043556213 0 0 0 0 -10634001.833117008 50042535.03584671 0 50042535.03584671 -23830584.365829468 0 0 0 0 1662780.0569167137 23742064.646350861 0 23742064.646350861 13586265.79548645 0 0 0 0 -18668173.307878017 40767391.163200378 0 40767391.163200378 17906772.044701576 0 0 0 0 -3402410.8478310108 17731756.706254721 0 17731756.706254721 -7248782.9569473267 0 0 0 0 -4043649.4833593369 24687225.629226685 0 24687225.629226685 -52858846.549007416 0 0 0 0 -2791678.648651123 23161227.15019989 0 23161227.15019989 -51740475.604377747 0 0 0 0 -52873985.28230834 63675260.163040161 0 63675260.163040161 -26036944.170928955 0 0 0 0 -16631030.07776165 47272461.302001953 0 47272461.302001953 -47003408.465286255 0 0 0 0 -55209831.373770475 64161252.650569916 0 64161252.650569916 -7421058.1864013672 0 0 0 0 -76448966.51300621 67480590.578414917 0 67480590.578414917 -26207059.473114014 0 0 0 0 -15498918.976834297 53006898.111152649 0 53006898.111152649 -24709435.995609283 0 0 0 0 -33708951.556605816 68513364.724617004 0 68513364.724617004 -73358283.068511963 0 0 0 0 -53348962.06665802 72030843.184036255 0 72030843.184036255 -73988195.440376282 0 0 0 0 1569328.5653133392 30519893.885650635 0 30519893.885650635 -103489756.14413452 0 0 0 0 24298899.039381027 21222309.624923706 0 21222309.624923706 -132138337.85317993 0 0 0 0 -41639590.92655611 95008365.286750793 0 95008365.286750793 -190081073.60321045 0 0 0 0 -6544227.1629142761 38972580.036407471 0 38972580.036407471 -109346327.04675293 0 0 0 0 21738525.148439407 46900875.096939087 0 46900875.096939087 -190775890.93753052 0 0 0 0 28460957.357849121 37394540.391525269 0 37394540.391525269 -195632618.18078613 0 0 0 0 1007411.8572041418 3406281.6924094791 0 3406281.6924094791 2312261.0653763129 0 0 0 0 8622758.0200657845 9799696.3158817291 0 9799696.3158817291 -27930180.352825165 0 0 0 0 -16899266.786605835 21642668.210540771 0 21642668.210540771 -5077867.5531311035 0 0 0 0 -10264301.226840019 9894040.3684005737 0 9894040.3684005737 -17619254.164024353 0 0 0 0 27387275.842475057 -7781045.2351064682 0 -7781045.2351064682 -54686434.577178955 0 0 0 0 19972761.53637886 17553846.518205643 0 17553846.518205643 -24380632.60200882 0 0 0 0 23362390.976139784 46115619.332517624 0 46115619.332517624 -4268984.3807296753 0 0 0 0 8320146.8675670624 17461752.730361938 0 17461752.730361938 -20597507.309432983 0 0 0 0 20455820.747600555 52690236.350625038 0 52690236.350625038 55871402.52722168 0 0 0 0 -6055245.5018081665 30321240.9824543 0 30321240.9824543 1856546.2294235229 0 0 0 0 8945997.5507650375 19641394.275737762 0 19641394.275737762 -13213471.487068176 0 0 0 0 -8341388.7518434525 15738477.035305023 0 15738477.035305023 10287866.765439987 0 0 0 0 -7450838.4827775955 17648690.980133057 0 17648690.980133057 -14349194.948230743 0 0 0 0 -13678021.509110451 28792018.881355286 0 28792018.881355286 -3887041.3689422607 0 0 0 0 7663308.4256241322 -163210160.66424561 0 -163210160.66424561 -99631791.164675236 0 0 0 0 80376187.042519987 114448261.14213371 0 114448261.14213371 -67775245.738174438 0 0 0 0 -12798479.165865421 36587590.524749756 0 36587590.524749756 135377441.55171204 0 0 0 0 489145.03139092796 298452.98353579827 0 298452.98353579827 -94503.525294069201 0 0 0 0 -7995488.2843234539 110756759.02232742 0 110756759.02232742 9254240.1527404785 0 0 0 0 22288796.269940376 197666955.01168823 0 197666955.01168823 181441997.22720337 0 0 0 0 84676048.014766216 172134181.78120422 0 172134181.78120422 -11850165.677070618 0 0 0 0 28817567.218443781 95917489.212792397 0 95917489.212792397 -87561231.297531128 0 0 0 0 212681786.73862171 290832783.47782898 0 290832783.47782898 -13374031.192779541 0 0 0 0 109836508.59710622 113387359.9612999 0 113387359.9612999 -239218642.91653442 0 0 0 0 309848958.96549773 56740105.088582993 0 56740105.088582993 -486524650.79812622 0 0 0 0 -262359243.89622879 -203177158.79384613 0 -203177158.79384613 -222170984.90901184 0 0 0 0 782348.50225535501 4526021.7645218624 0 4526021.7645218624 6784573.5890208967 0 0 0 0 -112823380.28393722 201145416.43499756 0 201145416.43499756 187758269.68856812 0 0 0 0 -281069610.573843 -188242715.08988953 0 -188242715.08988953 -121593048.58499146 0 0 0 0 -154770848.04216671 146077803.17695618 0 146077803.17695618 -191385373.31472778 0 0 0 0 -69772998.411613464 115168396.36361694 0 115168396.36361694 -238967608.895401 0 0 0 0 -354175.22151895484 373506.3173161298 0 373506.3173161298 803967.44606524054 0 0 0 0 4302770.1724510193 35674223.172592163 0 35674223.172592163 -19217217.769691467 0 0 0 0 -190419621.25219488 81745472.193656921 0 81745472.193656921 -22360963.435302734 0 0 0 0 2894332.6702997684 -240386768.46244812 0 -240386768.46244812 -227709179.46976471 0 0 0 0 180352538.85011864 150662265.33353424 0 150662265.33353424 -292232556.47050667 0 0 0 0 182682243.34234619 170746745.90421295 0 170746745.90421295 -161699130.95909786 0 0 0 0 159044046.40127182 39297170.706888199 0 39297170.706888199 -60195685.463310242 0 0 0 0 150949745.73884392 -3652882.757183075 0 -3652882.757183075 -155195983.52837396 0 0 0 0 149871634.12215424 -14941458.844913483 0 -14941458.844913483 -264335748.4749403 0 0 0 0 22986240.991514206 40200069.440666199 0 40200069.440666199 -71861452.870628357 0 0 0 0 181375999.41725063 50017393.082107544 0 50017393.082107544 -26689987.430244446 0 0 0 0 149918829.53023052 -46138240.27986908 0 -46138240.27986908 46871201.733261108 0 0 0 0 162459139.34459877 -30387582.561069489 0 -30387582.561069489 -32839969.521812439 0 0 0 0 156393511.32842398 9792228.5584583282 0 9792228.5584583282 105120548.40255737 0 0 0 0 437604399.53493977 212813034.38775253 0 212813034.38775253 -85331049.213241577 0 0 0 0 108245136.82322434 171866040.51394427 0 171866040.51394427 -106091997.95344543 0 0 0 0 107646273.60593987 1262337.3057174683 0 1262337.3057174683 -57996859.712207794 0 0 0 0 -372186905.68735135 352876474.78222656 0 352876474.78222656 42480821.292114258 0 0 0 0 -13236682.623842716 169227759.59339905 0 169227759.59339905 -56792084.540542603 0 0 0 0 94725444.459432602 467419371.68173981 0 467419371.68173981 -86635864.24079895 0 0 0 0 184578286.51716781 384681019.21083069 0 384681019.21083069 -55593812.356426239 0 0 0 0 145882592.86361992 363954707.60699844 0 363954707.60699844 -21269518.838317871 0 0 0 0 635873165.4445591 408694120.784729 0 408694120.784729 -28156641.349193573 0 0 0 0 717869.12026894372 303237.40964158159 0 303237.40964158159 -440128.14253900573 0 0 0 0 -36138512.408417225 242443185.69270325 0 242443185.69270325 -16663510.252639771 0 0 0 0 249823285.60620308 -370021065.58631897 0 -370021065.58631897 -638242987.70413208 0 0 0 0 -135810703.11369228 670457089.94043732 0 670457089.94043732 -309072716.38299561 0 0 0 0 -241902631.09001648 636727221.67884445 0 636727221.67884445 -32900529.322799683 0 0 0 0 89902804.775818825 516905975.68816376 0 516905975.68816376 -355876118.56848145 0 0 0 0 85548582.27448374 596333415.33615112 0 596333415.33615112 6947475.7752990723 0 0 0 0 -15256340.738415718 97906346.68649292 0 97906346.68649292 -767332651.69500732 0 0 0 0 104174478.26402473 90109687.589862823 0 90109687.589862823 -105935252.02835083 0 0 0 0 79082262.286154747 12560626.087715149 0 12560626.087715149 -286766245.03939438 0 0 0 0 102263689.40835327 1021751363.0556438 0 1021751363.0556438 156160367.40808105 0 0 0 0 7197698.6038398743 -61619686.247810364 0 -61619686.247810364 -180996584.97221375 0 0 0 0 14681059.856007576 -7930978.5313796997 0 -7930978.5313796997 -52696906.066398621 0 0 0 0 -26449350.630758762 -13180555.9168396 0 -13180555.9168396 -8911866.809928894 0 0 0 0 173308.33449463229 2285679.7912362125 0 2285679.7912362125 -670636.88232487813 0 0 0 0 647388.04761453101 3002669.3393486589 0 3002669.3393486589 2288070.677309711 0 0 0 0 -52082796.429956913 -53904073.469432831 0 -53904073.469432831 -64441392.143180847 0 0 0 0 125502250.98621726 361651272.97515106 0 361651272.97515106 -259625307.51150513 0 0 0 0 -151112845.07959723 -92509581.104696274 0 -92509581.104696274 262826541.60762024 0 0 0 0 36029159.124132156 38402610.327648163 0 38402610.327648163 55984356.929611206 0 0 0 0 27166982.324949741 52657876.221195221 0 52657876.221195221 91543713.142860413 0 0 0 0 294841.72380877938 -561181.88811089657 0 -561181.88811089657 1272929.7207482965 0 0 0 0 -21876418.842346191 22997320.73405838 0 22997320.73405838 -7516800.717338562 0 0 0 0 -1619376.4776805898 3066067.7828316251 0 3066067.7828316251 6925822.9887470696 0 0 0 0 -99146337.34460783 13378334.044239044 0 13378334.044239044 35983831.402229309 0 0 0 0 -20887824.415304661 34965591.240346909 0 34965591.240346909 2771176.892036438 0 0 0 0 133058244.01071048 113890454.60461426 0 113890454.60461426 41095400.657859802 0 0 0 0 344177268.60196877 195671394.4299469 0 195671394.4299469 36425066.492179871 0 0 0 0 50879812.528902531 180623690.27658081 0 180623690.27658081 119843100.08372498 0 0 0 0 75523262.465146065 143218081.7450943 0 143218081.7450943 121570164.15398407 0 0 0 0 -21763585.224266052 141542669.51301575 0 141542669.51301575 135817868.69150543 0 0 0 0 88116612.947749138 170807405.95664597 0 170807405.95664597 173862932.23143768 0 0 0 0 31910424.150798559 158760238.40932846 0 158760238.40932846 169144419.29571533 0 0 0 0 228194136.18140602 -3260844.77784729 0 -3260844.77784729 -617618751.25670624 0 0 0 0 -7959068.9633693695 51227597.152122498 0 51227597.152122498 275215610.39414978 0 0 0 0 294782.84594330355 -578719.30493098684 0 -578719.30493098684 329337.50129940081 0 0 0 0 68360829.31769371 159040509.71489716 0 159040509.71489716 166837590.98652267 0 0 0 0 9975733.1251430511 152288981.59188843 0 152288981.59188843 474099762.34068298 0 0 0 0 77797882.490893364 128764302.41388893 0 128764302.41388893 222409873.92973328 0 0 0 0 161735279.13491821 109271137.48408508 0 109271137.48408508 210837869.22039795 0 0 0 0 151390083.97432709 263479568.09767151 0 263479568.09767151 352565449.47927094 0 0 0 0 362648450.75682831 226831872.17266846 0 226831872.17266846 63964967.66015625 0 0 0 0 -144518197.99736214 -77519739.38454628 0 -77519739.38454628 -33058774.475952148 0 0 0 0 -7893496.3019621307 -4881536.3163932404 0 -4881536.3163932404 30084365.153993279 0 0 0 0 110576224.43102646 106256900.17463303 0 106256900.17463303 113383151.40172577 0 0 0 0 -145577434.70239556 -76466275.403272033 0 -76466275.403272033 -28088871.974349976 0 0 0 0 165827128.85667133 78738271.171157837 0 78738271.171157837 122533266.94145966 0 0 0 0 -138237085.23464203 -70877491.629291534 0 -70877491.629291534 -35922369.167621613 0 0 0 0 -299579058.48219299 -245094873.21387291 0 -245094873.21387291 -169945199.31059837 0 0 0 0 -13176843.656195641 48115480.069778442 0 48115480.069778442 -126841433.79782104 0 0 0 0 -137719041.19532299 -73258670.350688457 0 -73258670.350688457 -45576131.251785278 0 0 0 0 103113714.3823719 75743536.035646439 0 75743536.035646439 -7023021.5685272217 0 0 0 0 43768129.706770271 180694658.0888176 0 180694658.0888176 71521024.684936523 0 0 0 0 -137300398.09639549 126060805.54094696 0 126060805.54094696 165837622.02990723 0 0 0 0 -214128038.50229692 130814605.74274921 0 130814605.74274921 200295596.90077209 0 0 0 0 -152338508.9739933 -85784691.272254944 0 -85784691.272254944 4995987.1493420601 0 0 0 0 -418712244.4387989 -29383365.466262817 0 -29383365.466262817 177674859.19914246 0 0 0 0 -241088713.41015625 -331768006.99326324 0 -331768006.99326324 -65829904.860412598 0 0 0 0 -149408054.4469986 -189560176.63000488 0 -189560176.63000488 91415789.813400269 0 0 0 0 -550938.70013685431 -83562.163897384424 0 -83562.163897384424 676477.28098137304 0 0 0 0 -7164269.7688661348 -6160138.0950808097 0 -6160138.0950808097 30710713.276357573 0 0 0 0 -536089287.84418774 221439929.18849182 0 221439929.18849182 161347149.64801025 0 0 0 0 -477014709.01764727 152729988.20831299 0 152729988.20831299 236176970.81277466 0 0 0 0 -437385780.60363591 398199053.70566559 0 398199053.70566559 -115379518.0916748 0 0 0 0 -98189570.559135437 -86050760.316993713 0 -86050760.316993713 41003657.806777954 0 0 0 0 -93437732.656806946 49142556.812660217 0 49142556.812660217 -332238243.98258209 0 0 0 0 -128937547.03271103 -105771469.01102066 0 -105771469.01102066 28362614.115524292 0 0 0 0 -131098151.53011703 -122507608.68328094 0 -122507608.68328094 76292359.91229248 0 0 0 0 -159277393.99296951 -198156225.1631813 0 -198156225.1631813 158861448.63502502 0 0 0 0 -128822311.49731827 -114040075.35658264 0 -114040075.35658264 99080098.361801147 0 0 0 0 -125930603.77398682 -164193059.67239761 0 -164193059.67239761 296232449.71409225 0 0 0 0 28409626.473398209 -223047747.9127903 0 -223047747.9127903 151633922.23875427 0 0 0 0 -197108227.99651146 -67781849.016910553 0 -67781849.016910553 44758140.564674377 0 0 0 0 -903348.28178575914 1947135.54769263 0 1947135.54769263 4217063.4515813217 0 0 0 0 -48718146.437358141 50411810.236354828 0 50411810.236354828 56729347.601493835 0 0 0 0 144670931.42544487 254261049.61876297 0 254261049.61876297 122447580.66988373 0 0 0 0 361716826.81673384 135956764.08525085 0 135956764.08525085 131115293.05948639 0 0 0 0 56124801.955313623 154638981.969841 0 154638981.969841 126136103.17642975 0 0 0 0 -236310667.1228804 266041258.50995636 0 266041258.50995636 287150109.09895325 0 0 0 0 -29099120.235179484 418344081.40867043 0 418344081.40867043 188156141.19425964 0 0 0 0 -209339382.43330014 215018093.00987244 0 215018093.00987244 30555999.697723389 0 0 0 0 -108134910.16358423 -360445305.09176636 0 -360445305.09176636 -481997746.94236755 0 0 0 0 69034305.477200508 61900550.90309906 0 61900550.90309906 65213605.093017578 0 0 0 0 -169837861.80602121 137056864.16810608 0 137056864.16810608 -555941855.46310425 0 0 0 0 -181449487.14074707 139265494.23558426 0 139265494.23558426 86095736.446838379 0 0 0 0 -173615374.25819182 -448182177.77757263 0 -448182177.77757263 -93045759.083393097 0 0 0 0 81080354.588051081 538597650.53133392 0 538597650.53133392 1018986927.4296265 0 0 0 0 308296413.93451118 302789113.81420135 0 302789113.81420135 220881790.34588623 0 0 0 0 1192129169.9689364 577097167.90578842 0 577097167.90578842 93319931.465675354 0 0 0 0 -21463452.954870224 -214397979.05203629 0 -214397979.05203629 296274244.72751617 0 0 0 0 -283204.27486810379 735377.82540767733 0 735377.82540767733 1427741.9913508557 0 0 0 0 446760475.15755606 558128290.89962006 0 558128290.89962006 407381201.96154022 0 0 0 0 62508114.605035782 -503027225.23623657 0 -503027225.23623657 1299403834.2202034 0 0 0 0 80794377.604485035 279807494.40385437 0 279807494.40385437 -276104425.91953278 0 0 0 0 785683222.78783536 -109011852.85858154 0 -109011852.85858154 -88667399.11227417 0 0 0 0 -267952865.71746826 -17739492.227561951 0 -17739492.227561951 58731960.366409302 0 0 0 0 -509136967.30359578 -676985486.20597839 0 -676985486.20597839 117490697.50939941 0 0 0 0 -638201409.27486467 -393076035.36055756 0 -393076035.36055756 123748717.61187744 0 0 0 0 -5656194.9319393262 -8029315.1573063647 0 -8029315.1573063647 29050468.111451492 0 0 0 0 -664291402.973629 -352611665.29212952 0 -352611665.29212952 351136022.34960175 0 0 0 0 -486134522.30308819 -148036983.2285614 0 -148036983.2285614 466009404.00862122 0 0 0 0 -6015118.1321587563 -213585037.79794312 0 -213585037.79794312 325680434.19137573 0 0 0 0 -533994759.84574705 -576256494.95898342 0 -576256494.95898342 445619920.01998901 0 0 0 0 -203160995.49234772 -285383225.28991699 0 -285383225.28991699 719165296.66001129 0 0 0 0 -160152411.18492699 -543765688.39523315 0 -543765688.39523315 362456484.20794678 0 0 0 0 -234390078.89692688 -22710223.084945679 0 -22710223.084945679 33046397.912712097 0 0 0 0 -209020528.06587601 13023947.207775116 0 13023947.207775116 -10146434.955184937 0 0 0 0 -612437971.25129104 -229310488.57322502 0 -229310488.57322502 -1357158091.2728882 0 0 0 0 -583191033.24585962 -207412145.29772568 0 -207412145.29772568 55509920.614807129 0 0 0 0 -1269455.4784188634 -503356.27060769312 0 -503356.27060769312 1629978.3013614342 0 0 0 0 -5705086.6260826113 -1154009.23832554 0 -1154009.23832554 33974038.504946254 0 0 0 0 -155181761.95402718 -217827763.39138031 0 -217827763.39138031 -104637859.08380127 0 0 0 0 -1406677.8506617546 -291079185.81529236 0 -291079185.81529236 -564025287.88385391 0 0 0 0 56035129.005193293 -49117679.139883518 0 -49117679.139883518 -147884900.03379822 0 0 0 0 211551702.4004879 108855526.93601227 0 108855526.93601227 -36583970.341350555 0 0 0 0 -151021496.75871658 -2079053.5299377441 0 -2079053.5299377441 127396049.61227036 0 0 0 0 -40973690.953528404 23079839.339464188 0 23079839.339464188 171094649.68500519 0 0 0 0 -105290507.88957596 -43528297.496948242 0 -43528297.496948242 105351629.33387756 0 0 0 0 -161065497.32506561 -26003092.916503906 0 -26003092.916503906 109340454.41257095 0 0 0 0 -113253995.560956 -10410458.122086525 0 -10410458.122086525 59956740.170288086 0 0 0 0 -172075466.89715958 11735577.659013748 0 11735577.659013748 -14700168.571670532 0 0 0 0 -282581130.95057297 56988888.709384918 0 56988888.709384918 23617430.41532135 0 0 0 0 -226920939.51882172 -9365347.8835716248 0 -9365347.8835716248 83913002.575454712 0 0 0 0 -184963930.23812485 1768757.5980262756 0 1768757.5980262756 54100912.496192932 0 0 0 0 -231307218.71778107 19444231.430541992 0 19444231.430541992 72980409.065200806 0 0 0 0 -174741940.08191681 29368455.361736298 0 29368455.361736298 97687855.081321716 0 0 0 0 -183886303.77362919 70922365.694970131 0 70922365.694970131 29833595.996414185 0 0 0 0 -188389418.49501419 60277240.14201355 0 60277240.14201355 10472331.066352844 0 0 0 0 -174944800.05380869 38409145.745362759 0 38409145.745362759 78688994.219657898 0 0 0 0 -206516138.27397537 33756954.802341461 0 33756954.802341461 84881690.2485466 0 0 0 0 -102958326.10678673 55640052.981214523 0 55640052.981214523 62825720.547470093 0 0 0 0 -81226528.153695345 -40593261.768227816 0 -40593261.768227816 167448797.06049728 0 0 0 0 -22193995.737695694 -29825408.565979004 0 -29825408.565979004 132548181.90790558 0 0 0 0 34523861.445998669 -100618291.74900341 0 -100618291.74900341 162562340.5314064 0 0 0 0 104754439.60476542 -4685354.731294632 0 -4685354.731294632 218608806.61785126 0 0 0 0 189016214.68621159 78851092.862089157 0 78851092.862089157 164178272.40744019 0 0 0 0 -48575533.839029074 -12748865.533254623 0 -12748865.533254623 281471493.90526199 0 0 0 0 440493621.28289175 422206552.14895248 0 422206552.14895248 428502464.60749817 0 0 0 0 117691912.55055332 143991436.75655651 0 143991436.75655651 193711063.77639771 0 0 0 0 820800028.11382484 216260682.77185822 0 216260682.77185822 -723805.82625150681 0 0 0 0 173898328.92593145 44629818.504976273 0 44629818.504976273 22231047.457889557 0 0 0 0 512186.27798742586 487092.013224822 0 487092.013224822 239782.12630340829 0 0 0 0 -7057599.1070683002 -148524239.71274757 0 -148524239.71274757 626464578.52680206 0 0 0 0 17363174.666267872 372251818.46886063 0 372251818.46886063 792680652.23808002 0 0 0 0 816914576.82158017 99463962.758104324 0 99463962.758104324 160964097.78717422 0 0 0 0 -57730238.112215996 34623184.97668457 0 34623184.97668457 686123805.58080482 0 0 0 0 312668042.16509771 -154600776.19645023 0 -154600776.19645023 -257464830.93320465 0 0 0 0 4472.6333529171534 -1119891.5440540481 0 -1119891.5440540481 697470.59394437633 0 0 0 0 -77951106.123006105 88932118.231389046 0 88932118.231389046 184909706.69799423 0 0 0 0 -5770913.2946224213 15736211.951290131 0 15736211.951290131 36195028.533143997 0 0 0 0 -2787019.1739330292 11170838.114305496 0 11170838.114305496 37756187.27715683 0 0 0 0 -5004235.2480382919 -58894153.770469666 0 -58894153.770469666 -42453186.493537903 0 0 0 0 26638214.888305664 -6876363.8424816132 0 -6876363.8424816132 -63551436.228561401 0 0 0 0 -53364630.856025696 -144281669.49916077 0 -144281669.49916077 -173554277.66550016 0 0 0 0 -91430279.860330582 -44426991.139411926 0 -44426991.139411926 -28371659.389312744 0 0 0 0 97344015.916612148 -35972814.787522316 0 -35972814.787522316 -63573109.871086121 0 0 0 0 -14560701.640889168 47589797.561769485 0 47589797.561769485 84056311.32106781 0 0 0 0 -24487103.804319382 -151287169.60116577 0 -151287169.60116577 121215153.31302834 0 0 0 0 -80032.258435254917 -599361.56671084464 0 -599361.56671084464 384133.31562574301 0 0 0 0 -185050592.93805122 -19410330.342475891 0 -19410330.342475891 253757385.3122654 0 0 0 0 50912025.534180433 16384249.343864441 0 16384249.343864441 92272392.202987671 0 0 0 0 38903055.510991514 -9203914.2933921814 0 -9203914.2933921814 1030215.9136943817 0 0 0 0 26553988.785404444 15466329.142127991 0 15466329.142127991 50594050.252880096 0 0 0 0 -133126.56571771207 -35712.241752422415 0 -35712.241752422415 418803.82688202523 0 0 0 0 22340201.008458436 25566241.45897913 0 25566241.45897913 18945382.86762619 0 0 0 0 59606140.787703522 101306715.66242027 0 101306715.66242027 151792381.05613518 0 0 0 0 94395681.433515549 162008827.05296135 0 162008827.05296135 183684107.03113937 0 0 0 0 -19637425.170356154 73416531.490415573 0 73416531.490415573 209062155.72477579 0 0 0 0 3366478.285929203 64067909.960546494 0 64067909.960546494 95663595.06942749 0 0 0 0 -19464397.767546177 48834831.742279053 0 48834831.742279053 38006292.1953125 0 0 0 0 32112426.285617352 -63336144.157226562 0 -63336144.157226562 72922353.147734642 0 0 0 0 -3921978.5348525047 248459272.8880043 0 248459272.8880043 323719593.75217628 0 0 0 0 -34140604.130015373 13724048.7433815 0 13724048.7433815 455085217.10662842 0 0 0 0 80983169.496635735 238411104.85875225 0 238411104.85875225 243120943.47935486 0 0 0 0 29750.653027174762 -974769.78657376207 0 -974769.78657376207 623632.49551816843 0 0 0 0 245887395.74395967 134603452.68893814 0 134603452.68893814 -93831328.204689026 0 0 0 0 -34373.638701362535 -424893.37522946764 0 -424893.37522946764 290959.45107061416 0 0 0 0 114802109.10250652 293987990.99131775 0 293987990.99131775 326347939.34912491 0 0 0 0 26014366.942010164 220595457.43584251 0 220595457.43584251 256759647.88742065 0 0 0 0 45086580.318468258 104558497.5725832 0 104558497.5725832 165117772.48876953 0 0 0 0 239145596.54082143 186924074.56079865 0 186924074.56079865 160420360.7812649 0 0 0 0 108077776.26559424 112707191.17377472 0 112707191.17377472 124374990.64605331 0 0 0 0 114175560.36622238 86473543.311452866 0 86473543.311452866 219017301.08467865 0 0 0 0 161871287.83112168 168888075.54076195 0 168888075.54076195 150616936.34249496 0 0 0 0 104428916.22650766 150693099.79987717 0 150693099.79987717 159107705.74053001 0 0 0 0 157177949.80046448 145995589.41052914 0 145995589.41052914 155132627.08969116 0 0 0 0 117684875.66657853 177692762.46220779 0 177692762.46220779 210447729.73568726 0 0 0 0 130337174.22354412 29446321.145421982 0 29446321.145421982 27990819.161827087 0 0 0 0 2634547.0437288284 71109445.976716042 0 71109445.976716042 112757645.42514038 0 0 0 0 25703107.413766384 -6083369.3485031128 0 -6083369.3485031128 36398935.108594894 0 0 0 0 7020188.0449512005 23241390.154333115 0 23241390.154333115 39988346.824989319 0 0 0 0 -44747629.165473938 -5936481.5163116455 0 -5936481.5163116455 67043084.14717865 0 0 0 0 -15280525.709796906 -1145083.083065033 0 -1145083.083065033 60134795.539722443 0 0 0 0 -95553125.136901498 -6672571.0362868309 0 -6672571.0362868309 85272635.826316833 0 0 0 0 -140600539.95435905 -134787713.46147919 0 -134787713.46147919 -51153170.080978394 0 0 0 0 -159722594.26063585 -14662830.383911133 0 -14662830.383911133 36758327.105686188 0 0 0 0 -41591781.206865311 -68786995.703176498 0 -68786995.703176498 -80222773.687210083 0 0 0 0 -21636208.28245306 -17858029.014389038 0 -17858029.014389038 12973147.435638428 0 0 0 0 -36955375.315398216 -16084737.671550751 0 -16084737.671550751 24527118.699626923 0 0 0 0 -55322208.024415135 -11039169.075782776 0 -11039169.075782776 102380670.27646637 0 0 0 0 25772189.911066234 71739861.516534805 0 71739861.516534805 140543918.43043518 0 0 0 0 103601025.63703227 82816080.497156143 0 82816080.497156143 69581262.121356964 0 0 0 0 -8771467.7993884087 -68399622.095355988 0 -68399622.095355988 95497371.062582016 0 0 0 0 101598731.88081723 -86266988.831597328 0 -86266988.831597328 305953614.82022095 0 0 0 0 115436596.40244329 144351346.50931168 0 144351346.50931168 192747576.69407272 0 0 0 0 194930299.56157109 167806254.07752514 0 167806254.07752514 175930939.78717804 0 0 0 0 -52839137.536329269 23208519.087348938 0 23208519.087348938 54078193.131731033 0 0 0 0 -28533871.690972328 -94413406.856752396 0 -94413406.856752396 -77756479.271671295 0 0 0 0 -521409.65489744721 -42524.802115655039 0 -42524.802115655039 593920.40825203434 0 0 0 0 -150900270.95600128 -89875881.859397888 0 -89875881.859397888 26476069.659210205 0 0 0 0 -119525250.19857788 -49906224.177452087 0 -49906224.177452087 -27374571.782764435 0 0 0 0 -64429932.711101532 -50954360.595802307 0 -50954360.595802307 -31257545.791900635 0 0 0 0 -30791622.617080688 -67321679.238681793 0 -67321679.238681793 -49929421.769363403 0 0 0 0 -132177685.46864223 -77531275.292049408 0 -77531275.292049408 -37218533.427375793 0 0 0 0 -944136.47702573799 -128339.45178077463 0 -128339.45178077463 1148240.8352101948 0 0 0 0 -114066110.76420593 -83196598.541374207 0 -83196598.541374207 -35742075.271484375 0 0 0 0 -65552732.405467987 -85012976.342453003 0 -85012976.342453003 -37802542.266586304 0 0 0 0 -145225640.05256569 -64935811.064639091 0 -64935811.064639091 -16953769.691772461 0 0 0 0 -33939103.550695896 -789264.61475944519 0 -789264.61475944519 -45631870.383022308 0 0 0 0 9978537.4963068962 2728965.6340293884 0 2728965.6340293884 -6038330.6231117249 0 0 0 0 -28583809.174110413 -48525903.461616516 0 -48525903.461616516 5790264.1692900658 0 0 0 0 -23643046.207447052 -31508368.674245834 0 -31508368.674245834 45898870.432373047 0 0 0 0 -19882972.16895318 -62798305.625787735 0 -62798305.625787735 28988461.584602356 0 0 0 0 -10668384.996572495 -50409261.204406738 0 -50409261.204406738 33895115.820583344 0 0 0 0 -42747965.355692863 -76737938.321580887 0 -76737938.321580887 20801778.434906006 0 0 0 0 -39176779.45006752 -52262954.654884338 0 -52262954.654884338 18398894.464332104 0 0 0 0 -66829280.001299858 -47272896.205654144 0 -47272896.205654144 50374159.169883728 0 0 0 0 -76964998.657948017 -64064112.017183304 0 -64064112.017183304 26364889.9945755 0 0 0 0 -30196514.310400963 -88336009.821918488 0 -88336009.821918488 -166952324.56555939 0 0 0 0 -88120232.50053978 -59971562.899024963 0 -59971562.899024963 25059202.893886566 0 0 0 0 -60711403.69325304 -92621399.477365494 0 -92621399.477365494 -48678756.176612854 0 0 0 0 -16125007.845849991 -35536625.042385101 0 -35536625.042385101 -67193786.236688614 0 0 0 0 -14541324.968808174 -44871428.152107239 0 -44871428.152107239 -35534521.787658691 0 0 0 0 1768111.7471937705 -1570375.4668521127 0 -1570375.4668521127 -7409135.7188722715 0 0 0 0 -16561343.232437134 -36444158.014431 0 -36444158.014431 -30347404.005905151 0 0 0 0 63405915.882352352 -37167936.306917906 0 -37167936.306917906 55200551.224395752 0 0 0 0 -7369359.6433362979 -4724882.7082808334 0 -4724882.7082808334 24620848.844711043 0 0 0 0 -26214764.811849117 -63357225.373617172 0 -63357225.373617172 71246591.599517822 0 0 0 0 -3812303.4844608307 -161216407.82271576 0 -161216407.82271576 31031641.371101379 0 0 0 0 -73658320.403497696 -52067710.755523682 0 -52067710.755523682 -50916658.132568359 0 0 0 0 417719.23162923194 -575939.50488363393 0 -575939.50488363393 -2255866.634613188 0 0 0 0 -63042504.179962158 -62220930.56804657 0 -62220930.56804657 98107605.643844604 0 0 0 0 32945876.009740829 -128897991.83765411 0 -128897991.83765411 25594888.610420227 0 0 0 0 90101387.33790493 -26785377.132053375 0 -26785377.132053375 -179663991.77326965 0 0 0 0 -95176766.997379303 -14561984.037734985 0 -14561984.037734985 28259918.203720093 0 0 0 0 36737984.862797737 -101230410.82190895 0 -101230410.82190895 2562828.897315979 0 0 0 0 -8038504.2106065452 -4361758.451559321 0 -4361758.451559321 28206250.591881379 0 0 0 0 161682615.88024399 105777959.42501837 0 105777959.42501837 -20862758.462280273 0 0 0 0 -181841970.57587624 -83841469.717647552 0 -83841469.717647552 43258305.707885742 0 0 0 0 -197208494.20358086 4193368.5224876404 0 4193368.5224876404 37858234.535690308 0 0 0 0 145231737.86146164 41174382.982276917 0 41174382.982276917 41503137.420631409 0 0 0 0 57475579.095813751 828575.85601806641 0 828575.85601806641 26549174.776145935 0 0 0 0 149854598.02913094 -6422152.3446006775 0 -6422152.3446006775 47029098.503201485 0 0 0 0 141979296.80970955 -18320889.368377686 0 -18320889.368377686 40094226.444093704 0 0 0 0 127742060.90743637 -20505826.739784241 0 -20505826.739784241 52685550.132522583 0 0 0 0 128412170.52682495 -33420439.538772583 0 -33420439.538772583 37763829.891532898 0 0 0 0 90240598.527057648 -38463443.95293808 0 -38463443.95293808 41284053.64818573 0 0 0 0 3661379.9359592698 552335.77464482002 0 552335.77464482002 6998130.8192145871 0 0 0 0 -83634784.6207335 36939933.005977631 0 36939933.005977631 254940189.3747139 0 0 0 0 -17385499.966230869 -2678079.6380386353 0 -2678079.6380386353 261891347.05360317 0 0 0 0 -21520935.229758263 -27751652.936122894 0 -27751652.936122894 164631031.12850571 0 0 0 0 35860496.952575207 47178335.257671356 0 47178335.257671356 148908534.16439056 0 0 0 0 -10471369.21178627 47315044.323879242 0 47315044.323879242 248179322.95201683 0 0 0 0 -93080756.065116882 -102375368.07346916 0 -102375368.07346916 319178552.6942234 0 0 0 0 185473.04802076926 384526.99544695951 0 384526.99544695951 46740.988317877054 0 0 0 0 -34090636.418235302 151378277.80761147 0 151378277.80761147 485161007.28419495 0 0 0 0 48635486.73718524 180522192.01679516 0 180522192.01679516 132169748.57281494 0 0 0 0 88059935.685970306 282448885.2437973 0 282448885.2437973 384811722.2707901 0 0 0 0 -13113651.799009323 17373507.411621094 0 17373507.411621094 -33750716.433131218 0 0 0 0 -22150777.645564079 -3892686.9665775299 0 -3892686.9665775299 -41742540.643928528 0 0 0 0 -5699734.781726799 -9841697.1235046946 0 -9841697.1235046946 23100932.130266394 0 0 0 0 -312987.77557689953 765656.97781365737 0 765656.97781365737 3316108.0172298974 0 0 0 0 -103658179.89317703 -1021900.3163528442 0 -1021900.3163528442 45599617.981645584 0 0 0 0 16005297.331291795 -74953929.712067842 0 -74953929.712067842 -57101694.833969116 0 0 0 0 -4711228.3408253267 -10782432.661294248 0 -10782432.661294248 16521259.859532503 0 0 0 0 33933027.382038116 119598112.77601242 0 119598112.77601242 -89874366.90933609 0 0 0 0 -51818538.263579369 33791599.120414734 0 33791599.120414734 297833482.48503876 0 0 0 0 2298086.629829485 -2579251.6583959218 0 -2579251.6583959218 -3384869.3025329504 0 0 0 0 212060415.69235992 102077284.53528595 0 102077284.53528595 543403250.96328735 0 0 0 0 249790971.21896744 214547159.54568291 0 214547159.54568291 177725288.32361603 0 0 0 0 -5589936.9444742203 -25496131.140073776 0 -25496131.140073776 14639158.369823456 0 0 0 0 81190939.088433743 -8315025.0553092957 0 -8315025.0553092957 -26713987.910728455 0 0 0 0 170797076.34453583 145330744.97870731 0 145330744.97870731 92587809.685806274 0 0 0 0 -12167547.592100143 19077922.740531921 0 19077922.740531921 35250663.500339508 0 0 0 0 1170009.7578201294 172874085.07605362 0 172874085.07605362 261758263.37114906 0 0 0 0 49371277.326368332 85530484.632257462 0 85530484.632257462 92300631.340454102 0 0 0 0 -74303330.524787903 85640128.99764061 0 85640128.99764061 176596457.46572495 0 0 0 0 -79219933.824410975 35494777.207990646 0 35494777.207990646 512386081.07601929 0 0 0 0 753933.59665229265 224.94708155002445 0 224.94708155002445 198694.2091333596 0 0 0 0 7147231.92673105 35660882.673534155 0 35660882.673534155 -27053139.636505127 0 0 0 0 40116871.80194664 10806028.066074371 0 10806028.066074371 -22349857.717373848 0 0 0 0 337149.71479007811 -266148.6912495913 0 -266148.6912495913 -674487.23484383849 0 0 0 0 31043151.955546856 -32973710.663574219 0 -32973710.663574219 -22825373.675956726 0 0 0 0 744044.35120880604 1115410.590154171 0 1115410.590154171 -1191013.4005126953 0 0 0 0 338401.21885564434 -258123.49758080766 0 -258123.49758080766 68003.359824341256 0 0 0 0 30175531.80392909 -5310050.5909051895 0 -5310050.5909051895 -28695330.859851837 0 0 0 0 -32727.935121536255 -593825.14194488525 0 -593825.14194488525 -1732257.8626022339 0 0 0 0 1035759.8012773737 189743.66587400995 0 189743.66587400995 -397774.35802314803 0 0 0 0 136198.68257522583 237165.96808624268 0 237165.96808624268 -1097972.4473209381 0 0 0 0 -37033974.893978119 21898741.575511932 0 21898741.575511932 -53185331.14245224 0 0 0 0 794938.52763911057 1485183.3164192948 0 1485183.3164192948 -158384.28355915658 0 0 0 0 22139873.511622429 64830328.063285828 0 64830328.063285828 -93572520.230690002 0 0 0 0 -1806981.6853675842 -435769.33539199829 0 -435769.33539199829 5096117.1642341614 0 0 0 0 105228.09852227219 -399931.37297083437 0 -399931.37297083437 136323.36150368769 0 0 0 0 -31032532.240561247 45251424.035326004 0 45251424.035326004 -26074574.416099548 0 0 0 0 7047608.7700295448 75058956.638094902 0 75058956.638094902 50209.121185302734 0 0 0 0 -14636246.962175369 17576567.764492035 0 17576567.764492035 40392448.365951538 0 0 0 0 63438190.964463472 5371150.2875528336 0 5371150.2875528336 -18393173.716972351 0 0 0 0 36966356.563551188 44375554.6943326 0 44375554.6943326 148527643.2793808 0 0 0 0 40442418.631542206 53320639.574109077 0 53320639.574109077 61025583.918136597 0 0 0 0 458266.28718665172 941776.18265906791 0 941776.18265906791 40888.070608206093 0 0 0 0 -29640178.524536133 -10943767.863233566 0 -10943767.863233566 22872385.406276703 0 0 0 0 -21816969.360948965 3040336.2302352935 0 3040336.2302352935 30472474.085922241 0 0 0 0 -36492233.81146431 80770354.354652405 0 80770354.354652405 5727526.7248516083 0 0 0 0 -101917043.95943904 63261799.958491325 0 63261799.958491325 9554476.8309707642 0 0 0 0 95092075.521315992 -102814688.67033148 0 -102814688.67033148 -62842087.673439026 0 0 0 0 -25015491.948574662 -58109672.637271881 0 -58109672.637271881 73838141.746870041 0 0 0 0 89362409.535899282 -2311588.2229766846 0 -2311588.2229766846 44105513.87663269 0 0 0 0 1621510.4632709026 -94886169.418513298 0 -94886169.418513298 -33776795.574752808 0 0 0 0 -118125879.40079808 -90878089.925151825 0 -90878089.925151825 -22899518.468952179 0 0 0 0 -79493427.260460615 -156542039.360569 0 -156542039.360569 -64743051.631433487 0 0 0 0 106234710.47399426 -307345496.65208244 0 -307345496.65208244 29218462.26675415 0 0 0 0 -4831931.9837113023 -10535557.496387817 0 -10535557.496387817 17046031.079518884 0 0 0 0 -63408847.615663767 -108917499.88081646 0 -108917499.88081646 -55030931.961418152 0 0 0 0 -73712299.867619514 -109191670.11379623 0 -109191670.11379623 11896088.637542725 0 0 0 0 -99004035.005435944 -127896211.6317482 0 -127896211.6317482 -53040196.190448761 0 0 0 0 -231523696.19926453 109520285.07233429 0 109520285.07233429 207134143.26551819 0 0 0 0 200245290.85579872 148532097.83419418 0 148532097.83419418 210598858.0951972 0 0 0 0 -16469896.654611588 -168517356.36535263 0 -168517356.36535263 186085619.661026 0 0 0 0 123404032.37403107 187287894.0960741 0 187287894.0960741 390324072.23907471 0 0 0 0 388423.85034038359 -79467.559862690046 0 -79467.559862690046 -181821.86314161774 0 0 0 0 36806226.207649231 -14764863.240268707 0 -14764863.240268707 -34567852.755584717 0 0 0 0 37943534.662098885 -195498.50532722473 0 -195498.50532722473 123472611.5236721 0 0 0 0 114775387.85580254 18700822.78875351 0 18700822.78875351 -18852363.432632446 0 0 0 0 75293429.541307449 1120074.7448654175 0 1120074.7448654175 -20340602.26126194 0 0 0 0 -458.67869791784324 1053167.5257208692 0 1053167.5257208692 1152807.9395688791 0 0 0 0 33590876.587471962 -22829366.849416256 0 -22829366.849416256 28128984.82019043 0 0 0 0 528285400.52396393 -233159180.13019562 0 -233159180.13019562 -41572269.378295898 0 0 0 0 82295817.513363838 391408788.8295536 0 391408788.8295536 58139846.349477887 0 0 0 0 -5221169.0266913567 -9773222.7990639508 0 -9773222.7990639508 17165007.121959422 0 0 0 0 -12300082.426053599 -130071230.08405876 0 -130071230.08405876 -174440902.15537262 0 0 0 0 19902154.79857254 -19671459.94234848 0 -19671459.94234848 38933566.676116943 0 0 0 0 8517087.6312827766 -7193102.030872345 0 -7193102.030872345 -99687376.662315369 0 0 0 0 -51707064.296784118 -97602120.981182098 0 -97602120.981182098 -48789539.791776657 0 0 0 0 23535470.231327057 19568254.322263718 0 19568254.322263718 27139517.699163437 0 0 0 0 23568522.073600769 21003791.047879219 0 21003791.047879219 16901973.564498901 0 0 0 0 16606877.584819794 21399510.948291779 0 21399510.948291779 26660763.257665634 0 0 0 0 8945827.2650823593 23351536.282689571 0 23351536.282689571 46379213.556758881 0 0 0 0 -9543426.5653858185 3921294.8190956116 0 3921294.8190956116 50730676.201011658 0 0 0 0 -5228632.614813447 26160419.035241961 0 26160419.035241961 84378607.022830963 0 0 0 0 25418968.56335783 47101069.017511129 0 47101069.017511129 61536111.545015335 0 0 0 0 472639.3406142469 2746147.3636224433 0 2746147.3636224433 3145561.39028126 0 0 0 0 61763163.780240059 44134053.95289135 0 44134053.95289135 26378456.908526421 0 0 0 0 -13769226.102962494 -16435722.887952805 0 -16435722.887952805 15965374.173522949 0 0 0 0 20714283.606864929 16080239.407131195 0 16080239.407131195 11242275.53348732 0 0 0 0 -11628915.051147461 4911582.6327209473 0 4911582.6327209473 -15280022.095493317 0 0 0 0 -11226920.939498901 12922145.836921692 0 12922145.836921692 -12575030.353281021 0 0 0 0 -12712094.64818573 13682810.973133087 0 13682810.973133087 -3417171.0450191498 0 0 0 0 -9478113.7439422607 -2387354.6074371338 0 -2387354.6074371338 3178790.9903640747 0 0 0 0 -8152227.9090652466 -5254692.0300827026 0 -5254692.0300827026 -7989689.3452301025 0 0 0 0 -7489546.4018669128 -7202667.6529006958 0 -7202667.6529006958 -3431012.9803543091 0 0 0 0 3406735.9256708324 -1802206.6726143658 0 -1802206.6726143658 25325418.739974976 0 0 0 0 -7773517.5633277893 -6590475.341217041 0 -6590475.341217041 14599178.888877869 0 0 0 0 3557013.2456703186 2969536.3790130615 0 2969536.3790130615 1242069.5982971191 0 0 0 0 -9032423.6845207214 5654973.0892868042 0 5654973.0892868042 11140947.246017456 0 0 0 0 21160933.306513786 -13162559.061854362 0 -13162559.061854362 22892606.78074646 0 0 0 0 25419001.409591675 -9914379.64868927 0 -9914379.64868927 13916550.666542053 0 0 0 0 36620399.102975368 -28542301.634468079 0 -28542301.634468079 22640653.657180786 0 0 0 0 1645546.2006568909 -1703946.391166687 0 -1703946.391166687 14007486.292228699 0 0 0 0 29987619.153617859 -14069478.130044937 0 -14069478.130044937 13899221.216539145 0 0 0 0 57242351.693836212 29775240.885778427 0 29775240.885778427 -10827381.638156891 0 0 0 0 -19945818.332079649 12609288.721965313 0 12609288.721965313 10654376.210533142 0 0 0 0 77754998.769416809 -3407324.0626773834 0 -3407324.0626773834 -39244435.92168808 0 0 0 0 81958064.657915115 10184416.29013443 0 10184416.29013443 -28931432.46288681 0 0 0 0 83932966.584694862 5463999.5043201447 0 5463999.5043201447 -25770296.015411377 0 0 0 0 78691874.40215981 25619153.208281279 0 25619153.208281279 -4703482.36977005 0 0 0 0 419597.93894007988 358158.86992360139 0 358158.86992360139 -383668.87812697142 0 0 0 0 127857217.54686761 -21461342.442066431 0 -21461342.442066431 119522066.98926163 0 0 0 0 124578616.00448895 -50400855.317516327 0 -50400855.317516327 2601539.8987541199 0 0 0 0 59261595.686360359 -53815048.087020874 0 -53815048.087020874 64714770.326515198 0 0 0 0 214321837.03642702 -86827149.245332241 0 -86827149.245332241 -113352021.69023895 0 0 0 0 28808678.78456068 12230505.704141617 0 12230505.704141617 12634908.899766922 0 0 0 0 338539.39129904262 590985.83929974446 0 590985.83929974446 -192607.91978263576 0 0 0 0 13994579.462228775 8175902.4923248291 0 8175902.4923248291 55902016.05022192 0 0 0 0 23447119.398620605 136215.88347816467 0 136215.88347816467 -4293374.0348529816 0 0 0 0 8001801.7341985703 765844.65689086914 0 765844.65689086914 -5978504.4061546326 0 0 0 0 5011691.6610202789 2241694.0361223221 0 2241694.0361223221 -4350599.0181045532 0 0 0 0 12415354.886087418 6953186.2014713287 0 6953186.2014713287 -10275998.006397247 0 0 0 0 -8060110.6301651001 11061057.67808342 0 11061057.67808342 1608602.41497612 0 0 0 0 -4489277.0327281952 19673048.468190193 0 19673048.468190193 9260647.7635917664 0 0 0 0 11274728.379448414 18680252.039075375 0 18680252.039075375 13032621.717647552 0 0 0 0 8514129.5517730713 12529145.667446136 0 12529145.667446136 1070988.8182163239 0 0 0 0 5251888.3758392334 15955934.55582428 0 15955934.55582428 19952661.617917061 0 0 0 0 23044440.379207611 4272322.139872551 0 4272322.139872551 11281435.335968018 0 0 0 0 4078518.3412246704 11651719.925086975 0 11651719.925086975 5753738.8516387939 0 0 0 0 -12791883.770484924 8280596.1567420959 0 8280596.1567420959 8548561.189473629 0 0 0 0 -828778.049492836 1219408.7644939423 0 1219408.7644939423 1459337.6576805115 0 0 0 0 -438336.71914680745 2635176.5155739528 0 2635176.5155739528 4251375.3548711166 0 0 0 0 -27934001.131441116 7302704.5604929924 0 7302704.5604929924 7993190.7031326294 0 0 0 0 -19930510.959506989 19458441.281944275 0 19458441.281944275 6634572.6684112549 0 0 0 0 1919698.1755078773 868716.83267243614 0 868716.83267243614 1064578.7446945449 0 0 0 0 13088752.600902557 10650488.599573135 0 10650488.599573135 17637606.669343948 0 0 0 0 3352743.7903099111 2079003.9933117188 0 2079003.9933117188 3067046.7795306048 0 0 0 0 -13656087.487030029 9631782.3118486404 0 9631782.3118486404 -1048706.7041168213 0 0 0 0 -17224298.085797787 -58193899.742191672 0 -58193899.742191672 -157304796.80136633 0 0 0 0 -1627972.1322984695 -15038508.736477613 0 -15038508.736477613 -137818758.27957535 0 0 0 0 -5562332.4416542053 17545633.640973568 0 17545633.640973568 1029967.1618309021 0 0 0 0 4454357.9826005688 4264965.6539613372 0 4264965.6539613372 3999773.6222025426 0 0 0 0 7731527.8271942139 3612430.1263900995 0 3612430.1263900995 13541059.485877037 0 0 0 0 256607.70430784137 1297214.3333007551 0 1297214.3333007551 745951.98817187198 0 0 0 0 2097870.1809046604 1858413.6654132863 0 1858413.6654132863 1774357.615311055 0 0 0 0 -7286793.7955131531 63400846.75932312 0 63400846.75932312 -11520360.482185841 0 0 0 0 2573153.0832487778 1168803.2020241544 0 1168803.2020241544 2807503.6229120647 0 0 0 0 6390748.2222290039 8795990.2108669281 0 8795990.2108669281 9443659.1544342041 0 0 0 0 15173199.956737518 16364354.367050171 0 16364354.367050171 11950322.43996048 0 0 0 0 12814025.92585659 9784607.1910834312 0 9784607.1910834312 19887526.037002563 0 0 0 0 24385157.599517822 3948637.1093502045 0 3948637.1093502045 -3670545.5602397919 0 0 0 0 8206080.2494869232 8554656.3199238777 0 8554656.3199238777 5198500.9652833939 0 0 0 0 6991873.2162870169 -1588854.0284366012 0 -1588854.0284366012 3773861.0215835571 0 0 0 0 12565261.167770863 15784310.480751157 0 15784310.480751157 26600829.470581055 0 0 0 0 752796.42507434497 -121034.58877621591 0 -121034.58877621591 -620569.50243846513 0 0 0 0 1637453.7100081444 2247581.0663433075 0 2247581.0663433075 -9024139.607585907 0 0 0 0 1427170.3890385889 2561376.6169064036 0 2561376.6169064036 408652.3949415246 0 0 0 0 -1810646.353770256 -8778792.7307777405 0 -8778792.7307777405 14295113.22563076 0 0 0 0 -16630232.35042882 8025343.5586280823 0 8025343.5586280823 8761813.5866775513 0 0 0 0 2993058.8022890091 -1806356.3927516937 0 -1806356.3927516937 -18565896.62282753 0 0 0 0 -20116710.606744766 -22098356.406894684 0 -22098356.406894684 -3414474.7140884399 0 0 0 0 7023513.471978426 6602873.1363015175 0 6602873.1363015175 1197235.4955749512 0 0 0 0 -9292401.8673100471 -33917.343860626221 0 -33917.343860626221 3357545.0764389038 0 0 0 0 -238957.91154794651 -280166.3763934942 0 -280166.3763934942 12129.445142423734 0 0 0 0 -10383456.02771759 639192.85402297974 0 639192.85402297974 92799.972129821777 0 0 0 0 -8384981.3322043419 23987021.634946823 0 23987021.634946823 -16565238.819137573 0 0 0 0 9667701.8642964363 -20344621.578298569 0 -20344621.578298569 20623066.819603324 0 0 0 0 -19142410.389007211 6741892.9029757977 0 6741892.9029757977 23348190.503967285 0 0 0 0 4016908.2486505508 19624338.041042328 0 19624338.041042328 18495949.548686981 0 0 0 0 40302414.602139473 13154320.680225372 0 13154320.680225372 -8685006.9295806885 0 0 0 0 416648.22579529439 13016.651615150739 0 13016.651615150739 -416763.68370219506 0 0 0 0 63261181.644317627 -2739558.6039457321 0 -2739558.6039457321 -37318920.61413002 0 0 0 0 16814183.875862718 55583800.809334517 0 55583800.809334517 -56982086.472881317 0 0 0 0 -5659929.3981633186 6662857.8974494934 0 6662857.8974494934 7711670.3401908875 0 0 0 0 12901285.910313606 -1985349.3913154602 0 -1985349.3913154602 -56218293.778979391 0 0 0 0 722419.00102943333 13545.667479517404 0 13545.667479517404 -757813.24148285761 0 0 0 0 31072800.488860846 24487380.980482101 0 24487380.980482101 -62386306.467844009 0 0 0 0 -64164250.175119042 72980402.582354546 0 72980402.582354546 -35844271.426019669 0 0 0 0 -16469121.918847084 -17593769.035175323 0 -17593769.035175323 34038413.851166725 0 0 0 0 41673402.109224319 35584495.485754967 0 35584495.485754967 -7388971.8634376526 0 0 0 0 129391773.84458399 -31962942.232398987 0 -31962942.232398987 -14027234.14492321 0 0 0 0 710489.30218655313 600838.65586166084 0 600838.65586166084 -658889.39024258964 0 0 0 0 94333163.524508715 -48318574.702148438 0 -48318574.702148438 -19440319.299263 0 0 0 0 67284538.43431282 -7194192.0246524811 0 -7194192.0246524811 78717737.812171936 0 0 0 0 853537.49929668859 1458975.5001565304 0 1458975.5001565304 -368345.80799070094 0 0 0 0 54458238.101773262 16300782.496900558 0 16300782.496900558 -2808724.4790115356 0 0 0 0 -21718470.859818697 -2138793.1638803482 0 -2138793.1638803482 -31846103.454626083 0 0 0 0 56686037.850658774 14808499.660848141 0 14808499.660848141 -43041231.507801056 0 0 0 0 35711990.621269226 -22603383.03145504 0 -22603383.03145504 -14937646.300430298 0 0 0 0 354399.68671816413 -37066.215668244753 0 -37066.215668244753 -496044.73955563176 0 0 0 0 -67197865.572547078 88215110.925614119 0 88215110.925614119 -54043973.53745079 0 0 0 0 2371950.5919258893 26721352.44891572 0 26721352.44891572 -59254403.26950264 0 0 0 0 -9123903.7723167539 459704.5610294342 0 459704.5610294342 6424410.4245939255 0 0 0 0 -53018666.674748063 2317124.185842514 0 2317124.185842514 19630357.890792847 0 0 0 0 1456908.2071520179 2555251.1635270575 0 2555251.1635270575 284960.13018447068 0 0 0 0 35026587.764840007 25991162.244813919 0 25991162.244813919 -7903560.7107534409 0 0 0 0 66801870.760094285 85113631.122391701 0 85113631.122391701 32552640.674030304 0 0 0 0 149417604.71734428 88357703.500894547 0 88357703.500894547 -42661407.891530037 0 0 0 0 19920440.618171096 63394449.775814056 0 63394449.775814056 29937339.998121262 0 0 0 0 -49681665.849281311 -2343800.4325885773 0 -2343800.4325885773 25688070.201554298 0 0 0 0 22049361.424089909 51260378.076117516 0 51260378.076117516 62990003.131755829 0 0 0 0 41882.924636898097 -183506.63157949224 0 -183506.63157949224 -125730.60736940149 0 0 0 0 -108247109.57196617 -40944099.048030853 0 -40944099.048030853 82378449.456298351 0 0 0 0 -5007541.6568975449 -21065084.324542999 0 -21065084.324542999 -42132727.880886078 0 0 0 0 -29136114.204644561 -43052137.949213028 0 -43052137.949213028 -31143733.971389771 0 0 0 0 25193090.757875025 17700629.948703766 0 17700629.948703766 -48241938.813446045 0 0 0 0 50456278.939066827 -160185050.25479317 0 -160185050.25479317 14012182.247789383 0 0 0 0 149758993.32143271 -74195472.276325226 0 -74195472.276325226 -35387966.33656311 0 0 0 0 -27666349.240329266 -16750724.579982758 0 -16750724.579982758 3489891.2207489014 0 0 0 0 -35095440.885549545 1749764.3751144409 0 1749764.3751144409 -4544315.2191200256 0 0 0 0 -56673940.581247449 -16368814.191285133 0 -16368814.191285133 7954797.8291397095 0 0 0 0 126633.14429699979 -257883.18461045064 0 -257883.18461045064 -30759.407789167017 0 0 0 0 9133553.0193012357 -10457.345374107361 0 -10457.345374107361 -6810191.897605896 0 0 0 0 102805943.64099312 -52000191.489830017 0 -52000191.489830017 -25295997.603226662 0 0 0 0 299860051.50621128 7721305.9075660706 0 7721305.9075660706 -8127406.9214792252 0 0 0 0 257657382.77928841 -163431125.67707634 0 -163431125.67707634 3326774.3114299774 0 0 0 0 76700510.871188521 -109700754.31649256 0 -109700754.31649256 266796006.71412277 0 0 0 0 143951008.78891516 87579700.829411507 0 87579700.829411507 183625277.38269424 0 0 0 0 613915.79140022804 188567.20379810547 0 188567.20379810547 16488.865850290284 0 0 0 0 144206782.72653151 -196532973.67486286 0 -196532973.67486286 401577750.20758438 0 0 0 0 195038399.88368797 153541145.8154583 0 153541145.8154583 -52878474.107181549 0 0 0 0 81186314.293362141 173487219.81054306 0 173487219.81054306 215489886.2090044 0 0 0 0 136623876.41447735 60372372.696551561 0 60372372.696551561 -74093706.570680618 0 0 0 0 1311003.0075483297 464481.62808473781 0 464481.62808473781 503953.94094216637 0 0 0 0 115517056.96656942 -160657718.62963009 0 -160657718.62963009 159860537.02052879 0 0 0 0 -42897506.485266685 -101055155.82698345 0 -101055155.82698345 71568509.752666473 0 0 0 0 113754305.7577424 -65437712.710118294 0 -65437712.710118294 94224548.971157074 0 0 0 0 -6718606.3595342636 -45197194.039157867 0 -45197194.039157867 157708497.11038938 0 0 0 0 -46198129.352985382 46487850.364783287 0 46487850.364783287 46447481.81842041 0 0 0 0 5454740.766292572 -33440853.384254456 0 -33440853.384254456 103282636.58140945 0 0 0 0 -78675178.342923164 23491779.102592468 0 23491779.102592468 110489888.09248924 0 0 0 0 -45612337.792134285 -13303280.088903427 0 -13303280.088903427 125642998.98758316 0 0 0 0 -180648258.67146397 46778951.714151382 0 46778951.714151382 101000107.68518353 0 0 0 0 -52084241.131039619 103069350.63525057 0 103069350.63525057 14010310.996356964 0 0 0 0 -24872061.900712967 51660686.048200607 0 51660686.048200607 47266745.783653259 0 0 0 0 6400764.6174602509 72457419.32629776 0 72457419.32629776 359641.78832626343 0 0 0 0 -35775505.217049599 67200152.884384155 0 67200152.884384155 29007008.379981995 0 0 0 0 6730840.9828968048 46038324.344093323 0 46038324.344093323 14108458.211917877 0 0 0 0 -23548266.995222092 41055219.7526474 0 41055219.7526474 16629887.876172066 0 0 0 0 32145847.158565521 84984207.558807373 0 84984207.558807373 46323628.868659019 0 0 0 0 377016.75325597078 130292.74414970935 0 130292.74414970935 -452817.8933214983 0 0 0 0 -928985.00852203369 -79731043.774021149 0 -79731043.774021149 211676377.18154907 0 0 0 0 8645748.8510780334 26843193.977581024 0 26843193.977581024 74737318.740341187 0 0 0 0 -203390272.15635657 49692737.402784348 0 49692737.402784348 28233060.878673553 0 0 0 0 -239937.5065910765 168388.42418386973 0 168388.42418386973 761156.90320133418 0 0 0 0 -9214931.6587443352 63281297.016469002 0 63281297.016469002 399170.06689834595 0 0 0 0 -170326430.31978703 -19686475.500162125 0 -19686475.500162125 1721859.353351593 0 0 0 0 257289.42823773227 1478440.5929618459 0 1478440.5929618459 2977783.0296611171 0 0 0 0 -115432640.69809341 -1916226.2481765747 0 -1916226.2481765747 7453253.7804260254 0 0 0 0 -100198913.6812191 78923961.160573959 0 78923961.160573959 36379806.091928482 0 0 0 0 182480.54191541672 -1715982.9715595245 0 -1715982.9715595245 7375531.1005172729 0 0 0 0 53875.137283086777 -2241938.297475338 0 -2241938.297475338 7403074.1267089844 0 0 0 0 -1745960.0743250251 -1730317.6729296446 0 -1730317.6729296446 8047757.738494873 0 0 0 0 -18061047.458126068 84414002.336097717 0 84414002.336097717 110232178.92947865 0 0 0 0 -24567681.13504982 -54916039.89544487 0 -54916039.89544487 190355441.61212158 0 0 0 0 -40394921.301106453 35096643.919343948 0 35096643.919343948 -6624986.4719409943 0 0 0 0 -176621452.85311508 89848504.733865738 0 89848504.733865738 79534901.031330109 0 0 0 0 -214390976.47234821 66040443.584207535 0 66040443.584207535 52641828.48624897 0 0 0 0 -35289210.301251411 47742581.739215851 0 47742581.739215851 32306587.555934906 0 0 0 0 -133906729.75910854 139368863.01183128 0 139368863.01183128 -52699044.112503052 0 0 0 0 47439565.313451767 41367849.843772888 0 41367849.843772888 6693811.1527900696 0 0 0 0 99351513.351537704 -1324761.8657207489 0 -1324761.8657207489 15679905.066524506 0 0 0 0 -21369787.711848259 -16695156.342213631 0 -16695156.342213631 -21802377.484550476 0 0 0 0 26540752.48968792 24933299.751308441 0 24933299.751308441 -26109868.574997663 0 0 0 0 336896.81849916605 -81367.337871586904 0 -81367.337871586904 -467214.97375652473 0 0 0 0 -230031193.23126501 105750053.29958576 0 105750053.29958576 -63100966.816474915 0 0 0 0 753940.24291051901 1377045.5676091011 0 1377045.5676091011 1909396.484701599 0 0 0 0 5566308.1007080078 -9122074.093711853 0 -9122074.093711853 10373201.053787231 0 0 0 0 13703087.902729511 -9863729.3546237946 0 -9863729.3546237946 11039424.930038452 0 0 0 0 4244894.2130403519 -5959156.0379219055 0 -5959156.0379219055 11720782.747257233 0 0 0 0 -229645663.81566989 112098602.50251561 0 112098602.50251561 -101852930.70118332 0 0 0 0 -236504998.88892841 299278434.25412178 0 299278434.25412178 -74277067.721208334 0 0 0 0 -3254183.10679245 -1055597.438375473 0 -1055597.438375473 7794174.3258514404 0 0 0 0 -5007419.4017791748 -1245028.669719696 0 -1245028.669719696 9201820.8617639542 0 0 0 0 -836503.1539106369 -3373476.0889415741 0 -3373476.0889415741 8583462.8615722656 0 0 0 0 6577698.0749993324 -5837605.9044589996 0 -5837605.9044589996 7437849.2129592896 0 0 0 0 1379274.0153980255 -1808081.0168094635 0 -1808081.0168094635 7374436.6334381104 0 0 0 0 -4698624.0267095566 -4689353.6892700195 0 -4689353.6892700195 15362514.612983704 0 0 0 0 3414223.5299472809 -7305786.9810352325 0 -7305786.9810352325 10586058.414054871 0 0 0 0 -626955.24189996719 -3142294.7929410934 0 -3142294.7929410934 8765986.5648956299 0 0 0 0 -1795884.1581449509 -4522097.7276153564 0 -4522097.7276153564 10580930.854358673 0 0 0 0 -8492434.4405822754 -556473.58378982544 0 -556473.58378982544 10940480.581754684 0 0 0 0 -6540729.1375675201 3046493.6018104553 0 3046493.6018104553 5714983.4348640442 0 0 0 0 -3382668.7528858185 41632.178707122803 0 41632.178707122803 6651265.4915084839 0 0 0 0 -7133834.0311150551 1247229.3487198353 0 1247229.3487198353 8143539.9234237671 0 0 0 0 -11646356.628196359 2955247.7221970558 0 2955247.7221970558 7173285.8948974609 0 0 0 0 -8814153.22159338 6249323.5845165253 0 6249323.5845165253 -237598.70734024048 0 0 0 0 -13838851.039406776 4696626.9831695557 0 4696626.9831695557 11876040.613218307 0 0 0 0 -3782780.1533765793 -2024916.8409156799 0 -2024916.8409156799 9345674.5202407837 0 0 0 0 -1613322.8051652908 -2730922.6049118042 0 -2730922.6049118042 11913504.329681396 0 0 0 0 -8375820.2030062675 -3029482.3270645142 0 -3029482.3270645142 17761659.916412354 0 0 0 0 -20273707.873037815 6112099.7238140106 0 6112099.7238140106 10939065.548946381 0 0 0 0 -13933939.760617256 10103334.556856155 0 10103334.556856155 12014457.925338745 0 0 0 0 1028379.2664291256 4108436.0388615243 0 4108436.0388615243 6007637.5627051275 0 0 0 0 -22293591.796569824 19364291.616279602 0 19364291.616279602 4433991.6384735107 0 0 0 0 -106546445.70555419 100930031.07012463 0 100930031.07012463 -25027062.026985168 0 0 0 0 1009342.6033585544 1206847.2263675728 0 1206847.2263675728 1068854.0503583252 0 0 0 0 13806324.503645897 -14861808.347999573 0 -14861808.347999573 20504719.8331604 0 0 0 0 10750106.675818443 -6316463.447429657 0 -6316463.447429657 24194168.652467728 0 0 0 0 -621656.11355113983 -8431693.7255592346 0 -8431693.7255592346 20502130.511779785 0 0 0 0 9575253.4090800285 -9521951.4437866211 0 -9521951.4437866211 18780779.262813568 0 0 0 0 -6227506.5193500519 20675469.64266777 0 20675469.64266777 17080097.756706238 0 0 0 0 -9368433.0726304054 -2599479.2659859657 0 -2599479.2659859657 32030534.137695312 0 0 0 0 42067167.245371819 -36076193.022403717 0 -36076193.022403717 50897679.630722046 0 0 0 0 -1433018.4907779694 9490881.7621841431 0 9490881.7621841431 36620316.88690567 0 0 0 0 -341512.36031866074 24914553.570734024 0 24914553.570734024 78769690.080238342 0 0 0 0 23125636.287437439 27689617.284996033 0 27689617.284996033 53859665.482113361 0 0 0 0 1096603.2265931387 821121.69857662171 0 821121.69857662171 69458.121316688135 0 0 0 0 -104111160.14179325 59972929.091526031 0 59972929.091526031 375477421.34430027 0 0 0 0 31964516.695455551 -104310217.1922226 0 -104310217.1922226 219986737.40805054 0 0 0 0 -566362924.5864892 360110308.82040787 0 360110308.82040787 -34570057.736671448 0 0 0 0 13666550.578216553 427342240.91080093 0 427342240.91080093 -110762604.09807491 0 0 0 0 741095.08327509696 -145554.70592183992 0 -145554.70592183992 -922308.92587696109 0 0 0 0 -195733403.83372012 -110249328.14748883 0 -110249328.14748883 -43960345.113113403 0 0 0 0 619540070.93541694 -135132233.48985481 0 -135132233.48985481 -230285320.07743073 0 0 0 0 145814484.49467349 -333902392.99057007 0 -333902392.99057007 -130724715.41668034 0 0 0 0 1169743957.7971849 959443667.45814514 0 959443667.45814514 1150478214.931366 0 0 0 0 553924.87458870921 -74851.195621988736 0 -74851.195621988736 -599628.77973920386 0 0 0 0 46594461.626099475 -256201081.52911127 0 -256201081.52911127 -185055169.11836243 0 0 0 0 -84513395.373740792 -315750809.82260704 0 -315750809.82260704 286331766.44084167 0 0 0 0 -326479199.86028337 -250561563.84621048 0 -250561563.84621048 90529291.435913086 0 0 0 0 -304805197.57201385 -283806807.70708275 0 -283806807.70708275 -272605427.4059906 0 0 0 0 -29759770.386052608 224414803.76979065 0 224414803.76979065 -331208992.33102417 0 0 0 0 -59868372.345029831 234070983.41648102 0 234070983.41648102 96855447.51609993 0 0 0 0 -831523113.91486025 -1212208104.888628 0 -1212208104.888628 -289689417.05626678 0 0 0 0 78690697.007390499 453577542.06340027 0 453577542.06340027 374864704.79881287 0 0 0 0 472080981.53099704 -118719167.89984703 0 -118719167.89984703 154602720.2460556 0 0 0 0 1273781.8500265307 -299072.42961865757 0 -299072.42961865757 2162727.5303271441 0 0 0 0 88621631.817257404 232943503.00570297 0 232943503.00570297 682675901.34600639 0 0 0 0 -180476297.79130936 -255927853.12020111 0 -255927853.12020111 557735852.89522457 0 0 0 0 138533548.39674807 17444445.764602661 0 17444445.764602661 126511424.18457031 0 0 0 0 287451544.56343961 105147175.41923141 0 105147175.41923141 76828607.730297089 0 0 0 0 -20513979.656198829 19434643.764190435 0 19434643.764190435 362435736.26628876 0 0 0 0 99547861.078852177 148077474.94069672 0 148077474.94069672 308419030.03472137 0 0 0 0 657342973.33510864 353730315.75702667 0 353730315.75702667 185344822.3517189 0 0 0 0 249171477.10232544 9616423.2694606781 0 9616423.2694606781 -1359194.1133289337 0 0 0 0 208742734.58186936 -42580242.527025223 0 -42580242.527025223 -62414353.972846985 0 0 0 0 381170769.12709218 -32141151.132015228 0 -32141151.132015228 -72413961.912220001 0 0 0 0 148731314.43025038 -109597809.51464653 0 -109597809.51464653 -70460500.68081665 0 0 0 0 161140735.85821438 56137220.218738556 0 56137220.218738556 11033178.923118591 0 0 0 0 147006725.65515804 -3424923.2309684753 0 -3424923.2309684753 -207716.15258026123 0 0 0 0 99669724.858894348 -14454643.80803299 0 -14454643.80803299 4693275.4662837982 0 0 0 0 107271760.24778509 42880835.386890411 0 42880835.386890411 13359393.67001009 0 0 0 0 100508694.43157363 -48035962.254144669 0 -48035962.254144669 -81533846.86359024 0 0 0 0 91105428.119597137 -45339695.014226913 0 -45339695.014226913 -59094541.930557251 0 0 0 0 112096120.35027647 -116115487.30348969 0 -116115487.30348969 -36888781.646946788 0 0 0 0 142092927.94726995 -70769897.230254173 0 -70769897.230254173 -28821571.681167603 0 0 0 0 136042949.50746679 -113030438.88086128 0 -113030438.88086128 -54570715.865753174 0 0 0 0 9870788.325925827 -84605599.12197113 0 -84605599.12197113 -22541029.588415146 0 0 0 0 19894488.246366262 -3489933.3348062038 0 -3489933.3348062038 -16955192.876220703 0 0 0 0 132022534.39050913 -7084200.1287155151 0 -7084200.1287155151 -29425331.537937164 0 0 0 0 -92666944.009248734 -17259203.26115036 0 -17259203.26115036 -4457908.0762367249 0 0 0 0 51959132.750658989 -29404834.70013237 0 -29404834.70013237 -3438532.5987739563 0 0 0 0 -128478719.08632421 -181021019.21907043 0 -181021019.21907043 4549520.2641220093 0 0 0 0 119431874.57978988 -155750650.41827011 0 -155750650.41827011 -7180167.9588623047 0 0 0 0 154062178.34971237 -119159105.76959229 0 -119159105.76959229 -53650445.900715828 0 0 0 0 
</DataArray>
<DataArray type="Float64" Name="cross_section_updated" format="ascii">
1 1 1 1 1 0.089804851918733941 1 1 1 1 1 1 1 0.092192445934175027 1 1 1 1 0.095527841323213875 1 1 0.092394755787546232 1 1 1 1 0.10184608234029857 1 1 1 1 0.088953718823595596 1 1 1 1 1 1 1 1 1 1 1 1 1 0.090171505595725329 1 1 0.089973843038281459 1 1 1 1 1 0.093644016128148808 1 1 1 1 1 1 1 0.10163295138172361 1 1 1 1 0.087777470794408008 1 1 1 1 1 1 1 1 1 0.087103807600979258 1 1 0.089320054656294334 1 1 0.090391390152579396 1 1 1 1 0.094751516963014454 1 1 1 1 1 1 1 0.089959855107977271 0.089993359754675387 0.090048748338137863 1 1 0.089879351235157279 1 1 1 1 1 0.090001268007408874 1 1 1 1 1 1 1 1 1 1 1 1 1 0.090010022423049424 1 1 1 0.092229710255324615 1 1 1 1 1 1 0.090951197854821891 1 1 1 1 1 1 1 1 1 1 1 1 1 1 1 1 1 1 1 1 1 1 1 1 1 0.089921512537900844 1 1 1 0.090516588093934994 1 1 0.090451211082896596 1 1 1 1 1 1 1 1 1 1 1 0.090814564578588192 1 1 1 1 1 1 1 1 0.092028503922697957 1 1 1 1 1 1 1 1 0.092543779299007742 1 1 1 1 1 1 1 1 1 0.090173568428633444 1 1 1 1 1 1 1 1 1 1 1 1 1 1 1 1 1 1 1 1 1 1 1 0.089998440683422609 1 1 1 0.10126093958664478 1 0.089965906150347122 1 0.098241072288891007 1 1 0.091087800181865741 1 1 1 0.092284027196933377 1 0.088398733751246669 1 0.089598224063517792 1 0.098582505346167054 0.089175496040680799 1 0.089736026560005636 1 1 0.089322886736667065 1 0.090252880014388914 1 1 1 0.092543219274717037 1 0.091927491904304354 0.089972681927364129 1 1 0.090137741277282746 1 1 1 0.091329405938088706 1 0.089567265912420285 0.090232301816604493 0.090597443662797622 1 0.09017861618846694 1 1 1 0.09000504947849125 1 0.090662817426694547 0.091551336350351259 0.089721640733394142 1 1 0.091010212289562201 0.091423810356694848 1 1 1 1 0.09245290337776621 1 0.089760047124378795 1 1 0.091372755114351459 1 1 1 0.090225909911684901 1 0.090641877927682218 0.090531345529872034 0.090261641492378974 1 1 1 0.089508059227184592 1 0.090890987146777735 0.092443666391962664 0.089089515128534733 0.090696637478053441 1 1 1 0.092226457147804294 0.089999888653174126 1 1 0.090604851799662128 0.092483636781254402 0.0892174640703636 1 0.089127099508676338 1 1 1 1 0.090000441880715196 1 1 1 1 1 1 1 0.090048530594170423 1 1 1 1 1 1 0.091135445585991959 0.09000021640319783 1 1 1 0.090018457023877299 1 1 1 0.090010929505153131 1 0.089428494379531945 1 0.08825447661040417 0.096937938626699721 1 1 1 1 0.089603440629110326 1 1 0.096041420866864263 1 1 1 1 0.09001275702353323 1 0.089994299317414608 1 1 1 1 1 0.093249245799600075 0.092653827734460556 1 1 1 1 1 1 1 1 0.090322762888184804 1 1 1 0.089545036968452757 1 1 0.09628473691445126 1 0.089996589922021808 1 1 1 1 1 1 1 1 1 1 1 0.096826331195867005 1 0.090566939477086661 1 0.096181752293042183 1 1 1 0.090866435159261863 1 0.090002116529858761 1 0.090644197468689389 1 1 1 1 1 1 0.092767374758990329 1 0.092995179698441829 1 1 1 0.092604039481669398 1 1 1 0.095417498820107555 1 0.090637368833030085 0.09241506030400147 1 1 1 1 0.097570005250601194 1 1 1 1 0.092382188209515131 0.09115268175173416 1 1 0.089065772503681001 1 0.092089179616205913 1 0.089488518032292672 0.089285974346663091 1 1 1 0.090019062319745602 1 1 1 1 0.093075724869545934 1 1 1 1 1 1 1 1 1 1 1 0.090001414454021961 1 1 1 1 0.091354648824139587 1 1 1 0.091858800935770091 1 0.091711083157055701 0.092792305820551341 0.089999445950356013 1 1 1 0.092775013359309294 0.099976098582645917 1 0.10059008259406191 1 1 0.089772104336414596 1 1 1 1 0.10102666155768331 1 1 1 1 1 1 1 1 1 1 1 0.10135687917371822 0.10133913564846042 1 1 0.09184780862636574 1 1 1 0.090000759256288143 1 1 1 1 1 1 0.10455316561403451 1 1 1 0.085199090850412967 1 1 1 0.097159362823066142 1 1 1 1 1 1 1 1 1 1 1 0.10486911198246267 1 1 1 0.10512215560717461 1 1 1 1 1 1 1 0.090131882707292429 1 1 1 1 1 0.090351986799818512 1 1 1 1 1 1 1 1 1 1 1 1 1 1 1 1 1 1 1 0.089665439088455187 1 1 1 1 0.089916587216889457 1 1 0.090014344752153877 1 1 1 1 1 1 1 0.090151672876511851 1 1 1 1 1 1 1 1 0.089995989909039342 1 0.090445357882798089 1 1 0.090181203401506385 1 1 1 0.090178459784753265 1 1 0.08939947580436812 1 1 1 0.092168285929062274 1 0.095612712830118879 1 1 0.090000854407461084 1 0.087034298247210456 1 1 1 1 1 1 1 1 1 1 1 1 1 1 1 1 1 1 1 1 1 1 0.090071122506910212 1 0.089859683281246827 1 0.089952520603603051 1 1 1 1 1 1 1 1 1 1 1 1 1 1 1 0.090035741157506788 1 1 1 1 1 1 1 1 1 0.090035381349403421 1 1 1 1 1 1 1 1 1 1 1 1 1 1 1 1 1 1 1 1 1 1 1 1 1 1 1 1 1 0.089997538181823267 1 1 0.090000188499786082 1 1 1 0.089813362795167093 0.091164090093672642 1 0.090917947843175584 1 1 1 1 1 0.090025611592703766 1 1 1 1 1 0.09023368600525368 1 1 1 1 1 1 1 1 1 1 1 1 1 1 1 1 1 1 1 1 1 1 1 1 1 1 1 1 1 1 1 1 1 1 1 1 1 1 1 1 1 1 1 1 1 1 1 1 1 0.090071038442897794 1 1 1 1 1 1 1 1 1 1 1 1 1 1 1 0.090636955066279501 1 1 1 1 0.090241349030213747 1 1 1 1 1 1 1 1 1 1 1 1 1 1 1 1 1 1 1 1 1 1 1 1 1 1 1 0.097829541541671741 1 1 0.091334781516820757 1 0.091300913938090492 0.090110505333164337 0.084011026777605982 0.10172397683461312 1 1 0.090010663475825523 1 1 1 1 1 1 1 1 1 1 1 1 1 1 1 1 1 0.091075718278105885 1 1 0.087319950855453229 1 0.090962371303297138 1 1 1 1 0.094896042871682351 1 0.088262360105291815 1 1 1 1 0.0900677069254021 1 1 1 0.095910772070794792 1 1 1 1 1 0.089581220850965051 1 0.090159636308682123 1 1 0.091580212941111031 0.095391071272988112 1 0.089370446666955136 1 1 1 1 1 1 1 1 1 1 1 0.10349422688792648 1 1 1 0.10354756047335986 1 1 1 0.090668437317181438 1 1 0.10263736018538995 0.089843080685635693 0.089948175885958687 1 1 1 1 1 1 1 1 1 1 1 0.090015390171196724 1 1 1 1 1 1 1 1 0.10221125487789584 0.098560678551847622 0.10175932945387903 1 1 1 1 1 1 1 1 0.096863641766692141 0.090030375005808336 1 1 1 0.08744114137105799 1 1 0.090624912229747889 1 1 1 1 1 1 1 1 1 1 1 0.090203089354843655 1 1 1 1 1 1 1 1 0.090159471552127876 1 1 1 1 1 1 1 1 1 1 0.089969151277540751 1 0.1093550883200534 0.086879811408840144 0.090190984782946473 1 1 1 1 1 1 1 0.10507915215268701 0.097066925080792607 1 0.091167617297197828 1 1 1 1 1 0.090184920519115003 1 0.089972065250673583 0.090433907866022525 1 1 1 0.090499644831639775 1 0.090547384530297717 1 1 1 1 0.090017498348117897 1 1 1 1 1 1 1 1 1 1 1 1 1 1 1 1 1 0.089692463868284306 1 1 1 0.090585802951441391 1 1 1 1 1 0.089908723621561479 1 1 1 1 1 1 0.09041792550387219 1 0.090158602644171068 1 1 1 1 1 1 1 1 0.090525017905684249 1 1 1 0.10508032547819555 1 1 1 1 1 1 1 1 1 1 1 1 1 1 1 1 1 1 1 1 1 1 1 1 1 0.090954522073687344 0.096441724560628828 0.093709048568539732 1 1 1 1 0.095287935717826774 1 1 1 1 0.094219810126278919 1 1 1 1 1 1 1 0.090117777664227502 1 1 1 1 1 1 1 1 0.090265692468205358 1 1 1 1 1 1 1 1 1 1 1 1 0.090723140063623406 1 1 1 1 1 1 0.08979558181073749 1 1 1 1 1 1 1 1 0.10197627482020925 1 1 1 0.092220065065913695 1 1 1 1 1 1 1 1 1 1 1 1 0.090147914803977852 1 1 1 1 1 1 1 1 1 1 1 1 1 1 1 1 1 1 1 1 1 1 1 1 1 1 1 1 1 1 1 1 1 1 1 1 1 1 1 1 1 1 1 1 1 1 1 0.090132617436443616 1 1 1 1 1 1 1 1 1 1 1 1 1 1 1 1 1 1 1 1 1 1 1 1 0.090127434492586339 1 1 1 1 1 1 1 1 1 1 0.089976867779091058 1 1 0.090356131775463672 1 1 1 1 1 1 1 1 1 0.0899072599442505 1 0.08981902518498236 1 1 1 1 0.09053780594746566 1 1 0.090012281900064064 1 0.089992954875496245 1 1 1 1 1 0.090422014287408509 1 1 1 1 1 1 1 1 0.089418506451276733 1 1 1 1 1 1 1 1 1 1 1 1 1 1 0.090707459244126751 1 0.090243192875770067 0.090031223550993647 1 1 1 1 1 0.090014998504614377 1 1 1 1 1 1 1 1 1 1 1 1 1 1 1 0.09079996076247232 1 1 1 1 1 1 1 1 1 1 1 1 1 1 1 1 0.090218419335323818 1 1 1 1 1 0.09274389223076572 0.089921210018923975 1 1 0.092065210522091184 1 1 1 1 1 1 1 1 1 1 0.091015466910114154 1 1 1 1 1 1 1 1 1 0.090614611184152385 1 0.10611231403298699 1 1 1 1 1 0.089316690904983204 1 1 1 1 0.1078166070206059 1 1 1 0.087601945224630037 1 1 1 0.10512613407331425 1 1 0.090779564709778104 1 1 1 1 1 1 1 1 1 1 1 1 1 1 1 1 0.090288071727732261 1 1 1 1 1 1 1 0.089510575012348992 1 1 1 1 1 1 1 1 1 1 1 1 1 1 1 1 1 1 1 1 1 1 1 1 1 1 1 0.096725066341688856 1 1 1 1 0.090254117697178809 1 1 1 0.096553822034664755 1 1 1 1 1 1 1 1 1 0.096702906972330221 1 0.089999257611759434 1 1 1 1 1 1 1 1 1 1 1 1 1 1 1 1 1 1 0.089996348592455228 0.094559683812837206 1 1 1 0.089895147678523371 1 1 0.092634487722079217 1 1 0.090847506333873312 1 1 1 0.09017697757373791 1 1 0.090321772608797563 1 1 1 1 1 1 1 1 1 1 1 1 1 1 1 1 1 1 1 1 0.090395396909061718 1 0.090728873188988229 1 1 1 1 1 1 1 1 1 1 1 0.091733178952683597 1 0.092144882851851212 1 1 1 0.12412387371101474 1 1 1 1 1 0.089927072666708227 1 1 1 1 1 1 0.082395111324505138 1 1 1 1 1 1 1 1 1 1 1 0.082143230810562379 1 1 1 1 1 1 1 1 0.12211886912145017 1 1 1 0.10949500975026011 1 1 0.081863107216177455 1 1 1 1 1 0.097203597799380634 1 1 1 1 1 1 1 1 1 0.090077413061222675 1 1 0.10464298309704056 1 0.097931155124493505 1 0.094874892100576647 0.097141548589430998 0.090198306075212342 1 0.089999285541136925 1 1 1 1 1 1 0.10664642785178295 1 1 1 1 1 1 0.090248001191319149 1 1 1 1 1 1 1 0.10362578654604024 1 1 1 1 0.10045213088947616 1 1 1 1 1 0.10403653737762913 1 0.09000152418232292 1 1 1 1 1 1 1 1 1 1 0.090676857467284502 1 1 1 1 1 1 1 0.093149162773372748 1 1 1 1 1 1 1 0.090001469839148918 1 0.091020773926774143 1 1 1 1 1 1 1 1 0.095812477952133782 1 1 1 0.099648760598423244 0.090026456374556585 1 1 1 1 1 0.094715727929385679 0.090055938060561905 1 0.093847047957198559 1 1 0.088330917062556455 1 1 0.093430741420085242 1 1 1 1 1 1 1 1 0.097025333797067154 1 1 1 1 1 0.1076462315262965 1 1 1 1 0.10442541941326511 1 1 0.1023304085331919 1 1 1 1 1 1 1 1 1 1 1 1 1 1 1 1 1 1 1 1 1 1 1 1 1 1 1 1 1 1 1 1 1 1 1 1 1 1 1 1 1 0.089974258859370104 1 1 0.090098931685484607 1 1 1 1 1 0.090431592667270938 1 1 1 1 0.090124155917834847 1 1 1 1 1 1 1 1 1 1 1 1 1 1 1 1 1 1 1 1 1 1 1 1 0.090413709497297295 1 1 1 0.090190075287145274 1 1 1 1 1 1 0.090009471147770526 1 1 1 1 1 1 1 1 1 1 1 0.10344957671411362 1 0.094799019992339445 0.089707567065843 1 1 0.093475413083799946 1 1 1 1 1 1 1 1 1 1 1 0.10050109668415888 1 1 0.091362067504826755 1 1 1 1 1 1 1 1 1 1 1 1 1 1 1 0.097820696696199819 1 1 1 1 1 1 1 0.089930305762365478 1 0.090306909486977019 1 1 1 1 0.096693411830133066 1 0.090326539456420149 1 1 1 1 1 1 1 1 1 0.089383856385011326 1 1 1 1 1 1 1 1 1 1 1 1 1 1 1 1 1 0.093625306332438082 1 1 1 1 1 1 1 1 1 1 1 1 1 1 1 1 1 1 1 1 1 1 1 1 1 0.089961557485235752 0.089871119538201455 1 1 1 1 1 1 1 1 1 1 1 0.090031587226565346 1 1 1 1 0.089985912600837409 1 1 1 1 0.08994421984790249 1 1 1 1 1 1 1 1 0.088530912725220914 1 1 1 1 1 1 1 1 1 0.089508579956655052 1 1 1 1 1 1 1 1 1 1 1 1 1 1 1 1 1 1 1 1 0.093013183867049418 1 1 1 1 1 1 1 1 1 1 1 1 1 1 0.1045156046387337 1 0.090022061724892882 1 1 1 1 1 1 1 1 0.10398900598075532 1 1 0.090031532872663411 1 1 1 1 1 1 1 1 1 1 1 1 1 1 1 1 1 1 1 1 1 1 1 1 1 1 1 1 1 1 1 1 1 1 1 1 0.090109725025278656 1 1 0.090023298175447436 1 1 1 1 0.095190498984020683 1 0.086492157700826799 1 1 0.086881564671052083 1 0.090492760967293848 1 1 1 1 1 0.09020995771453251 1 1 1 1 1 1 1 1 1 1 1 1 0.089370166253283076 1 1 1 0.095779990342421947 1 1 1 1 1 1 1 1 1 0.091679711532557912 1 1 1 1 0.091991155641805641 0.091828540912907486 1 1 1 1 1 1 1 1 0.089999721725948167 1 1 1 1 1 0.098720146911370515 1 1 1 0.098210559811326481 1 1 1 0.092007550176975678 1 1 1 1 0.10495773912933151 1 1 1 1 1 1 1 1 1 1 1 1 1 1 0.094712457788472537 1 1 1 1 1 1 0.093382500922266479 1 0.096623211977470938 0.090000272864702427 1 0.10547205882257578 1 0.090334421122371431 1 1 1 1 0.090082642677634467 1 1 1 1 0.090176698083638665 1 1 1 1 1 1 1 1 1 0.090242922581189766 1 1 1 1 1 1 1 1 1 1 1 1 1 1 0.090525725833951104 1 1 1 0.090117758311420243 1 1 1 0.090314366561579276 1 0.089983423296059864 1 1 1 1 1 1 1 1 1 1 1 1 1 1 1 1 0.090448730799822186 1 1 1 1 1 1 0.091425759173687643 1 1 1 1 1 1 1 1 1 1 1 1 1 1 1 1 1 1 0.093257535042042886 1 1 1 1 1 1 1 1 1 1 1 1 1 1 1 1 1 1 1 1 1 1 1 1 1 1 1 1 1 1 1 1 1 1 0.089471919356006027 1 1 1 1 0.089905888449110835 1 1 1 1 1 1 1 0.092955392198663903 1 1 1 1 1 1 1 1 1 0.088892641034961278 1 1 0.09512511778214508 1 1 1 1 1 0.089964582235887519 1 1 1 0.090153028488738338 1 1 0.09225739340757895 1 1 1 1 1 1 1 1 1 1 1 1 1 1 1 1 1 1 1 1 0.087875509344446753 1 1 1 1 1 1 1 1 1 1 0.095173530363225373 0.08608842084639888 1 0.092870544844522882 1 1 1 1 1 0.093108092179511062 1 1 1 1 0.093128959409420592 1 1 1 1 1 0.089944129332985748 1 0.089971178150337505 1 1 0.088493830607445922 1 1 1 1 1 1 1 1 0.089508992876916466 1 1 1 1 1 1 0.089954787141621223 1 1 1 1 1 1 0.089895026582470269 1 1 1 1 0.088922056016893972 1 1 0.091770063313623668 1 0.089055537943457178 1 1 0.089972499333180744 1 1 1 1 1 1 0.091072198951060265 1 1 1 1 0.090043242400437318 1 1 1 1 1 1 1 1 0.096256989324137066 0.088045157777914759 1 1 1 1 1 1 1 1 0.093280289853487713 1 1 1 1 1 1 0.091513393782959057 1 1 1 1 1 1 1 0.089428905391385191 1 1 1 0.09113108332513338 1 1 1 1 1 1 1 1 1 1 1 1 0.093809413941149278 1 1 1 1 0.093231613664890162 1 1 0.088587412283882547 1 1 1 1 0.091593085617336187 1 1 1 0.090024412318673447 0.092581929171243124 1 1 1 0.090013952749076975 1 1 1 0.094587003712696127 1 1 1 1 1 1 1 1 1 0.093681042632717246 1 1 1 0.090001332988421834 1 1 1 1 1 1 1 1 1 1 1 1 0.093724783218528729 1 0.089992936106754795 1 1 0.091554741138113599 1 1 0.091549371457642387 1 1 1 1 1 1 1 0.089997222182478354 1 1 1 1 1 0.090009856953128659 1 0.091044353247429127 1 1 1 0.09204643279912085 0.089447395338042385 1 0.090961077367017223 0.09392969346826642 1 0.092265471398072854 1 1 1 1 1 1 0.090178230767674089 1 0.098256351217704485 1 1 1 1 1 1 1 1 1 1 1 1 1 0.090021868206473732 1 1 0.093138760361586817 1 0.090563184285907636 1 1 0.096809021418912511 1 1 1 0.090800309817627725 0.087860376299999945 1 1 0.097563279072395634 1 1 1 1 1 1 1 1 1 1 1 1 1 1 1 1 1 1 1 1 1 1 1 0.091215435277857873 0.090064290509122971 1 0.089490601966109196 1 0.08987720746921872 1 1 0.090000671778411118 0.095747096547496954 1 1 0.089998884512968058 1 1 0.089975014565065153 1 1 0.095271200176411358 1 0.090193815906317032 1 1 1 1 0.090042577980852453 1 1 1 1 0.090376238418746424 1 0.090900339822702639 0.091436079744460497 1 0.092188634480941042 1 1 0.090061728218528286 0.090689899622102846 1 1 1 0.089657907315416979 1 1 1 1 0.092537014874239251 0.090094649617423875 1 1 1 1 1 0.090493241711664035 1 1 1 1 1 1 1 1 1 1 1 0.089676294830688535 1 0.093131016188752497 1 0.092619657592275834 1 1 0.090001196651843821 1 0.091744137753025271 1 1 1 1 1 1 1 1 0.090253936054712366 1 1 0.091889282217641519 1 1 1 1 0.09016175787966231 1 1 1 1 1 1 1 1 1 1 1 1 0.091095229890389914 1 1 1 1 1 1 1 1 1 1 1 0.089864235473314222 1 1 1 1 1 1 0.090959770292559292 1 0.090945692571328424 1 1 0.089810094279985389 1 1 1 1 1 1 1 1 1 1 1 1 1 1 1 1 1 0.089949851213915938 0.090139990289974464 1 1 1 0.089759117335125468 1 1 0.089774646806410549 1 1 1 1 1 1 1 1 1 1 1 1 1 1 1 1 1 1 1 1 1 1 1 1 1 0.089955225551320808 0.087981253207164503 1 1 1 1 1 1 1 1 1 1 1 0.086604764562452835 1 1 1 1 1 1 1 1 1 1 1 1 1 1 1 1 1 1 1 1 1 1 1 1 1 1 1 1 1 1 1 1 1 0.089983768288943597 1 1 1 1 1 0.08995056365901008 1 1 0.090057626269693269 1 1 0.088065772651876956 0.103090640174526 1 1 1 1 1 1 1 1 1 1 1 1 1 0.10252807819507515 1 1 0.090021322951807564 1 1 1 1 1 1 0.090007047279159355 1 1 0.1013258941527463 1 1 1 1 1 1 1 1 1 1 1 1 1 0.095258711518304229 1 1 1 1 1 1 1 0.090054991231469539 1 1 1 1 1 1 1 1 1 1 1 1 0.091899915742062896 1 1 0.090940145449503615 1 1 1 1 1 1 1 1 1 1 1 1 1 1 1 1 1 1 1 1 0.094147931562791679 1 1 0.092385400893070097 1 0.093350848342036927 1 1 1 0.089647893969077103 1 1 0.089372137963340537 1 0.091101818222712044 1 1 1 0.09033023200876511 1 1 1 1 0.089995685793878732 1 1 1 1 1 1 1 0.08999295228704085 1 1 1 0.089629399191174394 1 1 1 1 1 1 1 1 1 1 1 1 0.0913236089427098 1 1 1 1 1 1 1 1 0.089564898159799566 1 1 1 1 1 1 1 1 1 1 1 0.08986839054878204 1 1 1 1 1 1 1 1 1 1 1 1 1 1 1 1 1 1 1 0.088697824514618037 0.090211651132584281 1 1 1 0.090080168181524561 1 1 1 1 1 1 1 1 1 1 1 1 0.090138347802836957 1 1 1 1 1 1 1 1 1 0.090390457603194321 1 1 1 1 1 1 1 1 1 1 1 1 1 1 1 1 0.089669459888837857 1 0.090062776515171805 1 1 1 1 1 0.089828064669223412 1 1 1 1 0.08999318319024685 1 1 1 0.089996210034570978 1 1 1 0.090114084149389359 1 1 1 1 1 1 1 1 1 0.089984387579099892 1 1 1 0.089931710100454532 1 1 0.090006460471558261 1 1 1 1 1 1 0.090003653279480039 1 1 1 1 1 1 1 1 0.089982282536863911 1 1 1 0.089997254281014211 1 1 1 1 1 1 1 1 1 1 1 1 1 1 1 1 1 1 1 1 1 1 1 1 1 1 1 0.090114452233438683 1 1 1 1 1 1 1 0.09003888126343132 1 1 1 1 1 1 1 1 1 1 1 1 1 1 1 1 1 1 1 1 1 1 1 1 1 0.090331069521699836 1 0.090112260610449219 1 1 1 1 1 1 0.090531424083920731 1 1 1 0.090173644075575182 1 1 0.090496215686772186 1 1 1 1 1 1 1 1 1 1 1 1 0.094585736914912094 1 1 1 1 1 0.093977243140718772 1 1 1 1 1 1 1 1 1 1 1 1 1 0.090312615172670113 1 1 1 0.090215324361361302 1 1 1 1 1 1 1 1 1 1 1 1 0.090628900697084513 0.09561920417149905 1 1 1 1 0.096850717104027151 1 1 1 1 1 1 1 1 1 0.090065856186079221 0.085636998704007761 1 1 1 1 1 0.084817219454121878 1 1 1 1 1 0.089994979400656011 1 1 1 1 1 0.089991492303649431 1 0.095234746633610007 1 1 1 1 0.089735632120942169 1 0.091857489119661628 1 0.09458608094654665 0.089992879289518532 1 1 1 1 1 1 1 0.090017567501660886 0.089996994612283721 1 1 1 1 1 1 0.089999656915276338 0.090219560355876915 0.089808397927689188 1 0.092534810562944977 0.092370027587966363 1 1 1 0.090521323398574466 1 1 1 1 1 0.092454455949965625 0.089827630960401042 0.089999975979290311 1 0.094667034919296317 1 1 1 0.089982498824330709 1 0.0884861595465464 0.090132753713459829 1 1 1 1 1 1 1 0.089745313070866306 0.090763818747282274 1 1 0.090230222839027055 0.089441702256920108 0.093758534782871855 1 1 1 1 1 1 1 1 1 1 1 1 1 1 1 1 1 1 1 1 1 1 1 1 1 1 1 1 1 1 1 1 1 1 1 1 1 1 1 1 0.090016658013413756 1 1 1 1 1 1 1 1 1 1 0.090271723434933865 1 1 1 1 1 1 0.09078160042537492 1 1 0.091181648242578087 1 1 1 1 1 1 1 1 1 1 1 1 1 0.09199419861424972 1 0.094792738195065368 1 1 1 1 0.089837158070250681 1 1 1 0.089978785224700264 1 1 0.088869354607426718 1 1 1 0.090000395074022452 1 1 0.094245842563047938 1 1 1 1 1 0.093526891494490449 1 1 1 1 1 1 1 0.091503436494991944 1 1 1 1 1 1 1 0.089858206704126184 1 1 0.090586166621043837 1 1 1 1 0.090239589845478432 1 0.090304947737432306 1 1 1 1 1 0.090727009141575388 1 1 1 1 0.09024429865434927 1 1 1 1 1 1 0.09071793203735054 0.089628664697543353 1 1 1 1 1 0.091915483176373269 1 1 0.095212183565737171 1 1 1 1 1 1 1 1 1 1 0.08984245569389987 1 1 1 1 1 1 1 1 1 1 1 1 1 1 1 1 1 1 0.089927527125814366 1 1 1 1 1 1 0.089980527643821667 1 1 1 1 1 1 1 0.095930640487187413 0.089981775483847018 1 1 1 1 0.090011655144603783 1 1 1 1 1 1 1 0.092814143423608553 1 1 0.090204014676017782 1 0.089855544883928704 0.091948602590191039 0.088546295479247666 1 1 1 1 1 1 0.090281817369803993 1 1 1 1 1 0.090001377001388119 1 1 1 1 0.089185716722171626 1 1 1 0.092145336513319284 1 1 1 0.091918407855464804 1 1 1 1 1 1 1 1 1 1 1 1 1 1 1 1 1 1 1 1 1 1 1 1 1 0.096993749892294923 1 1 1 1 1 1 1 0.090940791624463335 1 0.098296488428980325 1 1 1 1 1 1 0.091169577010731487 1 1 0.090561329856320663 1 1 1 0.08996281650906747 1 1 0.094248577973377712 1 1 1 1 1 0.088304152087003027 1 1 1 0.089499182536845745 0.091838288701959384 1 1 1 1 1 1 1 1 1 1 1 1 0.090686375865587643 1 1 1 1 1 1 1 1 1 0.091637152893983484 1 1 1 1 1 0.089994015199906144 0.090163798024504804 1 1 1 1 1 1 1 1 1 0.090085557711031952 1 1 1 1 1 1 1 1 0.090672718707379779 1 1 1 1 1 1 1 1 1 1 1 1 1 1 1 1 1 1 0.089727129813197568 1 1 1 1 0.089356529004371965 1 0.090392122370589911 1 0.090753572216735856 1 1 1 1 1 1 1 1 1 1 1 1 1 1 1 1 1 0.091507127155592977 1 1 1 1 1 0.089657682824386367 1 1 1 0.091483742706387317 0.089519030135690306 1 1 1 1 1 0.090288597701175255 1 1 1 1 0.090473893528418975 1 1 1 1 1 1 1 1 0.090430344306505719 1 1 1 1 1 1 1 0.090269676623235595 1 1 1 1 1 1 1 1 1 0.090022449557590506 1 1 1 1 1 1 1 1 1 1 1 1 1 1 1 1 1 1 0.090020040247834776 1 1 1 1 1 1 1 1 1 1 1 1 1 0.08992057965797666 1 1 1 1 1 1 0.090033823823781528 1 1 0.089985028255849697 1 1 0.090075428966964938 1 1 1 1 1 1 1 1 1 1 1 1 1 1 1 1 1 1 1 1 1 1 1 1 1 1 0.090013115289073076 1 0.086437039219992046 1 0.090000623098701951 0.094599087396333964 1 1 1 0.087007720922946591 1 1 1 1 1 1 1 1 1 0.090066790430131258 0.089765815040038846 1 0.10079981813763819 1 1 1 1 1 1 1 1 1 1 1 1 1 1 0.089998343297502587 1 0.096027935224526823 0.091895624823908589 1 0.0939045027780811 1 1 1 1 1 1 1 1 1 0.10010651522953912 0.089772274899489274 1 1 1 1 1 1 1 1 1 1 1 1 1 1 1 1 1 1 1 1 1 1 0.090766758761612887 1 1 1 1 1 0.089803268826292526 1 1 1 1 1 0.089353104339943701 1 1 1 0.09237924556605201 1 1 1 1 1 1 1 1 1 0.089970583229881163 1 1 1 1 0.10033613391103081 1 1 1 1 1 1 0.099571713026868486 1 1 1 1 1 1 1 0.090087992059839722 1 1 1 1 0.097828672552642493 1 1 1 1 1 1 1 1 1 1 0.090005230624168903 1 1 1 1 0.09316813711041276 1 1 1 0.092256194711093129 1 1 1 1 1 0.090163368272746194 1 1 1 1 1 1 1 1 1 1 1 1 1 1 0.090370052827368583 0.095346884821578132 1 1 0.093921752689426347 1 1 1 1 1 1 1 0.090172233272748259 1 1 1 1 1 1 0.090264271978328939 1 1 1 1 1 1 1 1 1 1 1 1 1 1 1 1 1 1 1 1 1 1 1 0.090621266751578944 1 1 1 1 1 1 1 1 0.090201445262622401 1 1 1 1 0.090583962040507532 1 1 1 1 1 0.090752905475214279 1 0.09000268419011842 1 0.091491319765900941 1 1 1 1 1 1 1 0.090002980424123316 1 1 1 0.089224955966249714 1 1 1 1 1 0.090110126964468296 1 1 1 1 1 0.090006451640935417 1 0.090000111332062691 1 1 0.089988713318023716 1 0.090869172236324375 1 1 1 1 1 0.090178265798989674 1 1 1 0.090371736502871058 1 1 1 1 1 1 1 1 1 1 0.090015946529604471 1 1 1 1 1 1 1 1 1 1 1 1 1 1 1 1 1 1 1 1 1 1 0.090038441900825994 1 1 1 1 1 1 1 1 1 1 1 1 1 1 1 1 1 1 0.090074885875178534 1 1 1 0.090060440364889111 1 1 1 1 1 1 0.089010775312959242 1 1 1 0.089460294333204876 0.09090015877267224 1 0.089229479261583255 1 0.090552140464864678 0.089006056507533862 1 0.08881204971946885 1 1 0.089999632311031655 1 1 0.090050854191449925 0.08999461890967872 1 1 1 1 1 1 1 1 0.089998166120223017 1 0.089999758518336206 1 1 1 1 1 1 1 1 1 1 1 1 1 1 1 1 1 1 1 1 1 1 0.09175319257675138 1 1 1 1 1 1 1 1 0.092007105898457689 1 1 0.090012608401771499 1 1 0.092240599626632086 0.090022761571869586 1 1 0.090008920768703787 1 1 1 1 1 1 1 1 1 1 1 1 1 1 1 1 1 1 1 1 1 1 1 1 1 1 1 1 1 1 1 1 1 1 1 1 1 1 1 0.089602141126099571 1 0.089308792498114062 1 1 1 1 1 1 1 1 1 1 1 1 1 1 1 1 1 1 1 1 1 1 1 1 1 1 1 1 1 1 1 1 1 1 1 1 1 1 1 1 0.089977077156878874 1 1 0.089919290169887825 1 1 1 1 1 0.090150344350560435 1 0.090110077332826596 1 1 0.090796672409221221 1 1 1 1 1 1 0.091286155269603972 1 1 1 1 1 1 1 1 1 1 1 0.089953731317762312 1 1 0.095934003230912446 0.089733542614582745 1 0.090210034082626414 1 1 0.093989787647352246 1 1 1 1 0.089898186240403896 1 1 1 1 1 1 1 1 1 0.090003652302840007 1 0.099075660287364947 1 1 1 1 1 1 1 0.089907472035783642 1 0.099321689029061383 1 1 1 1 1 1 1 1 1 0.090270108540636718 1 0.099944057436185202 1 1 1 1 1 1 1 1 1 1 0.090847760209604805 1 1 1 0.098260527911042353 1 1 0.089999018198503269 1 1 0.089871361177285974 1 1 1 1 0.089923516597756367 1 1 1 0.090041605143183406 1 1 1 1 1 1 1 1 1 1 1 1 1 1 0.089973852097619073 1 1 1 1 1 1 0.089900303125517098 1 0.090167470030528385 1 0.090582402791723207 1 1 1 0.090034930814213029 1 1 1 1 1 1 1 1 0.090844634025559742 1 1 1 1 1 0.089994017190919665 1 1 0.091177995356508668 1 1 1 1 1 1 1 1 1 0.090665007928418223 1 1 1 0.090261580337685943 1 1 1 1 1 1 0.090950282658235404 1 1 1 1 1 1 1 1 1 1 1 1 1 1 1 1 1 1 1 1 1 1 1 1 1 1 1 1 1 1 1 0.08981725200425586 1 1 1 1 1 0.089849495040704858 1 1 0.091695069662066059 0.089706442652092919 1 1 1 1 0.089126899630418213 1 1 1 1 1 0.091620656772128869 1 1 1 1 1 1 1 1 1 1 1 1 1 1 1 1 0.089885553795238382 1 1 1 1 1 1 1 1 0.089984461020538226 0.08998826198779232 1 1 1 1 1 1 0.090016970907852656 1 1 1 1 0.089970001535935248 1 1 1 1 1 1 1 1 1 1 1 1 1 1 1 1 1 1 1 1 1 1 1 1 0.089974958207496306 1 1 0.090043259998478828 1 1 1 1 1 1 1 1 1 1 1 1 1 1 1 1 1 1 1 1 1 1 1 1 1 1 1 0.08999800024616833 1 0.090045710872295182 1 1 1 1 1 0.090096871898953212 1 1 1 1 1 1 1 1 1 1 1 1 1 1 1 1 1 1 1 1 0.089961152682880866 0.090209416006236109 1 0.089988860096164205 1 1 1 1 1 1 1 1 1 1 1 1 1 1 1 1 0.089998014074025329 1 1 1 0.090000248876270367 1 1 1 1 1 1 1 1 1 1 1 1 1 0.090051161026658055 1 1 1 1 1 1 1 1 1 1 1 1 1 1 1 1 1 1 1 1 1 1 0.090399732364016466 1 1 1 1 1 1 1 1 1 1 1 1 1 0.092062836577453039 1 0.090937407690207833 1 1 0.088806831173813577 0.095607915295218338 1 1 1 1 1 1 1 1 1 1 1 1 1 1 1 1 1 1 1 1 0.091176425818368573 1 1 0.10429206805186567 1 1 1 0.090096089598347515 1 1 1 1 1 1 0.10234988214951689 1 1 1 0.089682414408394515 1 1 1 1 1 1 1 1 0.089996472801269253 1 1 0.08548123071210062 1 1 0.095525884363270669 1 0.096291177438067643 1 1 1 1 0.088751482054973824 0.090471921411132875 1 1 0.090959789020781695 0.089653501711274439 1 1 0.087377256577417628 1 1 1 1 0.090852263903199573 1 1 0.087813058081849985 0.092788652572933977 1 0.089993581037256479 1 1 1 1 1 1 1 1 1 1 1 1 1 1 1 1 1 1 1 1 0.091053197743776848 1 1 1 1 0.090376402351053695 1 1 1 1 0.090132239918576343 0.091487564291937204 1 1 1 1 1 1 1 1 1 1 1 1 0.090498187166352606 1 1 1 0.094602350257899981 1 1 1 1 1 1 1 0.093540852481098835 1 1 1 0.090804268221424955 1 1 0.09029306293705136 0.090807540909793774 1 1 1 0.091996732618194757 1 1 1 0.090267377996851222 1 1 1 1 1 1 1 1 1 1 1 1 1 1 1 1 1 1 0.089983635149901681 1 1 1 1 1 1 1 1 1 1 1 1 1 1 1 1 1 1 0.090038848136371447 0.089943928084334657 1 1 1 1 1 0.08990842693906563 0.090108176217245539 1 0.089896221422548411 1 1 1 1 1 1 1 1 1 0.090201569267638143 1 1 1 0.089826371698463692 1 1 1 1 1 1 1 1 1 1 1 1 1 1 0.09123411201924958 1 1 1 1 1 1 1 0.089126289016795313 1 1 0.089466061548153938 1 1 1 1 1 1 0.094739194110099914 1 1 1 1 0.095237149216912176 1 1 1 1 1 1 0.090679344603570092 1 1 1 1 1 1 1 1 0.090025235691940861 0.094159120383290093 1 1 1 0.089736964415812123 0.092088694182960784 1 1 1 1 1 0.089916902824284967 1 1 1 1 1 1 0.090724997646418296 1 1 1 1 0.089897270635794779 1 1 1 1 1 0.09023162548017323 1 1 1 1 0.09115660712989801 1 1 1 1 1 1 1 1 1 1 1 1 1 1 1 1 1 1 1 1 1 1 1 1 1 0.090071344773402479 1 1 1 1 0.087719828031565167 1 0.095161948347571856 1 0.086992365571740518 1 1 0.095926198774929625 1 1 0.091590767338582707 1 1 0.089785315941306953 1 1 1 1 1 1 0.095567334373226509 1 1 0.09173467428482919 1 0.090452780516109554 0.090889140130930759 0.091347931337421612 1 1 0.08759671757352501 1 0.08993058612192105 0.088738990832157472 1 1 1 0.089892625010045191 1 0.090010686082371172 1 1 1 1 1 1 0.091527366517299619 1 1 1 0.089981035996287165 1 1 1 1 1 1 1 0.091924691404116896 1 1 1 0.089211259972815385 1 0.10103032736981601 0.0999902618323288 1 1 1 1 1 1 1 0.090107696951843924 1 1 1 1 1 1 1 1 0.090021430919445464 0.089826997027173908 1 1 1 1 0.089197301187186689 1 1 0.08941476985936582 1 1 1 0.089999887990414779 1 1 1 0.089344834149585564 0.09048357069562811 1 1 1 1 0.090042156499669485 1 1 1 1 1 0.089706577906708621 0.089644779894471907 1 1 1 1 1 1 1 1 1 1 1 1 1 1 1 1 1 1 1 1 1 1 1 1 1 1 1 1 1 1 1 0.090042097456179249 1 1 1 0.089981470236241048 1 1 1 1 1 1 1 1 1 1 1 1 1 1 1 0.090023574678821494 1 0.090083310259328045 0.089578424939435616 1 1 0.090021410684427455 1 1 1 1 1 1 1 1 1 1 1 1 1 1 1 1 1 1 1 1 1 1 1 0.090189051958808025 1 1 0.089640419171966884 0.089978103370176241 1 1 1 1 1 1 1 0.089830619639287346 1 1 1 0.090113149450833679 1 1 1 1 0.090025858698104741 0.090009004719088903 1 1 1 1 1 1 1 0.089412696532599492 1 1 1 1 0.089714408992830313 1 1 1 1 0.089968328339546211 1 1 1 1 1 1 1 1 1 1 1 1 1 1 1 1 1 1 1 0.09021723602954218 1 1 1 1 1 1 1 1 1 1 1 1 1 1 1 1 0.09073525531526791 1 1 1 0.090252193383159429 1 1 1 1 1 1 1 1 1 0.08993478934517081 1 1 1 1 1 1 1 1 1 1 1 1 1 1 1 1 1 1 1 1 1 0.089826095532928696 1 1 1 1 1 1 1 1 1 1 1 1 1 1 1 1 1 0.089485477665703569 1 1 1 1 1 0.090003198723250466 1 1 1 1 1 1 1 1 1 1 1 1 1 1 1 1 1 1 1 1 1 1 1 1 1 1 1 0.090073215986500768 1 1 0.094248000195223849 1 1 1 0.09442278675435066 1 1 1 1 1 1 1 1 1 1 1 1 1 1 1 0.098874987159643352 1 0.087913235146619112 1 1 1 1 1 1 1 1 1 0.09703390665780029 1 1 1 1 1 1 1 1 1 0.09109530341731735 0.09441892198769794 1 1 1 1 1 1 1 1 1 1 1 1 1 1 1 1 1 1 1 1 1 1 1 1 1 1 1 1 1 1 1 1 1 1 1 1 1 1 1 1 1 1 1 1 1 1 1 1 1 1 1 1 1 1 1 1 1 1 1 1 1 1 1 1 1 1 1 1 1 1 1 0.091229717948805772 1 1 1 1 1 1 0.093177825060410571 1 1 1 1 1 1 1 1 1 0.091438436551120911 1 0.093043410528922149 1 1 1 1 1 1 1 1 1 1 1 1 1 1 1 1 1 1 1 1 1 1 1 1 1 1 1 1 1 1 1 1 1 1 0.090279352296632226 1 1 1 0.08982834576470225 0.089794913268799681 1 1 1 1 1 1 1 1 1 1 1 1 1 1 1 1 1 1 1 1 1 1 0.090018544813205106 0.089375276674563825 1 1 1 1 1 1 1 1 0.089189802238841723 1 1 1 1 1 1 0.089067374506981101 1 1 1 1 1 0.090046569924239026 1 1 1 1 0.090009947608446925 1 1 1 0.098692365140884475 1 1 1 0.096724868939242231 1 1 0.093934370031091174 1 1 1 1 1 1 1 1 1 1 1 1 1 0.089936921904417585 1 1 1 1 1 1 1 1 0.090329745139844181 1 1 1 1 1 1 1 1 1 1 1 0.091951399829719976 1 1 1 0.090683427193448601 1 1 1 1 0.089799710902660687 1 1 1 1 1 1 1 1 0.08905874891495362 1 0.094258203190894202 1 1 0.088502893109447894 1 1 1 1 1 0.093878166591478171 1 1 1 1 1 1 1 1 1 1 1 1 0.090436923105727929 1 1 1 1 1 1 1 1 1 0.089451662365536061 1 1 1 1 1 1 0.09117973046716335 1 1 1 1 1 1 1 0.090611203548694633 1 1 1 1 1 0.091048126654422565 1 1 1 1 1 1 1 1 1 1 1 1 1 1 1 1 1 1 1 1 1 1 1 1 1 1 1 1 1 1 1 1 1 1 1 1 1 1 1 1 1 1 1 1 1 1 1 0.091163227253974466 1 0.092977619950440585 1 1 1 1 1 1 1 1 1 1 1 1 1 1 0.089810713943976966 1 1 1 1 1 1 1 1 1 1 1 1 1 1 1 0.09036900971603562 1 1 0.091187578226385707 1 0.091431975491519796 1 1 1 1 1 0.092446327875780526 1 1 1 1 1 1 1 1 1 1 1 1 1 1 1 1 1 1 1 1 0.096695669640549042 1 1 1 1 1 1 1 1 1 1 1 0.097363648440729991 1 0.089996330611434111 1 1 0.097856097480731652 1 0.084870856399315478 1 1 1 1 1 1 1 0.090048492710403549 1 0.10227895370413925 1 1 1 1 0.10471113218201697 1 1 1 1 0.089980114761708835 0.092842114627891492 1 1 0.098016169225772914 1 1 1 1 1 1 1 1 1 1 1 1 1 1 1 1 0.090936329135450134 1 1 1 1 1 1 1 1 1 1 1 1 1 1 0.092747581465541323 1 0.090037389129354897 1 1 1 1 1 1 1 0.10287641769068118 1 0.10724837455585431 1 1 1 1 1 1 1 1 1 0.090052652046812925 0.10120722536550804 1 1 1 0.10216097682228788 1 1 1 1 0.084359429891100554 1 0.095359240699696882 1 1 0.08928923539299892 1 0.075531533959869265 0.084257079933412221 0.088993807199171743 1 1 0.089990541249322514 1 1 1 0.079125533992804128 0.098002703364113264 0.094174771506871091 1 1 1 1 1 1 1 1 1 1 1 0.092716092729431723 1 1 1 1 1 1 0.10362294590638862 1 1 1 0.089698406209824694 1 1 1 1 1 1 1 1 0.091474979283761082 1 1 1 0.090472002821953446 1 1 1 1 1 1 1 1 1 1 1 1 1 1 1 1 1 1 1 1 1 1 1 1 1 1 1 1 1 1 1 1 1 1 1 1 1 1 1 1 1 1 1 1 1 1 1 1 1 1 1 1 1 1 1 1 1 1 1 1 0.089898734736309924 1 1 1 1 1 0.089488949980011293 1 1 1 1 0.089840665122612254 1 1 1 0.085994084026382922 1 1 1 1 1 1 1 1 1 1 1 1 1 1 1 1 1 1 1 1 1 1 1 1 1 1 1 1 1 1 1 1 1 1 1 1 1 1 1 1 0.090124172820613385 1 1 0.090333765426297841 1 1 1 1 1 1 1 0.089995087109694435 1 1 1 1 1 1 1 1 1 1 1 0.089984162416234637 1 1 0.090000605126465266 1 0.089732762435198787 1 1 1 0.090465533788860603 1 1 1 1 1 1 1 1 0.090031764519470162 1 1 1 1 0.090015936632458979 1 1 1 1 0.090720126442398102 1 0.089740873346640562 1 1 1 1 1 1 1 1 1 1 1 1 0.090644107453205419 1 0.09072139719344352 1 1 1 1 1 1 1 1 1 1 1 1 1 0.08993981492992352 1 1 1 1 1 1 1 1 1 0.089887589029428117 1 1 1 0.089947774099504621 1 1 1 1 1 1 1 1 1 1 1 1 1 1 1 1 1 1 1 1 1 1 1 1 1 1 1 1 1 1 1 1 1 1 1 0.089940296919706994 1 1 0.090007413393731389 1 1 1 1 0.090066844270542928 1 1 1 1 1 1 1 1 1 1 1 1 1 1 1 0.090105242326165652 1 1 1 1 1 1 1 1 1 0.090222048188000281 1 0.090081708278947292 1 1 1 1 1 1 1 0.090055615513987747 1 1 1 1 1 1 1 1 1 1 1 1 1 1 0.091665936284391958 1 1 1 1 1 1 1 1 1 1 1 0.094520474652906944 1 1 1 1 1 1 1 1 1 1 1 1 1 1 1 1 1 1 1 1 1 1 1 0.089881633470408839 1 0.090056965794119107 1 1 1 1 1 1 0.090234348059369973 1 0.091542247806973759 1 1 1 0.089010562049104278 1 1 1 0.095386605516135717 1 1 1 0.087765806205101687 1 1 0.093392445028893434 1 1 1 1 1 1 1 0.091150542289909806 1 1 1 1 1 1 1 0.096748887697179237 1 1 1 1 1 1 1 1 1 1 1 1 1 0.090774900883294263 1 1 1 1 1 1 1 1 0.09523498338201393 1 1 1 1 1 1 1 1 1 1 1 1 1 1 1 1 1 1 1 1 0.096490457724761364 1 1 1 1 1 1 1 1 1 1 1 1 1 1 1 1 1 1 1 1 1 1 1 1 1 1 1 1 1 1 1 1 1 1 1 1 1 1 1 1 1 1 1 1 1 1 1 1 1 1 0.090328756807434421 1 0.091948227300046981 1 1 1 0.089747513031213047 1 1 0.090010388800944682 0.092701550378373576 1 0.090877944446597247 1 1 1 1 1 1 1 1 1 1 1 1 1 1 1 1 1 1 1 1 1 1 1 1 1 1 1 1 1 1 1 1 1 1 1 0.090097495465398511 1 1 1 1 0.090267467700793774 1 1 0.055122799143241932 1 1 1 0.089956317909399508 1 1 1 1 0.090494635440940135 1 0.089992783266711049 0.089937666475912337 1 1 1 1 0.090018851125620691 1 1 1 0.090404225544306799 1 1 1 0.089942962280697453 1 1 1 1 1 1 0.090001270488126797 1 1 1 1 1 1 1 1 1 1 1 1 1 1 1 1 1 1 1 1 0.090212321867264522 1 1 1 1 1 1 1 1 1 1 1 1 1 1 1 1 1 1 0.090087616804797252 1 1 0.09023657367216531 1 1 0.091559377596231159 1 1 1 1 1 1 1 1 1 1 1 0.09035319508852685 1 1 1 1 0.090748871785557725 1 1 1 1 0.089696493957594339 1 1 1 0.090211705717076957 1 1 1 1 1 1 1 1 1 1 1 1 1 1 1 1 1 1 1 1 1 1 1 1 1 0.090038542914605418 1 1 1 1 1 1 1 1 0.090211734420688014 1 1 1 0.090444207011686609 1 1 1 1 1 1 1 1 1 1 1 1 1 1 1 1 1 1 1 1 1 1 1 1 0.088062710068860517 1 1 1 0.089794647953212681 1 1 1 1 1 1 1 1 0.088150643113508925 1 1 0.094386032349296656 1 1 1 1 0.091607340320800534 1 1 1 1 1 1 1 0.08912999605754951 1 0.09364493920681656 1 1 0.094971472329631906 1 1 0.088705875167462672 0.089990553327712802 1 1 1 1 1 1 1 1 1 1 1 1 1 1 1 1 1 1 1 1 1 0.089864085156981868 1 1 1 1 0.08955423249707839 1 1 1 1 1 1 1 1 1 1 1 1 1 0.089042554723372885 1 1 0.090032568205472577 1 1 1 1 1 1 1 1 1 1 1 1 1 1 1 1 1 1 1 1 1 1 1 1 1 1 1 1 1 1 1 1 1 1 1 1 1 1 1 1 1 1 1 1 1 1 1 1 1 1 1 1 1 1 1 1 1 1 1 1 1 1 1 1 1 1 1 1 1 1 1 1 1 1 1 1 1 1 1 1 1 1 1 1 1 1 1 1 1 1 1 1 1 1 1 1 1 1 1 1 1 1 1 1 1 1 1 1 1 1 1 1 1 1 1 1 1 1 1 1 1 1 1 1 1 1 1 1 0.091244127988019688 1 1 1 1 1 1 1 0.089797765427864801 1 1 1 1 1 1 1 1 1 0.089016970623376698 1 0.091835546381894728 1 1 1 0.091010343009946176 1 1 0.092122015041081043 1 1 1 1 1 1 1 1 1 1 1 1 1 1 1 1 1 1 1 1 1 1 1 1 1 1 1 1 1 1 1 1 1 1 1 1 1 0.091032144847664156 1 1 0.089985392516145096 0.093788777891579606 1 1 0.089798451278366442 1 1 0.091740131979852396 1 1 1 0.092381773474601914 1 1 1 1 1 1 1 1 1 0.092855064700410855 1 1 1 1 1 1 0.090692054428444427 1 1 1 1 1 1 1 1 1 1 1 1 1 1 1 1 1 1 1 1 1 1 1 1 1 1 1 1 1 1 1 0.088913332023746627 1 1 1 1 1 1 1 1 1 1 1 1 1 1 1 1 1 1 1 1 1 1 1 1 1 1 1 1 1 1 1 1 1 1 1 1 1 1 1 1 1 1 1 1 1 1 0.093138746594327665 1 0.094779676843857283 1 1 1 1 0.089909869074776091 1 1 1 1 0.097485825314847827 1 1 1 1 0.089874658496181523 1 1 1 1 1 1 1 1 0.096759795007428401 1 1 0.090009098244873603 1 0.089711159691617165 1 1 1 1 0.088556208375096535 1 1 0.098714329450315622 0.086921965909182372 1 1 1 1 1 1 0.090025210772615133 1 1 1 1 1 1 1 1 1 1 0.098693781754650378 0.089933242984967451 1 1 1 1 1 0.089876160404092534 1 1 0.098555157051088027 1 1 1 1 0.094271059648619149 1 1 0.090873622534048334 1 1 1 1 1 1 1 1 1 1 1 1 1 1 1 1 1 1 1 1 1 1 1 1 1 1 1 1 1 0.095380148470570816 1 0.092236600006924754 1 1 1 1 1 1 1 1 1 1 1 1 1 0.08999152791489258 1 1 1 1 0.091353125570211094 0.09017747446711874 1 1 1 1 1 1 1 1 1 1 1 1 1 1 1 1 1 1 1 1 1 1 1 1 1 1 1 1 1 1 1 1 1 1 1 1 1 1 1 1 1 1 0.089982668729977372 1 1 1 0.089991140815084747 1 1 1 1 1 1 1 1 1 1 1 1 1 1 1 1 1 1 1 1 0.091889614061592267 1 1 0.091591933462111183 1 1 1 1 1 1 1 1 1 0.091680814648256767 1 1 1 1 1 0.094168085853564593 1 1 1 1 1 0.090002266634199829 1 0.090000691866582799 1 1 1 1 1 1 1 1 1 1 1 1 1 0.088931812742275587 1 1 1 0.089862836910018049 0.093141832710400357 1 1 1 1 1 1 1 1 0.094043112377867485 1 1 0.092015570805683233 1 1 0.089954291045150875 0.090802360487672512 1 1 1 1 1 0.090992029053960269 1 1 1 1 1 1 1 0.090434015844679916 1 1 0.090823541276521619 0.091880921231512952 1 1 1 1 1 1 0.089927938361108517 0.090027441889297691 1 1 1 0.089983973634578746 1 1 1 1 1 1 1 0.089961206031358598 1 1 1 1 1 1 1 1 1 1 1 1 1 1 1 1 1 1 1 1 1 1 1 1 1 1 0.11174333001310857 1 1 1 1 1 1 1 0.089737919849541423 1 1 1 1 1 1 1 1 1 1 1 0.10614621170812333 1 1 1 1 1 1 1 1 0.088771620453992492 1 1 1 1 1 1 1 1 1 1 1 1 1 1 1 1 0.090802017147340292 1 1 1 0.089340656772175064 1 1 1 1 1 0.092938769654431236 1 1 1 1 1 1 1 1 1 1 1 1 1 1 0.090783126200454603 1 1 1 1 0.092186942084382509 1 1 0.093182663323296722 1 1 1 1 1 0.089909365896038929 1 1 1 1 1 1 1 1 1 1 1 1 1 1 0.089711358546422162 1 0.084538695226640787 1 1 1 0.095554000733751795 1 0.10312538664712381 1 0.080825826539525067 1 1 1 1 1 1 0.089964847411724322 0.11517240296671383 1 1 1 1 1 1 0.11306307836450473 1 0.089516762503569866 1 1 1 1 1 1 1 1 1 1 1 1 1 1 1 1 1 0.084420091040522963 1 1 1 0.089968885263246742 0.086421248975170478 1 1 1 1 1 0.087747798224222184 1 1 0.089950567450376231 0.089225640831376768 1 1 1 1 1 1 1 1 1 1 1 1 1 1 1 1 1 1 1 1 1 1 1 1 1 1 1 1 1 1 1 1 1 1 1 1 1 1 1 1 1 1 1 1 0.096891163911924483 1 1 0.088438171483819814 0.089458118504434095 0.089531075547267497 1 1 1 1 1 1 0.089926313432659333 1 1 1 1 1 1 1 1 1 0.089858239327945399 1 1 1 0.096266703298755085 1 1 1 1 1 1 1 1 1 1 1 1 1 1 1 1 1 1 1 1 0.094493712099123564 1 1 1 1 0.091619078622942052 1 1 1 1 1 1 1 1 1 1 1 1 1 1 1 1 1 1 1 1 1 1 1 1 1 1 1 1 1 1 1 1 1 1 0.091545716213576475 1 0.09060587211634813 1 1 1 1 1 1 1 1 0.091514785120296954 1 1 1 0.094613520267279649 1 0.090908913003948821 1 1 1 1 1 1 1 1 0.099475231085574281 1 1 1 1 0.092959687812442238 1 1 1 1 0.097449819107916169 1 1 1 1 1 1 1 0.097892132588550104 1 1 1 1 0.093510117534337106 1 1 1 1 1 1 1 1 1 1 1 1 1 1 1 1 1 1 1 1 1 1 1 1 1 1 1 1 1 1 1 1 1 1 1 1 1 1 1 1 1 1 1 1 1 1 0.090458927733093122 1 1 1 1 0.091973233730224979 0.093830930373723351 1 1 0.094529644360044449 0.090927192309191288 1 1 1 1 1 1 1 1 1 1 1 1 1 1 1 1 1 1 1 0.09056749374619566 1 1 1 0.091653996751353078 0.091103138115128435 1 1 1 1 1 1 1 1 1 1 1 1 1 1 1 1 1 1 1 1 1 1 1 1 1 1 1 0.090600791052134352 1 1 1 1 1 1 1 0.091030212526140464 1 1 1 1 1 1 1 1 1 1 1 1 1 1 1 0.091569378046639713 1 1 1 1 1 1 1 1 0.090526517139081775 1 0.090349308397114289 0.091347928178547769 1 1 1 1 1 1 1 1 1 1 1 1 0.08943096368181741 1 1 1 1 1 1 1 1 1 1 1 1 1 1 1 1 1 1 0.085893760864509019 1 1 1 0.085158147631230849 1 1 1 1 1 1 1 1 0.088327270424945689 1 1 1 1 1 1 1 1 1 1 1 1 1 1 1 0.089896177959187751 1 1 1 0.090132922439876459 1 1 1 1 1 1 1 1 1 1 1 1 1 1 1 1 1 1 1 1 1 1 1 1 1 1 1 1 1 1 1 1 1 0.091020942546008496 1 0.090420816767846288 1 1 1 1 1 1 1 1 0.089862188655535066 1 1 1 1 1 1 1 1 1 0.091603663230266294 1 1 0.088536275781630397 1 1 1 1 1 0.089223241556879385 1 1 1 1 0.090013878326703364 1 1 1 1 0.086662154732125643 1 1 1 0.086813249782528051 1 0.098018493099836485 1 1 0.098288478105035104 1 1 1 1 1 1 1 1 1 1 1 1 1 1 0.089824298324846549 1 1 0.091358537333829606 1 0.089744095611527908 1 1 1 0.093738823102301819 1 1 0.092339256379637802 1 1 1 1 0.099100051837163528 1 0.089163459035677933 1 1 1 1 1 1 0.089737015498082426 1 0.090249237403797061 1 1 1 1 1 0.089508749876074073 1 1 1 1 0.099768842710999742 1 1 1 1 1 1 0.088761753513737607 1 1 1 1 1 1 1 1 1 1 1 1 1 1 1 1 1 1 1 1 1 1 1 1 1 1 1 1 1 1 1 1 1 0.090085795168425908 0.089994213171209356 1 1 1 1 1 1 1 1 1 1 0.087721299837050251 1 1 0.10037239154442176 0.087740058192467899 1 0.089977739160743739 1 1 1 1 1 1 1 0.086833870981191802 1 1 1 1 1 1 1 1 1 1 1 1 0.092929278953696626 1 1 1 1 0.090970402268874276 1 1 1 1 1 1 1 1 1 1 1 1 0.093139979024001826 1 1 1 1 1 1 1 1 1 1 1 1 1 1 1 1 1 0.092343649198348435 1 1 1 1 1 0.090607926460522792 1 1 1 0.093159415085371344 1 1 1 1 1 1 0.092459278760401137 1 0.093743843168753851 1 1 1 0.091832969318805011 1 1 1 1 1 1 1 1 1 0.095201846518757419 1 1 0.089988657816567105 1 1 1 1 1 1 1 0.090979197474723703 1 1 1 1 1 1 1 1 1 1 1 1 1 0.089423878813720964 1 1 0.090880660053200335 1 1 1 1 1 1 0.09000050356915254 1 1 1 1 1 1 0.096672897580692488 1 1 1 1 1 1 1 0.099571986730374859 1 1 1 1 1 1 1 1 1 1 1 1 1 1 1 1 1 1 1 1 1 1 0.0911318585930736 1 1 1 1 1 1 1 1 1 1 0.085978143916859526 1 1 1 1 0.084157300625497089 0.095207867375459429 1 1 1 1 0.094071712385296491 1 1 1 1 1 1 1 1 1 0.092976670342274553 1 1 1 1 1 1 1 1 1 1 1 0.092579380248776044 1 1 1 0.089498799772932333 1 1 1 0.090840698363137851 1 1 1 1 1 1 1 1 1 1 1 1 0.08795717449181352 1 1 1 1 1 0.08998662145135744 1 1 0.089987103321643266 1 1 1 1 1 1 1 1 1 1 1 1 1 1 0.090810605631933453 1 1 1 1 1 1 1 0.091533894618081771 1 1 1 0.090583430993941616 1 1 1 1 1 0.090006783181278999 1 1 1 1 1 1 1 1 1 0.090006301310993159 1 1 1 1 1 1 1 1 0.088725603891048804 1 1 1 1 1 0.090343292548435303 1 1 1 1 1 1 1 0.09010710650939513 1 1 1 1 1 1 1 1 1 1 1 1 1 1 1 1 1 1 1 1 1 1 1 1 1 1 1 1 1 1 1 1 1 1 1 1 1 1 1 1 1 1 1 1 1 1 1 1 0.09167933379969391 1 1 1 1 1 1 1 0.091893603266950868 1 1 1 1 1 1 1 1 1 1 1 1 1 1 1 1 1 1 1 1 1 1 0.092664204214129159 0.089735254443444143 1 1 0.09514890575373583 0.087647534819460568 1 1 1 1 1 1 1 0.089207101450358692 1 1 1 1 1 1 1 1 1 1 1 1 1 1 0.093146441919994716 1 1 1 1 1 1 1 1 0.091547965918736526 1 1 0.090373042527550088 1 1 1 0.090620208996762569 1 1 1 1 1 1 1 1 1 1 1 1 1 1 1 1 1 1 1 1 1 1 1 1 1 1 1 1 0.093177036405841407 1 1 1 1 1 1 1 1 0.089778670953377104 1 1 1 1 1 1 0.098797304489008794 0.088848058181268133 1 1 1 1 0.089520086894349191 1 1 0.095285836357704337 1 1 0.094972824557369773 1 1 1 1 1 1 0.090193476518501792 1 1 1 1 1 1 1 1 0.090335363714736147 1 1 1 1 1 1 1 1 1 1 1 0.090775929852115286 1 1 0.090441091687999881 1 1 1 1 1 1 1 0.091110873014444052 1 1 1 0.090328314156566628 1 0.0898848299169899 1 0.090677642659554913 1 1 1 1 1 1 1 1 1 1 1 1 1 1 1 1 1 0.091132218464252901 1 0.089998782574590333 1 1 1 1 1 1 1 1 1 1 0.090933756453434572 1 1 1 1 1 1 1 0.09011406511032638 1 1 1 0.089994623221195835 1 0.091417194306640553 0.090330524926961489 1 1 0.085733153147325769 1 1 1 1 0.092180340662125243 1 1 1 0.09037250645968703 1 1 1 0.090877179941603922 1 0.090519279668215574 0.10015261018450874 1 1 1 1 1 1 0.089798370455366705 1 1 1 1 1 1 1 1 0.10024108780077037 0.089998756333223962 0.091554350634262774 1 0.10411067837389823 1 1 0.085992706133627389 0.089999937049157153 1 1 0.08665007360485856 1 1 1 1 1 1 1 1 1 1 1 0.090088647679190587 1 1 1 1 1 1 1 1 1 1 1 1 1 0.093733777809499055 0.09782241285711292 1 1 1 1 0.095168560640101846 1 1 1 0.090606231983994742 1 1 1 1 1 0.095432394854631453 0.090002540167969186 1 1 1 0.088901222550491918 1 1 1 1 1 1 1 1 1 1 1 1 1 1 1 0.090153559378565257 1 1 1 0.092011460240004631 1 1 1 0.090092342180755083 1 1 1 1 1 1 0.094760152079775575 1 1 1 1 1 0.094322870532620506 1 1 1 1 1 1 1 1 0.092289634670424822 1 1 1 1 1 1 1 1 1 0.090076278597572126 1 1 1 1 0.095615243904307756 1 0.089840994961600792 1 1 0.096581945596925609 1 0.089683738837645161 1 1 1 1 1 1 0.090179769274195964 1 0.0899730310552323 0.10194097891841748 1 1 1 1 1 1 1 1 0.085980172603358371 1 0.089929773764355084 1 0.089995824981973643 1 0.1023231863568896 1 1 1 1 1 1 1 1 1 1 1 0.090143945445405632 1 1 1 0.090336668706809481 1 1 1 1 1 1 1 1 0.090192723261403818 1 1 1 1 1 1 1 1 1 0.090061329034051479 1 1 1 1 0.0898377215676016 1 1 0.089526005568355688 1 1 1 1 1 1 1 1 1 0.089442422858800566 1 1 1 0.089343990027293069 1 1 1 1 1 1 1 1 1 1 1 1 1 1 1 1 1 1 1 0.089722951147748906 1 1 1 1 1 1 1 1 1 1 0.090257571022099303 1 1 1 1 1 1 1 1 1 1 1 1 1 1 1 1 1 1 1 1 1 1 1 1 1 1 1 1 1 1 1 1 1 1 1 1 1 1 1 1 1 1 1 1 1 0.10344632697595978 0.089854721337202265 1 1 1 1 1 1 1 1 1 1 1 1 1 0.11144350959494106 0.084614256744515393 1 1 1 0.085775906027216769 1 1 0.096715278522276696 1 1 1 0.09792766364247936 1 1 1 0.10355656690436618 1 1 1 1 1 1 1 1 0.088937840235196519 1 1 0.091534024206705367 1 0.098554696109934101 0.090783405429142205 1 1 1 1 1 1 0.10067839805160522 1 0.08838497493542502 0.090969792577019815 0.09017447811280635 1 1 0.093030441719921309 1 1 0.098071971014471279 0.098350896046294295 1 1 1 1 1 1 1 1 1 1 1 1 1 1 1 1 1 1 1 1 1 0.089914193183700822 1 1 1 1 1 1 1 1 1 0.090921112489785308 1 1 1 1 1 1 1 0.08916187954513799 0.089846369230378087 1 1 1 1 1 1 1 1 1 1 1 1 1 1 1 1 1 1 1 1 1 1 1 0.090784660741716927 1 0.089979147869703388 1 1 1 1 1 1 1 0.090733622239302397 1 1 1 0.092796103745686365 0.089321615395296455 1 1 0.089920005350577176 1 1 1 1 0.092824637147578881 1 1 1 0.09206212831108887 1 1 1 0.10911516801032328 1 1 1 1 1 1 1 1 1 0.11180342370818526 0.087473478752117112 1 1 1 1 1 0.096894859884225193 1 1 0.085239349902481193 0.099961264902077268 0.11204435769730091 1 1 1 1 1 0.088861546280666101 1 1 1 1 1 1 1 1 1 0.089627276360664782 1 0.089841657118589435 1 1 1 1 1 1 1 1 1 1 1 1 1 1 1 1 1 1 1 1 1 1 1 1 0.089939802093787713 1 1 1 1 0.088624604939008797 0.089836666780745381 1 1 1 0.088965797205829381 1 1 1 1 1 1 1 1 1 1 1 1 1 1 1 1 0.10173344704674669 1 1 1 0.090015634912833861 1 1 0.083773712259390648 1 1 1 1 1 1 1 1 1 1 1 1 1 0.089766367587059109 1 1 0.10069264062308353 1 1 1 0.085737146144374415 1 0.10639387573070881 1 0.090045207465424604 1 0.091226167204561795 0.10075365440575446 0.090011147397977276 1 1 1 1 1 1 1 1 0.089977269557750039 1 1 1 1 1 1 1 1 0.094822076024764085 1 1 0.089986963309977852 1 1 1 1 1 1 1 1 1 1 1 1 1 1 1 1 1 1 1 1 1 0.089195972600252429 1 1 1 1 1 1 1 1 1 1 0.089498279677556219 1 0.089070035639657208 1 1 0.089490665820368367 1 0.089264954971593688 1 0.09000018242487659 1 1 0.09001674061330675 1 0.097123819843838971 1 1 0.087757754295244447 1 1 1 0.089938801844587413 1 1 1 1 1 1 1 1 1 1 1 1 1 1 1 1 1 1 1 1 1 1 1 1 1 1 1 1 1 1 1 1 1 1 1 1 1 1 1 1 1 1 1 1 1 1 1 1 1 1 1 1 1 1 1 1 1 1 1 1 1 0.092224944329015415 1 1 0.099949870653347733 1 1 1 1 1 1 0.089728145971639139 0.093870364777210225 1 1 1 1 1 1 1 1 1 1 1 1 1 1 1 1 1 1 0.098019051382252254 1 1 1 0.090090136206754851 1 1 1 1 1 1 1 1 1 1 1 1 1 1 1 1 0.089960591175258259 1 1 1 1 1 1 1 0.097123676940257891 1 1 1 1 1 1 1 1 0.095242550629256795 1 0.090065525932837925 1 1 1 1 1 1 1 1 1 1 1 1 1 1 1 1 0.089999681273464471 1 1 1 1 1 1 1 0.089996199382974582 1 1 1 1 0.090006217962355251 1 1 1 1 1 1 1 0.090017539191626875 1 1 0.091114654893269226 0.090057586836714679 1 1 0.089278321174222908 1 1 1 1 1 1 0.089987149274724038 1 1 1 1 1 1 1 1 1 0.090052925808058848 1 1 0.090003384292447197 1 1 0.090001401558985575 1 1 0.091724404936878556 1 1 1 1 1 0.092299043169529749 1 1 1 1 1 1 1 1 0.090015006013108911 1 1 1 1 1 1 1 0.090020191719419329 1 1 1 1 1 1 1 1 1 1 1 1 0.089826836883977967 1 1 1 1 1 1 1 0.090051243135971293 0.089998620588538206 1 0.092300017683124083 1 0.091541140436490448 1 1 1 1 1 1 1 1 1 1 1 1 1 1 1 0.090002268860151863 1 0.091377064896415741 1 1 1 1 1 1 1 1 0.089473061179911398 1 0.090621882623324657 1 0.090786387598868895 1 0.089878537914717269 1 0.089992772889050929 1 1 0.090027763862402244 1 1 1 1 1 0.090100748483029375 1 1 1 1 1 1 1 1 0.089979844155747071 1 1 1 1 1 0.089938681988494723 1 1 0.092404234951136241 1 0.089588286734121281 0.090844303389426867 1 1 1 1 1 1 1 1 0.08999998484860719 1 1 1 1 1 1 1 1 1 1 1 1 1 0.089960317653939845 1 1 1 1 1 1 1 0.089999998291394365 1 1 1 0.089999997822486549 1 1 1 1 1 1 1 1 1 1 1 1 1 1 1 1 1 0.090060846738491449 1 1 1 1 1 1 1 0.090027746512499049 1 1 0.089996946773900161 1 1 1 1 1 1 1 1 1 1 1 1 1 1 1 0.09003119992376965 1 1 1 1 0.090005383723041149 1 1 1 1 1 1 1 1 1 1 1 1 1 1 1 1 1 1 1 1 1 1 1 1 1 0.09047773979372363 1 1 1 1 1 1 0.090001665357248309 1 1 1 1 1 1 1 1 1 0.091098153503960375 0.090243461715992512 1 1 1 0.090655890105982878 1 0.089988779153588924 1 1 1 1 1 1 1 1 1 1 1 1 1 1 1 0.090012368055760988 1 1 1 1 1 1 1 1 1 1 1 1 0.090007346116888709 0.090020737303122517 1 1 1 1 1 1 1 1 0.090015079177917734 1 1 0.090001309275502595 1 1 0.090254482039449399 0.089886654440836766 1 1 1 1 1 1 1 0.090079988560907806 1 1 1 1 1 1 1 1 1 0.09001339118623379 1 1 1 0.090387470037288323 1 1 1 1 1 0.090319603745974308 1 1 1 1 1 1 1 1 1 1 1 1 0.090297156506716297 1 1 1 0.090010616508904837 1 1 1 0.090005769757630014 1 1 1 1 1 1 1 1 1 1 1 1 1 1 1 1 1 1 1 1 1 1 1 1 1 1 1 1 1 1 1 1 0.089910699535740546 1 1 1 1 1 1 1 1 1 1 1 1 1 1 1 1 1 1 1 1 1 1 1 1 0.090057447049126785 1 0.090003774887441587 1 1 0.091327896421548399 1 1 1 1 1 1 1 1 1 0.090252213350648258 1 1 1 1 1 1 1 1 1 1 1 1 1 1 0.091141642082369509 1 1 1 1 0.090889577589280512 1 1 1 0.090367375723279506 1 1 1 1 1 1 1 1 1 1 1 1 1 1 1 1 1 1 1 1 1 1 1 1 1 1 1 1 1 1 1 1 1 1 1 1 1 1 1 1 1 1 1 1 1 1 1 1 1 1 1 1 1 1 1 1 1 1 1 1 1 1 1 1 1 1 1 1 1 1 1 1 1 1 1 1 1 1 1 1 1 1 1 1 1 1 1 1 1 1 1 1 1 1 1 1 1 1 1 1 1 1 1 1 1 1 1 1 1 1 1 1 1 1 1 1 1 1 1 1 1 1 1 1 1 1 1 1 1 1 1 1 1 1 1 1 1 1 1 1 1 1 1 1 1 1 1 1 1 1 1 1 1 1 1 1 1 1 1 1 1 1 1 1 1 1 1 1 1 1 1 1 1 1 1 1 1 1 1 1 1 1 1 1 1 1 1 1 1 0.092336506487279105 1 1 1 1 1 1 1 1 1 1 1 1 1 1 1 1 0.090713060000095561 1 1 1 1 1 1 1 1 0.10279698454888114 1 1 1 1 0.089604438360453759 1 1 1 1 1 1 1 1 1 1 1 1 1 1 1 1 1 1 1 1 1 1 0.090497017538292118 1 1 1 1 1 1 1 1 1 1 1 1 1 0.088568660380601627 0.09172166096796433 1 1 1 1 1 0.090287477793046481 1 0.099184112423071374 1 1 1 1 1 1 1 1 1 1 1 0.090271692304605078 1 1 1 1 1 1 1 0.12568012868943448 1 1 1 1 1 1 1 1 1 1 1 1 1 1 1 0.090245903096696597 0.12818228325262981 1 1 1 1 1 1 1 1 1 1 1 1 0.095575909797439018 1 1 1 1 1 1 1 1 1 1 1 1 1 1 1 1 0.091871986687262625 1 1 1 1 1 1 1 0.12921693804602366 1 1 1 1 1 1 1 1 1 1 0.089821135324345908 0.12606017501499489 1 1 1 1 1 1 1 1 1 1 1 1 1 1 1 1 1 1 1 1 1 1 1 1 1 1 1 1 1 1 0.090991175486459741 1 1 1 1 1 0.091011600815815913 1 1 1 1 1 1 1 1 1 1 0.090435655983559238 1 1 1 1 0.089996124332286681 1 1 1 1 1 1 1 1 1 1 0.090916252949710674 1 0.090340308117453985 1 1 1 1 1 1 1 1 1 1 1 1 1 1 1 1 1 1 1 1 1 1 1 1 1 1 1 1 1 1 1 0.090146077874539862 1 1 1 1 1 0.090391980971236463 1 1 1 1 1 1 1 1 1 1 1 1 1 1 1 1 1 1 0.090421447128332222 1 1 0.1197789726378497 1 1 1 0.090141551220574739 1 1 1 1 1 0.12296511390114501 1 1 1 1 1 1 1 1 1 1 0.095374935641523176 1 1 1 1 1 1 0.090324381384791985 1 1 1 1 1 0.079990197646373495 0.089745069506698583 1 1 0.10735442485030769 1 1 0.090323980819639368 1 1 1 1 1 1 1 1 1 1 0.091028707535977499 1 1 0.089861089868440977 1 1 0.090283122494745058 1 1 0.091265754130687396 1 1 0.090800567310682506 1 1 0.089879279669329903 1 1 1 1 1 1 0.090695261864990204 1 1 1 1 1 1 1 1 1 1 1 0.10714815234581319 1 1 1 1 1 1 1 0.090289917219118179 1 1 1 1 0.09051385042559458 1 1 1 0.10580837315011107 1 1 1 1 1 1 1 1 1 1 1 0.0915927372244148 1 1 1 1 1 1 1 1 1 1 1 1 1 1 1 1 1 1 1 1 1 1 1 1 0.090025218590389505 1 1 1 1 1 0.090120160681572442 1 1 1 1 1 1 1 1 1 1 1 1 1 1 0.092949988247317386 1 1 0.090755026468852293 1 0.097562043322378431 1 1 1 1 0.10213654684379317 1 0.089818949830307207 0.090199571807354079 1 0.092339391445667898 1 1 1 1 1 1 1 0.090007894380046763 1 0.092306950931803661 1 1 1 1 1 1 0.089407338479415094 1 1 1 1 1 1 0.090013535837575945 1 1 1 1 0.089985230287003087 1 1 1 1 1 0.090025722159542049 1 1 0.090443643787006256 1 1 1 1 0.089840797116065796 1 1 1 1 0.092138018672417804 1 1 1 1 1 1 0.089794289443016914 1 1 1 1 1 1 1 1 1 0.089990631023004239 1 1 1 1 1 1 0.09065648657853867 1 1 1 1 0.091871565754281889 1 1 1 1 1 1 1 1 1 1 1 1 1 1 1 1 0.090037084616944138 1 1 1 0.089726097616555978 1 1 0.094700515911827293 1 1 1 1 1 1 1 1 1 1 1 1 1 1 1 1 0.089822283788700857 1 0.093974388465018446 1 1 1 1 1 1 1 1 1 1 1 1 1 1 1 1 1 1 1 1 1 1 1 1 1 1 0.10164406116916089 1 1 0.093193958810313754 1 1 1 1 1 1 1 1 1 1 0.091876883734600373 1 1 1 1 0.089727960969460008 1 1 1 1 0.089905677180759147 1 1 1 1 1 1 1 1 1 0.091763053411628423 1 1 1 1 1 1 1 1 1 1 1 1 1 1 1 1 1 1 1 1 1 1 1 1 1 1 1 1 
</DataArray>
</CellData>
</Piece>
</UnstructuredGrid>
</VTKFile>
